<?xml version="1.0"?>
<VTKFile type="UnstructuredGrid" version="0.1" byte_order="LittleEndian">
<UnstructuredGrid>
<Piece NumberOfPoints="31434" NumberOfCells="11010">
<Points>
<DataArray type="Float64" NumberOfComponents="3" format="ascii">
-0.5 -0.5 0 -0.44207127893691361 -0.44661186867661518 0 -0.46650555671861921 -0.43215933576015159 0 -0.5 -0.5 0 -0.5 -0.41645358869357257 0 -0.46650555671861921 -0.43215933576015159 0 -0.5 -0.5 0 -0.44207127893691361 -0.44661186867661518 0 -0.3985604456371149 -0.45968649078593998 0 -0.5 -0.41645358869357257 0 -0.45437877764365608 -0.39720952244282448 0 -0.46650555671861921 -0.43215933576015159 0 -0.5 -0.41645358869357257 0 -0.47712702305940069 -0.37980279090385022 0 -0.5 -0.3554717095780705 0 -0.5 -0.41645358869357257 0 -0.47712702305940069 -0.37980279090385022 0 -0.45437877764365608 -0.39720952244282448 0 -0.47712702305940069 -0.37980279090385022 0 -0.45870721580702289 -0.37896124243867929 0 -0.45437877764365608 -0.39720952244282448 0 -0.45437877764365608 -0.39720952244282448 0 -0.43218510119287817 -0.39024395878024792 0 -0.45437877764365608 -0.39720952244282448 0 -0.43640953449749792 -0.41645286829564149 0 -0.43218510119287817 -0.39024395878024792 0 -0.45870721580702289 -0.37896124243867929 0 -0.45437877764365608 -0.39720952244282448 0 -0.43218510119287817 -0.39024395878024792 0 -0.45870721580702289 -0.37896124243867929 0 -0.43218510119287817 -0.39024395878024792 0 -0.44485312580113529 -0.36849041383979569 0 -0.45437877764365608 -0.39720952244282448 0 -0.46650555671861921 -0.43215933576015159 0 -0.43640953449749792 -0.41645286829564149 0 -0.44207127893691361 -0.44661186867661518 0 -0.46650555671861921 -0.43215933576015159 0 -0.43640953449749792 -0.41645286829564149 0 -0.44207127893691361 -0.44661186867661518 0 -0.43640953449749792 -0.41645286829564149 0 -0.40986968630193088 -0.42903485496367422 0 -0.43640953449749792 -0.41645286829564149 0 -0.40986968630193088 -0.42903485496367422 0 -0.41527567728444859 -0.40422605848494092 0 -0.40986968630193088 -0.42903485496367422 0 -0.41527567728444859 -0.40422605848494092 0 -0.39973317942544651 -0.41331412382939742 0 -0.43218510119287817 -0.39024395878024792 0 -0.44485312580113529 -0.36849041383979569 0 -0.41843677448093852 -0.36877603182403679 0 -0.43640953449749792 -0.41645286829564149 0 -0.43218510119287817 -0.39024395878024792 0 -0.41527567728444859 -0.40422605848494092 0 -0.41527567728444859 -0.40422605848494092 0 -0.40999142474210049 -0.38327839511767131 0 -0.40326418592949059 -0.39762201224450422 0 -0.43218510119287817 -0.39024395878024792 0 -0.41527567728444859 -0.40422605848494092 0 -0.40999142474210049 -0.38327839511767131 0 -0.43218510119287817 -0.39024395878024792 0 -0.40999142474210049 -0.38327839511767131 0 -0.43218510119287817 -0.39024395878024792 0 -0.40999142474210049 -0.38327839511767131 0 -0.41843677448093852 -0.36877603182403679 0 -0.40999142474210049 -0.38327839511767131 0 -0.39606310876164108 -0.38900308997113509 0 -0.38779774829132269 -0.3763128314550947 0 -0.40999142474210049 -0.38327839511767131 0 -0.38779774829132269 -0.3763128314550947 0 -0.39202042316074159 -0.36906164980827783 0 -0.40999142474210049 -0.38327839511767131 0 -0.38779774829132269 -0.3763128314550947 0 -0.40999142474210049 -0.38327839511767131 0 -0.39606310876164108 -0.38900308997113509 0 -0.40326418592949059 -0.39762201224450422 0 -0.41527567728444859 -0.40422605848494092 0 -0.40326418592949059 -0.39762201224450422 0 -0.39973317942544651 -0.41331412382939742 0 -0.40326418592949059 -0.39762201224450422 0 -0.39217901818048551 -0.40048294554677177 0 -0.39973317942544651 -0.41331412382939742 0 -0.39606310876164108 -0.38900308997113509 0 -0.39217901818048551 -0.40048294554677177 0 -0.38519442549941779 -0.38919816131986978 0 -0.39606310876164108 -0.38900308997113509 0 -0.40326418592949059 -0.39762201224450422 0 -0.39217901818048551 -0.40048294554677177 0 -0.39217901818048551 -0.40048294554677177 0 -0.37647375533617761 -0.40283702630238649 0 -0.38519442549941779 -0.38919816131986978 0 -0.37647375533617761 -0.40283702630238649 0 -0.38519442549941779 -0.38919816131986978 0 -0.37137247577989668 -0.38855020055113848 0 -0.38779774829132269 -0.3763128314550947 0 -0.36560407184054478 -0.36934726779251847 0 -0.37488312704920029 -0.38066116407694611 0 -0.39606310876164108 -0.38900308997113509 0 -0.38519442549941779 -0.38919816131986978 0 -0.38779774829132269 -0.3763128314550947 0 -0.38519442549941779 -0.38919816131986978 0 -0.37488312704920029 -0.38066116407694611 0 -0.37137247577989668 -0.38855020055113848 0 -0.38519442549941779 -0.38919816131986978 0 -0.38779774829132269 -0.3763128314550947 0 -0.37488312704920029 -0.38066116407694611 0 -0.40986968630193088 -0.42903485496367422 0 -0.3841722700262109 -0.42157329572555052 0 -0.39220673734266981 -0.43852804317244171 0 -0.39217901818048551 -0.40048294554677177 0 -0.39973317942544651 -0.41331412382939742 0 -0.3841722700262109 -0.42157329572555052 0 -0.40986968630193088 -0.42903485496367422 0 -0.39973317942544651 -0.41331412382939742 0 -0.3841722700262109 -0.42157329572555052 0 -0.37647375533617761 -0.40283702630238649 0 -0.3841722700262109 -0.42157329572555052 0 -0.36780195338745458 -0.41386650202690478 0 -0.39217901818048551 -0.40048294554677177 0 -0.37647375533617761 -0.40283702630238649 0 -0.3841722700262109 -0.42157329572555052 0 -0.3841722700262109 -0.42157329572555052 0 -0.37622454740542211 -0.44381753121460182 0 -0.39220673734266981 -0.43852804317244171 0 -0.5 -0.5 0 -0.3985604456371149 -0.45968649078593998 0 -0.38001839990558578 -0.5 0 -0.37622454740542211 -0.44381753121460182 0 -0.39220673734266981 -0.43852804317244171 0 -0.3985604456371149 -0.45968649078593998 0 -0.37622454740542211 -0.44381753121460182 0 -0.3985604456371149 -0.45968649078593998 0 -0.35991803792309313 -0.46288504522957741 0 -0.40986968630193088 -0.42903485496367422 0 -0.39220673734266981 -0.43852804317244171 0 -0.3985604456371149 -0.45968649078593998 0 -0.3985604456371149 -0.45968649078593998 0 -0.38001839990558578 -0.5 0 -0.35991803792309313 -0.46288504522957741 0 -0.44207127893691361 -0.44661186867661518 0 -0.40986968630193088 -0.42903485496367422 0 -0.3985604456371149 -0.45968649078593998 0 -0.45418930477229102 -0.26659737814071499 0 -0.43309198030049539 -0.25372594078729771 0 -0.45776820485501402 -0.24168441926058409 0 -0.44059230514221209 -0.28028307485966131 0 -0.45418930477229102 -0.26659737814071499 0 -0.43309198030049539 -0.25372594078729771 0 -0.44059230514221209 -0.28028307485966131 0 -0.45418930477229102 -0.26659737814071499 0 -0.45290240820352368 -0.28506682612547429 0 -0.45418930477229102 -0.26659737814071499 0 -0.46881414978114261 -0.27742822002170853 0 -0.45290240820352368 -0.28506682612547429 0 -0.45418930477229102 -0.26659737814071499 0 -0.4754602138998667 -0.25818553091138791 0 -0.46881414978114261 -0.27742822002170853 0 -0.45418930477229102 -0.26659737814071499 0 -0.4754602138998667 -0.25818553091138791 0 -0.45776820485501402 -0.24168441926058409 0 -0.4754602138998667 -0.25818553091138791 0 -0.5 -0.25260159032666712 0 -0.48076974558635038 -0.2393307241689957 0 -0.4754602138998667 -0.25818553091138791 0 -0.5 -0.25260159032666712 0 -0.50000000000000033 -0.27846709257732061 0 -0.4754602138998667 -0.25818553091138791 0 -0.50000000000000033 -0.27846709257732061 0 -0.46881414978114261 -0.27742822002170853 0 -0.46881414978114261 -0.27742822002170853 0 -0.48112261836320308 -0.29047493108051892 0 -0.46224523672640577 -0.30248276958371689 0 -0.48112261836320308 -0.29047493108051892 0 -0.46224523672640577 -0.30248276958371689 0 -0.50000000000000033 -0.27846709257732061 0 -0.48112261836320308 -0.29047493108051892 0 -0.48004840456285902 -0.31306386609292891 0 -0.50000000000000033 -0.27846709257732061 0 -0.46881414978114261 -0.27742822002170853 0 -0.48112261836320308 -0.29047493108051892 0 -0.50000000000000033 -0.27846709257732061 0 -0.48112261836320308 -0.29047493108051892 0 -0.46224523672640577 -0.30248276958371689 0 -0.46409436510767138 -0.31793228146620939 0 -0.48004840456285902 -0.31306386609292891 0 -0.48112261836320308 -0.29047493108051892 0 -0.46224523672640577 -0.30248276958371689 0 -0.48004840456285902 -0.31306386609292891 0 -0.46881414978114261 -0.27742822002170853 0 -0.46224523672640577 -0.30248276958371689 0 -0.45290240820352368 -0.28506682612547429 0 -0.46224523672640577 -0.30248276958371689 0 -0.45290240820352368 -0.28506682612547429 0 -0.44740480145474798 -0.29999466993270768 0 -0.44059230514221209 -0.28028307485966131 0 -0.44740480145474798 -0.29999466993270768 0 -0.43261627662862778 -0.29721461734456461 0 -0.44059230514221209 -0.28028307485966131 0 -0.45290240820352368 -0.28506682612547429 0 -0.44740480145474798 -0.29999466993270768 0 -0.4390087893423002 -0.30546657027058099 0 -0.44740480145474798 -0.29999466993270768 0 -0.43261627662862778 -0.29721461734456461 0 -0.46224523672640577 -0.30248276958371689 0 -0.44921478769649809 -0.3188336058496275 0 -0.44336785508960852 -0.31449060808691498 0 -0.46224523672640577 -0.30248276958371689 0 -0.44336785508960852 -0.31449060808691498 0 -0.46224523672640577 -0.30248276958371689 0 -0.44740480145474798 -0.29999466993270768 0 -0.44336785508960852 -0.31449060808691498 0 -0.4390087893423002 -0.30546657027058099 0 -0.44336785508960852 -0.31449060808691498 0 -0.43198606058649469 -0.30914922671724332 0 -0.4390087893423002 -0.30546657027058099 0 -0.44740480145474798 -0.29999466993270768 0 -0.44336785508960852 -0.31449060808691498 0 -0.50000000000000033 -0.27846709257732061 0 -0.48004840456285902 -0.31306386609292891 0 -0.5 -0.3554717095780705 0 -0.44921478769649809 -0.3188336058496275 0 -0.4313312431852574 -0.32410224501703577 0 -0.44921478769649809 -0.3188336058496275 0 -0.44534905651039502 -0.33962665608065712 0 -0.4313312431852574 -0.32410224501703577 0 -0.44921478769649809 -0.3188336058496275 0 -0.44336785508960852 -0.31449060808691498 0 -0.4313312431852574 -0.32410224501703577 0 -0.44921478769649809 -0.3188336058496275 0 -0.44534905651039502 -0.33962665608065712 0 -0.45814842966520442 -0.33288023040805931 0 -0.44534905651039502 -0.33962665608065712 0 -0.4313312431852574 -0.32410224501703577 0 -0.44534905651039502 -0.33962665608065712 0 -0.43500294762897718 -0.35031952493396012 0 -0.43289828575564981 -0.33677819798005543 0 -0.44534905651039502 -0.33962665608065712 0 -0.45814842966520442 -0.33288023040805931 0 -0.4593668698355326 -0.35515106714427841 0 -0.45814842966520442 -0.33288023040805931 0 -0.47282820717987412 -0.33355441227173738 0 -0.4593668698355326 -0.35515106714427841 0 -0.45814842966520442 -0.33288023040805931 0 -0.46409436510767138 -0.31793228146620939 0 -0.47282820717987412 -0.33355441227173738 0 -0.46224523672640577 -0.30248276958371689 0 -0.44921478769649809 -0.3188336058496275 0 -0.46409436510767138 -0.31793228146620939 0 -0.44921478769649809 -0.3188336058496275 0 -0.45814842966520442 -0.33288023040805931 0 -0.46409436510767138 -0.31793228146620939 0 -0.48004840456285902 -0.31306386609292891 0 -0.47282820717987412 -0.33355441227173738 0 -0.5 -0.3554717095780705 0 -0.46409436510767138 -0.31793228146620939 0 -0.48004840456285902 -0.31306386609292891 0 -0.47282820717987412 -0.33355441227173738 0 -0.47282820717987412 -0.33355441227173738 0 -0.5 -0.3554717095780705 0 -0.4593668698355326 -0.35515106714427841 0 -0.47712702305940069 -0.37980279090385022 0 -0.5 -0.3554717095780705 0 -0.4593668698355326 -0.35515106714427841 0 -0.47712702305940069 -0.37980279090385022 0 -0.45870721580702289 -0.37896124243867929 0 -0.4593668698355326 -0.35515106714427841 0 -0.45870721580702289 -0.37896124243867929 0 -0.4593668698355326 -0.35515106714427841 0 -0.44485312580113529 -0.36849041383979569 0 -0.4593668698355326 -0.35515106714427841 0 -0.44485312580113529 -0.36849041383979569 0 -0.43500294762897718 -0.35031952493396012 0 -0.44534905651039502 -0.33962665608065712 0 -0.4593668698355326 -0.35515106714427841 0 -0.43500294762897718 -0.35031952493396012 0 -0.44534905651039502 -0.33962665608065712 0 -0.4593668698355326 -0.35515106714427841 0 -0.44485312580113529 -0.36849041383979569 0 -0.42542714956165018 -0.3598242526071464 0 -0.43500294762897718 -0.35031952493396012 0 -0.44485312580113529 -0.36849041383979569 0 -0.41843677448093852 -0.36877603182403679 0 -0.44485312580113529 -0.36849041383979569 0 -0.42542714956165018 -0.3598242526071464 0 -0.41843677448093852 -0.36877603182403679 0 -0.43500294762897718 -0.35031952493396012 0 -0.41567927327036519 -0.35169111967493127 0 -0.42130932470166599 -0.34042931313331631 0 -0.42542714956165018 -0.3598242526071464 0 -0.43500294762897718 -0.35031952493396012 0 -0.41567927327036519 -0.35169111967493127 0 -0.42542714956165018 -0.3598242526071464 0 -0.41567927327036519 -0.35169111967493127 0 -0.41316362662683498 -0.35984417276300801 0 -0.41567927327036519 -0.35169111967493127 0 -0.40773569368385221 -0.34218921930530721 0 -0.42130932470166599 -0.34042931313331631 0 -0.41567927327036519 -0.35169111967493127 0 -0.40503155782772571 -0.34915308809962042 0 -0.40773569368385221 -0.34218921930530721 0 -0.41567927327036519 -0.35169111967493127 0 -0.41316362662683498 -0.35984417276300801 0 -0.40603259083158549 -0.35570926230638861 0 -0.41567927327036519 -0.35169111967493127 0 -0.40603259083158549 -0.35570926230638861 0 -0.40503155782772571 -0.34915308809962042 0 -0.41316362662683498 -0.35984417276300801 0 -0.40010479702318841 -0.36297454332499662 0 -0.40603259083158549 -0.35570926230638861 0 -0.41316362662683498 -0.35984417276300801 0 -0.41843677448093852 -0.36877603182403679 0 -0.40010479702318841 -0.36297454332499662 0 -0.40999142474210049 -0.38327839511767131 0 -0.41843677448093852 -0.36877603182403679 0 -0.39202042316074159 -0.36906164980827783 0 -0.42542714956165018 -0.3598242526071464 0 -0.41316362662683498 -0.35984417276300801 0 -0.41843677448093852 -0.36877603182403679 0 -0.41843677448093852 -0.36877603182403679 0 -0.39202042316074159 -0.36906164980827783 0 -0.41843677448093852 -0.36877603182403679 0 -0.40010479702318841 -0.36297454332499662 0 -0.39202042316074159 -0.36906164980827783 0 -0.40010479702318841 -0.36297454332499662 0 -0.39202042316074159 -0.36906164980827783 0 -0.39249043188578958 -0.35630885434027793 0 -0.38779774829132269 -0.3763128314550947 0 -0.39202042316074159 -0.36906164980827783 0 -0.36560407184054478 -0.36934726779251847 0 -0.39202042316074159 -0.36906164980827783 0 -0.37873637359729517 -0.36218700262649711 0 -0.36560407184054478 -0.36934726779251847 0 -0.39202042316074159 -0.36906164980827783 0 -0.36560407184054478 -0.36934726779251847 0 -0.38779774829132269 -0.3763128314550947 0 -0.36560407184054478 -0.36934726779251847 0 -0.39202042316074159 -0.36906164980827783 0 -0.38589992503989878 -0.36001844821327272 0 -0.39249043188578958 -0.35630885434027793 0 -0.39202042316074159 -0.36906164980827783 0 -0.38589992503989878 -0.36001844821327272 0 -0.37873637359729517 -0.36218700262649711 0 -0.38997967094655078 -0.34889844443113688 0 -0.39744954482463069 -0.34397589675208612 0 -0.38090197294416978 -0.33895912242235171 0 -0.38589992503989878 -0.36001844821327272 0 -0.37873637359729517 -0.36218700262649711 0 -0.38035247151576868 -0.35251628607803809 0 -0.37873637359729517 -0.36218700262649711 0 -0.38035247151576868 -0.35251628607803809 0 -0.36867396963580851 -0.35884638173250472 0 -0.38035247151576868 -0.35251628607803809 0 -0.38997967094655078 -0.34889844443113688 0 -0.39249043188578958 -0.35630885434027793 0 -0.38589992503989878 -0.36001844821327272 0 -0.38035247151576868 -0.35251628607803809 0 -0.39249043188578958 -0.35630885434027793 0 -0.38035247151576868 -0.35251628607803809 0 -0.38997967094655078 -0.34889844443113688 0 -0.38090197294416978 -0.33895912242235171 0 -0.38997967094655078 -0.34889844443113688 0 -0.39744954482463069 -0.34397589675208612 0 -0.39870393356239547 -0.35273206256293099 0 -0.40010479702318841 -0.36297454332499662 0 -0.39249043188578958 -0.35630885434027793 0 -0.39870393356239547 -0.35273206256293099 0 -0.38997967094655078 -0.34889844443113688 0 -0.39249043188578958 -0.35630885434027793 0 -0.39870393356239547 -0.35273206256293099 0 -0.40010479702318841 -0.36297454332499662 0 -0.39870393356239547 -0.35273206256293099 0 -0.40603259083158549 -0.35570926230638861 0 -0.39870393356239547 -0.35273206256293099 0 -0.40603259083158549 -0.35570926230638861 0 -0.40503155782772571 -0.34915308809962042 0 -0.39744954482463069 -0.34397589675208612 0 -0.40503155782772571 -0.34915308809962042 0 -0.40773569368385221 -0.34218921930530721 0 -0.39744954482463069 -0.34397589675208612 0 -0.39870393356239547 -0.35273206256293099 0 -0.40503155782772571 -0.34915308809962042 0 -0.39744954482463069 -0.34397589675208612 0 -0.40204594247464392 -0.33457782228209149 0 -0.38090197294416978 -0.33895912242235171 0 -0.40284601498951322 -0.33249422731508282 0 -0.38090197294416978 -0.33895912242235171 0 -0.38984421046966078 -0.32491156040015901 0 -0.40284601498951322 -0.33249422731508282 0 -0.38090197294416978 -0.33895912242235171 0 -0.40284601498951322 -0.33249422731508282 0 -0.40204594247464392 -0.33457782228209149 0 -0.40773569368385221 -0.34218921930530721 0 -0.39744954482463069 -0.34397589675208612 0 -0.40204594247464392 -0.33457782228209149 0 -0.40773569368385221 -0.34218921930530721 0 -0.40284601498951322 -0.33249422731508282 0 -0.40204594247464392 -0.33457782228209149 0 -0.38090197294416978 -0.33895912242235171 0 -0.40284601498951322 -0.33249422731508282 0 -0.40204594247464392 -0.33457782228209149 0 -0.38090197294416978 -0.33895912242235171 0 -0.38984421046966078 -0.32491156040015901 0 -0.36545671267196189 -0.32567019704165628 0 -0.38984421046966078 -0.32491156040015901 0 -0.38485400937221931 -0.30930465789366862 0 -0.36545671267196189 -0.32567019704165628 0 -0.40284601498951322 -0.33249422731508282 0 -0.38984421046966078 -0.32491156040015901 0 -0.39753518190840692 -0.31507892862686632 0 -0.40284601498951322 -0.33249422731508282 0 -0.39753518190840692 -0.31507892862686632 0 -0.41360613868667939 -0.30447209286712013 0 -0.38984421046966078 -0.32491156040015901 0 -0.39753518190840692 -0.31507892862686632 0 -0.38485400937221931 -0.30930465789366862 0 -0.40284601498951322 -0.33249422731508282 0 -0.4313312431852574 -0.32410224501703577 0 -0.41360613868667939 -0.30447209286712013 0 -0.40284601498951322 -0.33249422731508282 0 -0.41360613868667939 -0.30447209286712013 0 -0.40284601498951322 -0.33249422731508282 0 -0.42130932470166599 -0.34042931313331631 0 -0.4313312431852574 -0.32410224501703577 0 -0.40284601498951322 -0.33249422731508282 0 -0.40773569368385221 -0.34218921930530721 0 -0.42130932470166599 -0.34042931313331631 0 -0.40284601498951322 -0.33249422731508282 0 -0.4313312431852574 -0.32410224501703577 0 -0.42130932470166599 -0.34042931313331631 0 -0.43289828575564981 -0.33677819798005543 0 -0.4313312431852574 -0.32410224501703577 0 -0.43500294762897718 -0.35031952493396012 0 -0.42130932470166599 -0.34042931313331631 0 -0.43289828575564981 -0.33677819798005543 0 -0.44534905651039502 -0.33962665608065712 0 -0.43289828575564981 -0.33677819798005543 0 -0.4313312431852574 -0.32410224501703577 0 -0.4313312431852574 -0.32410224501703577 0 -0.43198606058649469 -0.30914922671724332 0 -0.41360613868667939 -0.30447209286712013 0 -0.4313312431852574 -0.32410224501703577 0 -0.41360613868667939 -0.30447209286712013 0 -0.44336785508960852 -0.31449060808691498 0 -0.4313312431852574 -0.32410224501703577 0 -0.43198606058649469 -0.30914922671724332 0 -0.43198606058649469 -0.30914922671724332 0 -0.43261627662862778 -0.29721461734456461 0 -0.41360613868667939 -0.30447209286712013 0 -0.4390087893423002 -0.30546657027058099 0 -0.43198606058649469 -0.30914922671724332 0 -0.43261627662862778 -0.29721461734456461 0 -0.44059230514221209 -0.28028307485966131 0 -0.43261627662862778 -0.29721461734456461 0 -0.42334905949358742 -0.27909901682720889 0 -0.43261627662862778 -0.29721461734456461 0 -0.41360613868667939 -0.30447209286712013 0 -0.42334905949358742 -0.27909901682720889 0 -0.41360613868667939 -0.30447209286712013 0 -0.42334905949358742 -0.27909901682720889 0 -0.41360613868667939 -0.30447209286712013 0 -0.40410053446231459 -0.29394485128069481 0 -0.42334905949358742 -0.27909901682720889 0 -0.41360613868667939 -0.30447209286712013 0 -0.40410053446231459 -0.29394485128069481 0 -0.39753518190840692 -0.31507892862686632 0 -0.41360613868667939 -0.30447209286712013 0 -0.39836981586825793 -0.30296181031676639 0 -0.39836981586825793 -0.30296181031676639 0 -0.38485400937221931 -0.30930465789366862 0 -0.39170898073117649 -0.29306194096178467 0 -0.41360613868667939 -0.30447209286712013 0 -0.39836981586825793 -0.30296181031676639 0 -0.40410053446231459 -0.29394485128069481 0 -0.39753518190840692 -0.31507892862686632 0 -0.39836981586825793 -0.30296181031676639 0 -0.38485400937221931 -0.30930465789366862 0 -0.38485400937221931 -0.30930465789366862 0 -0.37765744659524292 -0.28858555568698241 0 -0.36698291974902519 -0.30569683971974793 0 -0.38485400937221931 -0.30930465789366862 0 -0.37765744659524292 -0.28858555568698241 0 -0.39170898073117649 -0.29306194096178467 0 -0.37765744659524292 -0.28858555568698241 0 -0.39170898073117649 -0.29306194096178467 0 -0.39317737530394781 -0.27969865243456637 0 -0.40410053446231459 -0.29394485128069481 0 -0.39317737530394781 -0.27969865243456637 0 -0.40900256428828052 -0.27048537855282839 0 -0.39170898073117649 -0.29306194096178467 0 -0.40410053446231459 -0.29394485128069481 0 -0.39317737530394781 -0.27969865243456637 0 -0.39836981586825793 -0.30296181031676639 0 -0.39170898073117649 -0.29306194096178467 0 -0.40410053446231459 -0.29394485128069481 0 -0.39317737530394781 -0.27969865243456637 0 -0.39719625153962301 -0.26256890127640892 0 -0.40900256428828052 -0.27048537855282839 0 -0.39317737530394781 -0.27969865243456637 0 -0.38075482745684808 -0.26515103607066409 0 -0.39719625153962301 -0.26256890127640892 0 -0.37765744659524292 -0.28858555568698241 0 -0.39317737530394781 -0.27969865243456637 0 -0.38075482745684808 -0.26515103607066409 0 -0.38075482745684808 -0.26515103607066409 0 -0.36569898431644549 -0.24509394484435121 0 -0.3903351089779068 -0.2441590299362178 0 -0.38075482745684808 -0.26515103607066409 0 -0.39719625153962301 -0.26256890127640892 0 -0.3903351089779068 -0.2441590299362178 0 -0.39719625153962301 -0.26256890127640892 0 -0.40909065256511068 -0.25244936046849531 0 -0.40900256428828052 -0.27048537855282839 0 -0.39719625153962301 -0.26256890127640892 0 -0.40909065256511068 -0.25244936046849531 0 -0.3903351089779068 -0.2441590299362178 0 -0.40909065256511068 -0.25244936046849531 0 -0.40900256428828052 -0.27048537855282839 0 -0.43309198030049539 -0.25372594078729771 0 -0.40900256428828052 -0.27048537855282839 0 -0.42334905949358742 -0.27909901682720889 0 -0.43309198030049539 -0.25372594078729771 0 -0.40410053446231459 -0.29394485128069481 0 -0.40900256428828052 -0.27048537855282839 0 -0.42334905949358742 -0.27909901682720889 0 -0.44059230514221209 -0.28028307485966131 0 -0.42334905949358742 -0.27909901682720889 0 -0.43309198030049539 -0.25372594078729771 0 -0.42334905949358742 -0.27909901682720889 0 -0.43309198030049539 -0.25372594078729771 0 -0.321099140629927 -0.25778998348124121 0 -0.33897913800685481 -0.27645706956966998 0 -0.31662300572011293 -0.28581334973243039 0 -0.321099140629927 -0.25778998348124121 0 -0.31662300572011293 -0.28581334973243039 0 -0.30259596941082578 -0.2646717726439447 0 -0.321099140629927 -0.25778998348124121 0 -0.33897913800685481 -0.27645706956966998 0 -0.34308423771481489 -0.25286804080927311 0 -0.34308423771481489 -0.25286804080927311 0 -0.3604637980079225 -0.27080013224545862 0 -0.36569898431644549 -0.24509394484435121 0 -0.38075482745684808 -0.26515103607066409 0 -0.3604637980079225 -0.27080013224545862 0 -0.36569898431644549 -0.24509394484435121 0 -0.37765744659524292 -0.28858555568698241 0 -0.38075482745684808 -0.26515103607066409 0 -0.3604637980079225 -0.27080013224545862 0 -0.33897913800685481 -0.27645706956966998 0 -0.34308423771481489 -0.25286804080927311 0 -0.3604637980079225 -0.27080013224545862 0 -0.33897913800685481 -0.27645706956966998 0 -0.3604637980079225 -0.27080013224545862 0 -0.3554968383446615 -0.29175543709653862 0 -0.33897913800685481 -0.27645706956966998 0 -0.3554968383446615 -0.29175543709653862 0 -0.33715855582248472 -0.30140189467752609 0 -0.37765744659524292 -0.28858555568698241 0 -0.3604637980079225 -0.27080013224545862 0 -0.3554968383446615 -0.29175543709653862 0 -0.37765744659524292 -0.28858555568698241 0 -0.3554968383446615 -0.29175543709653862 0 -0.36698291974902519 -0.30569683971974793 0 -0.3554968383446615 -0.29175543709653862 0 -0.36698291974902519 -0.30569683971974793 0 -0.35236669358211808 -0.31154626346242281 0 -0.3554968383446615 -0.29175543709653862 0 -0.35236669358211808 -0.31154626346242281 0 -0.33715855582248472 -0.30140189467752609 0 -0.33897913800685481 -0.27645706956966998 0 -0.33715855582248472 -0.30140189467752609 0 -0.31662300572011293 -0.28581334973243039 0 -0.31662300572011293 -0.28581334973243039 0 -0.31926223103860762 -0.3157962316138388 0 -0.30414616904491509 -0.30209956029332691 0 -0.33715855582248472 -0.30140189467752609 0 -0.31662300572011293 -0.28581334973243039 0 -0.31926223103860762 -0.3157962316138388 0 -0.31926223103860762 -0.3157962316138388 0 -0.31379147449542749 -0.33527081593005692 0 -0.32958179921072428 -0.33716446382213872 0 -0.31379147449542749 -0.33527081593005692 0 -0.32958179921072428 -0.33716446382213872 0 -0.32079155162462047 -0.35442159245446092 0 -0.32958179921072428 -0.33716446382213872 0 -0.34114053006363099 -0.32542092917278542 0 -0.34549111918857589 -0.3401883011248002 0 -0.32958179921072428 -0.33716446382213872 0 -0.34549111918857589 -0.3401883011248002 0 -0.33701388885348321 -0.35188891263688998 0 -0.33715855582248472 -0.30140189467752609 0 -0.31926223103860762 -0.3157962316138388 0 -0.34114053006363099 -0.32542092917278542 0 -0.35236669358211808 -0.31154626346242281 0 -0.33715855582248472 -0.30140189467752609 0 -0.34114053006363099 -0.32542092917278542 0 -0.31926223103860762 -0.3157962316138388 0 -0.32958179921072428 -0.33716446382213872 0 -0.34114053006363099 -0.32542092917278542 0 -0.35236669358211808 -0.31154626346242281 0 -0.34114053006363099 -0.32542092917278542 0 -0.36545671267196189 -0.32567019704165628 0 -0.38485400937221931 -0.30930465789366862 0 -0.36698291974902519 -0.30569683971974793 0 -0.36545671267196189 -0.32567019704165628 0 -0.36698291974902519 -0.30569683971974793 0 -0.35236669358211808 -0.31154626346242281 0 -0.36545671267196189 -0.32567019704165628 0 -0.38090197294416978 -0.33895912242235171 0 -0.36545671267196189 -0.32567019704165628 0 -0.35895793089882649 -0.34542401752962082 0 -0.38090197294416978 -0.33895912242235171 0 -0.35895793089882649 -0.34542401752962082 0 -0.34114053006363099 -0.32542092917278542 0 -0.36545671267196189 -0.32567019704165628 0 -0.34549111918857589 -0.3401883011248002 0 -0.36545671267196189 -0.32567019704165628 0 -0.34549111918857589 -0.3401883011248002 0 -0.35895793089882649 -0.34542401752962082 0 -0.35755769945724802 -0.35831808260103581 0 -0.34619200462194671 -0.36325472200213271 0 -0.33701388885348321 -0.35188891263688998 0 -0.35755769945724802 -0.35831808260103581 0 -0.35895793089882649 -0.34542401752962082 0 -0.33701388885348321 -0.35188891263688998 0 -0.35895793089882649 -0.34542401752962082 0 -0.33701388885348321 -0.35188891263688998 0 -0.34549111918857589 -0.3401883011248002 0 -0.35895793089882649 -0.34542401752962082 0 -0.33701388885348321 -0.35188891263688998 0 -0.38035247151576868 -0.35251628607803809 0 -0.38090197294416978 -0.33895912242235171 0 -0.35895793089882649 -0.34542401752962082 0 -0.38035247151576868 -0.35251628607803809 0 -0.35895793089882649 -0.34542401752962082 0 -0.36867396963580851 -0.35884638173250472 0 -0.35755769945724802 -0.35831808260103581 0 -0.35895793089882649 -0.34542401752962082 0 -0.36867396963580851 -0.35884638173250472 0 -0.37873637359729517 -0.36218700262649711 0 -0.36867396963580851 -0.35884638173250472 0 -0.36560407184054478 -0.36934726779251847 0 -0.35755769945724802 -0.35831808260103581 0 -0.36867396963580851 -0.35884638173250472 0 -0.36560407184054478 -0.36934726779251847 0 -0.36560407184054478 -0.36934726779251847 0 -0.35415747874368331 -0.36947103026096578 0 -0.36560407184054478 -0.36934726779251847 0 -0.35415747874368331 -0.36947103026096578 0 -0.36444691383481981 -0.37989735926610901 0 -0.36560407184054478 -0.36934726779251847 0 -0.34619200462194671 -0.36325472200213271 0 -0.35755769945724802 -0.35831808260103581 0 -0.36560407184054478 -0.36934726779251847 0 -0.34619200462194671 -0.36325472200213271 0 -0.36560407184054478 -0.36934726779251847 0 -0.35415747874368331 -0.36947103026096578 0 -0.34619200462194671 -0.36325472200213271 0 -0.35415747874368331 -0.36947103026096578 0 -0.34520354045424051 -0.37113425413354412 0 -0.35118190372557978 -0.3805139138466701 0 -0.35415747874368331 -0.36947103026096578 0 -0.34619200462194671 -0.36325472200213271 0 -0.34520354045424051 -0.37113425413354412 0 -0.34520354045424051 -0.37113425413354412 0 -0.3356116723329664 -0.36442594694019981 0 -0.3388746428470264 -0.37800565761775179 0 -0.3356116723329664 -0.36442594694019981 0 -0.32579432412524661 -0.3714639203565373 0 -0.3388746428470264 -0.37800565761775179 0 -0.34619200462194671 -0.36325472200213271 0 -0.3356116723329664 -0.36442594694019981 0 -0.33701388885348321 -0.35188891263688998 0 -0.34619200462194671 -0.36325472200213271 0 -0.34520354045424051 -0.37113425413354412 0 -0.3356116723329664 -0.36442594694019981 0 -0.32958179921072428 -0.33716446382213872 0 -0.33701388885348321 -0.35188891263688998 0 -0.32079155162462047 -0.35442159245446092 0 -0.3356116723329664 -0.36442594694019981 0 -0.33701388885348321 -0.35188891263688998 0 -0.32079155162462047 -0.35442159245446092 0 -0.32079155162462047 -0.35442159245446092 0 -0.32579432412524661 -0.3714639203565373 0 -0.31122156355072539 -0.37000518037610491 0 -0.3356116723329664 -0.36442594694019981 0 -0.32079155162462047 -0.35442159245446092 0 -0.32579432412524661 -0.3714639203565373 0 -0.32079155162462047 -0.35442159245446092 0 -0.31122156355072539 -0.37000518037610491 0 -0.30094130333592373 -0.35914916770606592 0 -0.31122156355072539 -0.37000518037610491 0 -0.30094130333592373 -0.35914916770606592 0 -0.29064135703704241 -0.37443989980983722 0 -0.31379147449542749 -0.33527081593005692 0 -0.32079155162462047 -0.35442159245446092 0 -0.29954718444231843 -0.34348178307093902 0 -0.32079155162462047 -0.35442159245446092 0 -0.30094130333592373 -0.35914916770606592 0 -0.29954718444231843 -0.34348178307093902 0 -0.30094130333592373 -0.35914916770606592 0 -0.28404067552397688 -0.35425691342437132 0 -0.29954718444231843 -0.34348178307093902 0 -0.28404067552397688 -0.35425691342437132 0 -0.27941866351301697 -0.33477819502007428 0 -0.29954718444231843 -0.34348178307093902 0 -0.28404067552397688 -0.35425691342437132 0 -0.29064135703704241 -0.37443989980983722 0 -0.26962238061980048 -0.36775279803609562 0 -0.30094130333592373 -0.35914916770606592 0 -0.28404067552397688 -0.35425691342437132 0 -0.29064135703704241 -0.37443989980983722 0 -0.26962238061980048 -0.36775279803609562 0 -0.25336890038055959 -0.37912553309662012 0 -0.24764052279888299 -0.35193772859664257 0 -0.26962238061980048 -0.36775279803609562 0 -0.26891605928486978 -0.34833160271577712 0 -0.24764052279888299 -0.35193772859664257 0 -0.26891605928486978 -0.34833160271577712 0 -0.26385805396867162 -0.3329323785017016 0 -0.24764052279888299 -0.35193772859664257 0 -0.28404067552397688 -0.35425691342437132 0 -0.26962238061980048 -0.36775279803609562 0 -0.26891605928486978 -0.34833160271577712 0 -0.28404067552397688 -0.35425691342437132 0 -0.26891605928486978 -0.34833160271577712 0 -0.27941866351301697 -0.33477819502007428 0 -0.27941866351301697 -0.33477819502007428 0 -0.26385805396867162 -0.3329323785017016 0 -0.26549592041707609 -0.31734850858732372 0 -0.26891605928486978 -0.34833160271577712 0 -0.27941866351301697 -0.33477819502007428 0 -0.26385805396867162 -0.3329323785017016 0 -0.26385805396867162 -0.3329323785017016 0 -0.24764052279888299 -0.35193772859664257 0 -0.2465984344626129 -0.32920269641527872 0 -0.26385805396867162 -0.3329323785017016 0 -0.26549592041707609 -0.31734850858732372 0 -0.2465984344626129 -0.32920269641527872 0 -0.26549592041707609 -0.31734850858732372 0 -0.2465984344626129 -0.32920269641527872 0 -0.24050691332612259 -0.30989470601339741 0 -0.26549592041707609 -0.31734850858732372 0 -0.28251636070218439 -0.31977328813426209 0 -0.28685142071769981 -0.30395243503904568 0 -0.27941866351301697 -0.33477819502007428 0 -0.26549592041707609 -0.31734850858732372 0 -0.28251636070218439 -0.31977328813426209 0 -0.27941866351301697 -0.33477819502007428 0 -0.28251636070218439 -0.31977328813426209 0 -0.29829943816094501 -0.32301401389060469 0 -0.28251636070218439 -0.31977328813426209 0 -0.29829943816094501 -0.32301401389060469 0 -0.28685142071769981 -0.30395243503904568 0 -0.27941866351301697 -0.33477819502007428 0 -0.29954718444231843 -0.34348178307093902 0 -0.29829943816094501 -0.32301401389060469 0 -0.31379147449542749 -0.33527081593005692 0 -0.29954718444231843 -0.34348178307093902 0 -0.29829943816094501 -0.32301401389060469 0 -0.31926223103860762 -0.3157962316138388 0 -0.29829943816094501 -0.32301401389060469 0 -0.30414616904491509 -0.30209956029332691 0 -0.31926223103860762 -0.3157962316138388 0 -0.31379147449542749 -0.33527081593005692 0 -0.29829943816094501 -0.32301401389060469 0 -0.31662300572011293 -0.28581334973243039 0 -0.30414616904491509 -0.30209956029332691 0 -0.29789359432142309 -0.28712869496072302 0 -0.29789359432142309 -0.28712869496072302 0 -0.28685142071769981 -0.30395243503904568 0 -0.27904485221060438 -0.27970348138041851 0 -0.29829943816094501 -0.32301401389060469 0 -0.30414616904491509 -0.30209956029332691 0 -0.28685142071769981 -0.30395243503904568 0 -0.30414616904491509 -0.30209956029332691 0 -0.29789359432142309 -0.28712869496072302 0 -0.28685142071769981 -0.30395243503904568 0 -0.26549592041707609 -0.31734850858732372 0 -0.28685142071769981 -0.30395243503904568 0 -0.25765239545485191 -0.29566557764651019 0 -0.26549592041707609 -0.31734850858732372 0 -0.25765239545485191 -0.29566557764651019 0 -0.24050691332612259 -0.30989470601339741 0 -0.25765239545485191 -0.29566557764651019 0 -0.27904485221060438 -0.27970348138041851 0 -0.2546888943431751 -0.27141673897283908 0 -0.28685142071769981 -0.30395243503904568 0 -0.25765239545485191 -0.29566557764651019 0 -0.27904485221060438 -0.27970348138041851 0 -0.27904485221060438 -0.27970348138041851 0 -0.2546888943431751 -0.27141673897283908 0 -0.27550038409661148 -0.25748723264139978 0 -0.2546888943431751 -0.27141673897283908 0 -0.27550038409661148 -0.25748723264139978 0 -0.2484047987823973 -0.25030269263885491 0 -0.27550038409661148 -0.25748723264139978 0 -0.2484047987823973 -0.25030269263885491 0 -0.27550038409661148 -0.25748723264139978 0 -0.30259596941082578 -0.2646717726439447 0 -0.29569117905825443 -0.24281310196210301 0 -0.27550038409661148 -0.25748723264139978 0 -0.30259596941082578 -0.2646717726439447 0 -0.27904485221060438 -0.27970348138041851 0 -0.27550038409661148 -0.25748723264139978 0 -0.30259596941082578 -0.2646717726439447 0 -0.29789359432142309 -0.28712869496072302 0 -0.27904485221060438 -0.27970348138041851 0 -0.30259596941082578 -0.2646717726439447 0 -0.31662300572011293 -0.28581334973243039 0 -0.29789359432142309 -0.28712869496072302 0 -0.30259596941082578 -0.2646717726439447 0 -0.321099140629927 -0.25778998348124121 0 -0.30259596941082578 -0.2646717726439447 0 -0.29569117905825443 -0.24281310196210301 0 -0.38001839990558578 -0.5 0 -0.33564445652449199 -0.4721886549932553 0 -0.28610414907942378 -0.5 0 -0.34307153428213372 -0.44551700424244878 0 -0.32622503064117431 -0.42814896325531998 0 -0.3093742968030076 -0.45751154838904817 0 -0.34307153428213372 -0.44551700424244878 0 -0.33564445652449199 -0.4721886549932553 0 -0.3093742968030076 -0.45751154838904817 0 -0.38001839990558578 -0.5 0 -0.33564445652449199 -0.4721886549932553 0 -0.35991803792309313 -0.46288504522957741 0 -0.34307153428213372 -0.44551700424244878 0 -0.35991803792309313 -0.46288504522957741 0 -0.34307153428213372 -0.44551700424244878 0 -0.33564445652449199 -0.4721886549932553 0 -0.35991803792309313 -0.46288504522957741 0 -0.34307153428213372 -0.44551700424244878 0 -0.35991803792309313 -0.46288504522957741 0 -0.35943107891621451 -0.44353635058972968 0 -0.34307153428213372 -0.44551700424244878 0 -0.35943107891621451 -0.44353635058972968 0 -0.34478928790497848 -0.42793058297709208 0 -0.37622454740542211 -0.44381753121460182 0 -0.35943107891621451 -0.44353635058972968 0 -0.36396982000741912 -0.42771989950487349 0 -0.37622454740542211 -0.44381753121460182 0 -0.35991803792309313 -0.46288504522957741 0 -0.35943107891621451 -0.44353635058972968 0 -0.3841722700262109 -0.42157329572555052 0 -0.37622454740542211 -0.44381753121460182 0 -0.36396982000741912 -0.42771989950487349 0 -0.3841722700262109 -0.42157329572555052 0 -0.36396982000741912 -0.42771989950487349 0 -0.36780195338745458 -0.41386650202690478 0 -0.36780195338745458 -0.41386650202690478 0 -0.35358574516498542 -0.41328328738641762 0 -0.36178574365404531 -0.40020186617921888 0 -0.36396982000741912 -0.42771989950487349 0 -0.36780195338745458 -0.41386650202690478 0 -0.35358574516498542 -0.41328328738641762 0 -0.35358574516498542 -0.41328328738641762 0 -0.34461079361578911 -0.39574467491851689 0 -0.33855687242022642 -0.41423619871189971 0 -0.35358574516498542 -0.41328328738641762 0 -0.34478928790497848 -0.42793058297709208 0 -0.33855687242022642 -0.41423619871189971 0 -0.35943107891621451 -0.44353635058972968 0 -0.36396982000741912 -0.42771989950487349 0 -0.34478928790497848 -0.42793058297709208 0 -0.36396982000741912 -0.42771989950487349 0 -0.35358574516498542 -0.41328328738641762 0 -0.34478928790497848 -0.42793058297709208 0 -0.36560407184054478 -0.36934726779251847 0 -0.36444691383481981 -0.37989735926610901 0 -0.37488312704920029 -0.38066116407694611 0 -0.36444691383481981 -0.37989735926610901 0 -0.37488312704920029 -0.38066116407694611 0 -0.37137247577989668 -0.38855020055113848 0 -0.36444691383481981 -0.37989735926610901 0 -0.37137247577989668 -0.38855020055113848 0 -0.3586692146198065 -0.38867834478826457 0 -0.37137247577989668 -0.38855020055113848 0 -0.36178574365404531 -0.40020186617921888 0 -0.3586692146198065 -0.38867834478826457 0 -0.37647375533617761 -0.40283702630238649 0 -0.37137247577989668 -0.38855020055113848 0 -0.36178574365404531 -0.40020186617921888 0 -0.37647375533617761 -0.40283702630238649 0 -0.36780195338745458 -0.41386650202690478 0 -0.36178574365404531 -0.40020186617921888 0 -0.35358574516498542 -0.41328328738641762 0 -0.36178574365404531 -0.40020186617921888 0 -0.34461079361578911 -0.39574467491851689 0 -0.36178574365404531 -0.40020186617921888 0 -0.34461079361578911 -0.39574467491851689 0 -0.3586692146198065 -0.38867834478826457 0 -0.34461079361578911 -0.39574467491851689 0 -0.35118190372557978 -0.3805139138466701 0 -0.3388746428470264 -0.37800565761775179 0 -0.36444691383481981 -0.37989735926610901 0 -0.3586692146198065 -0.38867834478826457 0 -0.35118190372557978 -0.3805139138466701 0 -0.34461079361578911 -0.39574467491851689 0 -0.3586692146198065 -0.38867834478826457 0 -0.35118190372557978 -0.3805139138466701 0 -0.34520354045424051 -0.37113425413354412 0 -0.35118190372557978 -0.3805139138466701 0 -0.3388746428470264 -0.37800565761775179 0 -0.35415747874368331 -0.36947103026096578 0 -0.36444691383481981 -0.37989735926610901 0 -0.35118190372557978 -0.3805139138466701 0 -0.34461079361578911 -0.39574467491851689 0 -0.33032219075418762 -0.38768433909274869 0 -0.3388746428470264 -0.37800565761775179 0 -0.32579432412524661 -0.3714639203565373 0 -0.33032219075418762 -0.38768433909274869 0 -0.3388746428470264 -0.37800565761775179 0 -0.34461079361578911 -0.39574467491851689 0 -0.33032219075418762 -0.38768433909274869 0 -0.32574490322859218 -0.40439147901256928 0 -0.34461079361578911 -0.39574467491851689 0 -0.32574490322859218 -0.40439147901256928 0 -0.33855687242022642 -0.41423619871189971 0 -0.33032219075418762 -0.38768433909274869 0 -0.32574490322859218 -0.40439147901256928 0 -0.31194337389574239 -0.38744948380033389 0 -0.32574490322859218 -0.40439147901256928 0 -0.30937852700021479 -0.41078092226819141 0 -0.31194337389574239 -0.38744948380033389 0 -0.32579432412524661 -0.3714639203565373 0 -0.31122156355072539 -0.37000518037610491 0 -0.31194337389574239 -0.38744948380033389 0 -0.32579432412524661 -0.3714639203565373 0 -0.33032219075418762 -0.38768433909274869 0 -0.31194337389574239 -0.38744948380033389 0 -0.34478928790497848 -0.42793058297709208 0 -0.33855687242022642 -0.41423619871189971 0 -0.32622503064117431 -0.42814896325531998 0 -0.34307153428213372 -0.44551700424244878 0 -0.32622503064117431 -0.42814896325531998 0 -0.34307153428213372 -0.44551700424244878 0 -0.34478928790497848 -0.42793058297709208 0 -0.32622503064117431 -0.42814896325531998 0 -0.32574490322859218 -0.40439147901256928 0 -0.33855687242022642 -0.41423619871189971 0 -0.32622503064117431 -0.42814896325531998 0 -0.32622503064117431 -0.42814896325531998 0 -0.30937852700021479 -0.41078092226819141 0 -0.32574490322859218 -0.40439147901256928 0 -0.32622503064117431 -0.42814896325531998 0 -0.30937852700021479 -0.41078092226819141 0 -0.32622503064117431 -0.42814896325531998 0 -0.29881756861073411 -0.43536889397484257 0 -0.30937852700021479 -0.41078092226819141 0 -0.29881756861073411 -0.43536889397484257 0 -0.30937852700021479 -0.41078092226819141 0 -0.28276351906249803 -0.41608208107200351 0 -0.30937852700021479 -0.41078092226819141 0 -0.28276351906249803 -0.41608208107200351 0 -0.29253202335925538 -0.39341288128106272 0 -0.29881756861073411 -0.43536889397484257 0 -0.28276351906249803 -0.41608208107200351 0 -0.27106809155289407 -0.44590416728312399 0 -0.31122156355072539 -0.37000518037610491 0 -0.29064135703704241 -0.37443989980983722 0 -0.31194337389574239 -0.38744948380033389 0 -0.29064135703704241 -0.37443989980983722 0 -0.31194337389574239 -0.38744948380033389 0 -0.29253202335925538 -0.39341288128106272 0 -0.30937852700021479 -0.41078092226819141 0 -0.29253202335925538 -0.39341288128106272 0 -0.30937852700021479 -0.41078092226819141 0 -0.31194337389574239 -0.38744948380033389 0 -0.29253202335925538 -0.39341288128106272 0 -0.28276351906249803 -0.41608208107200351 0 -0.29253202335925538 -0.39341288128106272 0 -0.26893173435253409 -0.39142646482576249 0 -0.29064135703704241 -0.37443989980983722 0 -0.29253202335925538 -0.39341288128106272 0 -0.26893173435253409 -0.39142646482576249 0 -0.29064135703704241 -0.37443989980983722 0 -0.26962238061980048 -0.36775279803609562 0 -0.26893173435253409 -0.39142646482576249 0 -0.26893173435253409 -0.39142646482576249 0 -0.25870833762400047 -0.42223325656398808 0 -0.24634858369510679 -0.39856234584485212 0 -0.26893173435253409 -0.39142646482576249 0 -0.25336890038055959 -0.37912553309662012 0 -0.24634858369510679 -0.39856234584485212 0 -0.26962238061980048 -0.36775279803609562 0 -0.26893173435253409 -0.39142646482576249 0 -0.25336890038055959 -0.37912553309662012 0 -0.28276351906249803 -0.41608208107200351 0 -0.25870833762400047 -0.42223325656398808 0 -0.27106809155289407 -0.44590416728312399 0 -0.28276351906249803 -0.41608208107200351 0 -0.26893173435253409 -0.39142646482576249 0 -0.25870833762400047 -0.42223325656398808 0 -0.25870833762400047 -0.42223325656398808 0 -0.24634858369510679 -0.39856234584485212 0 -0.25870833762400047 -0.42223325656398808 0 -0.27106809155289407 -0.44590416728312399 0 -0.28610414907942378 -0.5 0 -0.25281790795250492 -0.47492661553854221 0 -0.2187564890614577 -0.5 0 -0.25870833762400047 -0.42223325656398808 0 -0.27106809155289407 -0.44590416728312399 0 -0.248797990200923 -0.44837845857551578 0 -0.27106809155289407 -0.44590416728312399 0 -0.25281790795250492 -0.47492661553854221 0 -0.248797990200923 -0.44837845857551578 0 -0.27106809155289407 -0.44590416728312399 0 -0.28342784548178768 -0.46957507800225989 0 -0.27106809155289407 -0.44590416728312399 0 -0.28342784548178768 -0.46957507800225989 0 -0.25281790795250492 -0.47492661553854221 0 -0.29881756861073411 -0.43536889397484257 0 -0.27106809155289407 -0.44590416728312399 0 -0.29179186058440282 -0.45270508438546753 0 -0.29179186058440282 -0.45270508438546753 0 -0.3093742968030076 -0.45751154838904817 0 -0.28342784548178768 -0.46957507800225989 0 -0.27106809155289407 -0.44590416728312399 0 -0.29179186058440282 -0.45270508438546753 0 -0.28342784548178768 -0.46957507800225989 0 -0.32622503064117431 -0.42814896325531998 0 -0.29881756861073411 -0.43536889397484257 0 -0.3093742968030076 -0.45751154838904817 0 -0.29881756861073411 -0.43536889397484257 0 -0.29179186058440282 -0.45270508438546753 0 -0.3093742968030076 -0.45751154838904817 0 -0.3093742968030076 -0.45751154838904817 0 -0.28610414907942378 -0.5 0 -0.28342784548178768 -0.46957507800225989 0 -0.33564445652449199 -0.4721886549932553 0 -0.3093742968030076 -0.45751154838904817 0 -0.28610414907942378 -0.5 0 -0.28610414907942378 -0.5 0 -0.28342784548178768 -0.46957507800225989 0 -0.25281790795250492 -0.47492661553854221 0 -0.25281790795250492 -0.47492661553854221 0 -0.22249610545859089 -0.47735561217370043 0 -0.2187564890614577 -0.5 0 -0.25281790795250492 -0.47492661553854221 0 -0.22249610545859089 -0.47735561217370043 0 -0.23516718618208721 -0.46338660365634732 0 -0.248797990200923 -0.44837845857551578 0 -0.23306363774574351 -0.44942680897830328 0 -0.23954428941376621 -0.43078800155041702 0 -0.248797990200923 -0.44837845857551578 0 -0.23516718618208721 -0.46338660365634732 0 -0.23306363774574351 -0.44942680897830328 0 -0.25281790795250492 -0.47492661553854221 0 -0.248797990200923 -0.44837845857551578 0 -0.23516718618208721 -0.46338660365634732 0 -0.23516718618208721 -0.46338660365634732 0 -0.23306363774574351 -0.44942680897830328 0 -0.2138233080835901 -0.45963492725092753 0 -0.22249610545859089 -0.47735561217370043 0 -0.23516718618208721 -0.46338660365634732 0 -0.2138233080835901 -0.45963492725092753 0 -0.23306363774574351 -0.44942680897830328 0 -0.213035667253303 -0.44105093948246621 0 -0.22689830210921749 -0.43553198531440479 0 -0.23306363774574351 -0.44942680897830328 0 -0.213035667253303 -0.44105093948246621 0 -0.2138233080835901 -0.45963492725092753 0 -0.23306363774574351 -0.44942680897830328 0 -0.22689830210921749 -0.43553198531440479 0 -0.23954428941376621 -0.43078800155041702 0 -0.213035667253303 -0.44105093948246621 0 -0.2138233080835901 -0.45963492725092753 0 -0.20223822411986661 -0.45097796278965968 0 -0.2138233080835901 -0.45963492725092753 0 -0.19837478032501629 -0.46126382942655342 0 -0.20223822411986661 -0.45097796278965968 0 -0.2138233080835901 -0.45963492725092753 0 -0.19837478032501629 -0.46126382942655342 0 -0.20686090219633091 -0.47352144000490021 0 -0.1930068309997697 -0.45924200566623602 0 -0.19305067953829291 -0.47913758028454279 0 -0.18223255267224811 -0.46765355351917082 0 -0.19837478032501629 -0.46126382942655342 0 -0.20686090219633091 -0.47352144000490021 0 -0.19778941755024579 -0.46900631356707939 0 -0.19837478032501629 -0.46126382942655342 0 -0.1930068309997697 -0.45924200566623602 0 -0.19778941755024579 -0.46900631356707939 0 -0.19837478032501629 -0.46126382942655342 0 -0.1930068309997697 -0.45924200566623602 0 -0.20223822411986661 -0.45097796278965968 0 -0.19837478032501629 -0.46126382942655342 0 -0.1930068309997697 -0.45924200566623602 0 -0.213035667253303 -0.44105093948246621 0 -0.20223822411986661 -0.45097796278965968 0 -0.19295053393765421 -0.4336981121221154 0 -0.1930068309997697 -0.45924200566623602 0 -0.19295053393765421 -0.4336981121221154 0 -0.1930068309997697 -0.45924200566623602 0 -0.20223822411986661 -0.45097796278965968 0 -0.19295053393765421 -0.4336981121221154 0 -0.2187564890614577 -0.5 0 -0.20636048591622211 -0.48673790925488802 0 -0.19309452807681629 -0.5 0 -0.22249610545859089 -0.47735561217370043 0 -0.2187564890614577 -0.5 0 -0.20636048591622211 -0.48673790925488802 0 -0.22249610545859089 -0.47735561217370043 0 -0.2138233080835901 -0.45963492725092753 0 -0.20686090219633091 -0.47352144000490021 0 -0.22249610545859089 -0.47735561217370043 0 -0.20636048591622211 -0.48673790925488802 0 -0.20686090219633091 -0.47352144000490021 0 -0.1930068309997697 -0.45924200566623602 0 -0.19305067953829291 -0.47913758028454279 0 -0.20636048591622211 -0.48673790925488802 0 -0.20686090219633091 -0.47352144000490021 0 -0.19305067953829291 -0.47913758028454279 0 -0.1930068309997697 -0.45924200566623602 0 -0.19778941755024579 -0.46900631356707939 0 -0.19305067953829291 -0.47913758028454279 0 -0.20686090219633091 -0.47352144000490021 0 -0.19778941755024579 -0.46900631356707939 0 -0.19305067953829291 -0.47913758028454279 0 -0.20636048591622211 -0.48673790925488802 0 -0.19305067953829291 -0.47913758028454279 0 -0.19309452807681629 -0.5 0 -0.19305067953829291 -0.47913758028454279 0 -0.19309452807681629 -0.5 0 -0.19305067953829291 -0.47913758028454279 0 -0.19309452807681629 -0.5 0 -0.17776610429537729 -0.48179518671161398 0 -0.19309452807681629 -0.5 0 -0.1704620616245939 -0.5 0 -0.17776610429537729 -0.48179518671161398 0 -0.1704620616245939 -0.5 0 -0.16032124250180621 -0.47599362073401408 0 -0.17776610429537729 -0.48179518671161398 0 -0.1704620616245939 -0.5 0 -0.16032124250180621 -0.47599362073401408 0 -0.1466951269067214 -0.48430763894718248 0 -0.16032124250180621 -0.47599362073401408 0 -0.17776610429537729 -0.48179518671161398 0 -0.17076397941000471 -0.4664559308178402 0 -0.17776610429537729 -0.48179518671161398 0 -0.18223255267224811 -0.46765355351917082 0 -0.17076397941000471 -0.4664559308178402 0 -0.19305067953829291 -0.47913758028454279 0 -0.17776610429537729 -0.48179518671161398 0 -0.18223255267224811 -0.46765355351917082 0 -0.1930068309997697 -0.45924200566623602 0 -0.17450882318097949 -0.45227478048199932 0 -0.1930068309997697 -0.45924200566623602 0 -0.18223255267224811 -0.46765355351917082 0 -0.17450882318097949 -0.45227478048199932 0 -0.18223255267224811 -0.46765355351917082 0 -0.17450882318097949 -0.45227478048199932 0 -0.18223255267224811 -0.46765355351917082 0 -0.17450882318097949 -0.45227478048199932 0 -0.17076397941000471 -0.4664559308178402 0 -0.17450882318097949 -0.45227478048199932 0 -0.17651459128234981 -0.43582377589914789 0 -0.19295053393765421 -0.4336981121221154 0 -0.1930068309997697 -0.45924200566623602 0 -0.17450882318097949 -0.45227478048199932 0 -0.19295053393765421 -0.4336981121221154 0 -0.17450882318097949 -0.45227478048199932 0 -0.1556634457229262 -0.43797015177652793 0 -0.16212091014339169 -0.42760911822329739 0 -0.17450882318097949 -0.45227478048199932 0 -0.15202588196584441 -0.44380664078910259 0 -0.17450882318097949 -0.45227478048199932 0 -0.1556634457229262 -0.43797015177652793 0 -0.15202588196584441 -0.44380664078910259 0 -0.17450882318097949 -0.45227478048199932 0 -0.15960304743694609 -0.45959805513334062 0 -0.15202588196584441 -0.44380664078910259 0 -0.17450882318097949 -0.45227478048199932 0 -0.16212091014339169 -0.42760911822329739 0 -0.17450882318097949 -0.45227478048199932 0 -0.16212091014339169 -0.42760911822329739 0 -0.17651459128234981 -0.43582377589914789 0 -0.16032124250180621 -0.47599362073401408 0 -0.17076397941000471 -0.4664559308178402 0 -0.15960304743694609 -0.45959805513334062 0 -0.17450882318097949 -0.45227478048199932 0 -0.17076397941000471 -0.4664559308178402 0 -0.15960304743694609 -0.45959805513334062 0 -0.16032124250180621 -0.47599362073401408 0 -0.15960304743694609 -0.45959805513334062 0 -0.140701246644762 -0.46197707408921651 0 -0.15960304743694609 -0.45959805513334062 0 -0.140701246644762 -0.46197707408921651 0 -0.15202588196584441 -0.44380664078910259 0 -0.140701246644762 -0.46197707408921651 0 -0.15202588196584441 -0.44380664078910259 0 -0.13687428941648 -0.44697771242112311 0 -0.1556634457229262 -0.43797015177652793 0 -0.15202588196584441 -0.44380664078910259 0 -0.1275794915460377 -0.43459897320321428 0 -0.140701246644762 -0.46197707408921651 0 -0.15202588196584441 -0.44380664078910259 0 -0.1556634457229262 -0.43797015177652793 0 -0.15202588196584441 -0.44380664078910259 0 -0.13687428941648 -0.44697771242112311 0 -0.1275794915460377 -0.43459897320321428 0 -0.1121293247932508 -0.44136068716438448 0 -0.15202588196584441 -0.44380664078910259 0 -0.13687428941648 -0.44697771242112311 0 -0.1275794915460377 -0.43459897320321428 0 -0.15202588196584441 -0.44380664078910259 0 -0.1275794915460377 -0.43459897320321428 0 -0.140701246644762 -0.46197707408921651 0 -0.13687428941648 -0.44697771242112311 0 -0.1137300868818453 -0.45698610709671322 0 -0.140701246644762 -0.46197707408921651 0 -0.1293766113236772 -0.48014750738932882 0 -0.1466951269067214 -0.48430763894718248 0 -0.140701246644762 -0.46197707408921651 0 -0.1293766113236772 -0.48014750738932882 0 -0.1167821702630303 -0.47221952753896201 0 -0.140701246644762 -0.46197707408921651 0 -0.1293766113236772 -0.48014750738932882 0 -0.1704620616245939 -0.5 0 -0.13582330621500369 -0.50000000000000133 0 -0.1466951269067214 -0.48430763894718248 0 -0.1293766113236772 -0.48014750738932882 0 -0.13582330621500369 -0.50000000000000133 0 -0.11187907850213059 -0.48633734694287761 0 -0.1293766113236772 -0.48014750738932882 0 -0.13582330621500369 -0.50000000000000133 0 -0.1466951269067214 -0.48430763894718248 0 -0.16032124250180621 -0.47599362073401408 0 -0.140701246644762 -0.46197707408921651 0 -0.1466951269067214 -0.48430763894718248 0 -0.1408089320346731 -0.38517468616845951 0 -0.15146492108903331 -0.40639190219587817 0 -0.1408089320346731 -0.38517468616845951 0 -0.15146492108903331 -0.40639190219587817 0 -0.15673425105492789 -0.39408158888690331 0 -0.1408089320346731 -0.38517468616845951 0 -0.13556096498619641 -0.40236866582670722 0 -0.15146492108903331 -0.40639190219587817 0 -0.1408089320346731 -0.38517468616845951 0 -0.15673425105492789 -0.39408158888690331 0 -0.1690067787943004 -0.38603980627890239 0 -0.1488628177368804 -0.37624077549874319 0 -0.1408089320346731 -0.38517468616845951 0 -0.1690067787943004 -0.38603980627890239 0 -0.1408089320346731 -0.38517468616845951 0 -0.1690067787943004 -0.38603980627890239 0 -0.1488628177368804 -0.37624077549874319 0 -0.1408089320346731 -0.38517468616845951 0 -0.13606894299019401 -0.37573686007730678 0 -0.1408089320346731 -0.38517468616845951 0 -0.12574156104363851 -0.38471241379117399 0 -0.13606894299019401 -0.37573686007730678 0 -0.12574156104363851 -0.38471241379117399 0 -0.1176685696660914 -0.3701963829529975 0 -0.1408089320346731 -0.38517468616845951 0 -0.13606894299019401 -0.37573686007730678 0 -0.1408089320346731 -0.38517468616845951 0 -0.13606894299019401 -0.37573686007730678 0 -0.12574156104363851 -0.38471241379117399 0 -0.12574156104363851 -0.38471241379117399 0 -0.13556096498619641 -0.40236866582670722 0 -0.13556096498619641 -0.40236866582670722 0 -0.12406128666458791 -0.41417451903708208 0 -0.120168383304424 -0.39790384746952079 0 -0.12574156104363851 -0.38471241379117399 0 -0.13556096498619641 -0.40236866582670722 0 -0.120168383304424 -0.39790384746952079 0 -0.1408089320346731 -0.38517468616845951 0 -0.12574156104363851 -0.38471241379117399 0 -0.13556096498619641 -0.40236866582670722 0 -0.13556096498619641 -0.40236866582670722 0 -0.14538036892875361 -0.42002491786224072 0 -0.12406128666458791 -0.41417451903708208 0 -0.13556096498619641 -0.40236866582670722 0 -0.14538036892875361 -0.42002491786224072 0 -0.1275794915460377 -0.43459897320321428 0 -0.14538036892875361 -0.42002491786224072 0 -0.12406128666458791 -0.41417451903708208 0 -0.1556634457229262 -0.43797015177652793 0 -0.14538036892875361 -0.42002491786224072 0 -0.1556634457229262 -0.43797015177652793 0 -0.1275794915460377 -0.43459897320321428 0 -0.14538036892875361 -0.42002491786224072 0 -0.1556634457229262 -0.43797015177652793 0 -0.14538036892875361 -0.42002491786224072 0 -0.16212091014339169 -0.42760911822329739 0 -0.14538036892875361 -0.42002491786224072 0 -0.15146492108903331 -0.40639190219587817 0 -0.16212091014339169 -0.42760911822329739 0 -0.13556096498619641 -0.40236866582670722 0 -0.14538036892875361 -0.42002491786224072 0 -0.15146492108903331 -0.40639190219587817 0 -0.15146492108903331 -0.40639190219587817 0 -0.16212091014339169 -0.42760911822329739 0 -0.16212091014339169 -0.42760911822329739 0 -0.17364152693618759 -0.40912423168395518 0 -0.15146492108903331 -0.40639190219587817 0 -0.16212091014339169 -0.42760911822329739 0 -0.17364152693618759 -0.40912423168395518 0 -0.16212091014339169 -0.42760911822329739 0 -0.1796243598350242 -0.42288189130130199 0 -0.17364152693618759 -0.40912423168395518 0 -0.1556634457229262 -0.43797015177652793 0 -0.16212091014339169 -0.42760911822329739 0 -0.17651459128234981 -0.43582377589914789 0 -0.1796243598350242 -0.42288189130130199 0 -0.19295053393765421 -0.4336981121221154 0 -0.16212091014339169 -0.42760911822329739 0 -0.17651459128234981 -0.43582377589914789 0 -0.1796243598350242 -0.42288189130130199 0 -0.1796243598350242 -0.42288189130130199 0 -0.17364152693618759 -0.40912423168395518 0 -0.19289423687553889 -0.40815421857799478 0 -0.17364152693618759 -0.40912423168395518 0 -0.18516214372898451 -0.39063934514461379 0 -0.16676033802954909 -0.39767382799985701 0 -0.17364152693618759 -0.40912423168395518 0 -0.19187012164441611 -0.39843483985823552 0 -0.19289423687553889 -0.40815421857799478 0 -0.17364152693618759 -0.40912423168395518 0 -0.18516214372898451 -0.39063934514461379 0 -0.19187012164441611 -0.39843483985823552 0 -0.18516214372898451 -0.39063934514461379 0 -0.16676033802954909 -0.39767382799985701 0 -0.1690067787943004 -0.38603980627890239 0 -0.17364152693618759 -0.40912423168395518 0 -0.18516214372898451 -0.39063934514461379 0 -0.15146492108903331 -0.40639190219587817 0 -0.17364152693618759 -0.40912423168395518 0 -0.16676033802954909 -0.39767382799985701 0 -0.16676033802954909 -0.39767382799985701 0 -0.15673425105492789 -0.39408158888690331 0 -0.1690067787943004 -0.38603980627890239 0 -0.15146492108903331 -0.40639190219587817 0 -0.16676033802954909 -0.39767382799985701 0 -0.15673425105492789 -0.39408158888690331 0 -0.1488628177368804 -0.37624077549874319 0 -0.1690067787943004 -0.38603980627890239 0 -0.15564736085963371 -0.36911164838220722 0 -0.1690067787943004 -0.38603980627890239 0 -0.19720462555392751 -0.38690492638934582 0 -0.1690067787943004 -0.38603980627890239 0 -0.19720462555392751 -0.38690492638934582 0 -0.18418202478330831 -0.36820291167276792 0 -0.18516214372898451 -0.39063934514461379 0 -0.1690067787943004 -0.38603980627890239 0 -0.19720462555392751 -0.38690492638934582 0 -0.19720462555392751 -0.38690492638934582 0 -0.20031168872088789 -0.39277446907666591 0 -0.20994923361975901 -0.38729593556218989 0 -0.19720462555392751 -0.38690492638934582 0 -0.19670171400637029 -0.3899048544181335 0 -0.20031168872088789 -0.39277446907666591 0 -0.19720462555392751 -0.38690492638934582 0 -0.19670171400637029 -0.3899048544181335 0 -0.18516214372898451 -0.39063934514461379 0 -0.19720462555392751 -0.38690492638934582 0 -0.19670171400637029 -0.3899048544181335 0 -0.18516214372898451 -0.39063934514461379 0 -0.19670171400637029 -0.3899048544181335 0 -0.19187012164441611 -0.39843483985823552 0 -0.19187012164441611 -0.39843483985823552 0 -0.20583274877996671 -0.40133178915542511 0 -0.19289423687553889 -0.40815421857799478 0 -0.19670171400637029 -0.3899048544181335 0 -0.19187012164441611 -0.39843483985823552 0 -0.20031168872088789 -0.39277446907666591 0 -0.19187012164441611 -0.39843483985823552 0 -0.20031168872088789 -0.39277446907666591 0 -0.20583274877996671 -0.40133178915542511 0 -0.20583274877996671 -0.40133178915542511 0 -0.20994923361975901 -0.38729593556218989 0 -0.22430875314519419 -0.4011533582937552 0 -0.20031168872088789 -0.39277446907666591 0 -0.20583274877996671 -0.40133178915542511 0 -0.20994923361975901 -0.38729593556218989 0 -0.19720462555392751 -0.38690492638934582 0 -0.20994923361975901 -0.38729593556218989 0 -0.2148314824319732 -0.37397688861175638 0 -0.20994923361975901 -0.38729593556218989 0 -0.22588537653164931 -0.3871759926876539 0 -0.2148314824319732 -0.37397688861175638 0 -0.19720462555392751 -0.38690492638934582 0 -0.20994923361975901 -0.38729593556218989 0 -0.1796243598350242 -0.42288189130130199 0 -0.19295053393765421 -0.4336981121221154 0 -0.19289423687553889 -0.40815421857799478 0 -0.19295053393765421 -0.4336981121221154 0 -0.19289423687553889 -0.40815421857799478 0 -0.19295053393765421 -0.4336981121221154 0 -0.19289423687553889 -0.40815421857799478 0 -0.20533256017410401 -0.4210194501168868 0 -0.20583274877996671 -0.40133178915542511 0 -0.19289423687553889 -0.40815421857799478 0 -0.20533256017410401 -0.4210194501168868 0 -0.20583274877996671 -0.40133178915542511 0 -0.22194961402405711 -0.4208621912464327 0 -0.22430875314519419 -0.4011533582937552 0 -0.20583274877996671 -0.40133178915542511 0 -0.20533256017410401 -0.4210194501168868 0 -0.22194961402405711 -0.4208621912464327 0 -0.213035667253303 -0.44105093948246621 0 -0.20533256017410401 -0.4210194501168868 0 -0.22194961402405711 -0.4208621912464327 0 -0.213035667253303 -0.44105093948246621 0 -0.19295053393765421 -0.4336981121221154 0 -0.20533256017410401 -0.4210194501168868 0 -0.22194961402405711 -0.4208621912464327 0 -0.23817191558042489 -0.41471983069988888 0 -0.23954428941376621 -0.43078800155041702 0 -0.213035667253303 -0.44105093948246621 0 -0.22689830210921749 -0.43553198531440479 0 -0.22194961402405711 -0.4208621912464327 0 -0.22689830210921749 -0.43553198531440479 0 -0.22194961402405711 -0.4208621912464327 0 -0.23954428941376621 -0.43078800155041702 0 -0.22194961402405711 -0.4208621912464327 0 -0.23817191558042489 -0.41471983069988888 0 -0.22430875314519419 -0.4011533582937552 0 -0.25870833762400047 -0.42223325656398808 0 -0.23817191558042489 -0.41471983069988888 0 -0.24634858369510679 -0.39856234584485212 0 -0.25870833762400047 -0.42223325656398808 0 -0.23817191558042489 -0.41471983069988888 0 -0.23954428941376621 -0.43078800155041702 0 -0.25870833762400047 -0.42223325656398808 0 -0.248797990200923 -0.44837845857551578 0 -0.23954428941376621 -0.43078800155041702 0 -0.22588537653164931 -0.3871759926876539 0 -0.2339888297662131 -0.37489143512571599 0 -0.2148314824319732 -0.37397688861175638 0 -0.22588537653164931 -0.3871759926876539 0 -0.22430875314519419 -0.4011533582937552 0 -0.24634858369510679 -0.39856234584485212 0 -0.20994923361975901 -0.38729593556218989 0 -0.22588537653164931 -0.3871759926876539 0 -0.22430875314519419 -0.4011533582937552 0 -0.23817191558042489 -0.41471983069988888 0 -0.22430875314519419 -0.4011533582937552 0 -0.24634858369510679 -0.39856234584485212 0 -0.25336890038055959 -0.37912553309662012 0 -0.24634858369510679 -0.39856234584485212 0 -0.2339888297662131 -0.37489143512571599 0 -0.24634858369510679 -0.39856234584485212 0 -0.2339888297662131 -0.37489143512571599 0 -0.22588537653164931 -0.3871759926876539 0 -0.24634858369510679 -0.39856234584485212 0 -0.2339888297662131 -0.37489143512571599 0 -0.25336890038055959 -0.37912553309662012 0 -0.2339888297662131 -0.37489143512571599 0 -0.24764052279888299 -0.35193772859664257 0 -0.2339888297662131 -0.37489143512571599 0 -0.2216290758373195 -0.35122052440658019 0 -0.2148314824319732 -0.37397688861175638 0 -0.2339888297662131 -0.37489143512571599 0 -0.2216290758373195 -0.35122052440658019 0 -0.2216290758373195 -0.35122052440658019 0 -0.24764052279888299 -0.35193772859664257 0 -0.22796592514690131 -0.33024617657447752 0 -0.2339888297662131 -0.37489143512571599 0 -0.2216290758373195 -0.35122052440658019 0 -0.24764052279888299 -0.35193772859664257 0 -0.24764052279888299 -0.35193772859664257 0 -0.2465984344626129 -0.32920269641527872 0 -0.22796592514690131 -0.33024617657447752 0 -0.2465984344626129 -0.32920269641527872 0 -0.22796592514690131 -0.33024617657447752 0 -0.24050691332612259 -0.30989470601339741 0 -0.22796592514690131 -0.33024617657447752 0 -0.24050691332612259 -0.30989470601339741 0 -0.2116673783024817 -0.30063286213752438 0 -0.2216290758373195 -0.35122052440658019 0 -0.22796592514690131 -0.33024617657447752 0 -0.2068464607196302 -0.32939021688813158 0 -0.2068464607196302 -0.32939021688813158 0 -0.2116673783024817 -0.30063286213752438 0 -0.22796592514690131 -0.33024617657447752 0 -0.2068464607196302 -0.32939021688813158 0 -0.2116673783024817 -0.30063286213752438 0 -0.2068464607196302 -0.32939021688813158 0 -0.1905930560910456 -0.31128525931498813 0 -0.18662577016732401 -0.32727764373630169 0 -0.2068464607196302 -0.32939021688813158 0 -0.2116673783024817 -0.30063286213752438 0 -0.1905930560910456 -0.31128525931498813 0 -0.2068464607196302 -0.32939021688813158 0 -0.18367645396894819 -0.34531090831403288 0 -0.18662577016732401 -0.32727764373630169 0 -0.2068464607196302 -0.32939021688813158 0 -0.2020255431367787 -0.35814757163873862 0 -0.18367645396894819 -0.34531090831403288 0 -0.2020255431367787 -0.35814757163873862 0 -0.18418202478330831 -0.36820291167276792 0 -0.18367645396894819 -0.34531090831403288 0 -0.19720462555392751 -0.38690492638934582 0 -0.2020255431367787 -0.35814757163873862 0 -0.19720462555392751 -0.38690492638934582 0 -0.2020255431367787 -0.35814757163873862 0 -0.18418202478330831 -0.36820291167276792 0 -0.2216290758373195 -0.35122052440658019 0 -0.2020255431367787 -0.35814757163873862 0 -0.2148314824319732 -0.37397688861175638 0 -0.19720462555392751 -0.38690492638934582 0 -0.2020255431367787 -0.35814757163873862 0 -0.2148314824319732 -0.37397688861175638 0 -0.2068464607196302 -0.32939021688813158 0 -0.2020255431367787 -0.35814757163873862 0 -0.2216290758373195 -0.35122052440658019 0 -0.2068464607196302 -0.32939021688813158 0 -0.2020255431367787 -0.35814757163873862 0 -0.23263804500746141 -0.26066596623233668 0 -0.21648829588533311 -0.27187550738691729 0 -0.22130921346818319 -0.2431181526363099 0 -0.21648829588533311 -0.27187550738691729 0 -0.22130921346818319 -0.2431181526363099 0 -0.23263804500746141 -0.26066596623233668 0 -0.2484047987823973 -0.25030269263885491 0 -0.22130921346818319 -0.2431181526363099 0 -0.2546888943431751 -0.27141673897283908 0 -0.23263804500746141 -0.26066596623233668 0 -0.2484047987823973 -0.25030269263885491 0 -0.2546888943431751 -0.27141673897283908 0 -0.23263804500746141 -0.26066596623233668 0 -0.2348928905071245 -0.28467548329751502 0 -0.23263804500746141 -0.26066596623233668 0 -0.2348928905071245 -0.28467548329751502 0 -0.21648829588533311 -0.27187550738691729 0 -0.2348928905071245 -0.28467548329751502 0 -0.2116673783024817 -0.30063286213752438 0 -0.21648829588533311 -0.27187550738691729 0 -0.25765239545485191 -0.29566557764651019 0 -0.2546888943431751 -0.27141673897283908 0 -0.2348928905071245 -0.28467548329751502 0 -0.25765239545485191 -0.29566557764651019 0 -0.2348928905071245 -0.28467548329751502 0 -0.24050691332612259 -0.30989470601339741 0 -0.2348928905071245 -0.28467548329751502 0 -0.24050691332612259 -0.30989470601339741 0 -0.2116673783024817 -0.30063286213752438 0 -0.2116673783024817 -0.30063286213752438 0 -0.1905930560910456 -0.31128525931498813 0 -0.18830363344455511 -0.2946046185089769 0 -0.2116673783024817 -0.30063286213752438 0 -0.18830363344455511 -0.2946046185089769 0 -0.19442378332435961 -0.27710442302869798 0 -0.2116673783024817 -0.30063286213752438 0 -0.21648829588533311 -0.27187550738691729 0 -0.19442378332435961 -0.27710442302869798 0 -0.2116673783024817 -0.30063286213752438 0 -0.21648829588533311 -0.27187550738691729 0 -0.21648829588533311 -0.27187550738691729 0 -0.19442378332435961 -0.27710442302869798 0 -0.20153664912236921 -0.2644199633694167 0 -0.19442378332435961 -0.27710442302869798 0 -0.20153664912236921 -0.2644199633694167 0 -0.189580451307025 -0.26464712977158189 0 -0.20153664912236921 -0.2644199633694167 0 -0.189580451307025 -0.26464712977158189 0 -0.19767277386163329 -0.25354154102011939 0 -0.19767277386163329 -0.25354154102011939 0 -0.1854146799826959 -0.25451409448942952 0 -0.19148401382776781 -0.2419686183389636 0 -0.189580451307025 -0.26464712977158189 0 -0.19767277386163329 -0.25354154102011939 0 -0.1854146799826959 -0.25451409448942952 0 -0.20153664912236921 -0.2644199633694167 0 -0.19767277386163329 -0.25354154102011939 0 -0.20951794123349499 -0.25493121563976678 0 -0.21648829588533311 -0.27187550738691729 0 -0.20153664912236921 -0.2644199633694167 0 -0.20951794123349499 -0.25493121563976678 0 -0.19767277386163329 -0.25354154102011939 0 -0.20951794123349499 -0.25493121563976678 0 -0.20476062514304949 -0.24868094349004219 0 -0.21648829588533311 -0.27187550738691729 0 -0.21482994921347581 -0.25032139581794882 0 -0.22130921346818319 -0.2431181526363099 0 -0.21648829588533311 -0.27187550738691729 0 -0.20951794123349499 -0.25493121563976678 0 -0.21482994921347581 -0.25032139581794882 0 -0.20951794123349499 -0.25493121563976678 0 -0.21049969678583361 -0.24732464223307191 0 -0.20476062514304949 -0.24868094349004219 0 -0.20951794123349499 -0.25493121563976678 0 -0.21482994921347581 -0.25032139581794882 0 -0.21049969678583361 -0.24732464223307191 0 -0.1733796658573423 -0.26833694730877999 0 -0.15233554839032601 -0.25956947158885962 0 -0.17495649505971081 -0.2440762360077027 0 -0.1733796658573423 -0.26833694730877999 0 -0.15233554839032601 -0.25956947158885962 0 -0.15233554839032601 -0.25956947158885962 0 -0.17495649505971081 -0.2440762360077027 0 -0.1854146799826959 -0.25451409448942952 0 -0.1733796658573423 -0.26833694730877999 0 -0.17495649505971081 -0.2440762360077027 0 -0.189580451307025 -0.26464712977158189 0 -0.1854146799826959 -0.25451409448942952 0 -0.1733796658573423 -0.26833694730877999 0 -0.19442378332435961 -0.27710442302869798 0 -0.189580451307025 -0.26464712977158189 0 -0.1733796658573423 -0.26833694730877999 0 -0.19442378332435961 -0.27710442302869798 0 -0.1733796658573423 -0.26833694730877999 0 -0.17411501265377219 -0.28424056821532262 0 -0.19442378332435961 -0.27710442302869798 0 -0.1733796658573423 -0.26833694730877999 0 -0.1733796658573423 -0.26833694730877999 0 -0.15831043307571679 -0.27594738701215088 0 -0.17411501265377219 -0.28424056821532262 0 -0.1733796658573423 -0.26833694730877999 0 -0.15831043307571679 -0.27594738701215088 0 -0.15233554839032601 -0.25956947158885962 0 -0.15831043307571679 -0.27594738701215088 0 -0.1578083271697005 -0.28955130567574011 0 -0.17411501265377219 -0.28424056821532262 0 -0.1578083271697005 -0.28955130567574011 0 -0.17411501265377219 -0.28424056821532262 0 -0.17246423305095901 -0.29989872775759019 0 -0.18830363344455511 -0.2946046185089769 0 -0.17411501265377219 -0.28424056821532262 0 -0.17246423305095901 -0.29989872775759019 0 -0.18830363344455511 -0.2946046185089769 0 -0.19442378332435961 -0.27710442302869798 0 -0.17411501265377219 -0.28424056821532262 0 -0.1905930560910456 -0.31128525931498813 0 -0.18830363344455511 -0.2946046185089769 0 -0.17246423305095901 -0.29989872775759019 0 -0.1905930560910456 -0.31128525931498813 0 -0.17246423305095901 -0.29989872775759019 0 -0.1755637258968063 -0.31466184683718618 0 -0.17246423305095901 -0.29989872775759019 0 -0.15314525426116141 -0.30353103071296472 0 -0.1613637774794309 -0.31580992064680369 0 -0.17246423305095901 -0.29989872775759019 0 -0.1755637258968063 -0.31466184683718618 0 -0.1613637774794309 -0.31580992064680369 0 -0.1578083271697005 -0.28955130567574011 0 -0.17246423305095901 -0.29989872775759019 0 -0.15314525426116141 -0.30353103071296472 0 -0.15314525426116141 -0.30353103071296472 0 -0.1613637774794309 -0.31580992064680369 0 -0.1469368064728433 -0.31768842974500699 0 -0.15314525426116141 -0.30353103071296472 0 -0.13925245707730399 -0.30547300596937121 0 -0.14354501490820409 -0.29278242311114872 0 -0.15314525426116141 -0.30353103071296472 0 -0.13925245707730399 -0.30547300596937121 0 -0.1469368064728433 -0.31768842974500699 0 -0.13925245707730399 -0.30547300596937121 0 -0.12503158749823881 -0.30736947604579151 0 -0.13020327451971059 -0.32346738533574909 0 -0.13925245707730399 -0.30547300596937121 0 -0.12503158749823881 -0.30736947604579151 0 -0.13075253367692929 -0.29484197363606079 0 -0.13925245707730399 -0.30547300596937121 0 -0.13075253367692929 -0.29484197363606079 0 -0.14354501490820409 -0.29278242311114872 0 -0.13075253367692929 -0.29484197363606079 0 -0.13616369477945631 -0.28343597701207862 0 -0.14354501490820409 -0.29278242311114872 0 -0.13075253367692929 -0.29484197363606079 0 -0.13616369477945631 -0.28343597701207862 0 -0.12359146238341299 -0.28422310450607252 0 -0.13616369477945631 -0.28343597701207862 0 -0.14354501490820409 -0.29278242311114872 0 -0.14701531126823189 -0.28104644515450189 0 -0.1578083271697005 -0.28955130567574011 0 -0.15314525426116141 -0.30353103071296472 0 -0.14354501490820409 -0.29278242311114872 0 -0.1578083271697005 -0.28955130567574011 0 -0.14354501490820409 -0.29278242311114872 0 -0.14701531126823189 -0.28104644515450189 0 -0.15831043307571679 -0.27594738701215088 0 -0.1578083271697005 -0.28955130567574011 0 -0.14701531126823189 -0.28104644515450189 0 -0.15831043307571679 -0.27594738701215088 0 -0.14885304563002741 -0.26985185988598398 0 -0.15233554839032601 -0.25956947158885962 0 -0.15831043307571679 -0.27594738701215088 0 -0.14885304563002741 -0.26985185988598398 0 -0.14701531126823189 -0.28104644515450189 0 -0.14885304563002741 -0.26985185988598398 0 -0.1443054394592222 -0.26735517925058427 0 -0.14093479526392941 -0.27353938109901582 0 -0.1443054394592222 -0.26735517925058427 0 -0.14093479526392941 -0.27353938109901582 0 -0.13724211915737189 -0.26464334196728823 0 -0.14885304563002741 -0.26985185988598398 0 -0.1443054394592222 -0.26735517925058427 0 -0.14920532098058731 -0.26171338498870261 0 -0.14885304563002741 -0.26985185988598398 0 -0.14701531126823189 -0.28104644515450189 0 -0.14093479526392941 -0.27353938109901582 0 -0.13616369477945631 -0.28343597701207862 0 -0.14701531126823189 -0.28104644515450189 0 -0.14093479526392941 -0.27353938109901582 0 -0.13616369477945631 -0.28343597701207862 0 -0.14093479526392941 -0.27353938109901582 0 -0.1307481738369865 -0.27403809250692351 0 -0.13616369477945631 -0.28343597701207862 0 -0.1307481738369865 -0.27403809250692351 0 -0.12359146238341299 -0.28422310450607252 0 -0.1307481738369865 -0.27403809250692351 0 -0.13724211915737189 -0.26464334196728823 0 -0.12823242419176009 -0.26476965903806182 0 -0.1307481738369865 -0.27403809250692351 0 -0.12823242419176009 -0.26476965903806182 0 -0.1160504991985679 -0.27098422157027813 0 -0.14093479526392941 -0.27353938109901582 0 -0.1307481738369865 -0.27403809250692351 0 -0.13724211915737189 -0.26464334196728823 0 -0.13724211915737189 -0.26464334196728823 0 -0.14920532098058731 -0.26171338498870261 0 -0.1256374789938742 -0.24844642613119489 0 -0.15233554839032601 -0.25956947158885962 0 -0.1256374789938742 -0.24844642613119489 0 -0.13724211915737189 -0.26464334196728823 0 -0.12823242419176009 -0.26476965903806182 0 -0.1256374789938742 -0.24844642613119489 0 -0.14920532098058731 -0.26171338498870261 0 -0.15233554839032601 -0.25956947158885962 0 -0.1256374789938742 -0.24844642613119489 0 -0.1443054394592222 -0.26735517925058427 0 -0.13724211915737189 -0.26464334196728823 0 -0.14920532098058731 -0.26171338498870261 0 -0.14885304563002741 -0.26985185988598398 0 -0.14920532098058731 -0.26171338498870261 0 -0.15233554839032601 -0.25956947158885962 0 -0.14920532098058731 -0.26171338498870261 0 -0.15233554839032601 -0.25956947158885962 0 -0.16224442175770001 -0.34992973621654949 0 -0.16860338229806021 -0.36395503600035639 0 -0.18367645396894819 -0.34531090831403288 0 -0.16224442175770001 -0.34992973621654949 0 -0.18367645396894819 -0.34531090831403288 0 -0.16453561531152941 -0.33752470183826649 0 -0.16224442175770001 -0.34992973621654949 0 -0.16860338229806021 -0.36395503600035639 0 -0.15278351844696089 -0.35661802343992011 0 -0.1690067787943004 -0.38603980627890239 0 -0.16860338229806021 -0.36395503600035639 0 -0.15564736085963371 -0.36911164838220722 0 -0.16860338229806021 -0.36395503600035639 0 -0.15278351844696089 -0.35661802343992011 0 -0.15564736085963371 -0.36911164838220722 0 -0.1690067787943004 -0.38603980627890239 0 -0.16860338229806021 -0.36395503600035639 0 -0.18418202478330831 -0.36820291167276792 0 -0.16860338229806021 -0.36395503600035639 0 -0.18418202478330831 -0.36820291167276792 0 -0.18367645396894819 -0.34531090831403288 0 -0.18367645396894819 -0.34531090831403288 0 -0.18662577016732401 -0.32727764373630169 0 -0.1718529841790325 -0.32629316500080552 0 -0.18367645396894819 -0.34531090831403288 0 -0.1718529841790325 -0.32629316500080552 0 -0.16453561531152941 -0.33752470183826649 0 -0.1905930560910456 -0.31128525931498813 0 -0.18662577016732401 -0.32727764373630169 0 -0.1755637258968063 -0.31466184683718618 0 -0.18662577016732401 -0.32727764373630169 0 -0.1755637258968063 -0.31466184683718618 0 -0.1718529841790325 -0.32629316500080552 0 -0.1718529841790325 -0.32629316500080552 0 -0.1613637774794309 -0.31580992064680369 0 -0.1559162614705468 -0.32756118259944211 0 -0.1755637258968063 -0.31466184683718618 0 -0.1718529841790325 -0.32629316500080552 0 -0.1613637774794309 -0.31580992064680369 0 -0.1718529841790325 -0.32629316500080552 0 -0.16453561531152941 -0.33752470183826649 0 -0.1559162614705468 -0.32756118259944211 0 -0.16453561531152941 -0.33752470183826649 0 -0.14932221955455191 -0.33963291572191212 0 -0.1559162614705468 -0.32756118259944211 0 -0.16224442175770001 -0.34992973621654949 0 -0.16453561531152941 -0.33752470183826649 0 -0.14932221955455191 -0.33963291572191212 0 -0.14932221955455191 -0.33963291572191212 0 -0.14317202217152411 -0.32945554522540332 0 -0.13348154883996791 -0.33892781272490591 0 -0.14932221955455191 -0.33963291572191212 0 -0.14317202217152411 -0.32945554522540332 0 -0.1559162614705468 -0.32756118259944211 0 -0.14317202217152411 -0.32945554522540332 0 -0.1559162614705468 -0.32756118259944211 0 -0.1469368064728433 -0.31768842974500699 0 -0.1613637774794309 -0.31580992064680369 0 -0.1559162614705468 -0.32756118259944211 0 -0.1469368064728433 -0.31768842974500699 0 -0.14317202217152411 -0.32945554522540332 0 -0.1469368064728433 -0.31768842974500699 0 -0.13020327451971059 -0.32346738533574909 0 -0.13925245707730399 -0.30547300596937121 0 -0.1469368064728433 -0.31768842974500699 0 -0.13020327451971059 -0.32346738533574909 0 -0.14932221955455191 -0.33963291572191212 0 -0.13348154883996791 -0.33892781272490591 0 -0.13810165220621881 -0.35193792773165539 0 -0.13348154883996791 -0.33892781272490591 0 -0.1223555677065751 -0.35305672163450291 0 -0.1194204132268578 -0.33705396328175818 0 -0.14317202217152411 -0.32945554522540332 0 -0.13020327451971059 -0.32346738533574909 0 -0.13348154883996791 -0.33892781272490591 0 -0.13020327451971059 -0.32346738533574909 0 -0.13348154883996791 -0.33892781272490591 0 -0.1194204132268578 -0.33705396328175818 0 -0.13810165220621881 -0.35193792773165539 0 -0.1304943221791432 -0.36356718058786869 0 -0.1223555677065751 -0.35305672163450291 0 -0.13348154883996791 -0.33892781272490591 0 -0.13810165220621881 -0.35193792773165539 0 -0.1223555677065751 -0.35305672163450291 0 -0.16224442175770001 -0.34992973621654949 0 -0.14932221955455191 -0.33963291572191212 0 -0.15278351844696089 -0.35661802343992011 0 -0.14932221955455191 -0.33963291572191212 0 -0.13810165220621881 -0.35193792773165539 0 -0.15278351844696089 -0.35661802343992011 0 -0.13810165220621881 -0.35193792773165539 0 -0.15278351844696089 -0.35661802343992011 0 -0.1427820740056007 -0.36514087658684019 0 -0.1488628177368804 -0.37624077549874319 0 -0.15564736085963371 -0.36911164838220722 0 -0.1427820740056007 -0.36514087658684019 0 -0.15278351844696089 -0.35661802343992011 0 -0.15564736085963371 -0.36911164838220722 0 -0.1427820740056007 -0.36514087658684019 0 -0.1488628177368804 -0.37624077549874319 0 -0.13606894299019401 -0.37573686007730678 0 -0.1427820740056007 -0.36514087658684019 0 -0.13606894299019401 -0.37573686007730678 0 -0.1427820740056007 -0.36514087658684019 0 -0.1304943221791432 -0.36356718058786869 0 -0.13606894299019401 -0.37573686007730678 0 -0.1304943221791432 -0.36356718058786869 0 -0.1176685696660914 -0.3701963829529975 0 -0.13810165220621881 -0.35193792773165539 0 -0.1427820740056007 -0.36514087658684019 0 -0.1304943221791432 -0.36356718058786869 0 -0.1304943221791432 -0.36356718058786869 0 -0.1176685696660914 -0.3701963829529975 0 -0.1223555677065751 -0.35305672163450291 0 -0.1176685696660914 -0.3701963829529975 0 -0.094573438515278857 -0.36718762158259871 0 -0.10421664212808809 -0.35048501340522298 0 -0.1176685696660914 -0.3701963829529975 0 -0.094573438515278857 -0.36718762158259871 0 -0.099566998186406103 -0.38390936876072018 0 -0.094573438515278857 -0.36718762158259871 0 -0.10421664212808809 -0.35048501340522298 0 -0.08631473032317788 -0.35328780716508851 0 -0.10421664212808809 -0.35048501340522298 0 -0.1223555677065751 -0.35305672163450291 0 -0.1194204132268578 -0.33705396328175818 0 -0.1176685696660914 -0.3701963829529975 0 -0.10421664212808809 -0.35048501340522298 0 -0.1223555677065751 -0.35305672163450291 0 -0.13020327451971059 -0.32346738533574909 0 -0.1194204132268578 -0.33705396328175818 0 -0.1138710344410185 -0.32697641813716799 0 -0.1194204132268578 -0.33705396328175818 0 -0.1138710344410185 -0.32697641813716799 0 -0.10343431384804661 -0.33371617361122052 0 -0.12503158749823881 -0.30736947604579151 0 -0.13020327451971059 -0.32346738533574909 0 -0.1172816331326734 -0.31675409069922122 0 -0.13020327451971059 -0.32346738533574909 0 -0.1172816331326734 -0.31675409069922122 0 -0.1138710344410185 -0.32697641813716799 0 -0.1172816331326734 -0.31675409069922122 0 -0.1138710344410185 -0.32697641813716799 0 -0.1061984823415936 -0.31847871445977349 0 -0.1172816331326734 -0.31675409069922122 0 -0.1061984823415936 -0.31847871445977349 0 -0.1119275190719555 -0.30685784446050007 0 -0.1138710344410185 -0.32697641813716799 0 -0.1061984823415936 -0.31847871445977349 0 -0.10343431384804661 -0.33371617361122052 0 -0.1061984823415936 -0.31847871445977349 0 -0.10343431384804661 -0.33371617361122052 0 -0.093748501117980471 -0.32222324377453299 0 -0.1061984823415936 -0.31847871445977349 0 -0.093748501117980471 -0.32222324377453299 0 -0.099256368269099435 -0.30706786022982108 0 -0.10421664212808809 -0.35048501340522298 0 -0.10343431384804661 -0.33371617361122052 0 -0.086534294338911841 -0.33744118788449512 0 -0.10421664212808809 -0.35048501340522298 0 -0.1194204132268578 -0.33705396328175818 0 -0.10343431384804661 -0.33371617361122052 0 -0.10343431384804661 -0.33371617361122052 0 -0.086534294338911841 -0.33744118788449512 0 -0.093748501117980471 -0.32222324377453299 0 -0.086534294338911841 -0.33744118788449512 0 -0.079320650769075629 -0.32198370304691931 0 -0.072794636383926081 -0.33320208689064162 0 -0.093748501117980471 -0.32222324377453299 0 -0.099256368269099435 -0.30706786022982108 0 -0.085680520663388909 -0.30885321334369942 0 -0.093748501117980471 -0.32222324377453299 0 -0.079320650769075629 -0.32198370304691931 0 -0.085680520663388909 -0.30885321334369942 0 -0.086534294338911841 -0.33744118788449512 0 -0.093748501117980471 -0.32222324377453299 0 -0.079320650769075629 -0.32198370304691931 0 -0.079320650769075629 -0.32198370304691931 0 -0.085680520663388909 -0.30885321334369942 0 -0.071430098160109215 -0.30837053548217058 0 -0.079320650769075629 -0.32198370304691931 0 -0.065955255564210488 -0.31974756779347557 0 -0.071430098160109215 -0.30837053548217058 0 -0.079320650769075629 -0.32198370304691931 0 -0.065955255564210488 -0.31974756779347557 0 -0.072794636383926081 -0.33320208689064162 0 -0.065955255564210488 -0.31974756779347557 0 -0.072794636383926081 -0.33320208689064162 0 -0.061764982331378088 -0.33088257569349078 0 -0.086534294338911841 -0.33744118788449512 0 -0.072794636383926081 -0.33320208689064162 0 -0.069931982276473736 -0.34590679381943151 0 -0.069931982276473736 -0.34590679381943151 0 -0.05624408354507824 -0.34237464386809818 0 -0.061764982331378088 -0.33088257569349078 0 -0.072794636383926081 -0.33320208689064162 0 -0.069931982276473736 -0.34590679381943151 0 -0.061764982331378088 -0.33088257569349078 0 -0.069931982276473736 -0.34590679381943151 0 -0.076349106250201443 -0.36492583540835 0 -0.057907758400439088 -0.35844599080080081 0 -0.069931982276473736 -0.34590679381943151 0 -0.076349106250201443 -0.36492583540835 0 -0.08631473032317788 -0.35328780716508851 0 -0.076349106250201443 -0.36492583540835 0 -0.057907758400439088 -0.35844599080080081 0 -0.059558098740140203 -0.38229003133793538 0 -0.094573438515278857 -0.36718762158259871 0 -0.076349106250201443 -0.36492583540835 0 -0.08631473032317788 -0.35328780716508851 0 -0.094573438515278857 -0.36718762158259871 0 -0.076349106250201443 -0.36492583540835 0 -0.083095724847322833 -0.38112414360487912 0 -0.086534294338911841 -0.33744118788449512 0 -0.069931982276473736 -0.34590679381943151 0 -0.08631473032317788 -0.35328780716508851 0 -0.10421664212808809 -0.35048501340522298 0 -0.086534294338911841 -0.33744118788449512 0 -0.08631473032317788 -0.35328780716508851 0 -0.1105153895608678 -0.25339734111102152 0 -0.087759407172459197 -0.2608475638191029 0 -0.1105153895608678 -0.25339734111102152 0 -0.1025099633958301 -0.26612277707413229 0 -0.087759407172459197 -0.2608475638191029 0 -0.1105153895608678 -0.25339734111102152 0 -0.087759407172459197 -0.2608475638191029 0 -0.09705988669290827 -0.2447604411065635 0 -0.12823242419176009 -0.26476965903806182 0 -0.1105153895608678 -0.25339734111102152 0 -0.1160504991985679 -0.27098422157027813 0 -0.12823242419176009 -0.26476965903806182 0 -0.1105153895608678 -0.25339734111102152 0 -0.1256374789938742 -0.24844642613119489 0 -0.12823242419176009 -0.26476965903806182 0 -0.1105153895608678 -0.25339734111102152 0 -0.1105153895608678 -0.25339734111102152 0 -0.1160504991985679 -0.27098422157027813 0 -0.1025099633958301 -0.26612277707413229 0 -0.1105153895608678 -0.25339734111102152 0 -0.1256374789938742 -0.24844642613119489 0 -0.1307481738369865 -0.27403809250692351 0 -0.1160504991985679 -0.27098422157027813 0 -0.12359146238341299 -0.28422310450607252 0 -0.1160504991985679 -0.27098422157027813 0 -0.1106040718499568 -0.28391899221331429 0 -0.12359146238341299 -0.28422310450607252 0 -0.1160504991985679 -0.27098422157027813 0 -0.1046247261512725 -0.27398172900363021 0 -0.1106040718499568 -0.28391899221331429 0 -0.1046247261512725 -0.27398172900363021 0 -0.097903765686654126 -0.28297961449409959 0 -0.1106040718499568 -0.28391899221331429 0 -0.1160504991985679 -0.27098422157027813 0 -0.1046247261512725 -0.27398172900363021 0 -0.1025099633958301 -0.26612277707413229 0 -0.1046247261512725 -0.27398172900363021 0 -0.1025099633958301 -0.26612277707413229 0 -0.093599794895983537 -0.2714030298666304 0 -0.1025099633958301 -0.26612277707413229 0 -0.093599794895983537 -0.2714030298666304 0 -0.087759407172459197 -0.2608475638191029 0 -0.1046247261512725 -0.27398172900363021 0 -0.097903765686654126 -0.28297961449409959 0 -0.093599794895983537 -0.2714030298666304 0 -0.097903765686654126 -0.28297961449409959 0 -0.10452344652868641 -0.29498392660241968 0 -0.089417383516437382 -0.2937174298470645 0 -0.097903765686654126 -0.28297961449409959 0 -0.10452344652868641 -0.29498392660241968 0 -0.1106040718499568 -0.28391899221331429 0 -0.1106040718499568 -0.28391899221331429 0 -0.12359146238341299 -0.28422310450607252 0 -0.117692312509295 -0.29545967864920092 0 -0.13075253367692929 -0.29484197363606079 0 -0.12359146238341299 -0.28422310450607252 0 -0.117692312509295 -0.29545967864920092 0 -0.10452344652868641 -0.29498392660241968 0 -0.1106040718499568 -0.28391899221331429 0 -0.117692312509295 -0.29545967864920092 0 -0.10452344652868641 -0.29498392660241968 0 -0.117692312509295 -0.29545967864920092 0 -0.1119275190719555 -0.30685784446050007 0 -0.12503158749823881 -0.30736947604579151 0 -0.117692312509295 -0.29545967864920092 0 -0.1119275190719555 -0.30685784446050007 0 -0.12503158749823881 -0.30736947604579151 0 -0.13075253367692929 -0.29484197363606079 0 -0.117692312509295 -0.29545967864920092 0 -0.12503158749823881 -0.30736947604579151 0 -0.1172816331326734 -0.31675409069922122 0 -0.1119275190719555 -0.30685784446050007 0 -0.1061984823415936 -0.31847871445977349 0 -0.1119275190719555 -0.30685784446050007 0 -0.099256368269099435 -0.30706786022982108 0 -0.10452344652868641 -0.29498392660241968 0 -0.1119275190719555 -0.30685784446050007 0 -0.099256368269099435 -0.30706786022982108 0 -0.10452344652868641 -0.29498392660241968 0 -0.099256368269099435 -0.30706786022982108 0 -0.089417383516437382 -0.2937174298470645 0 -0.099256368269099435 -0.30706786022982108 0 -0.085680520663388909 -0.30885321334369942 0 -0.089417383516437382 -0.2937174298470645 0 -0.085680520663388909 -0.30885321334369942 0 -0.078118963539133335 -0.29969009736414309 0 -0.089417383516437382 -0.2937174298470645 0 -0.085680520663388909 -0.30885321334369942 0 -0.071430098160109215 -0.30837053548217058 0 -0.078118963539133335 -0.29969009736414309 0 -0.065955255564210488 -0.31974756779347557 0 -0.071430098160109215 -0.30837053548217058 0 -0.05897968303158261 -0.30627103375100262 0 -0.071430098160109215 -0.30837053548217058 0 -0.066720930343502155 -0.29534830686189451 0 -0.05897968303158261 -0.30627103375100262 0 -0.071430098160109215 -0.30837053548217058 0 -0.078118963539133335 -0.29969009736414309 0 -0.066720930343502155 -0.29534830686189451 0 -0.077104847701221307 -0.28906445800045111 0 -0.066720930343502155 -0.29534830686189451 0 -0.066453894327969304 -0.27649530972097519 0 -0.077104847701221307 -0.28906445800045111 0 -0.084785424885600175 -0.27971603803324291 0 -0.066453894327969304 -0.27649530972097519 0 -0.078118963539133335 -0.29969009736414309 0 -0.077104847701221307 -0.28906445800045111 0 -0.066720930343502155 -0.29534830686189451 0 -0.077104847701221307 -0.28906445800045111 0 -0.089417383516437382 -0.2937174298470645 0 -0.084785424885600175 -0.27971603803324291 0 -0.078118963539133335 -0.29969009736414309 0 -0.077104847701221307 -0.28906445800045111 0 -0.089417383516437382 -0.2937174298470645 0 -0.097903765686654126 -0.28297961449409959 0 -0.089417383516437382 -0.2937174298470645 0 -0.084785424885600175 -0.27971603803324291 0 -0.08444768764779062 -0.26922040892819288 0 -0.084785424885600175 -0.27971603803324291 0 -0.066453894327969304 -0.27649530972097519 0 -0.093599794895983537 -0.2714030298666304 0 -0.08444768764779062 -0.26922040892819288 0 -0.084785424885600175 -0.27971603803324291 0 -0.097903765686654126 -0.28297961449409959 0 -0.093599794895983537 -0.2714030298666304 0 -0.084785424885600175 -0.27971603803324291 0 -0.093599794895983537 -0.2714030298666304 0 -0.08444768764779062 -0.26922040892819288 0 -0.087759407172459197 -0.2608475638191029 0 -0.066453894327969304 -0.27649530972097519 0 -0.067673827187866659 -0.26235881168440578 0 -0.081756890510438801 -0.26062787541376942 0 -0.08444768764779062 -0.26922040892819288 0 -0.066453894327969304 -0.27649530972097519 0 -0.081756890510438801 -0.26062787541376942 0 -0.066453894327969304 -0.27649530972097519 0 -0.081756890510438801 -0.26062787541376942 0 -0.066453894327969304 -0.27649530972097519 0 -0.067673827187866659 -0.26235881168440578 0 -0.056235642213330009 -0.26435915802673349 0 -0.067673827187866659 -0.26235881168440578 0 -0.072789019009103853 -0.25402102884560251 0 -0.081756890510438801 -0.26062787541376942 0 -0.067673827187866659 -0.26235881168440578 0 -0.072789019009103853 -0.25402102884560251 0 -0.060287390876407651 -0.25133684897494479 0 -0.072789019009103853 -0.25402102884560251 0 -0.060287390876407651 -0.25133684897494479 0 -0.070744537017569914 -0.24472996084968571 0 -0.081756890510438801 -0.26062787541376942 0 -0.09705988669290827 -0.2447604411065635 0 -0.081756890510438801 -0.26062787541376942 0 -0.087759407172459197 -0.2608475638191029 0 -0.09705988669290827 -0.2447604411065635 0 -0.081756890510438801 -0.26062787541376942 0 -0.081032974515675441 -0.24752362611133041 0 -0.09705988669290827 -0.2447604411065635 0 -0.072789019009103853 -0.25402102884560251 0 -0.081756890510438801 -0.26062787541376942 0 -0.081032974515675441 -0.24752362611133041 0 -0.08444768764779062 -0.26922040892819288 0 -0.081756890510438801 -0.26062787541376942 0 -0.087759407172459197 -0.2608475638191029 0 -0.042026808752372059 -0.25650392078784667 0 -0.044206338089811788 -0.27420986112915469 0 -0.02184199476426819 -0.26581576256220479 0 -0.042026808752372059 -0.25650392078784667 0 -0.056235642213330009 -0.26435915802673349 0 -0.044206338089811788 -0.27420986112915469 0 -0.042026808752372059 -0.25650392078784667 0 -0.060287390876407651 -0.25133684897494479 0 -0.056235642213330009 -0.26435915802673349 0 -0.067673827187866659 -0.26235881168440578 0 -0.060287390876407651 -0.25133684897494479 0 -0.056235642213330009 -0.26435915802673349 0 -0.066453894327969304 -0.27649530972097519 0 -0.056235642213330009 -0.26435915802673349 0 -0.044206338089811788 -0.27420986112915469 0 -0.066453894327969304 -0.27649530972097519 0 -0.044206338089811788 -0.27420986112915469 0 -0.051150898145499633 -0.29236274402818091 0 -0.051150898145499633 -0.29236274402818091 0 -0.034557618970873991 -0.29761126436405139 0 -0.02696330970440319 -0.28772475971520178 0 -0.044206338089811788 -0.27420986112915469 0 -0.051150898145499633 -0.29236274402818091 0 -0.02696330970440319 -0.28772475971520178 0 -0.051150898145499633 -0.29236274402818091 0 -0.02696330970440319 -0.28772475971520178 0 -0.066720930343502155 -0.29534830686189451 0 -0.066453894327969304 -0.27649530972097519 0 -0.051150898145499633 -0.29236274402818091 0 -0.066453894327969304 -0.27649530972097519 0 -0.051150898145499633 -0.29236274402818091 0 -0.066720930343502155 -0.29534830686189451 0 -0.051150898145499633 -0.29236274402818091 0 -0.051150898145499633 -0.29236274402818091 0 -0.05897968303158261 -0.30627103375100262 0 -0.048547497525834073 -0.30707152581963498 0 -0.066720930343502155 -0.29534830686189451 0 -0.051150898145499633 -0.29236274402818091 0 -0.05897968303158261 -0.30627103375100262 0 -0.05897968303158261 -0.30627103375100262 0 -0.048547497525834073 -0.30707152581963498 0 -0.051712642505900533 -0.31760150100854367 0 -0.051150898145499633 -0.29236274402818091 0 -0.034557618970873991 -0.29761126436405139 0 -0.038537509514155993 -0.30544136687514872 0 -0.048547497525834073 -0.30707152581963498 0 -0.038537509514155993 -0.30544136687514872 0 -0.042356754432031643 -0.31368098343529921 0 -0.051150898145499633 -0.29236274402818091 0 -0.048547497525834073 -0.30707152581963498 0 -0.038537509514155993 -0.30544136687514872 0 -0.051150898145499633 -0.29236274402818091 0 -0.038537509514155993 -0.30544136687514872 0 -0.034557618970873991 -0.29761126436405139 0 -0.038537509514155993 -0.30544136687514872 0 -0.02574683581776813 -0.30572734774819532 0 -0.038537509514155993 -0.30544136687514872 0 -0.025924120882812152 -0.31851998972211648 0 -0.034557618970873991 -0.29761126436405139 0 -0.02574683581776813 -0.30572734774819532 0 -0.02696330970440319 -0.28772475971520178 0 -0.02574683581776813 -0.30572734774819532 0 -0.012483123360595341 -0.30316645982629731 0 -0.02696330970440319 -0.28772475971520178 0 -0.038537509514155993 -0.30544136687514872 0 -0.02574683581776813 -0.30572734774819532 0 -0.025924120882812152 -0.31851998972211648 0 -0.02574683581776813 -0.30572734774819532 0 -0.019831203454446261 -0.31189436917012298 0 -0.025924120882812152 -0.31851998972211648 0 -0.02574683581776813 -0.30572734774819532 0 -0.019831203454446261 -0.31189436917012298 0 -0.012483123360595341 -0.30316645982629731 0 -0.012483123360595341 -0.30316645982629731 0 -0.01272626803839569 -0.31664545359503898 0 0.001188009823060373 -0.31679446608462342 0 -0.019831203454446261 -0.31189436917012298 0 -0.012483123360595341 -0.30316645982629731 0 -0.01272626803839569 -0.31664545359503898 0 -0.012483123360595341 -0.30316645982629731 0 0.001188009823060373 -0.31679446608462342 0 0.001763373636564664 -0.30168821179745692 0 -0.012483123360595341 -0.30316645982629731 0 -0.0027757212633066561 -0.28308677540222332 0 -0.02696330970440319 -0.28772475971520178 0 -0.012483123360595341 -0.30316645982629731 0 -0.0027757212633066561 -0.28308677540222332 0 0.001763373636564664 -0.30168821179745692 0 -0.0027757212633066561 -0.28308677540222332 0 -0.02696330970440319 -0.28772475971520178 0 -0.0027757212633066561 -0.28308677540222332 0 -0.02696330970440319 -0.28772475971520178 0 -0.02184199476426819 -0.26581576256220479 0 -0.044206338089811788 -0.27420986112915469 0 -0.02696330970440319 -0.28772475971520178 0 -0.02184199476426819 -0.26581576256220479 0 -0.0027757212633066561 -0.28308677540222332 0 -0.02184199476426819 -0.26581576256220479 0 -0.004277733196565655 -0.26493900554078142 0 -0.02184199476426819 -0.26581576256220479 0 -0.004277733196565655 -0.26493900554078142 0 -0.0051000949063709604 -0.24904007175921131 0 -0.02184199476426819 -0.26581576256220479 0 -0.025592378059952299 -0.24506867592519291 0 -0.0051000949063709604 -0.24904007175921131 0 -0.042026808752372059 -0.25650392078784667 0 -0.02184199476426819 -0.26581576256220479 0 -0.025592378059952299 -0.24506867592519291 0 -0.04070808755149008 -0.3455268111414157 0 -0.045506292153824318 -0.3714722803078182 0 -0.02343893413863065 -0.35776038871446708 0 -0.04070808755149008 -0.3455268111414157 0 -0.045506292153824318 -0.3714722803078182 0 -0.045506292153824318 -0.3714722803078182 0 -0.02343893413863065 -0.35776038871446708 0 -0.02777626965012878 -0.38157686391723172 0 -0.045506292153824318 -0.3714722803078182 0 -0.057907758400439088 -0.35844599080080081 0 -0.059558098740140203 -0.38229003133793538 0 -0.069931982276473736 -0.34590679381943151 0 -0.057907758400439088 -0.35844599080080081 0 -0.05624408354507824 -0.34237464386809818 0 -0.04070808755149008 -0.3455268111414157 0 -0.045506292153824318 -0.3714722803078182 0 -0.057907758400439088 -0.35844599080080081 0 -0.04070808755149008 -0.3455268111414157 0 -0.057907758400439088 -0.35844599080080081 0 -0.05624408354507824 -0.34237464386809818 0 -0.05624408354507824 -0.34237464386809818 0 -0.061764982331378088 -0.33088257569349078 0 -0.050907607165610207 -0.33111104788535239 0 -0.04070808755149008 -0.3455268111414157 0 -0.05624408354507824 -0.34237464386809818 0 -0.050907607165610207 -0.33111104788535239 0 -0.065955255564210488 -0.31974756779347557 0 -0.05897968303158261 -0.30627103375100262 0 -0.051712642505900533 -0.31760150100854367 0 -0.065955255564210488 -0.31974756779347557 0 -0.061764982331378088 -0.33088257569349078 0 -0.051712642505900533 -0.31760150100854367 0 -0.061764982331378088 -0.33088257569349078 0 -0.050907607165610207 -0.33111104788535239 0 -0.051712642505900533 -0.31760150100854367 0 -0.050907607165610207 -0.33111104788535239 0 -0.051712642505900533 -0.31760150100854367 0 -0.044081952770764023 -0.32621753515153828 0 -0.048547497525834073 -0.30707152581963498 0 -0.051712642505900533 -0.31760150100854367 0 -0.042356754432031643 -0.31368098343529921 0 -0.051712642505900533 -0.31760150100854367 0 -0.042356754432031643 -0.31368098343529921 0 -0.04351530816446271 -0.31927034039259872 0 -0.042356754432031643 -0.31368098343529921 0 -0.04351530816446271 -0.31927034039259872 0 -0.035909882949154683 -0.31958134197501342 0 -0.042356754432031643 -0.31368098343529921 0 -0.035909882949154683 -0.31958134197501342 0 -0.051712642505900533 -0.31760150100854367 0 -0.04351530816446271 -0.31927034039259872 0 -0.044081952770764023 -0.32621753515153828 0 -0.04351530816446271 -0.31927034039259872 0 -0.044081952770764023 -0.32621753515153828 0 -0.035909882949154683 -0.31958134197501342 0 -0.038537509514155993 -0.30544136687514872 0 -0.035909882949154683 -0.31958134197501342 0 -0.025924120882812152 -0.31851998972211648 0 -0.038537509514155993 -0.30544136687514872 0 -0.042356754432031643 -0.31368098343529921 0 -0.035909882949154683 -0.31958134197501342 0 -0.04070808755149008 -0.3455268111414157 0 -0.035909882949154683 -0.31958134197501342 0 -0.04070808755149008 -0.3455268111414157 0 -0.044081952770764023 -0.32621753515153828 0 -0.035909882949154683 -0.31958134197501342 0 -0.04070808755149008 -0.3455268111414157 0 -0.050907607165610207 -0.33111104788535239 0 -0.044081952770764023 -0.32621753515153828 0 -0.04070808755149008 -0.3455268111414157 0 -0.035909882949154683 -0.31958134197501342 0 -0.015728948096967881 -0.33805150251889271 0 -0.035909882949154683 -0.31958134197501342 0 -0.015728948096967881 -0.33805150251889271 0 -0.035909882949154683 -0.31958134197501342 0 -0.025924120882812152 -0.31851998972211648 0 -0.01860335240479765 -0.32530509371887423 0 -0.035909882949154683 -0.31958134197501342 0 -0.015728948096967881 -0.33805150251889271 0 -0.01860335240479765 -0.32530509371887423 0 -0.019831203454446261 -0.31189436917012298 0 -0.025924120882812152 -0.31851998972211648 0 -0.01272626803839569 -0.31664545359503898 0 -0.025924120882812152 -0.31851998972211648 0 -0.01860335240479765 -0.32530509371887423 0 -0.01272626803839569 -0.31664545359503898 0 -0.01860335240479765 -0.32530509371887423 0 -0.01272626803839569 -0.31664545359503898 0 -0.0045930383722408126 -0.33106057767172498 0 -0.01272626803839569 -0.31664545359503898 0 -0.0045930383722408126 -0.33106057767172498 0 0.001188009823060373 -0.31679446608462342 0 -0.015728948096967881 -0.33805150251889271 0 -0.0045930383722408126 -0.33106057767172498 0 0.0044519867552184986 -0.35652166306277228 0 -0.015728948096967881 -0.33805150251889271 0 -0.01860335240479765 -0.32530509371887423 0 -0.0045930383722408126 -0.33106057767172498 0 -0.015728948096967881 -0.33805150251889271 0 -0.02343893413863065 -0.35776038871446708 0 0.0044519867552184986 -0.35652166306277228 0 -0.015728948096967881 -0.33805150251889271 0 0.0044519867552184986 -0.35652166306277228 0 -0.04070808755149008 -0.3455268111414157 0 -0.015728948096967881 -0.33805150251889271 0 -0.02343893413863065 -0.35776038871446708 0 -0.02343893413863065 -0.35776038871446708 0 -0.01093809997968195 -0.37283680164300359 0 -0.02777626965012878 -0.38157686391723172 0 -0.02343893413863065 -0.35776038871446708 0 -0.01093809997968195 -0.37283680164300359 0 0.0044519867552184986 -0.35652166306277228 0 -0.01093809997968195 -0.37283680164300359 0 0.0064026000298581494 -0.37540694283770731 0 0.0044519867552184986 -0.35652166306277228 0 -0.01093809997968195 -0.37283680164300359 0 -0.01144646081429648 -0.38965261029225212 0 0.0064026000298581494 -0.37540694283770731 0 -0.01144646081429648 -0.38965261029225212 0 -0.0044247763618271959 -0.40210583404303157 0 0.0080942134445603012 -0.39208442404542598 0 -0.01144646081429648 -0.38965261029225212 0 -0.0044247763618271959 -0.40210583404303157 0 -0.01710367802760155 -0.40301580213111893 0 -0.0044247763618271959 -0.40210583404303157 0 -0.01710367802760155 -0.40301580213111893 0 -0.012388965574141561 -0.41276714995159541 0 -0.01144646081429648 -0.38965261029225212 0 -0.01710367802760155 -0.40301580213111893 0 -0.028084811164621009 -0.39617312014143741 0 -0.01710367802760155 -0.40301580213111893 0 -0.028084811164621009 -0.39617312014143741 0 -0.02726719528579237 -0.410951399692008 0 -0.028084811164621009 -0.39617312014143741 0 -0.036229685178518628 -0.40419127176874398 0 -0.02726719528579237 -0.410951399692008 0 -0.01093809997968195 -0.37283680164300359 0 -0.01144646081429648 -0.38965261029225212 0 -0.02777626965012878 -0.38157686391723172 0 -0.01144646081429648 -0.38965261029225212 0 -0.028084811164621009 -0.39617312014143741 0 -0.02777626965012878 -0.38157686391723172 0 -0.045506292153824318 -0.3714722803078182 0 -0.02777626965012878 -0.38157686391723172 0 -0.038875225238912917 -0.3923080832048399 0 -0.045506292153824318 -0.3714722803078182 0 -0.038875225238912917 -0.3923080832048399 0 -0.050304496756158557 -0.39741774947422071 0 -0.028084811164621009 -0.39617312014143741 0 -0.02777626965012878 -0.38157686391723172 0 -0.038875225238912917 -0.3923080832048399 0 -0.028084811164621009 -0.39617312014143741 0 -0.038875225238912917 -0.3923080832048399 0 -0.036229685178518628 -0.40419127176874398 0 -0.038875225238912917 -0.3923080832048399 0 -0.036229685178518628 -0.40419127176874398 0 -0.044412262815348998 -0.40346229295421809 0 -0.038875225238912917 -0.3923080832048399 0 -0.044412262815348998 -0.40346229295421809 0 -0.050304496756158557 -0.39741774947422071 0 -0.050304496756158557 -0.39741774947422071 0 -0.062217478172525001 -0.39810174233680562 0 -0.059558098740140203 -0.38229003133793538 0 -0.044412262815348998 -0.40346229295421809 0 -0.050304496756158557 -0.39741774947422071 0 -0.054240320286617169 -0.40697597044555123 0 -0.050304496756158557 -0.39741774947422071 0 -0.062217478172525001 -0.39810174233680562 0 -0.054240320286617169 -0.40697597044555123 0 -0.045506292153824318 -0.3714722803078182 0 -0.050304496756158557 -0.39741774947422071 0 -0.059558098740140203 -0.38229003133793538 0 -0.045506292153824318 -0.3714722803078182 0 -0.050304496756158557 -0.39741774947422071 0 -0.055252489543441627 -0.42857941618436851 0 -0.054240320286617169 -0.40697597044555123 0 -0.043896170468719568 -0.41188776477391809 0 -0.044412262815348998 -0.40346229295421809 0 -0.054240320286617169 -0.40697597044555123 0 -0.043896170468719568 -0.41188776477391809 0 -0.055252489543441627 -0.42857941618436851 0 -0.043896170468719568 -0.41188776477391809 0 -0.037538344247344743 -0.42043829821143242 0 -0.036229685178518628 -0.40419127176874398 0 -0.043896170468719568 -0.41188776477391809 0 -0.037538344247344743 -0.42043829821143242 0 -0.036229685178518628 -0.40419127176874398 0 -0.037538344247344743 -0.42043829821143242 0 -0.02726719528579237 -0.410951399692008 0 -0.036229685178518628 -0.40419127176874398 0 -0.044412262815348998 -0.40346229295421809 0 -0.043896170468719568 -0.41188776477391809 0 -0.037538344247344743 -0.42043829821143242 0 -0.023208474533214351 -0.42181107664125927 0 -0.040046395363513183 -0.44534938777150318 0 -0.055252489543441627 -0.42857941618436851 0 -0.037538344247344743 -0.42043829821143242 0 -0.040046395363513183 -0.44534938777150318 0 -0.016102167650640681 -0.43168673471437841 0 -0.023208474533214351 -0.42181107664125927 0 -0.040046395363513183 -0.44534938777150318 0 -0.016102167650640681 -0.43168673471437841 0 -0.023208474533214351 -0.42181107664125927 0 -0.0094045113196971203 -0.42203335140464909 0 -0.037538344247344743 -0.42043829821143242 0 -0.02726719528579237 -0.410951399692008 0 -0.023208474533214351 -0.42181107664125927 0 -0.02726719528579237 -0.410951399692008 0 -0.023208474533214351 -0.42181107664125927 0 -0.012388965574141561 -0.41276714995159541 0 -0.01710367802760155 -0.40301580213111893 0 -0.02726719528579237 -0.410951399692008 0 -0.012388965574141561 -0.41276714995159541 0 -0.0044247763618271959 -0.40210583404303157 0 -0.012388965574141561 -0.41276714995159541 0 0.0088083015437354986 -0.41419546350435121 0 -0.012388965574141561 -0.41276714995159541 0 -0.0094045113196971203 -0.42203335140464909 0 0.0088083015437354986 -0.41419546350435121 0 -0.023208474533214351 -0.42181107664125927 0 -0.012388965574141561 -0.41276714995159541 0 -0.0094045113196971203 -0.42203335140464909 0 -0.0094045113196971203 -0.42203335140464909 0 -0.0041312503842245059 -0.42970633221166138 0 0.0088083015437354986 -0.41419546350435121 0 -0.016102167650640681 -0.43168673471437841 0 -0.0041312503842245059 -0.42970633221166138 0 -0.0078647318234790174 -0.44430903528408688 0 -0.016102167650640681 -0.43168673471437841 0 -0.0094045113196971203 -0.42203335140464909 0 -0.0041312503842245059 -0.42970633221166138 0 -0.0041312503842245059 -0.42970633221166138 0 -0.0078647318234790174 -0.44430903528408688 0 0.0097483964575000772 -0.44330458289357078 0 -0.0078647318234790174 -0.44430903528408688 0 -0.01246189318989015 -0.46010874199320551 0 -0.040046395363513183 -0.44534938777150318 0 -0.016102167650640681 -0.43168673471437841 0 -0.0078647318234790174 -0.44430903528408688 0 -0.040046395363513183 -0.44534938777150318 0 -0.0078647318234790174 -0.44430903528408688 0 -0.01246189318989015 -0.46010874199320551 0 0.0097483964575000772 -0.44330458289357078 0 -0.01246189318989015 -0.46010874199320551 0 -0.037141729811762142 -0.47427331688457908 0 -0.040046395363513183 -0.44534938777150318 0 -0.016102167650640681 -0.43168673471437841 0 -0.040046395363513183 -0.44534938777150318 0 -0.01102378916454722 -0.48135915223211512 0 -0.022293173664932438 -0.5 0 0.0060893594725853761 -0.5 0 -0.01246189318989015 -0.46010874199320551 0 -0.01102378916454722 -0.48135915223211512 0 0.010688491371263259 -0.47241370228279062 0 -0.01246189318989015 -0.46010874199320551 0 -0.01102378916454722 -0.48135915223211512 0 -0.037141729811762142 -0.47427331688457908 0 -0.01102378916454722 -0.48135915223211512 0 -0.022293173664932438 -0.5 0 -0.037141729811762142 -0.47427331688457908 0 -0.022293173664932438 -0.5 0 -0.037141729811762142 -0.47427331688457908 0 -0.05067570680245026 -0.5 0 -0.037141729811762142 -0.47427331688457908 0 -0.06399062307638563 -0.45901204082862801 0 -0.064866973371209211 -0.48195337399134291 0 -0.037141729811762142 -0.47427331688457908 0 -0.05067570680245026 -0.5 0 -0.064866973371209211 -0.48195337399134291 0 -0.037141729811762142 -0.47427331688457908 0 -0.040046395363513183 -0.44534938777150318 0 -0.06399062307638563 -0.45901204082862801 0 -0.055252489543441627 -0.42857941618436851 0 -0.040046395363513183 -0.44534938777150318 0 -0.06399062307638563 -0.45901204082862801 0 -0.040046395363513183 -0.44534938777150318 0 -0.06399062307638563 -0.45901204082862801 0 -0.055252489543441627 -0.42857941618436851 0 -0.06399062307638563 -0.45901204082862801 0 -0.076089824969113554 -0.43523559958414121 0 -0.06399062307638563 -0.45901204082862801 0 -0.092237016813342732 -0.44833318888615448 0 -0.076089824969113554 -0.43523559958414121 0 -0.06399062307638563 -0.45901204082862801 0 -0.087934850789258112 -0.47267469388575278 0 -0.06399062307638563 -0.45901204082862801 0 -0.092237016813342732 -0.44833318888615448 0 -0.087934850789258112 -0.47267469388575278 0 -0.05067570680245026 -0.5 0 -0.064866973371209211 -0.48195337399134291 0 -0.079058239939968133 -0.5 0 -0.064866973371209211 -0.48195337399134291 0 -0.087934850789258112 -0.47267469388575278 0 -0.079058239939968133 -0.5 0 -0.06399062307638563 -0.45901204082862801 0 -0.064866973371209211 -0.48195337399134291 0 -0.087934850789258112 -0.47267469388575278 0 -0.087934850789258112 -0.47267469388575278 0 -0.079058239939968133 -0.5 0 -0.094855214419160408 -0.48835937102396187 0 -0.094855214419160408 -0.48835937102396187 0 -0.1074407730774859 -0.5 0 -0.11187907850213059 -0.48633734694287761 0 -0.079058239939968133 -0.5 0 -0.094855214419160408 -0.48835937102396187 0 -0.1074407730774859 -0.5 0 -0.087934850789258112 -0.47267469388575278 0 -0.094855214419160408 -0.48835937102396187 0 -0.11187907850213059 -0.48633734694287761 0 -0.087934850789258112 -0.47267469388575278 0 -0.1167821702630303 -0.47221952753896201 0 -0.11187907850213059 -0.48633734694287761 0 -0.087934850789258112 -0.47267469388575278 0 -0.11187907850213059 -0.48633734694287761 0 -0.1293766113236772 -0.48014750738932882 0 -0.1167821702630303 -0.47221952753896201 0 -0.11187907850213059 -0.48633734694287761 0 -0.13582330621500369 -0.50000000000000133 0 -0.1074407730774859 -0.5 0 -0.11187907850213059 -0.48633734694287761 0 -0.13582330621500369 -0.50000000000000133 0 -0.11187907850213059 -0.48633734694287761 0 -0.092237016813342732 -0.44833318888615448 0 -0.1137300868818453 -0.45698610709671322 0 -0.1121293247932508 -0.44136068716438448 0 -0.092237016813342732 -0.44833318888615448 0 -0.1121293247932508 -0.44136068716438448 0 -0.10313310112623079 -0.42539130561732658 0 -0.092237016813342732 -0.44833318888615448 0 -0.087934850789258112 -0.47267469388575278 0 -0.1137300868818453 -0.45698610709671322 0 -0.087934850789258112 -0.47267469388575278 0 -0.1167821702630303 -0.47221952753896201 0 -0.1137300868818453 -0.45698610709671322 0 -0.140701246644762 -0.46197707408921651 0 -0.1167821702630303 -0.47221952753896201 0 -0.1137300868818453 -0.45698610709671322 0 -0.13687428941648 -0.44697771242112311 0 -0.1137300868818453 -0.45698610709671322 0 -0.1121293247932508 -0.44136068716438448 0 -0.1275794915460377 -0.43459897320321428 0 -0.10313310112623079 -0.42539130561732658 0 -0.1275794915460377 -0.43459897320321428 0 -0.10313310112623079 -0.42539130561732658 0 -0.12406128666458791 -0.41417451903708208 0 -0.1275794915460377 -0.43459897320321428 0 -0.1121293247932508 -0.44136068716438448 0 -0.10313310112623079 -0.42539130561732658 0 -0.10313310112623079 -0.42539130561732658 0 -0.10917971455047901 -0.40516453855504658 0 -0.091174183645089141 -0.40120147908914588 0 -0.10313310112623079 -0.42539130561732658 0 -0.12406128666458791 -0.41417451903708208 0 -0.10917971455047901 -0.40516453855504658 0 -0.12406128666458791 -0.41417451903708208 0 -0.120168383304424 -0.39790384746952079 0 -0.10917971455047901 -0.40516453855504658 0 -0.120168383304424 -0.39790384746952079 0 -0.099566998186406103 -0.38390936876072018 0 -0.10917971455047901 -0.40516453855504658 0 -0.12574156104363851 -0.38471241379117399 0 -0.120168383304424 -0.39790384746952079 0 -0.099566998186406103 -0.38390936876072018 0 -0.12574156104363851 -0.38471241379117399 0 -0.1176685696660914 -0.3701963829529975 0 -0.099566998186406103 -0.38390936876072018 0 -0.12574156104363851 -0.38471241379117399 0 -0.099566998186406103 -0.38390936876072018 0 -0.12574156104363851 -0.38471241379117399 0 -0.1176685696660914 -0.3701963829529975 0 -0.099566998186406103 -0.38390936876072018 0 -0.10917971455047901 -0.40516453855504658 0 -0.091174183645089141 -0.40120147908914588 0 -0.091174183645089141 -0.40120147908914588 0 -0.083095724847322833 -0.38112414360487912 0 -0.07495773594662844 -0.39563125278316269 0 -0.091174183645089141 -0.40120147908914588 0 -0.07495773594662844 -0.39563125278316269 0 -0.078686710706423996 -0.41618363803143887 0 -0.094573438515278857 -0.36718762158259871 0 -0.099566998186406103 -0.38390936876072018 0 -0.083095724847322833 -0.38112414360487912 0 -0.099566998186406103 -0.38390936876072018 0 -0.091174183645089141 -0.40120147908914588 0 -0.083095724847322833 -0.38112414360487912 0 -0.076349106250201443 -0.36492583540835 0 -0.059558098740140203 -0.38229003133793538 0 -0.083095724847322833 -0.38112414360487912 0 -0.059558098740140203 -0.38229003133793538 0 -0.083095724847322833 -0.38112414360487912 0 -0.07495773594662844 -0.39563125278316269 0 -0.062217478172525001 -0.39810174233680562 0 -0.059558098740140203 -0.38229003133793538 0 -0.07495773594662844 -0.39563125278316269 0 -0.062217478172525001 -0.39810174233680562 0 -0.07495773594662844 -0.39563125278316269 0 -0.078686710706423996 -0.41618363803143887 0 -0.055252489543441627 -0.42857941618436851 0 -0.054240320286617169 -0.40697597044555123 0 -0.078686710706423996 -0.41618363803143887 0 -0.054240320286617169 -0.40697597044555123 0 -0.078686710706423996 -0.41618363803143887 0 -0.062217478172525001 -0.39810174233680562 0 -0.054240320286617169 -0.40697597044555123 0 -0.078686710706423996 -0.41618363803143887 0 -0.055252489543441627 -0.42857941618436851 0 -0.076089824969113554 -0.43523559958414121 0 -0.078686710706423996 -0.41618363803143887 0 -0.092237016813342732 -0.44833318888615448 0 -0.10313310112623079 -0.42539130561732658 0 -0.076089824969113554 -0.43523559958414121 0 -0.10313310112623079 -0.42539130561732658 0 -0.076089824969113554 -0.43523559958414121 0 -0.078686710706423996 -0.41618363803143887 0 -0.10313310112623079 -0.42539130561732658 0 -0.091174183645089141 -0.40120147908914588 0 -0.078686710706423996 -0.41618363803143887 0 -0.10313310112623079 -0.42539130561732658 0 -0.078686710706423996 -0.41618363803143887 0 -0.092070558271500458 -0.092252812899217718 0 -0.073382457360773048 -0.089661555571584006 0 -0.074427988003969686 -0.098494786978702065 0 -0.078534428219856456 -0.080523982241592934 0 -0.092070558271500458 -0.092252812899217718 0 -0.090497633409606926 -0.076007406581586251 0 -0.078534428219856456 -0.080523982241592934 0 -0.092070558271500458 -0.092252812899217718 0 -0.073382457360773048 -0.089661555571584006 0 -0.090497633409606926 -0.076007406581586251 0 -0.076314752164421115 -0.067930699416468898 0 -0.094945221071610061 -0.058977839475723992 0 -0.078534428219856456 -0.080523982241592934 0 -0.090497633409606926 -0.076007406581586251 0 -0.076314752164421115 -0.067930699416468898 0 -0.078534428219856456 -0.080523982241592934 0 -0.076314752164421115 -0.067930699416468898 0 -0.061458332230541167 -0.078076799384588433 0 -0.076314752164421115 -0.067930699416468898 0 -0.059311841392122852 -0.058204020382424303 0 -0.061458332230541167 -0.078076799384588433 0 -0.076314752164421115 -0.067930699416468898 0 -0.059311841392122852 -0.058204020382424303 0 -0.078534428219856456 -0.080523982241592934 0 -0.073382457360773048 -0.089661555571584006 0 -0.061458332230541167 -0.078076799384588433 0 -0.073382457360773048 -0.089661555571584006 0 -0.062994347866618589 -0.096267321243577619 0 -0.061458332230541167 -0.078076799384588433 0 -0.062994347866618589 -0.096267321243577619 0 -0.066310123851165054 -0.1071962411055024 0 -0.074427988003969686 -0.098494786978702065 0 -0.073382457360773048 -0.089661555571584006 0 -0.062994347866618589 -0.096267321243577619 0 -0.074427988003969686 -0.098494786978702065 0 -0.066310123851165054 -0.1071962411055024 0 -0.077382452669789936 -0.1070960040736281 0 -0.074427988003969686 -0.098494786978702065 0 -0.066310123851165054 -0.1071962411055024 0 -0.077382452669789936 -0.1070960040736281 0 -0.072379565881808675 -0.1121517142538033 0 -0.066310123851165054 -0.1071962411055024 0 -0.077382452669789936 -0.1070960040736281 0 -0.066310123851165054 -0.1071962411055024 0 -0.072379565881808675 -0.1121517142538033 0 -0.051501148415266193 -0.1099954633464736 0 -0.072379565881808675 -0.1121517142538033 0 -0.07297822322795508 -0.12274374298397429 0 -0.057734267282363791 -0.12695164644468551 0 -0.072379565881808675 -0.1121517142538033 0 -0.057734267282363791 -0.12695164644468551 0 -0.066310123851165054 -0.1071962411055024 0 -0.072379565881808675 -0.1121517142538033 0 -0.072379565881808675 -0.1121517142538033 0 -0.075728972006863737 -0.1124976293600554 0 -0.07297822322795508 -0.12274374298397429 0 -0.072379565881808675 -0.1121517142538033 0 -0.075728972006863737 -0.1124976293600554 0 -0.077382452669789936 -0.1070960040736281 0 -0.072379565881808675 -0.1121517142538033 0 -0.077382452669789936 -0.1070960040736281 0 -0.072379565881808675 -0.1121517142538033 0 -0.075728972006863737 -0.1124976293600554 0 -0.075728972006863737 -0.1124976293600554 0 -0.086811502990881251 -0.1136421949157618 0 -0.096891039351932648 -0.12440867553159241 0 -0.075728972006863737 -0.1124976293600554 0 -0.096891039351932648 -0.12440867553159241 0 -0.075728972006863737 -0.1124976293600554 0 -0.07297822322795508 -0.12274374298397429 0 -0.096891039351932648 -0.12440867553159241 0 -0.077382452669789936 -0.1070960040736281 0 -0.075728972006863737 -0.1124976293600554 0 -0.086811502990881251 -0.1136421949157618 0 -0.075728972006863737 -0.1124976293600554 0 -0.086811502990881251 -0.1136421949157618 0 -0.077382452669789936 -0.1070960040736281 0 -0.10258951529076279 -0.10686780626801071 0 -0.092070558271500458 -0.092252812899217718 0 -0.077382452669789936 -0.1070960040736281 0 -0.10258951529076279 -0.10686780626801071 0 -0.092070558271500458 -0.092252812899217718 0 -0.077382452669789936 -0.1070960040736281 0 -0.074427988003969686 -0.098494786978702065 0 -0.077382452669789936 -0.1070960040736281 0 -0.086811502990881251 -0.1136421949157618 0 -0.10258951529076279 -0.10686780626801071 0 -0.092070558271500458 -0.092252812899217718 0 -0.077382452669789936 -0.1070960040736281 0 -0.092070558271500458 -0.092252812899217718 0 -0.10258951529076279 -0.10686780626801071 0 -0.1150740629364887 -0.093610598120999491 0 -0.086811502990881251 -0.1136421949157618 0 -0.10258951529076279 -0.10686780626801071 0 -0.096891039351932648 -0.12440867553159241 0 -0.10258951529076279 -0.10686780626801071 0 -0.096891039351932648 -0.12440867553159241 0 -0.11428846205478441 -0.1183327260799749 0 -0.10258951529076279 -0.10686780626801071 0 -0.11428846205478441 -0.1183327260799749 0 -0.12779657791173579 -0.1066396084623952 0 -0.11428846205478441 -0.1183327260799749 0 -0.12779657791173579 -0.1066396084623952 0 -0.12588964361509331 -0.1215411992977304 0 -0.10258951529076279 -0.10686780626801071 0 -0.12779657791173579 -0.1066396084623952 0 -0.10258951529076279 -0.10686780626801071 0 -0.1150740629364887 -0.093610598120999491 0 -0.12779657791173579 -0.1066396084623952 0 -0.1150740629364887 -0.093610598120999491 0 -0.13082166523634511 -0.083010070297341518 0 -0.12779657791173579 -0.1066396084623952 0 -0.1150740629364887 -0.093610598120999491 0 -0.10675866387320999 -0.077409621724806421 0 -0.13082166523634511 -0.083010070297341518 0 -0.092070558271500458 -0.092252812899217718 0 -0.1150740629364887 -0.093610598120999491 0 -0.10675866387320999 -0.077409621724806421 0 -0.092070558271500458 -0.092252812899217718 0 -0.090497633409606926 -0.076007406581586251 0 -0.10675866387320999 -0.077409621724806421 0 -0.092070558271500458 -0.092252812899217718 0 -0.10675866387320999 -0.077409621724806421 0 -0.10675866387320999 -0.077409621724806421 0 -0.121446769474921 -0.062566430550396582 0 -0.094945221071610061 -0.058977839475723992 0 -0.090497633409606926 -0.076007406581586251 0 -0.10675866387320999 -0.077409621724806421 0 -0.094945221071610061 -0.058977839475723992 0 -0.10675866387320999 -0.077409621724806421 0 -0.121446769474921 -0.062566430550396582 0 -0.13082166523634511 -0.083010070297341518 0 -0.10675866387320999 -0.077409621724806421 0 -0.121446769474921 -0.062566430550396582 0 -0.121446769474921 -0.062566430550396582 0 -0.1112717176010572 -0.040377907050010639 0 -0.121446769474921 -0.062566430550396582 0 -0.1112717176010572 -0.040377907050010639 0 -0.13997413210703949 -0.043843445234018119 0 -0.1112717176010572 -0.040377907050010639 0 -0.09051972080605053 -0.0231029296425979 0 -0.081000444796089199 -0.040015308906169438 0 -0.1112717176010572 -0.040377907050010639 0 -0.094945221071610061 -0.058977839475723992 0 -0.081000444796089199 -0.040015308906169438 0 -0.121446769474921 -0.062566430550396582 0 -0.1112717176010572 -0.040377907050010639 0 -0.094945221071610061 -0.058977839475723992 0 -0.1112717176010572 -0.040377907050010639 0 -0.115216914923293 -0.01398412961978371 0 -0.12563345933199019 -0.02887381096411034 0 -0.1112717176010572 -0.040377907050010639 0 -0.115216914923293 -0.01398412961978371 0 -0.09051972080605053 -0.0231029296425979 0 -0.115216914923293 -0.01398412961978371 0 -0.1108539494081503 0.008041496653659528 0 -0.09306177644197873 0.00089356871771194279 0 -0.115216914923293 -0.01398412961978371 0 -0.09051972080605053 -0.0231029296425979 0 -0.09306177644197873 0.00089356871771194279 0 -0.09051972080605053 -0.0231029296425979 0 -0.074188929019844058 -0.012541175696713159 0 -0.09306177644197873 0.00089356871771194279 0 -0.074188929019844058 -0.012541175696713159 0 -0.09306177644197873 0.00089356871771194279 0 -0.074188929019844058 -0.012541175696713159 0 -0.09306177644197873 0.00089356871771194279 0 -0.072501182663271851 0.009803197509418049 0 -0.074188929019844058 -0.012541175696713159 0 -0.068378542054041105 -0.032592625300622423 0 -0.05531608159770933 -0.0259759201111383 0 -0.074188929019844058 -0.012541175696713159 0 -0.05531608159770933 -0.0259759201111383 0 -0.09051972080605053 -0.0231029296425979 0 -0.074188929019844058 -0.012541175696713159 0 -0.068378542054041105 -0.032592625300622423 0 -0.074188929019844058 -0.012541175696713159 0 -0.055515530224721277 -0.0051438872638667667 0 -0.072501182663271851 0.009803197509418049 0 -0.076314752164421115 -0.067930699416468898 0 -0.094945221071610061 -0.058977839475723992 0 -0.075147228039188482 -0.054904494211863032 0 -0.094945221071610061 -0.058977839475723992 0 -0.081000444796089199 -0.040015308906169438 0 -0.075147228039188482 -0.054904494211863032 0 -0.09051972080605053 -0.0231029296425979 0 -0.081000444796089199 -0.040015308906169438 0 -0.068378542054041105 -0.032592625300622423 0 -0.081000444796089199 -0.040015308906169438 0 -0.068378542054041105 -0.032592625300622423 0 -0.068098614272400868 -0.045580340941117993 0 -0.081000444796089199 -0.040015308906169438 0 -0.068098614272400868 -0.045580340941117993 0 -0.075147228039188482 -0.054904494211863032 0 -0.068378542054041105 -0.032592625300622423 0 -0.068098614272400868 -0.045580340941117993 0 -0.056655015080562643 -0.0421852559045107 0 -0.076314752164421115 -0.067930699416468898 0 -0.075147228039188482 -0.054904494211863032 0 -0.059311841392122852 -0.058204020382424303 0 -0.068098614272400868 -0.045580340941117993 0 -0.075147228039188482 -0.054904494211863032 0 -0.059311841392122852 -0.058204020382424303 0 -0.059311841392122852 -0.058204020382424303 0 -0.056655015080562643 -0.0421852559045107 0 -0.042308930619824353 -0.04847734134838011 0 -0.068098614272400868 -0.045580340941117993 0 -0.059311841392122852 -0.058204020382424303 0 -0.056655015080562643 -0.0421852559045107 0 -0.059311841392122852 -0.058204020382424303 0 -0.042308930619824353 -0.04847734134838011 0 -0.05188363142518259 -0.063277070366484389 0 -0.059311841392122852 -0.058204020382424303 0 -0.042308930619824353 -0.04847734134838011 0 -0.042308930619824353 -0.04847734134838011 0 -0.05188363142518259 -0.063277070366484389 0 -0.056655015080562643 -0.0421852559045107 0 -0.047680815368417347 -0.039012295472397818 0 -0.05531608159770933 -0.0259759201111383 0 -0.068378542054041105 -0.032592625300622423 0 -0.056655015080562643 -0.0421852559045107 0 -0.05531608159770933 -0.0259759201111383 0 -0.056655015080562643 -0.0421852559045107 0 -0.047680815368417347 -0.039012295472397818 0 -0.042308930619824353 -0.04847734134838011 0 -0.047680815368417347 -0.039012295472397818 0 -0.036443234175573512 -0.039410664525561911 0 -0.042308930619824353 -0.04847734134838011 0 -0.036443234175573512 -0.039410664525561911 0 -0.042308930619824353 -0.04847734134838011 0 -0.036443234175573512 -0.039410664525561911 0 -0.05531608159770933 -0.0259759201111383 0 -0.047680815368417347 -0.039012295472397818 0 -0.036443234175573512 -0.039410664525561911 0 -0.05531608159770933 -0.0259759201111383 0 -0.036443234175573512 -0.039410664525561911 0 -0.031995005898667737 -0.042577161274070269 0 -0.042308930619824353 -0.04847734134838011 0 -0.031995005898667737 -0.042577161274070269 0 -0.042308930619824353 -0.04847734134838011 0 -0.036443234175573512 -0.039410664525561911 0 -0.031995005898667737 -0.042577161274070269 0 -0.033348594065183472 -0.052175813665237457 0 -0.04091627628828115 -0.059056075696563903 0 -0.042308930619824353 -0.04847734134838011 0 -0.031995005898667737 -0.042577161274070269 0 -0.033348594065183472 -0.052175813665237457 0 -0.042308930619824353 -0.04847734134838011 0 -0.04091627628828115 -0.059056075696563903 0 -0.030364275903002759 -0.061398620925386838 0 -0.042888794566721712 -0.067018379349580132 0 -0.033348594065183472 -0.052175813665237457 0 -0.04091627628828115 -0.059056075696563903 0 -0.030364275903002759 -0.061398620925386838 0 -0.04091627628828115 -0.059056075696563903 0 -0.042308930619824353 -0.04847734134838011 0 -0.05188363142518259 -0.063277070366484389 0 -0.074188929019844058 -0.012541175696713159 0 -0.055515530224721277 -0.0051438872638667667 0 -0.05531608159770933 -0.0259759201111383 0 -0.055515530224721277 -0.0051438872638667667 0 -0.05531608159770933 -0.0259759201111383 0 -0.03948366299473792 -0.02094387762802756 0 -0.036443234175573512 -0.039410664525561911 0 -0.05531608159770933 -0.0259759201111383 0 -0.03948366299473792 -0.02094387762802756 0 -0.036443234175573512 -0.039410664525561911 0 -0.03948366299473792 -0.02094387762802756 0 -0.024176100840593941 -0.020449210494012379 0 -0.03948366299473792 -0.02094387762802756 0 -0.026266818702171939 -0.0053158858329299206 0 -0.038793910950651059 0.0036386104169880821 0 -0.055515530224721277 -0.0051438872638667667 0 -0.03948366299473792 -0.02094387762802756 0 -0.038793910950651059 0.0036386104169880821 0 -0.03948366299473792 -0.02094387762802756 0 -0.026266818702171939 -0.0053158858329299206 0 -0.024176100840593941 -0.020449210494012379 0 -0.024176100840593941 -0.020449210494012379 0 -0.011908967505614459 -0.0014877564624628109 0 -0.024176100840593941 -0.020449210494012379 0 -0.01153684235831297 -0.015177347882599239 0 -0.011908967505614459 -0.0014877564624628109 0 -0.026266818702171939 -0.0053158858329299206 0 -0.024176100840593941 -0.020449210494012379 0 -0.011908967505614459 -0.0014877564624628109 0 -0.036443234175573512 -0.039410664525561911 0 -0.024176100840593941 -0.020449210494012379 0 -0.024176100840593941 -0.020449210494012379 0 -0.01153684235831297 -0.015177347882599239 0 -0.0177832615347411 -0.034447195893846323 0 -0.0035715171708147128 -0.026317230513622 0 -0.01153684235831297 -0.015177347882599239 0 0.0122706565695259 -0.0055741078097889859 0 -0.0035715171708147128 -0.026317230513622 0 -0.01153684235831297 -0.015177347882599239 0 -0.0177832615347411 -0.034447195893846323 0 -0.0035715171708147128 -0.026317230513622 0 -0.0177832615347411 -0.034447195893846323 0 -0.01153684235831297 -0.015177347882599239 0 -0.011908967505614459 -0.0014877564624628109 0 0.0122706565695259 -0.0055741078097889859 0 -0.021626659618925081 -0.049957927893591277 0 -0.010863479942910099 -0.065687671467141814 0 -0.019214674039366102 -0.06483266573679114 0 -0.021626659618925081 -0.049957927893591277 0 -0.030364275903002759 -0.061398620925386838 0 -0.021626659618925081 -0.049957927893591277 0 -0.030364275903002759 -0.061398620925386838 0 -0.019214674039366102 -0.06483266573679114 0 -0.031995005898667737 -0.042577161274070269 0 -0.033348594065183472 -0.052175813665237457 0 -0.021626659618925081 -0.049957927893591277 0 -0.033348594065183472 -0.052175813665237457 0 -0.021626659618925081 -0.049957927893591277 0 -0.030364275903002759 -0.061398620925386838 0 -0.036443234175573512 -0.039410664525561911 0 -0.024176100840593941 -0.020449210494012379 0 -0.0177832615347411 -0.034447195893846323 0 -0.031995005898667737 -0.042577161274070269 0 -0.021626659618925081 -0.049957927893591277 0 -0.0177832615347411 -0.034447195893846323 0 -0.036443234175573512 -0.039410664525561911 0 -0.031995005898667737 -0.042577161274070269 0 -0.0177832615347411 -0.034447195893846323 0 -0.031995005898667737 -0.042577161274070269 0 -0.021626659618925081 -0.049957927893591277 0 -0.031995005898667737 -0.042577161274070269 0 -0.0177832615347411 -0.034447195893846323 0 -0.0035715171708147128 -0.026317230513622 0 -0.021626659618925081 -0.049957927893591277 0 -0.0035715171708147128 -0.026317230513622 0 -0.021626659618925081 -0.049957927893591277 0 -0.0033234267383674778 -0.042950679409621197 0 -0.0035715171708147128 -0.026317230513622 0 -0.0033234267383674778 -0.042950679409621197 0 0.0043718263274121734 -0.036099688687670467 0 -0.0035715171708147128 -0.026317230513622 0 -0.021626659618925081 -0.049957927893591277 0 -0.0177832615347411 -0.034447195893846323 0 -0.0053961341226830706 -0.052251185447431257 0 0.0026901866096132711 -0.050198525173678121 0 0.0026116530460322772 -0.057796347036650757 0 -0.021626659618925081 -0.049957927893591277 0 -0.010863479942910099 -0.065687671467141814 0 0.00054446795576909568 -0.065740571905023568 0 -0.021626659618925081 -0.049957927893591277 0 -0.0033234267383674778 -0.042950679409621197 0 -0.0053961341226830706 -0.052251185447431257 0 -0.021626659618925081 -0.049957927893591277 0 -0.0053961341226830706 -0.052251185447431257 0 0.00054446795576909568 -0.065740571905023568 0 -0.021626659618925081 -0.049957927893591277 0 0.00054446795576909568 -0.065740571905023568 0 -0.0033234267383674778 -0.042950679409621197 0 -0.0053961341226830706 -0.052251185447431257 0 0.0026901866096132711 -0.050198525173678121 0 -0.0053961341226830706 -0.052251185447431257 0 0.00054446795576909568 -0.065740571905023568 0 0.0026116530460322772 -0.057796347036650757 0 -0.001818144037319683 -0.073153901583463868 0 -0.010863479942910099 -0.065687671467141814 0 0.00054446795576909568 -0.065740571905023568 0 -0.001818144037319683 -0.073153901583463868 0 -0.01220238997470874 -0.074753290216839213 0 -0.0024121720072170631 -0.081149604640722323 0 -0.001818144037319683 -0.073153901583463868 0 -0.01220238997470874 -0.074753290216839213 0 -0.010863479942910099 -0.065687671467141814 0 -0.01220238997470874 -0.074753290216839213 0 -0.010863479942910099 -0.065687671467141814 0 -0.019214674039366102 -0.06483266573679114 0 -0.0096398489651899327 -0.086254158663222294 0 -0.0036165696749490728 -0.094806956262067837 0 0.0049108475916147332 -0.088758796278125912 0 -0.0024121720072170631 -0.081149604640722323 0 -0.0096398489651899327 -0.086254158663222294 0 0.0049108475916147332 -0.088758796278125912 0 -0.01220238997470874 -0.074753290216839213 0 -0.0096398489651899327 -0.086254158663222294 0 -0.02033293312312489 -0.080847079595113558 0 -0.01220238997470874 -0.074753290216839213 0 -0.0024121720072170631 -0.081149604640722323 0 -0.0096398489651899327 -0.086254158663222294 0 -0.0096398489651899327 -0.086254158663222294 0 -0.019293095072751849 -0.088709644378476324 0 -0.015665521150123599 -0.095138111364990285 0 -0.0096398489651899327 -0.086254158663222294 0 -0.015665521150123599 -0.095138111364990285 0 -0.0036165696749490728 -0.094806956262067837 0 -0.019293095072751849 -0.088709644378476324 0 -0.024910700190081 -0.094055361874286619 0 -0.015665521150123599 -0.095138111364990285 0 -0.0096398489651899327 -0.086254158663222294 0 -0.019293095072751849 -0.088709644378476324 0 -0.02033293312312489 -0.080847079595113558 0 -0.019293095072751849 -0.088709644378476324 0 -0.02033293312312489 -0.080847079595113558 0 -0.02970709049704498 -0.085808983713112713 0 -0.02033293312312489 -0.080847079595113558 0 -0.02970709049704498 -0.085808983713112713 0 -0.024821050188906211 -0.072158206884112883 0 -0.02970709049704498 -0.085808983713112713 0 -0.031680018603926142 -0.098113663492428851 0 -0.024910700190081 -0.094055361874286619 0 -0.019293095072751849 -0.088709644378476324 0 -0.02970709049704498 -0.085808983713112713 0 -0.024910700190081 -0.094055361874286619 0 -0.01220238997470874 -0.074753290216839213 0 -0.02033293312312489 -0.080847079595113558 0 -0.024821050188906211 -0.072158206884112883 0 -0.01220238997470874 -0.074753290216839213 0 -0.019214674039366102 -0.06483266573679114 0 -0.024821050188906211 -0.072158206884112883 0 -0.02970709049704498 -0.085808983713112713 0 -0.024821050188906211 -0.072158206884112883 0 -0.038536020422000959 -0.076327714567779453 0 -0.030364275903002759 -0.061398620925386838 0 -0.024821050188906211 -0.072158206884112883 0 -0.038536020422000959 -0.076327714567779453 0 -0.030364275903002759 -0.061398620925386838 0 -0.019214674039366102 -0.06483266573679114 0 -0.024821050188906211 -0.072158206884112883 0 -0.030364275903002759 -0.061398620925386838 0 -0.042888794566721712 -0.067018379349580132 0 -0.038536020422000959 -0.076327714567779453 0 -0.04091627628828115 -0.059056075696563903 0 -0.042888794566721712 -0.067018379349580132 0 -0.05188363142518259 -0.063277070366484389 0 -0.042888794566721712 -0.067018379349580132 0 -0.038536020422000959 -0.076327714567779453 0 -0.049469546537956342 -0.074249356423610399 0 -0.02970709049704498 -0.085808983713112713 0 -0.038536020422000959 -0.076327714567779453 0 -0.039440003221732668 -0.092072423463624931 0 -0.038536020422000959 -0.076327714567779453 0 -0.039440003221732668 -0.092072423463624931 0 -0.050943842916742907 -0.086155289065581758 0 -0.02970709049704498 -0.085808983713112713 0 -0.039440003221732668 -0.092072423463624931 0 -0.031680018603926142 -0.098113663492428851 0 -0.038536020422000959 -0.076327714567779453 0 -0.050943842916742907 -0.086155289065581758 0 -0.049469546537956342 -0.074249356423610399 0 -0.050943842916742907 -0.086155289065581758 0 -0.061458332230541167 -0.078076799384588433 0 -0.049469546537956342 -0.074249356423610399 0 -0.062994347866618589 -0.096267321243577619 0 -0.050943842916742907 -0.086155289065581758 0 -0.061458332230541167 -0.078076799384588433 0 -0.039440003221732668 -0.092072423463624931 0 -0.050943842916742907 -0.086155289065581758 0 -0.052875063536449017 -0.099634332284563393 0 -0.059311841392122852 -0.058204020382424303 0 -0.061458332230541167 -0.078076799384588433 0 -0.05188363142518259 -0.063277070366484389 0 -0.061458332230541167 -0.078076799384588433 0 -0.05188363142518259 -0.063277070366484389 0 -0.042888794566721712 -0.067018379349580132 0 -0.05188363142518259 -0.063277070366484389 0 -0.049469546537956342 -0.074249356423610399 0 -0.061458332230541167 -0.078076799384588433 0 -0.05188363142518259 -0.063277070366484389 0 -0.049469546537956342 -0.074249356423610399 0 -0.072379565881808675 -0.1121517142538033 0 -0.051501148415266193 -0.1099954633464736 0 -0.057734267282363791 -0.12695164644468551 0 -0.051501148415266193 -0.1099954633464736 0 -0.057734267282363791 -0.12695164644468551 0 -0.042727633317417607 -0.12635194179007239 0 -0.072379565881808675 -0.1121517142538033 0 -0.051501148415266193 -0.1099954633464736 0 -0.066310123851165054 -0.1071962411055024 0 -0.052875063536449017 -0.099634332284563393 0 -0.037379444539996462 -0.1074581485571188 0 -0.066310123851165054 -0.1071962411055024 0 -0.051501148415266193 -0.1099954633464736 0 -0.037379444539996462 -0.1074581485571188 0 -0.066310123851165054 -0.1071962411055024 0 -0.052875063536449017 -0.099634332284563393 0 -0.066310123851165054 -0.1071962411055024 0 -0.037379444539996462 -0.1074581485571188 0 -0.062994347866618589 -0.096267321243577619 0 -0.050943842916742907 -0.086155289065581758 0 -0.052875063536449017 -0.099634332284563393 0 -0.062994347866618589 -0.096267321243577619 0 -0.066310123851165054 -0.1071962411055024 0 -0.052875063536449017 -0.099634332284563393 0 -0.051501148415266193 -0.1099954633464736 0 -0.037379444539996462 -0.1074581485571188 0 -0.03062273094872436 -0.1078392124391379 0 -0.051501148415266193 -0.1099954633464736 0 -0.03062273094872436 -0.1078392124391379 0 -0.039440003221732668 -0.092072423463624931 0 -0.052875063536449017 -0.099634332284563393 0 -0.039440003221732668 -0.092072423463624931 0 -0.052875063536449017 -0.099634332284563393 0 -0.037379444539996462 -0.1074581485571188 0 -0.039440003221732668 -0.092072423463624931 0 -0.031680018603926142 -0.098113663492428851 0 -0.037379444539996462 -0.1074581485571188 0 -0.031680018603926142 -0.098113663492428851 0 -0.037379444539996462 -0.1074581485571188 0 -0.03062273094872436 -0.1078392124391379 0 -0.051501148415266193 -0.1099954633464736 0 -0.033263977330065461 -0.1194029582465794 0 -0.042727633317417607 -0.12635194179007239 0 -0.051501148415266193 -0.1099954633464736 0 -0.033263977330065461 -0.1194029582465794 0 -0.03062273094872436 -0.1078392124391379 0 -0.033263977330065461 -0.1194029582465794 0 -0.021457981563975749 -0.11505023831613791 0 -0.021984967218806131 -0.1245865113131405 0 -0.021457981563975749 -0.11505023831613791 0 -0.03062273094872436 -0.1078392124391379 0 -0.0097443134821825275 -0.10568296153180221 0 -0.033263977330065461 -0.1194029582465794 0 -0.021457981563975749 -0.11505023831613791 0 -0.03062273094872436 -0.1078392124391379 0 -0.021457981563975749 -0.11505023831613791 0 -0.021984967218806131 -0.1245865113131405 0 -0.01267496458502442 -0.1194359080369525 0 -0.03062273094872436 -0.1078392124391379 0 -0.022524656875007518 -0.10016586214052919 0 -0.0097443134821825275 -0.10568296153180221 0 -0.03062273094872436 -0.1078392124391379 0 -0.0097443134821825275 -0.10568296153180221 0 -0.031680018603926142 -0.098113663492428851 0 -0.024910700190081 -0.094055361874286619 0 -0.022524656875007518 -0.10016586214052919 0 -0.031680018603926142 -0.098113663492428851 0 -0.03062273094872436 -0.1078392124391379 0 -0.022524656875007518 -0.10016586214052919 0 -0.015665521150123599 -0.095138111364990285 0 -0.022524656875007518 -0.10016586214052919 0 -0.0097443134821825275 -0.10568296153180221 0 -0.024910700190081 -0.094055361874286619 0 -0.015665521150123599 -0.095138111364990285 0 -0.022524656875007518 -0.10016586214052919 0 -0.015665521150123599 -0.095138111364990285 0 -0.0097443134821825275 -0.10568296153180221 0 -0.0036165696749490728 -0.094806956262067837 0 -0.021457981563975749 -0.11505023831613791 0 -0.0097443134821825275 -0.10568296153180221 0 -0.01267496458502442 -0.1194359080369525 0 -0.0097443134821825275 -0.10568296153180221 0 -0.01267496458502442 -0.1194359080369525 0 -0.00051383012936461261 -0.12115106769845869 0 -0.00051383012936461261 -0.12115106769845869 0 -0.014478750106429071 -0.1388512892624528 0 -0.00051383012936461261 -0.12115106769845869 0 -0.014478750106429071 -0.1388512892624528 0 -0.00021813125033820981 -0.14121417949905171 0 -0.01267496458502442 -0.1194359080369525 0 -0.00051383012936461261 -0.12115106769845869 0 -0.014478750106429071 -0.1388512892624528 0 -0.021984967218806131 -0.1245865113131405 0 -0.014478750106429071 -0.1388512892624528 0 -0.030288999139213572 -0.1343639218610643 0 -0.021984967218806131 -0.1245865113131405 0 -0.01267496458502442 -0.1194359080369525 0 -0.014478750106429071 -0.1388512892624528 0 -0.033263977330065461 -0.1194029582465794 0 -0.021984967218806131 -0.1245865113131405 0 -0.030288999139213572 -0.1343639218610643 0 -0.014478750106429071 -0.1388512892624528 0 -0.01395378620268331 -0.1534294781041764 0 -0.028443670083480858 -0.1565515108264568 0 -0.014478750106429071 -0.1388512892624528 0 -0.030288999139213572 -0.1343639218610643 0 -0.028443670083480858 -0.1565515108264568 0 -0.014478750106429071 -0.1388512892624528 0 -0.028443670083480858 -0.1565515108264568 0 -0.01395378620268331 -0.1534294781041764 0 -0.00021813125033820981 -0.14121417949905171 0 -0.002862460002846737 -0.15948301651848881 0 -0.014478750106429071 -0.1388512892624528 0 -0.01395378620268331 -0.1534294781041764 0 -0.00021813125033820981 -0.14121417949905171 0 -0.002862460002846737 -0.15948301651848881 0 -0.0021769760571534991 -0.1715651156863349 0 -0.01771429816064261 -0.1673941697064093 0 -0.002862460002846737 -0.15948301651848881 0 -0.01771429816064261 -0.1673941697064093 0 -0.01395378620268331 -0.1534294781041764 0 -0.002862460002846737 -0.15948301651848881 0 -0.01771429816064261 -0.1673941697064093 0 -0.001716520374770193 -0.18356086134659491 0 -0.01771429816064261 -0.1673941697064093 0 -0.0021769760571534991 -0.1715651156863349 0 -0.001716520374770193 -0.18356086134659491 0 -0.01771429816064261 -0.1673941697064093 0 -0.001716520374770193 -0.18356086134659491 0 -0.02348717745399467 -0.1850537237084468 0 -0.01771429816064261 -0.1673941697064093 0 -0.01771429816064261 -0.1673941697064093 0 -0.044366336830636267 -0.18159095521193899 0 -0.02348717745399467 -0.1850537237084468 0 -0.01771429816064261 -0.1673941697064093 0 -0.033013531607667637 -0.1831356406579262 0 -0.01771429816064261 -0.1673941697064093 0 -0.028443670083480858 -0.1565515108264568 0 -0.045811881534964113 -0.17856532768799921 0 -0.01395378620268331 -0.1534294781041764 0 -0.01771429816064261 -0.1673941697064093 0 -0.028443670083480858 -0.1565515108264568 0 -0.01771429816064261 -0.1673941697064093 0 -0.028443670083480858 -0.1565515108264568 0 -0.028443670083480858 -0.1565515108264568 0 -0.045811881534964113 -0.17856532768799921 0 -0.028443670083480858 -0.1565515108264568 0 -0.045811881534964113 -0.17856532768799921 0 -0.047195850669988021 -0.16597153333232509 0 -0.028443670083480858 -0.1565515108264568 0 -0.047195850669988021 -0.16597153333232509 0 -0.045150016154464317 -0.1559077118875869 0 -0.01771429816064261 -0.1673941697064093 0 -0.045811881534964113 -0.17856532768799921 0 -0.044366336830636267 -0.18159095521193899 0 -0.01771429816064261 -0.1673941697064093 0 -0.033013531607667637 -0.1831356406579262 0 -0.044366336830636267 -0.18159095521193899 0 -0.033013531607667637 -0.1831356406579262 0 -0.044366336830636267 -0.18159095521193899 0 -0.041074081693629638 -0.18739245391090159 0 -0.045811881534964113 -0.17856532768799921 0 -0.044366336830636267 -0.18159095521193899 0 -0.048732541977346347 -0.1879359036004421 0 -0.044366336830636267 -0.18159095521193899 0 -0.0446662101935629 -0.18724162348253801 0 -0.048732541977346347 -0.1879359036004421 0 -0.044366336830636267 -0.18159095521193899 0 -0.0446662101935629 -0.18724162348253801 0 -0.041074081693629638 -0.18739245391090159 0 -0.045811881534964113 -0.17856532768799921 0 -0.055989979233863979 -0.18249254424144351 0 -0.063180092986433845 -0.2005791445495522 0 -0.045811881534964113 -0.17856532768799921 0 -0.051539349663970807 -0.17394357961840401 0 -0.047195850669988021 -0.16597153333232509 0 -0.045811881534964113 -0.17856532768799921 0 -0.051539349663970807 -0.17394357961840401 0 -0.055989979233863979 -0.18249254424144351 0 -0.051539349663970807 -0.17394357961840401 0 -0.056624051731371007 -0.1763497156345542 0 -0.055989979233863979 -0.18249254424144351 0 -0.051539349663970807 -0.17394357961840401 0 -0.056624051731371007 -0.1763497156345542 0 -0.057731604036761461 -0.16968178251246621 0 -0.061690604333580132 -0.17521890115240449 0 -0.056624051731371007 -0.1763497156345542 0 -0.057731604036761461 -0.16968178251246621 0 -0.061690604333580132 -0.17521890115240449 0 -0.056624051731371007 -0.1763497156345542 0 -0.062794520252580116 -0.18302495371670791 0 -0.056624051731371007 -0.1763497156345542 0 -0.055989979233863979 -0.18249254424144351 0 -0.062794520252580116 -0.18302495371670791 0 -0.047195850669988021 -0.16597153333232509 0 -0.054718588194720308 -0.16039288285695 0 -0.045150016154464317 -0.1559077118875869 0 -0.047195850669988021 -0.16597153333232509 0 -0.057731604036761461 -0.16968178251246621 0 -0.054718588194720308 -0.16039288285695 0 -0.051539349663970807 -0.17394357961840401 0 -0.047195850669988021 -0.16597153333232509 0 -0.057731604036761461 -0.16968178251246621 0 -0.054718588194720308 -0.16039288285695 0 -0.053252181039803233 -0.15191765032356949 0 -0.063961636950577438 -0.15791657772519291 0 -0.057731604036761461 -0.16968178251246621 0 -0.054718588194720308 -0.16039288285695 0 -0.063961636950577438 -0.15791657772519291 0 -0.053252181039803233 -0.15191765032356949 0 -0.059341695216332417 -0.14361950051254729 0 -0.063961636950577438 -0.15791657772519291 0 -0.053252181039803233 -0.15191765032356949 0 -0.059341695216332417 -0.14361950051254729 0 -0.0430889686829216 -0.1417515786355705 0 -0.053252181039803233 -0.15191765032356949 0 -0.045150016154464317 -0.1559077118875869 0 -0.0430889686829216 -0.1417515786355705 0 -0.054718588194720308 -0.16039288285695 0 -0.053252181039803233 -0.15191765032356949 0 -0.045150016154464317 -0.1559077118875869 0 -0.059341695216332417 -0.14361950051254729 0 -0.057734267282363791 -0.12695164644468551 0 -0.069077230659992855 -0.13483529828770449 0 -0.059341695216332417 -0.14361950051254729 0 -0.057734267282363791 -0.12695164644468551 0 -0.0430889686829216 -0.1417515786355705 0 -0.057734267282363791 -0.12695164644468551 0 -0.042727633317417607 -0.12635194179007239 0 -0.0430889686829216 -0.1417515786355705 0 -0.057734267282363791 -0.12695164644468551 0 -0.0430889686829216 -0.1417515786355705 0 -0.033263977330065461 -0.1194029582465794 0 -0.030288999139213572 -0.1343639218610643 0 -0.042727633317417607 -0.12635194179007239 0 -0.030288999139213572 -0.1343639218610643 0 -0.042727633317417607 -0.12635194179007239 0 -0.0430889686829216 -0.1417515786355705 0 -0.030288999139213572 -0.1343639218610643 0 -0.028443670083480858 -0.1565515108264568 0 -0.0430889686829216 -0.1417515786355705 0 -0.028443670083480858 -0.1565515108264568 0 -0.045150016154464317 -0.1559077118875869 0 -0.0430889686829216 -0.1417515786355705 0 -0.028443670083480858 -0.1565515108264568 0 -0.0430889686829216 -0.1417515786355705 0 -0.025592378059952299 -0.24506867592519291 0 -0.02375465074169765 -0.22377533429843699 0 -0.043997108510462492 -0.23823321810884929 0 -0.025592378059952299 -0.24506867592519291 0 -0.0117395277749004 -0.23446698455037779 0 -0.02375465074169765 -0.22377533429843699 0 -0.0051000949063709604 -0.24904007175921131 0 -0.0117395277749004 -0.23446698455037779 0 0.0028816789089166558 -0.23183637951985259 0 -0.025592378059952299 -0.24506867592519291 0 -0.0051000949063709604 -0.24904007175921131 0 -0.0117395277749004 -0.23446698455037779 0 -0.0117395277749004 -0.23446698455037779 0 -0.0071321940753977476 -0.22261446124919521 0 -0.02375465074169765 -0.22377533429843699 0 -0.0117395277749004 -0.23446698455037779 0 -0.0071321940753977476 -0.22261446124919521 0 0.0028816789089166558 -0.23183637951985259 0 -0.02375465074169765 -0.22377533429843699 0 -0.0082893249638397466 -0.20620303414635671 0 -0.02555236195431276 -0.19886075628657451 0 -0.0071321940753977476 -0.22261446124919521 0 -0.02375465074169765 -0.22377533429843699 0 -0.0082893249638397466 -0.20620303414635671 0 -0.0071321940753977476 -0.22261446124919521 0 -0.0082893249638397466 -0.20620303414635671 0 0.004701453699878894 -0.21579903142299711 0 -0.0082893249638397466 -0.20620303414635671 0 -0.0013413224236437889 -0.20129110548027501 0 0.004701453699878894 -0.21579903142299711 0 -0.001716520374770193 -0.18356086134659491 0 -0.02555236195431276 -0.19886075628657451 0 -0.001716520374770193 -0.18356086134659491 0 -0.0040962595028597214 -0.1906061852318178 0 -0.02555236195431276 -0.19886075628657451 0 -0.0082893249638397466 -0.20620303414635671 0 -0.0040962595028597214 -0.1906061852318178 0 -0.02555236195431276 -0.19886075628657451 0 -0.0082893249638397466 -0.20620303414635671 0 -0.0013413224236437889 -0.20129110548027501 0 -0.0040962595028597214 -0.1906061852318178 0 -0.001716520374770193 -0.18356086134659491 0 -0.02348717745399467 -0.1850537237084468 0 -0.02555236195431276 -0.19886075628657451 0 -0.02348717745399467 -0.1850537237084468 0 -0.02555236195431276 -0.19886075628657451 0 -0.038437760192586518 -0.19440074105825789 0 -0.02555236195431276 -0.19886075628657451 0 -0.038437760192586518 -0.19440074105825789 0 -0.049388203533844592 -0.21416065122657069 0 -0.038437760192586518 -0.19440074105825789 0 -0.049295944213243757 -0.20007657783497329 0 -0.049388203533844592 -0.21416065122657069 0 -0.033013531607667637 -0.1831356406579262 0 -0.041074081693629638 -0.18739245391090159 0 -0.038437760192586518 -0.19440074105825789 0 -0.02348717745399467 -0.1850537237084468 0 -0.033013531607667637 -0.1831356406579262 0 -0.038437760192586518 -0.19440074105825789 0 -0.038437760192586518 -0.19440074105825789 0 -0.044491880272639298 -0.19204718120686939 0 -0.049295944213243757 -0.20007657783497329 0 -0.041074081693629638 -0.18739245391090159 0 -0.038437760192586518 -0.19440074105825789 0 -0.044491880272639298 -0.19204718120686939 0 -0.0446662101935629 -0.18724162348253801 0 -0.044491880272639298 -0.19204718120686939 0 -0.048732541977346347 -0.1879359036004421 0 -0.0446662101935629 -0.18724162348253801 0 -0.041074081693629638 -0.18739245391090159 0 -0.044491880272639298 -0.19204718120686939 0 -0.055989979233863979 -0.18249254424144351 0 -0.063180092986433845 -0.2005791445495522 0 -0.062794520252580116 -0.18302495371670791 0 -0.045811881534964113 -0.17856532768799921 0 -0.063180092986433845 -0.2005791445495522 0 -0.048732541977346347 -0.1879359036004421 0 -0.05142511486241582 -0.19515970179795919 0 -0.063180092986433845 -0.2005791445495522 0 -0.045811881534964113 -0.17856532768799921 0 -0.048732541977346347 -0.1879359036004421 0 -0.063180092986433845 -0.2005791445495522 0 -0.044491880272639298 -0.19204718120686939 0 -0.048732541977346347 -0.1879359036004421 0 -0.05142511486241582 -0.19515970179795919 0 -0.044491880272639298 -0.19204718120686939 0 -0.05142511486241582 -0.19515970179795919 0 -0.049295944213243757 -0.20007657783497329 0 -0.05142511486241582 -0.19515970179795919 0 -0.049295944213243757 -0.20007657783497329 0 -0.063180092986433845 -0.2005791445495522 0 -0.059419474656045267 -0.21071518248769239 0 -0.049388203533844592 -0.21416065122657069 0 -0.06615894864261003 -0.2163587015605318 0 -0.049295944213243757 -0.20007657783497329 0 -0.053669530378511313 -0.2097724605019626 0 -0.049388203533844592 -0.21416065122657069 0 -0.053669530378511313 -0.2097724605019626 0 -0.061353255326445422 -0.2064103167214684 0 -0.063180092986433845 -0.2005791445495522 0 -0.049295944213243757 -0.20007657783497329 0 -0.053669530378511313 -0.2097724605019626 0 -0.063180092986433845 -0.2005791445495522 0 -0.053669530378511313 -0.2097724605019626 0 -0.063180092986433845 -0.2005791445495522 0 -0.053669530378511313 -0.2097724605019626 0 -0.059419474656045267 -0.21071518248769239 0 -0.061353255326445422 -0.2064103167214684 0 -0.059419474656045267 -0.21071518248769239 0 -0.061353255326445422 -0.2064103167214684 0 -0.06570838322293765 -0.20836665745414959 0 -0.053669530378511313 -0.2097724605019626 0 -0.059419474656045267 -0.21071518248769239 0 -0.049388203533844592 -0.21416065122657069 0 -0.02375465074169765 -0.22377533429843699 0 -0.02555236195431276 -0.19886075628657451 0 -0.049388203533844592 -0.21416065122657069 0 -0.02555236195431276 -0.19886075628657451 0 -0.049388203533844592 -0.21416065122657069 0 -0.02375465074169765 -0.22377533429843699 0 -0.049388203533844592 -0.21416065122657069 0 -0.043997108510462492 -0.23823321810884929 0 -0.049388203533844592 -0.21416065122657069 0 -0.059528257010332222 -0.23558424506532349 0 -0.073224045113376449 -0.229460546166567 0 -0.049388203533844592 -0.21416065122657069 0 -0.059528257010332222 -0.23558424506532349 0 -0.043997108510462492 -0.23823321810884929 0 -0.049388203533844592 -0.21416065122657069 0 -0.073224045113376449 -0.229460546166567 0 -0.042026808752372059 -0.25650392078784667 0 -0.060287390876407651 -0.25133684897494479 0 -0.043997108510462492 -0.23823321810884929 0 -0.060287390876407651 -0.25133684897494479 0 -0.059528257010332222 -0.23558424506532349 0 -0.043997108510462492 -0.23823321810884929 0 -0.042026808752372059 -0.25650392078784667 0 -0.025592378059952299 -0.24506867592519291 0 -0.043997108510462492 -0.23823321810884929 0 -0.073224045113376449 -0.229460546166567 0 -0.09705988669290827 -0.2447604411065635 0 -0.081032974515675441 -0.24752362611133041 0 -0.073224045113376449 -0.229460546166567 0 -0.09705988669290827 -0.2447604411065635 0 -0.092802120114850561 -0.23476644111030801 0 -0.073224045113376449 -0.229460546166567 0 -0.09705988669290827 -0.2447604411065635 0 -0.081032974515675441 -0.24752362611133041 0 -0.070744537017569914 -0.24472996084968571 0 -0.073224045113376449 -0.229460546166567 0 -0.060287390876407651 -0.25133684897494479 0 -0.059528257010332222 -0.23558424506532349 0 -0.070744537017569914 -0.24472996084968571 0 -0.072789019009103853 -0.25402102884560251 0 -0.081032974515675441 -0.24752362611133041 0 -0.070744537017569914 -0.24472996084968571 0 -0.059528257010332222 -0.23558424506532349 0 -0.070744537017569914 -0.24472996084968571 0 -0.073224045113376449 -0.229460546166567 0 -0.049388203533844592 -0.21416065122657069 0 -0.073224045113376449 -0.229460546166567 0 -0.06615894864261003 -0.2163587015605318 0 -0.073224045113376449 -0.229460546166567 0 -0.076404655184555956 -0.2177555600421954 0 -0.06615894864261003 -0.2163587015605318 0 -0.092802120114850561 -0.23476644111030801 0 -0.073224045113376449 -0.229460546166567 0 -0.087386655579379413 -0.221336098103218 0 -0.073224045113376449 -0.229460546166567 0 -0.087386655579379413 -0.221336098103218 0 -0.076404655184555956 -0.2177555600421954 0 -0.092802120114850561 -0.23476644111030801 0 -0.087386655579379413 -0.221336098103218 0 -0.1003114696379807 -0.22536365431683439 0 -0.087386655579379413 -0.221336098103218 0 -0.081029461080584134 -0.20822060730322831 0 -0.099606269467231515 -0.20937011251263521 0 -0.081029461080584134 -0.20822060730322831 0 -0.090741290682821177 -0.19261566324025731 0 -0.099606269467231515 -0.20937011251263521 0 -0.087386655579379413 -0.221336098103218 0 -0.081029461080584134 -0.20822060730322831 0 -0.076404655184555956 -0.2177555600421954 0 -0.081029461080584134 -0.20822060730322831 0 -0.076404655184555956 -0.2177555600421954 0 -0.071909757383101555 -0.21074144288973121 0 -0.076404655184555956 -0.2177555600421954 0 -0.06615894864261003 -0.2163587015605318 0 -0.071909757383101555 -0.21074144288973121 0 -0.059419474656045267 -0.21071518248769239 0 -0.06615894864261003 -0.2163587015605318 0 -0.06570838322293765 -0.20836665745414959 0 -0.06615894864261003 -0.2163587015605318 0 -0.06570838322293765 -0.20836665745414959 0 -0.071909757383101555 -0.21074144288973121 0 -0.061353255326445422 -0.2064103167214684 0 -0.06570838322293765 -0.20836665745414959 0 -0.06478879538829907 -0.20261813861398531 0 -0.061353255326445422 -0.2064103167214684 0 -0.063180092986433845 -0.2005791445495522 0 -0.06478879538829907 -0.20261813861398531 0 -0.06570838322293765 -0.20836665745414959 0 -0.070024177275033628 -0.20392736278313009 0 -0.071909757383101555 -0.21074144288973121 0 -0.06570838322293765 -0.20836665745414959 0 -0.070024177275033628 -0.20392736278313009 0 -0.06478879538829907 -0.20261813861398531 0 -0.081029461080584134 -0.20822060730322831 0 -0.070024177275033628 -0.20392736278313009 0 -0.076392972650611998 -0.19874164388278001 0 -0.081029461080584134 -0.20822060730322831 0 -0.070024177275033628 -0.20392736278313009 0 -0.071909757383101555 -0.21074144288973121 0 -0.063180092986433845 -0.2005791445495522 0 -0.080325537465065822 -0.1840056257437063 0 -0.063180092986433845 -0.2005791445495522 0 -0.062794520252580116 -0.18302495371670791 0 -0.080325537465065822 -0.1840056257437063 0 -0.076392972650611998 -0.19874164388278001 0 -0.063180092986433845 -0.2005791445495522 0 -0.080325537465065822 -0.1840056257437063 0 -0.070024177275033628 -0.20392736278313009 0 -0.076392972650611998 -0.19874164388278001 0 -0.063180092986433845 -0.2005791445495522 0 -0.070024177275033628 -0.20392736278313009 0 -0.063180092986433845 -0.2005791445495522 0 -0.06478879538829907 -0.20261813861398531 0 -0.063180092986433845 -0.2005791445495522 0 -0.06478879538829907 -0.20261813861398531 0 -0.076392972650611998 -0.19874164388278001 0 -0.090741290682821177 -0.19261566324025731 0 -0.080325537465065822 -0.1840056257437063 0 -0.081029461080584134 -0.20822060730322831 0 -0.076392972650611998 -0.19874164388278001 0 -0.090741290682821177 -0.19261566324025731 0 -0.090741290682821177 -0.19261566324025731 0 -0.10962252148973579 -0.18792388306133331 0 -0.099606269467231515 -0.20937011251263521 0 -0.10962252148973579 -0.18792388306133331 0 -0.12956667495364191 -0.1765366729717569 0 -0.12792206268005671 -0.20630750412903681 0 -0.10962252148973579 -0.18792388306133331 0 -0.099606269467231515 -0.20937011251263521 0 -0.12792206268005671 -0.20630750412903681 0 -0.099606269467231515 -0.20937011251263521 0 -0.12792206268005671 -0.20630750412903681 0 -0.1109395563409496 -0.21808363142510809 0 -0.099606269467231515 -0.20937011251263521 0 -0.12792206268005671 -0.20630750412903681 0 -0.1109395563409496 -0.21808363142510809 0 -0.12177266552236619 -0.21944435015962399 0 -0.12792206268005671 -0.20630750412903681 0 -0.087386655579379413 -0.221336098103218 0 -0.099606269467231515 -0.20937011251263521 0 -0.1003114696379807 -0.22536365431683439 0 -0.1109395563409496 -0.21808363142510809 0 -0.099606269467231515 -0.20937011251263521 0 -0.1003114696379807 -0.22536365431683439 0 -0.092802120114850561 -0.23476644111030801 0 -0.1003114696379807 -0.22536365431683439 0 -0.1027152497513069 -0.23889648474517289 0 -0.1003114696379807 -0.22536365431683439 0 -0.1117526187512204 -0.22952578000171939 0 -0.1027152497513069 -0.23889648474517289 0 -0.1117526187512204 -0.22952578000171939 0 -0.1027152497513069 -0.23889648474517289 0 -0.1109395563409496 -0.21808363142510809 0 -0.1003114696379807 -0.22536365431683439 0 -0.1117526187512204 -0.22952578000171939 0 -0.12177266552236619 -0.21944435015962399 0 -0.1117526187512204 -0.22952578000171939 0 -0.13228002548338749 -0.22901680813062419 0 -0.1109395563409496 -0.21808363142510809 0 -0.12177266552236619 -0.21944435015962399 0 -0.1117526187512204 -0.22952578000171939 0 -0.1027152497513069 -0.23889648474517289 0 -0.1256374789938742 -0.24844642613119489 0 -0.1117526187512204 -0.22952578000171939 0 -0.1256374789938742 -0.24844642613119489 0 -0.13228002548338749 -0.22901680813062419 0 -0.1105153895608678 -0.25339734111102152 0 -0.1027152497513069 -0.23889648474517289 0 -0.1256374789938742 -0.24844642613119489 0 -0.1117526187512204 -0.22952578000171939 0 -0.1027152497513069 -0.23889648474517289 0 -0.1256374789938742 -0.24844642613119489 0 -0.1105153895608678 -0.25339734111102152 0 -0.09705988669290827 -0.2447604411065635 0 -0.1105153895608678 -0.25339734111102152 0 -0.1027152497513069 -0.23889648474517289 0 -0.09705988669290827 -0.2447604411065635 0 -0.1027152497513069 -0.23889648474517289 0 -0.09705988669290827 -0.2447604411065635 0 -0.092802120114850561 -0.23476644111030801 0 -0.1027152497513069 -0.23889648474517289 0 -0.092802120114850561 -0.23476644111030801 0 -0.1027152497513069 -0.23889648474517289 0 -0.09705988669290827 -0.2447604411065635 0 -0.089769838243654171 -0.14746704632253929 0 -0.073839524898655584 -0.14650201391953069 0 -0.079136643663897471 -0.1599736488040388 0 -0.089769838243654171 -0.14746704632253929 0 -0.081492442674657412 -0.13435958757778479 0 -0.073839524898655584 -0.14650201391953069 0 -0.07297822322795508 -0.12274374298397429 0 -0.096891039351932648 -0.12440867553159241 0 -0.081492442674657412 -0.13435958757778479 0 -0.089769838243654171 -0.14746704632253929 0 -0.093016198185143006 -0.13703217336118759 0 -0.081492442674657412 -0.13435958757778479 0 -0.096891039351932648 -0.12440867553159241 0 -0.093016198185143006 -0.13703217336118759 0 -0.081492442674657412 -0.13435958757778479 0 -0.081492442674657412 -0.13435958757778479 0 -0.069077230659992855 -0.13483529828770449 0 -0.073839524898655584 -0.14650201391953069 0 -0.07297822322795508 -0.12274374298397429 0 -0.081492442674657412 -0.13435958757778479 0 -0.069077230659992855 -0.13483529828770449 0 -0.07297822322795508 -0.12274374298397429 0 -0.057734267282363791 -0.12695164644468551 0 -0.069077230659992855 -0.13483529828770449 0 -0.059341695216332417 -0.14361950051254729 0 -0.069077230659992855 -0.13483529828770449 0 -0.073839524898655584 -0.14650201391953069 0 -0.073839524898655584 -0.14650201391953069 0 -0.063961636950577438 -0.15791657772519291 0 -0.079136643663897471 -0.1599736488040388 0 -0.059341695216332417 -0.14361950051254729 0 -0.073839524898655584 -0.14650201391953069 0 -0.063961636950577438 -0.15791657772519291 0 -0.068874600538522568 -0.1715015516318501 0 -0.080325537465065822 -0.1840056257437063 0 -0.079136643663897471 -0.1599736488040388 0 -0.057731604036761461 -0.16968178251246621 0 -0.063961636950577438 -0.15791657772519291 0 -0.068874600538522568 -0.1715015516318501 0 -0.063961636950577438 -0.15791657772519291 0 -0.068874600538522568 -0.1715015516318501 0 -0.079136643663897471 -0.1599736488040388 0 -0.068874600538522568 -0.1715015516318501 0 -0.062794520252580116 -0.18302495371670791 0 -0.080325537465065822 -0.1840056257437063 0 -0.061690604333580132 -0.17521890115240449 0 -0.068874600538522568 -0.1715015516318501 0 -0.062794520252580116 -0.18302495371670791 0 -0.061690604333580132 -0.17521890115240449 0 -0.057731604036761461 -0.16968178251246621 0 -0.068874600538522568 -0.1715015516318501 0 -0.090741290682821177 -0.19261566324025731 0 -0.080325537465065822 -0.1840056257437063 0 -0.09747098194369784 -0.16743210693786051 0 -0.080325537465065822 -0.1840056257437063 0 -0.09747098194369784 -0.16743210693786051 0 -0.080325537465065822 -0.1840056257437063 0 -0.079136643663897471 -0.1599736488040388 0 -0.09747098194369784 -0.16743210693786051 0 -0.089769838243654171 -0.14746704632253929 0 -0.079136643663897471 -0.1599736488040388 0 -0.09747098194369784 -0.16743210693786051 0 -0.09747098194369784 -0.16743210693786051 0 -0.113273991052389 -0.1699141089179769 0 -0.1146164264223299 -0.15085858813201461 0 -0.09747098194369784 -0.16743210693786051 0 -0.1146164264223299 -0.15085858813201461 0 -0.10962252148973579 -0.18792388306133331 0 -0.09747098194369784 -0.16743210693786051 0 -0.113273991052389 -0.1699141089179769 0 -0.090741290682821177 -0.19261566324025731 0 -0.10962252148973579 -0.18792388306133331 0 -0.09747098194369784 -0.16743210693786051 0 -0.10962252148973579 -0.18792388306133331 0 -0.113273991052389 -0.1699141089179769 0 -0.12956667495364191 -0.1765366729717569 0 -0.12296246856877879 -0.16175995894169889 0 -0.113273991052389 -0.1699141089179769 0 -0.1146164264223299 -0.15085858813201461 0 -0.12296246856877879 -0.16175995894169889 0 -0.113273991052389 -0.1699141089179769 0 -0.12956667495364191 -0.1765366729717569 0 -0.12296246856877879 -0.16175995894169889 0 -0.12307729240007539 -0.14602118316388471 0 -0.1146164264223299 -0.15085858813201461 0 -0.12307729240007539 -0.14602118316388471 0 -0.11959636026701551 -0.13718834026610299 0 -0.1284071922322379 -0.13951417726766049 0 -0.12307729240007539 -0.14602118316388471 0 -0.1158509316513501 -0.1424562434555931 0 -0.11959636026701551 -0.13718834026610299 0 -0.12307729240007539 -0.14602118316388471 0 -0.1158509316513501 -0.1424562434555931 0 -0.1146164264223299 -0.15085858813201461 0 -0.1158509316513501 -0.1424562434555931 0 -0.1146164264223299 -0.15085858813201461 0 -0.1039114724703278 -0.14189338401283391 0 -0.089769838243654171 -0.14746704632253929 0 -0.09747098194369784 -0.16743210693786051 0 -0.1039114724703278 -0.14189338401283391 0 -0.09747098194369784 -0.16743210693786051 0 -0.1146164264223299 -0.15085858813201461 0 -0.1039114724703278 -0.14189338401283391 0 -0.089769838243654171 -0.14746704632253929 0 -0.093016198185143006 -0.13703217336118759 0 -0.1039114724703278 -0.14189338401283391 0 -0.089769838243654171 -0.14746704632253929 0 -0.1039114724703278 -0.14189338401283391 0 -0.096891039351932648 -0.12440867553159241 0 -0.1180531066970017 -0.13631972170312909 0 -0.096891039351932648 -0.12440867553159241 0 -0.1039114724703278 -0.14189338401283391 0 -0.1180531066970017 -0.13631972170312909 0 -0.096891039351932648 -0.12440867553159241 0 -0.093016198185143006 -0.13703217336118759 0 -0.1039114724703278 -0.14189338401283391 0 -0.11428846205478441 -0.1183327260799749 0 -0.1180531066970017 -0.13631972170312909 0 -0.12588964361509331 -0.1215411992977304 0 -0.096891039351932648 -0.12440867553159241 0 -0.11428846205478441 -0.1183327260799749 0 -0.1180531066970017 -0.13631972170312909 0 -0.11959636026701551 -0.13718834026610299 0 -0.1180531066970017 -0.13631972170312909 0 -0.13381228172809209 -0.1301085357471827 0 -0.1158509316513501 -0.1424562434555931 0 -0.1039114724703278 -0.14189338401283391 0 -0.1180531066970017 -0.13631972170312909 0 -0.1039114724703278 -0.14189338401283391 0 -0.1180531066970017 -0.13631972170312909 0 -0.1158509316513501 -0.1424562434555931 0 -0.11959636026701551 -0.13718834026610299 0 -0.1180531066970017 -0.13631972170312909 0 -0.11959636026701551 -0.13718834026610299 0 -0.1180531066970017 -0.13631972170312909 0 -0.1180531066970017 -0.13631972170312909 0 -0.13381228172809209 -0.1301085357471827 0 -0.1180531066970017 -0.13631972170312909 0 -0.13381228172809209 -0.1301085357471827 0 -0.12588964361509331 -0.1215411992977304 0 -0.11959636026701551 -0.13718834026610299 0 -0.1284071922322379 -0.13951417726766049 0 -0.13381228172809209 -0.1301085357471827 0 -0.1284071922322379 -0.13951417726766049 0 -0.13381228172809209 -0.1301085357471827 0 -0.13714283453376849 -0.1447386498934716 0 -0.13381228172809209 -0.1301085357471827 0 -0.14957145675918249 -0.1238973497912363 0 -0.13381228172809209 -0.1301085357471827 0 -0.15132320049875911 -0.12771734084524489 0 -0.14957145675918249 -0.1238973497912363 0 -0.13381228172809209 -0.1301085357471827 0 -0.15132320049875911 -0.12771734084524489 0 -0.13714283453376849 -0.1447386498934716 0 -0.15132320049875911 -0.12771734084524489 0 -0.13714283453376849 -0.1447386498934716 0 -0.15132320049875911 -0.12771734084524489 0 -0.14957145675918249 -0.1238973497912363 0 -0.15132320049875911 -0.12771734084524489 0 -0.14761894163492861 -0.15033068950455741 0 -0.13714283453376849 -0.1447386498934716 0 -0.14761894163492861 -0.15033068950455741 0 -0.13714283453376849 -0.1447386498934716 0 -0.13733552116536379 -0.1605450172031393 0 -0.15132320049875911 -0.12771734084524489 0 -0.14761894163492861 -0.15033068950455741 0 -0.16240001670107521 -0.15187232301744369 0 -0.12296246856877879 -0.16175995894169889 0 -0.12307729240007539 -0.14602118316388471 0 -0.13714283453376849 -0.1447386498934716 0 -0.12296246856877879 -0.16175995894169889 0 -0.13714283453376849 -0.1447386498934716 0 -0.13733552116536379 -0.1605450172031393 0 -0.12296246856877879 -0.16175995894169889 0 -0.13714283453376849 -0.1447386498934716 0 -0.12307729240007539 -0.14602118316388471 0 -0.1284071922322379 -0.13951417726766049 0 -0.13714283453376849 -0.1447386498934716 0 -0.13733552116536379 -0.1605450172031393 0 -0.12956667495364191 -0.1765366729717569 0 -0.14989313527567619 -0.16678011656348771 0 -0.12296246856877879 -0.16175995894169889 0 -0.13733552116536379 -0.1605450172031393 0 -0.12956667495364191 -0.1765366729717569 0 -0.12956667495364191 -0.1765366729717569 0 -0.14990476878214121 -0.18462355537089781 0 -0.14989313527567619 -0.16678011656348771 0 -0.14761894163492861 -0.15033068950455741 0 -0.14989313527567619 -0.16678011656348771 0 -0.16240001670107521 -0.15187232301744369 0 -0.14761894163492861 -0.15033068950455741 0 -0.13733552116536379 -0.1605450172031393 0 -0.14989313527567619 -0.16678011656348771 0 -0.14989313527567619 -0.16678011656348771 0 -0.17347683290339089 -0.17602730518964271 0 -0.16240001670107521 -0.15187232301744369 0 -0.17347683290339089 -0.17602730518964271 0 -0.16240001670107521 -0.15187232301744369 0 -0.14990476878214121 -0.18462355537089781 0 -0.14989313527567619 -0.16678011656348771 0 -0.17347683290339089 -0.17602730518964271 0 -0.17347683290339089 -0.17602730518964271 0 -0.1846639120317253 -0.159496951708542 0 -0.1912615381347022 -0.18077016325458239 0 -0.17347683290339089 -0.17602730518964271 0 -0.1845536491057071 -0.2001822873618416 0 -0.1912615381347022 -0.18077016325458239 0 -0.17347683290339089 -0.17602730518964271 0 -0.1846639120317253 -0.159496951708542 0 -0.16240001670107521 -0.15187232301744369 0 -0.1846639120317253 -0.159496951708542 0 -0.1777774968013382 -0.13321946143340921 0 -0.16240001670107521 -0.15187232301744369 0 -0.15132320049875911 -0.12771734084524489 0 -0.16240001670107521 -0.15187232301744369 0 -0.15132320049875911 -0.12771734084524489 0 -0.16357536279874571 -0.13287201412426261 0 -0.16240001670107521 -0.15187232301744369 0 -0.1777774968013382 -0.13321946143340921 0 -0.16357536279874571 -0.13287201412426261 0 -0.15691776897258261 -0.1210019373627417 0 -0.1777774968013382 -0.13321946143340921 0 -0.16357536279874571 -0.13287201412426261 0 -0.16240001670107521 -0.15187232301744369 0 -0.15132320049875911 -0.12771734084524489 0 -0.16357536279874571 -0.13287201412426261 0 -0.15691776897258261 -0.1210019373627417 0 -0.15233554839032601 -0.25956947158885962 0 -0.14912712425829991 -0.2407560049677902 0 -0.1256374789938742 -0.24844642613119489 0 -0.14912712425829991 -0.2407560049677902 0 -0.1256374789938742 -0.24844642613119489 0 -0.13228002548338749 -0.22901680813062419 0 -0.14912712425829991 -0.2407560049677902 0 -0.1256374789938742 -0.24844642613119489 0 -0.13228002548338749 -0.22901680813062419 0 -0.1500326328089818 -0.22149813452849221 0 -0.12792206268005671 -0.20630750412903681 0 -0.14912712425829991 -0.2407560049677902 0 -0.13228002548338749 -0.22901680813062419 0 -0.1500326328089818 -0.22149813452849221 0 -0.1500326328089818 -0.22149813452849221 0 -0.15623785589288189 -0.2032448957454385 0 -0.12792206268005671 -0.20630750412903681 0 -0.15623785589288189 -0.2032448957454385 0 -0.12792206268005671 -0.20630750412903681 0 -0.12177266552236619 -0.21944435015962399 0 -0.13228002548338749 -0.22901680813062419 0 -0.12792206268005671 -0.20630750412903681 0 -0.12956667495364191 -0.1765366729717569 0 -0.14990476878214121 -0.18462355537089781 0 -0.12792206268005671 -0.20630750412903681 0 -0.14990476878214121 -0.18462355537089781 0 -0.15623785589288189 -0.2032448957454385 0 -0.12792206268005671 -0.20630750412903681 0 -0.17347683290339089 -0.17602730518964271 0 -0.15623785589288189 -0.2032448957454385 0 -0.1845536491057071 -0.2001822873618416 0 -0.14990476878214121 -0.18462355537089781 0 -0.17347683290339089 -0.17602730518964271 0 -0.15623785589288189 -0.2032448957454385 0 -0.15623785589288189 -0.2032448957454385 0 -0.1845536491057071 -0.2001822873618416 0 -0.17347683290339089 -0.17602730518964271 0 -0.1845536491057071 -0.2001822873618416 0 -0.1845536491057071 -0.2001822873618416 0 -0.17178386697438919 -0.21479864184136679 0 -0.19610641478715221 -0.22537516264098309 0 -0.1500326328089818 -0.22149813452849221 0 -0.15623785589288189 -0.2032448957454385 0 -0.17178386697438919 -0.21479864184136679 0 -0.15623785589288189 -0.2032448957454385 0 -0.1845536491057071 -0.2001822873618416 0 -0.17178386697438919 -0.21479864184136679 0 -0.1500326328089818 -0.22149813452849221 0 -0.17178386697438919 -0.21479864184136679 0 -0.17261676952272631 -0.23306558380438711 0 -0.14912712425829991 -0.2407560049677902 0 -0.1500326328089818 -0.22149813452849221 0 -0.17261676952272631 -0.23306558380438711 0 -0.17261676952272631 -0.23306558380438711 0 -0.19610641478715221 -0.22537516264098309 0 -0.17178386697438919 -0.21479864184136679 0 -0.17261676952272631 -0.23306558380438711 0 -0.19610641478715221 -0.22537516264098309 0 -0.17495649505971081 -0.2440762360077027 0 -0.19757744172909969 -0.22858300042655191 0 -0.1854146799826959 -0.25451409448942952 0 -0.17495649505971081 -0.2440762360077027 0 -0.19148401382776781 -0.2419686183389636 0 -0.17261676952272631 -0.23306558380438711 0 -0.17495649505971081 -0.2440762360077027 0 -0.19757744172909969 -0.22858300042655191 0 -0.14912712425829991 -0.2407560049677902 0 -0.17261676952272631 -0.23306558380438711 0 -0.17495649505971081 -0.2440762360077027 0 -0.15233554839032601 -0.25956947158885962 0 -0.14912712425829991 -0.2407560049677902 0 -0.17495649505971081 -0.2440762360077027 0 -0.14912712425829991 -0.2407560049677902 0 -0.17261676952272631 -0.23306558380438711 0 -0.21482994921347581 -0.25032139581794882 0 -0.21333541705589401 -0.2424834669758425 0 -0.21049969678583361 -0.24732464223307191 0 -0.21482994921347581 -0.25032139581794882 0 -0.21782913085211561 -0.24219539003578469 0 -0.22130921346818319 -0.2431181526363099 0 -0.21482994921347581 -0.25032139581794882 0 -0.21333541705589401 -0.2424834669758425 0 -0.21782913085211561 -0.24219539003578469 0 -0.21782913085211561 -0.24219539003578469 0 -0.21596782471016021 -0.23730925455688001 0 -0.22130921346818319 -0.2431181526363099 0 -0.21596782471016021 -0.23730925455688001 0 -0.21731747783132149 -0.23101667867271691 0 -0.22130921346818319 -0.2431181526363099 0 -0.21333541705589401 -0.2424834669758425 0 -0.21782913085211561 -0.24219539003578469 0 -0.21596782471016021 -0.23730925455688001 0 -0.21596782471016021 -0.23730925455688001 0 -0.21089837218924021 -0.23866289457146231 0 -0.2098556797987654 -0.23249492855434201 0 -0.21333541705589401 -0.2424834669758425 0 -0.21596782471016021 -0.23730925455688001 0 -0.21089837218924021 -0.23866289457146231 0 -0.21333541705589401 -0.2424834669758425 0 -0.21089837218924021 -0.23866289457146231 0 -0.20836318304536661 -0.24292156839486781 0 -0.21089837218924021 -0.23866289457146231 0 -0.20665535918964881 -0.23790041233060291 0 -0.20836318304536661 -0.24292156839486781 0 -0.21089837218924021 -0.23866289457146231 0 -0.20665535918964881 -0.23790041233060291 0 -0.2098556797987654 -0.23249492855434201 0 -0.20665535918964881 -0.23790041233060291 0 -0.20227391135793291 -0.23526198790072389 0 -0.2098556797987654 -0.23249492855434201 0 -0.20665535918964881 -0.23790041233060291 0 -0.2032507471828422 -0.24197052850711331 0 -0.20836318304536661 -0.24292156839486781 0 -0.20665535918964881 -0.23790041233060291 0 -0.2032507471828422 -0.24197052850711331 0 -0.20227391135793291 -0.23526198790072389 0 -0.2032507471828422 -0.24197052850711331 0 -0.20836318304536661 -0.24292156839486781 0 -0.20476062514304949 -0.24868094349004219 0 -0.21333541705589401 -0.2424834669758425 0 -0.20836318304536661 -0.24292156839486781 0 -0.21049969678583361 -0.24732464223307191 0 -0.20836318304536661 -0.24292156839486781 0 -0.21049969678583361 -0.24732464223307191 0 -0.20476062514304949 -0.24868094349004219 0 -0.19767277386163329 -0.25354154102011939 0 -0.19932076033989221 -0.24548593915868511 0 -0.19148401382776781 -0.2419686183389636 0 -0.19767277386163329 -0.25354154102011939 0 -0.20476062514304949 -0.24868094349004219 0 -0.19932076033989221 -0.24548593915868511 0 -0.19932076033989221 -0.24548593915868511 0 -0.19148401382776781 -0.2419686183389636 0 -0.1988641125736498 -0.2401619038906023 0 -0.17495649505971081 -0.2440762360077027 0 -0.19148401382776781 -0.2419686183389636 0 -0.19757744172909969 -0.22858300042655191 0 -0.2032507471828422 -0.24197052850711331 0 -0.19932076033989221 -0.24548593915868511 0 -0.1988641125736498 -0.2401619038906023 0 -0.2032507471828422 -0.24197052850711331 0 -0.20476062514304949 -0.24868094349004219 0 -0.19932076033989221 -0.24548593915868511 0 -0.19148401382776781 -0.2419686183389636 0 -0.19781438265274659 -0.23533727979770769 0 -0.19757744172909969 -0.22858300042655191 0 -0.19148401382776781 -0.2419686183389636 0 -0.19781438265274659 -0.23533727979770769 0 -0.1988641125736498 -0.2401619038906023 0 -0.2032507471828422 -0.24197052850711331 0 -0.1988641125736498 -0.2401619038906023 0 -0.20227391135793291 -0.23526198790072389 0 -0.19781438265274659 -0.23533727979770769 0 -0.1988641125736498 -0.2401619038906023 0 -0.20227391135793291 -0.23526198790072389 0 -0.20273384584499249 -0.22994680683683219 0 -0.19757744172909969 -0.22858300042655191 0 -0.20789727226072119 -0.22151488042604939 0 -0.19781438265274659 -0.23533727979770769 0 -0.20227391135793291 -0.23526198790072389 0 -0.20044622819873581 -0.2323702298789348 0 -0.20227391135793291 -0.23526198790072389 0 -0.20044622819873581 -0.2323702298789348 0 -0.20273384584499249 -0.22994680683683219 0 -0.17261676952272631 -0.23306558380438711 0 -0.19757744172909969 -0.22858300042655191 0 -0.19610641478715221 -0.22537516264098309 0 -0.20044622819873581 -0.2323702298789348 0 -0.20273384584499249 -0.22994680683683219 0 -0.19757744172909969 -0.22858300042655191 0 -0.19757744172909969 -0.22858300042655191 0 -0.19610641478715221 -0.22537516264098309 0 -0.19781438265274659 -0.23533727979770769 0 -0.20044622819873581 -0.2323702298789348 0 -0.19757744172909969 -0.22858300042655191 0 -0.19757744172909969 -0.22858300042655191 0 -0.20789727226072119 -0.22151488042604939 0 -0.19610641478715221 -0.22537516264098309 0 -0.20789727226072119 -0.22151488042604939 0 -0.19757744172909969 -0.22858300042655191 0 -0.19610641478715221 -0.22537516264098309 0 -0.20789727226072119 -0.22151488042604939 0 -0.19610641478715221 -0.22537516264098309 0 -0.20789727226072119 -0.22151488042604939 0 -0.20143397121891921 -0.2108599087942982 0 -0.20789727226072119 -0.22151488042604939 0 -0.2135346804867983 -0.22654674715140949 0 -0.22591999069270011 -0.21561431046464249 0 -0.20273384584499249 -0.22994680683683219 0 -0.20789727226072119 -0.22151488042604939 0 -0.2098556797987654 -0.23249492855434201 0 -0.20789727226072119 -0.22151488042604939 0 -0.2098556797987654 -0.23249492855434201 0 -0.2135346804867983 -0.22654674715140949 0 -0.20227391135793291 -0.23526198790072389 0 -0.20273384584499249 -0.22994680683683219 0 -0.2098556797987654 -0.23249492855434201 0 -0.2098556797987654 -0.23249492855434201 0 -0.21731747783132149 -0.23101667867271691 0 -0.2135346804867983 -0.22654674715140949 0 -0.21596782471016021 -0.23730925455688001 0 -0.2098556797987654 -0.23249492855434201 0 -0.21731747783132149 -0.23101667867271691 0 -0.20789727226072119 -0.22151488042604939 0 -0.22427680817106371 -0.2102964282419785 0 -0.20789727226072119 -0.22151488042604939 0 -0.22591999069270011 -0.21561431046464249 0 -0.20789727226072119 -0.22151488042604939 0 -0.2116763405936076 -0.2094657986687615 0 -0.22427680817106371 -0.2102964282419785 0 -0.2116763405936076 -0.2094657986687615 0 -0.20143397121891921 -0.2108599087942982 0 -0.20693617934740821 -0.1977614148738559 0 -0.20789727226072119 -0.22151488042604939 0 -0.2116763405936076 -0.2094657986687615 0 -0.20143397121891921 -0.2108599087942982 0 -0.1845536491057071 -0.2001822873618416 0 -0.19610641478715221 -0.22537516264098309 0 -0.20143397121891921 -0.2108599087942982 0 -0.1845536491057071 -0.2001822873618416 0 -0.19610641478715221 -0.22537516264098309 0 -0.1845536491057071 -0.2001822873618416 0 -0.20693617934740821 -0.1977614148738559 0 -0.1845536491057071 -0.2001822873618416 0 -0.20143397121891921 -0.2108599087942982 0 -0.20693617934740821 -0.1977614148738559 0 -0.1845536491057071 -0.2001822873618416 0 -0.20693617934740821 -0.1977614148738559 0 -0.1912615381347022 -0.18077016325458239 0 -0.20693617934740821 -0.1977614148738559 0 -0.2293187095891093 -0.19534054238587101 0 -0.2116763405936076 -0.2094657986687615 0 -0.20693617934740821 -0.1977614148738559 0 -0.2293187095891093 -0.19534054238587101 0 -0.20693617934740821 -0.1977614148738559 0 -0.2293187095891093 -0.19534054238587101 0 -0.20948100371251549 -0.17231406127859611 0 -0.2293187095891093 -0.19534054238587101 0 -0.24909357648288249 -0.19320171220448801 0 -0.2293187095891093 -0.19534054238587101 0 -0.24909357648288249 -0.19320171220448801 0 -0.24902456921953209 -0.17639246698618519 0 -0.2293187095891093 -0.19534054238587101 0 -0.24909357648288249 -0.19320171220448801 0 -0.24583522102665989 -0.20909413925259551 0 -0.24583522102665989 -0.20909413925259551 0 -0.22591999069270011 -0.21561431046464249 0 -0.2293187095891093 -0.19534054238587101 0 -0.22427680817106371 -0.2102964282419785 0 -0.22591999069270011 -0.21561431046464249 0 -0.20789727226072119 -0.22151488042604939 0 -0.22427680817106371 -0.2102964282419785 0 -0.22591999069270011 -0.21561431046464249 0 -0.2293187095891093 -0.19534054238587101 0 -0.24583522102665989 -0.20909413925259551 0 -0.22591999069270011 -0.21561431046464249 0 -0.2293187095891093 -0.19534054238587101 0 -0.22591999069270011 -0.21561431046464249 0 -0.2116763405936076 -0.2094657986687615 0 -0.2293187095891093 -0.19534054238587101 0 -0.22427680817106371 -0.2102964282419785 0 -0.22591999069270011 -0.21561431046464249 0 -0.23878171858606409 -0.23190886522722759 0 -0.22130921346818319 -0.2431181526363099 0 -0.21731747783132149 -0.23101667867271691 0 -0.22591999069270011 -0.21561431046464249 0 -0.22130921346818319 -0.2431181526363099 0 -0.22591999069270011 -0.21561431046464249 0 -0.22130921346818319 -0.2431181526363099 0 -0.21731747783132149 -0.23101667867271691 0 -0.2135346804867983 -0.22654674715140949 0 -0.22591999069270011 -0.21561431046464249 0 -0.24583522102665989 -0.20909413925259551 0 -0.23878171858606409 -0.23190886522722759 0 -0.25570994727850099 -0.2254785095757581 0 -0.24583522102665989 -0.20909413925259551 0 -0.22591999069270011 -0.21561431046464249 0 -0.23878171858606409 -0.23190886522722759 0 -0.2484047987823973 -0.25030269263885491 0 -0.23878171858606409 -0.23190886522722759 0 -0.25570994727850099 -0.2254785095757581 0 -0.2484047987823973 -0.25030269263885491 0 -0.23878171858606409 -0.23190886522722759 0 -0.22130921346818319 -0.2431181526363099 0 -0.2484047987823973 -0.25030269263885491 0 -0.22130921346818319 -0.2431181526363099 0 -0.21782913085211561 -0.24219539003578469 0 -0.22130921346818319 -0.2431181526363099 0 -0.20031591136269461 -0.14741328601253709 0 -0.22039003073627711 -0.15228332132580419 0 -0.22059765290086311 -0.1280665957407052 0 -0.19760802719407031 -0.12817978549433329 0 -0.20031591136269461 -0.14741328601253709 0 -0.22059765290086311 -0.1280665957407052 0 -0.1777774968013382 -0.13321946143340921 0 -0.19760802719407031 -0.12817978549433329 0 -0.20031591136269461 -0.14741328601253709 0 -0.1846639120317253 -0.159496951708542 0 -0.1777774968013382 -0.13321946143340921 0 -0.20031591136269461 -0.14741328601253709 0 -0.1846639120317253 -0.159496951708542 0 -0.20031591136269461 -0.14741328601253709 0 -0.20948100371251549 -0.17231406127859611 0 -0.1846639120317253 -0.159496951708542 0 -0.1912615381347022 -0.18077016325458239 0 -0.20948100371251549 -0.17231406127859611 0 -0.20693617934740821 -0.1977614148738559 0 -0.1912615381347022 -0.18077016325458239 0 -0.20948100371251549 -0.17231406127859611 0 -0.20031591136269461 -0.14741328601253709 0 -0.20948100371251549 -0.17231406127859611 0 -0.22039003073627711 -0.15228332132580419 0 -0.20948100371251549 -0.17231406127859611 0 -0.2336247650981397 -0.16965440199435111 0 -0.22039003073627711 -0.15228332132580419 0 -0.2293187095891093 -0.19534054238587101 0 -0.20948100371251549 -0.17231406127859611 0 -0.2336247650981397 -0.16965440199435111 0 -0.2293187095891093 -0.19534054238587101 0 -0.2336247650981397 -0.16965440199435111 0 -0.2293187095891093 -0.19534054238587101 0 -0.2336247650981397 -0.16965440199435111 0 -0.24902456921953209 -0.17639246698618519 0 -0.2336247650981397 -0.16965440199435111 0 -0.23793082060717269 -0.14396826160283149 0 -0.2336247650981397 -0.16965440199435111 0 -0.23793082060717269 -0.14396826160283149 0 -0.25003963247768718 -0.16208663998204739 0 -0.2336247650981397 -0.16965440199435111 0 -0.24902456921953209 -0.17639246698618519 0 -0.25003963247768718 -0.16208663998204739 0 -0.23793082060717269 -0.14396826160283149 0 -0.22039003073627711 -0.15228332132580419 0 -0.22059765290086311 -0.1280665957407052 0 -0.2336247650981397 -0.16965440199435111 0 -0.23793082060717269 -0.14396826160283149 0 -0.22039003073627711 -0.15228332132580419 0 -0.23793082060717269 -0.14396826160283149 0 -0.22059765290086311 -0.1280665957407052 0 -0.2422368761162057 -0.118282121211312 0 -0.23793082060717269 -0.14396826160283149 0 -0.2422368761162057 -0.118282121211312 0 -0.23793082060717269 -0.14396826160283149 0 -0.2422368761162057 -0.118282121211312 0 -0.25765772953270638 -0.12725286383122411 0 -0.2422368761162057 -0.118282121211312 0 -0.2340184668376723 -0.103700370821022 0 -0.24654293162523341 -0.092595980819791604 0 -0.2422368761162057 -0.118282121211312 0 -0.2481410536782242 -0.09913378306860883 0 -0.24654293162523341 -0.092595980819791604 0 -0.2422368761162057 -0.118282121211312 0 -0.24654293162523341 -0.092595980819791604 0 -0.2422368761162057 -0.118282121211312 0 -0.2481410536782242 -0.09913378306860883 0 -0.25622919086432761 -0.1090333359348112 0 -0.24654293162523341 -0.092595980819791604 0 -0.25219587672779159 -0.096573566868223354 0 -0.2481410536782242 -0.09913378306860883 0 -0.24654293162523341 -0.092595980819791604 0 -0.25219587672779159 -0.096573566868223354 0 -0.2340184668376723 -0.103700370821022 0 -0.24654293162523341 -0.092595980819791604 0 -0.2402408966207106 -0.088161675151520708 0 -0.2340184668376723 -0.103700370821022 0 -0.2402408966207106 -0.088161675151520708 0 -0.21246652073800079 -0.099108429221927002 0 -0.22059765290086311 -0.1280665957407052 0 -0.2422368761162057 -0.118282121211312 0 -0.2340184668376723 -0.103700370821022 0 -0.22059765290086311 -0.1280665957407052 0 -0.2340184668376723 -0.103700370821022 0 -0.21246652073800079 -0.099108429221927002 0 -0.2384385463836606 -0.075385696225285459 0 -0.2477847462153856 -0.085188407035406671 0 -0.25106972457405152 -0.065593114980598 0 -0.2288865290834978 -0.061102852920340837 0 -0.25106972457405152 -0.065593114980598 0 -0.2384385463836606 -0.075385696225285459 0 -0.2288865290834978 -0.061102852920340837 0 -0.25106972457405152 -0.065593114980598 0 -0.2477847462153856 -0.085188407035406671 0 -0.25106972457405152 -0.065593114980598 0 -0.2384385463836606 -0.075385696225285459 0 -0.2477847462153856 -0.085188407035406671 0 -0.2402408966207106 -0.088161675151520708 0 -0.2477847462153856 -0.085188407035406671 0 -0.24654293162523341 -0.092595980819791604 0 -0.2402408966207106 -0.088161675151520708 0 -0.2477847462153856 -0.085188407035406671 0 -0.24654293162523341 -0.092595980819791604 0 -0.25219587672779159 -0.096573566868223354 0 -0.2477847462153856 -0.085188407035406671 0 -0.2402408966207106 -0.088161675151520708 0 -0.2477847462153856 -0.085188407035406671 0 -0.24654293162523341 -0.092595980819791604 0 -0.24654293162523341 -0.092595980819791604 0 -0.2402408966207106 -0.088161675151520708 0 -0.2402408966207106 -0.088161675151520708 0 -0.22421083542465839 -0.076882431038563182 0 -0.2402408966207106 -0.088161675151520708 0 -0.21246652073800079 -0.099108429221927002 0 -0.2384385463836606 -0.075385696225285459 0 -0.2402408966207106 -0.088161675151520708 0 -0.22421083542465839 -0.076882431038563182 0 -0.2402408966207106 -0.088161675151520708 0 -0.22421083542465839 -0.076882431038563182 0 -0.21246652073800079 -0.099108429221927002 0 -0.22421083542465839 -0.076882431038563182 0 -0.21929206034386639 -0.066842410788480591 0 -0.2288865290834978 -0.061102852920340837 0 -0.2384385463836606 -0.075385696225285459 0 -0.22421083542465839 -0.076882431038563182 0 -0.2288865290834978 -0.061102852920340837 0 -0.20818077422860651 -0.065603186925605295 0 -0.20762385038366371 -0.081965506326765789 0 -0.19804212913057251 -0.072747904145137404 0 -0.22421083542465839 -0.076882431038563182 0 -0.20818077422860651 -0.065603186925605295 0 -0.22421083542465839 -0.076882431038563182 0 -0.21929206034386639 -0.066842410788480591 0 -0.20818077422860651 -0.065603186925605295 0 -0.22421083542465839 -0.076882431038563182 0 -0.20818077422860651 -0.065603186925605295 0 -0.20762385038366371 -0.081965506326765789 0 -0.21929206034386639 -0.066842410788480591 0 -0.20818077422860651 -0.065603186925605295 0 -0.2067033335929428 -0.056612590860089622 0 -0.22421083542465839 -0.076882431038563182 0 -0.20762385038366371 -0.081965506326765789 0 -0.21246652073800079 -0.099108429221927002 0 -0.20762385038366371 -0.081965506326765789 0 -0.19804212913057251 -0.072747904145137404 0 -0.1871765901901471 -0.084680960270133096 0 -0.20762385038366371 -0.081965506326765789 0 -0.21246652073800079 -0.099108429221927002 0 -0.1871765901901471 -0.084680960270133096 0 -0.19804212913057251 -0.072747904145137404 0 -0.18793720857283769 -0.066273608588619692 0 -0.1871765901901471 -0.084680960270133096 0 -0.19804212913057251 -0.072747904145137404 0 -0.18793720857283769 -0.066273608588619692 0 -0.1991178054899885 -0.062475827435365373 0 -0.20818077422860651 -0.065603186925605295 0 -0.19804212913057251 -0.072747904145137404 0 -0.1991178054899885 -0.062475827435365373 0 -0.19760802719407031 -0.12817978549433329 0 -0.22059765290086311 -0.1280665957407052 0 -0.21246652073800079 -0.099108429221927002 0 -0.21246652073800079 -0.099108429221927002 0 -0.18469214485529159 -0.11005518329233389 0 -0.21246652073800079 -0.099108429221927002 0 -0.18469214485529159 -0.11005518329233389 0 -0.1871765901901471 -0.084680960270133096 0 -0.19760802719407031 -0.12817978549433329 0 -0.21246652073800079 -0.099108429221927002 0 -0.18469214485529159 -0.11005518329233389 0 -0.1777774968013382 -0.13321946143340921 0 -0.19760802719407031 -0.12817978549433329 0 -0.18469214485529159 -0.11005518329233389 0 -0.1777774968013382 -0.13321946143340921 0 -0.18469214485529159 -0.11005518329233389 0 -0.15691776897258261 -0.1210019373627417 0 -0.18469214485529159 -0.11005518329233389 0 -0.15691776897258261 -0.1210019373627417 0 -0.1720471795813652 -0.1028414488164377 0 -0.15691776897258261 -0.1210019373627417 0 -0.1720471795813652 -0.1028414488164377 0 -0.18469214485529159 -0.11005518329233389 0 -0.15691776897258261 -0.1210019373627417 0 -0.15691776897258261 -0.1210019373627417 0 -0.1720471795813652 -0.1028414488164377 0 -0.15615720923890589 -0.104985957144671 0 -0.1720471795813652 -0.1028414488164377 0 -0.17072023547703019 -0.087531134393889556 0 -0.15615720923890589 -0.104985957144671 0 -0.17072023547703019 -0.087531134393889556 0 -0.14955605992155821 -0.089785904007424422 0 -0.15615720923890589 -0.104985957144671 0 -0.18469214485529159 -0.11005518329233389 0 -0.1720471795813652 -0.1028414488164377 0 -0.1871765901901471 -0.084680960270133096 0 -0.1720471795813652 -0.1028414488164377 0 -0.1871765901901471 -0.084680960270133096 0 -0.1871765901901471 -0.084680960270133096 0 -0.17304189712510781 -0.071632091322796521 0 -0.17072023547703019 -0.087531134393889556 0 -0.1720471795813652 -0.1028414488164377 0 -0.1871765901901471 -0.084680960270133096 0 -0.17072023547703019 -0.087531134393889556 0 -0.18793720857283769 -0.066273608588619692 0 -0.17304189712510781 -0.071632091322796521 0 -0.1749924460851866 -0.054364595064041517 0 -0.18793720857283769 -0.066273608588619692 0 -0.1871765901901471 -0.084680960270133096 0 -0.17304189712510781 -0.071632091322796521 0 -0.17304189712510781 -0.071632091322796521 0 -0.15907926984714971 -0.075595128037617879 0 -0.15814930311205469 -0.06020044081841347 0 -0.17304189712510781 -0.071632091322796521 0 -0.15907926984714971 -0.075595128037617879 0 -0.17072023547703019 -0.087531134393889556 0 -0.15907926984714971 -0.075595128037617879 0 -0.17072023547703019 -0.087531134393889556 0 -0.14955605992155821 -0.089785904007424422 0 -0.14955605992155821 -0.089785904007424422 0 -0.14204049586746731 -0.065494064806900107 0 -0.13082166523634511 -0.083010070297341518 0 -0.15907926984714971 -0.075595128037617879 0 -0.14955605992155821 -0.089785904007424422 0 -0.14204049586746731 -0.065494064806900107 0 -0.15907926984714971 -0.075595128037617879 0 -0.14204049586746731 -0.065494064806900107 0 -0.15814930311205469 -0.06020044081841347 0 -0.121446769474921 -0.062566430550396582 0 -0.13082166523634511 -0.083010070297341518 0 -0.121446769474921 -0.062566430550396582 0 -0.14204049586746731 -0.065494064806900107 0 -0.13082166523634511 -0.083010070297341518 0 -0.13082166523634511 -0.083010070297341518 0 -0.14019656099776381 -0.1034537100442889 0 -0.14955605992155821 -0.089785904007424422 0 -0.13082166523634511 -0.083010070297341518 0 -0.14019656099776381 -0.1034537100442889 0 -0.13082166523634511 -0.083010070297341518 0 -0.14019656099776381 -0.1034537100442889 0 -0.12779657791173579 -0.1066396084623952 0 -0.14019656099776381 -0.1034537100442889 0 -0.12779657791173579 -0.1066396084623952 0 -0.1354977896838527 -0.11630540449597 0 -0.13381228172809209 -0.1301085357471827 0 -0.1354977896838527 -0.11630540449597 0 -0.14957145675918249 -0.1238973497912363 0 -0.12779657791173579 -0.1066396084623952 0 -0.12588964361509331 -0.1215411992977304 0 -0.1354977896838527 -0.11630540449597 0 -0.13381228172809209 -0.1301085357471827 0 -0.12588964361509331 -0.1215411992977304 0 -0.1354977896838527 -0.11630540449597 0 -0.15691776897258261 -0.1210019373627417 0 -0.14957145675918249 -0.1238973497912363 0 -0.15615720923890589 -0.104985957144671 0 -0.14019656099776381 -0.1034537100442889 0 -0.14957145675918249 -0.1238973497912363 0 -0.15615720923890589 -0.104985957144671 0 -0.14019656099776381 -0.1034537100442889 0 -0.1354977896838527 -0.11630540449597 0 -0.14957145675918249 -0.1238973497912363 0 -0.14019656099776381 -0.1034537100442889 0 -0.14957145675918249 -0.1238973497912363 0 -0.15132320049875911 -0.12771734084524489 0 -0.15691776897258261 -0.1210019373627417 0 -0.15132320049875911 -0.12771734084524489 0 -0.15691776897258261 -0.1210019373627417 0 -0.14957145675918249 -0.1238973497912363 0 -0.15691776897258261 -0.1210019373627417 0 -0.14957145675918249 -0.1238973497912363 0 -0.14955605992155821 -0.089785904007424422 0 -0.14019656099776381 -0.1034537100442889 0 -0.15615720923890589 -0.104985957144671 0 -0.13800113038785231 -0.01696743284567051 0 -0.13997413210703949 -0.043843445234018119 0 -0.15850149473915959 -0.025120459917641159 0 -0.13800113038785231 -0.01696743284567051 0 -0.15850149473915959 -0.025120459917641159 0 -0.15622160541765129 0.0041525486497314794 0 -0.13800113038785231 -0.01696743284567051 0 -0.13296179499841851 0.0059486398834025503 0 -0.15622160541765129 0.0041525486497314794 0 -0.115216914923293 -0.01398412961978371 0 -0.13800113038785231 -0.01696743284567051 0 -0.13296179499841851 0.0059486398834025503 0 -0.13800113038785231 -0.01696743284567051 0 -0.12563345933199019 -0.02887381096411034 0 -0.13997413210703949 -0.043843445234018119 0 -0.115216914923293 -0.01398412961978371 0 -0.13800113038785231 -0.01696743284567051 0 -0.12563345933199019 -0.02887381096411034 0 -0.1112717176010572 -0.040377907050010639 0 -0.12563345933199019 -0.02887381096411034 0 -0.13997413210703949 -0.043843445234018119 0 -0.121446769474921 -0.062566430550396582 0 -0.14204049586746731 -0.065494064806900107 0 -0.13997413210703949 -0.043843445234018119 0 -0.121446769474921 -0.062566430550396582 0 -0.13997413210703949 -0.043843445234018119 0 -0.13997413210703949 -0.043843445234018119 0 -0.1586367199148315 -0.043668439244098203 0 -0.15814930311205469 -0.06020044081841347 0 -0.14204049586746731 -0.065494064806900107 0 -0.13997413210703949 -0.043843445234018119 0 -0.15814930311205469 -0.06020044081841347 0 -0.13997413210703949 -0.043843445234018119 0 -0.1586367199148315 -0.043668439244098203 0 -0.15850149473915959 -0.025120459917641159 0 -0.13997413210703949 -0.043843445234018119 0 -0.15850149473915959 -0.025120459917641159 0 -0.1586367199148315 -0.043668439244098203 0 -0.17510793348094739 -0.035139374430051371 0 -0.15850149473915959 -0.025120459917641159 0 -0.1586367199148315 -0.043668439244098203 0 -0.1749924460851866 -0.054364595064041517 0 -0.17510793348094739 -0.035139374430051371 0 -0.17304189712510781 -0.071632091322796521 0 -0.15814930311205469 -0.06020044081841347 0 -0.1749924460851866 -0.054364595064041517 0 -0.1586367199148315 -0.043668439244098203 0 -0.15814930311205469 -0.06020044081841347 0 -0.1749924460851866 -0.054364595064041517 0 -0.18793720857283769 -0.066273608588619692 0 -0.1749924460851866 -0.054364595064041517 0 -0.19432447661437749 -0.048994081234435299 0 -0.1749924460851866 -0.054364595064041517 0 -0.17510793348094739 -0.035139374430051371 0 -0.19432447661437749 -0.048994081234435299 0 -0.17510793348094739 -0.035139374430051371 0 -0.1770288573712796 -0.0063974746012641984 0 -0.19389124863369081 -0.03030827439336618 0 -0.15850149473915959 -0.025120459917641159 0 -0.1770288573712796 -0.0063974746012641984 0 -0.17510793348094739 -0.035139374430051371 0 -0.15850149473915959 -0.025120459917641159 0 -0.1770288573712796 -0.0063974746012641984 0 -0.15850149473915959 -0.025120459917641159 0 -0.1770288573712796 -0.0063974746012641984 0 -0.15622160541765129 0.0041525486497314794 0 -0.1770288573712796 -0.0063974746012641984 0 -0.19640597218288211 -0.01131972716184276 0 -0.19555622000339959 0.0123255107151128 0 -0.19640597218288211 -0.01131972716184276 0 -0.2109484402515481 -0.0049884885989098376 0 -0.19555622000339959 0.0123255107151128 0 -0.1770288573712796 -0.0063974746012641984 0 -0.19640597218288211 -0.01131972716184276 0 -0.19389124863369081 -0.03030827439336618 0 -0.19640597218288211 -0.01131972716184276 0 -0.19389124863369081 -0.03030827439336618 0 -0.2149209586316759 -0.023248427602598799 0 -0.19389124863369081 -0.03030827439336618 0 -0.2149209586316759 -0.023248427602598799 0 -0.2060506987466226 -0.038330467863838383 0 -0.2149209586316759 -0.023248427602598799 0 -0.2109484402515481 -0.0049884885989098376 0 -0.22665409530462069 -0.0070961945995017114 0 -0.19640597218288211 -0.01131972716184276 0 -0.2149209586316759 -0.023248427602598799 0 -0.2109484402515481 -0.0049884885989098376 0 -0.18793720857283769 -0.066273608588619692 0 -0.1991178054899885 -0.062475827435365373 0 -0.19432447661437749 -0.048994081234435299 0 -0.1991178054899885 -0.062475827435365373 0 -0.19432447661437749 -0.048994081234435299 0 -0.2067033335929428 -0.056612590860089622 0 -0.19389124863369081 -0.03030827439336618 0 -0.19432447661437749 -0.048994081234435299 0 -0.2060506987466226 -0.038330467863838383 0 -0.17510793348094739 -0.035139374430051371 0 -0.19389124863369081 -0.03030827439336618 0 -0.19432447661437749 -0.048994081234435299 0 -0.2149209586316759 -0.023248427602598799 0 -0.2060506987466226 -0.038330467863838383 0 -0.2199741468356336 -0.040240602409344933 0 -0.2060506987466226 -0.038330467863838383 0 -0.20984662155145889 -0.047392804896065663 0 -0.2199741468356336 -0.040240602409344933 0 -0.20984662155145889 -0.047392804896065663 0 -0.22028341844502819 -0.050676069424530797 0 -0.2199741468356336 -0.040240602409344933 0 -0.19432447661437749 -0.048994081234435299 0 -0.2060506987466226 -0.038330467863838383 0 -0.20984662155145889 -0.047392804896065663 0 -0.2067033335929428 -0.056612590860089622 0 -0.2288865290834978 -0.061102852920340837 0 -0.22028341844502819 -0.050676069424530797 0 -0.21929206034386639 -0.066842410788480591 0 -0.2067033335929428 -0.056612590860089622 0 -0.2288865290834978 -0.061102852920340837 0 -0.2067033335929428 -0.056612590860089622 0 -0.2288865290834978 -0.061102852920340837 0 -0.19432447661437749 -0.048994081234435299 0 -0.20984662155145889 -0.047392804896065663 0 -0.2067033335929428 -0.056612590860089622 0 -0.20984662155145889 -0.047392804896065663 0 -0.2067033335929428 -0.056612590860089622 0 -0.22028341844502819 -0.050676069424530797 0 -0.20818077422860651 -0.065603186925605295 0 -0.1991178054899885 -0.062475827435365373 0 -0.2067033335929428 -0.056612590860089622 0 -0.2288865290834978 -0.061102852920340837 0 -0.22028341844502819 -0.050676069424530797 0 -0.2347562149731415 -0.046358273295512953 0 -0.2149209586316759 -0.023248427602598799 0 -0.2199741468356336 -0.040240602409344933 0 -0.22989431845309469 -0.033012441129838359 0 -0.2199741468356336 -0.040240602409344933 0 -0.22989431845309469 -0.033012441129838359 0 -0.2347562149731415 -0.046358273295512953 0 -0.22028341844502819 -0.050676069424530797 0 -0.2199741468356336 -0.040240602409344933 0 -0.2347562149731415 -0.046358273295512953 0 -0.2445428564739926 -0.034824032995995992 0 -0.2347562149731415 -0.046358273295512953 0 -0.253808297596955 -0.049257196646253033 0 -0.22989431845309469 -0.033012441129838359 0 -0.2445428564739926 -0.034824032995995992 0 -0.2347562149731415 -0.046358273295512953 0 -0.2445428564739926 -0.034824032995995992 0 -0.253808297596955 -0.049257196646253033 0 -0.2288865290834978 -0.061102852920340837 0 -0.24213019155691129 -0.055577859460676157 0 -0.25106972457405152 -0.065593114980598 0 -0.2347562149731415 -0.046358273295512953 0 -0.24213019155691129 -0.055577859460676157 0 -0.253808297596955 -0.049257196646253033 0 -0.24213019155691129 -0.055577859460676157 0 -0.253808297596955 -0.049257196646253033 0 -0.25106972457405152 -0.065593114980598 0 -0.2288865290834978 -0.061102852920340837 0 -0.2347562149731415 -0.046358273295512953 0 -0.24213019155691129 -0.055577859460676157 0 -0.22665409530462069 -0.0070961945995017114 0 -0.23527741535102981 -0.02039086934573912 0 -0.24108948540814429 0.0001228137568196347 0 -0.2149209586316759 -0.023248427602598799 0 -0.22665409530462069 -0.0070961945995017114 0 -0.23527741535102981 -0.02039086934573912 0 -0.2149209586316759 -0.023248427602598799 0 -0.22989431845309469 -0.033012441129838359 0 -0.23527741535102981 -0.02039086934573912 0 -0.2445428564739926 -0.034824032995995992 0 -0.23527741535102981 -0.02039086934573912 0 -0.2483363121986821 -0.01233272913938524 0 -0.2445428564739926 -0.034824032995995992 0 -0.23527741535102981 -0.02039086934573912 0 -0.22989431845309469 -0.033012441129838359 0 -0.2445428564739926 -0.034824032995995992 0 -0.23527741535102981 -0.02039086934573912 0 -0.23527741535102981 -0.02039086934573912 0 -0.2483363121986821 -0.01233272913938524 0 -0.24108948540814429 0.0001228137568196347 0 -0.25800012817924139 -0.024252421717500059 0 -0.26749775860042307 -0.016793687376760388 0 -0.26219195876152818 0.00075235321125272092 0 -0.25800012817924139 -0.024252421717500059 0 -0.26219195876152818 0.00075235321125272092 0 -0.2483363121986821 -0.01233272913938524 0 -0.25800012817924139 -0.024252421717500059 0 -0.26219195876152818 0.00075235321125272092 0 -0.2483363121986821 -0.01233272913938524 0 -0.26219195876152818 0.00075235321125272092 0 -0.24108948540814429 0.0001228137568196347 0 -0.2445428564739926 -0.034824032995995992 0 -0.2483363121986821 -0.01233272913938524 0 -0.25800012817924139 -0.024252421717500059 0 -0.25800012817924139 -0.024252421717500059 0 -0.27129232710181728 -0.028209238490498039 0 -0.26749775860042307 -0.016793687376760388 0 -0.25800012817924139 -0.024252421717500059 0 -0.27129232710181728 -0.028209238490498039 0 -0.26877136223717102 -0.040601502647732761 0 -0.27129232710181728 -0.028209238490498039 0 -0.26749775860042307 -0.016793687376760388 0 -0.28061922789155158 -0.02212758995382292 0 -0.26749775860042307 -0.016793687376760388 0 -0.28061922789155158 -0.02212758995382292 0 -0.27840740703497019 -0.011716752004615159 0 -0.27129232710181728 -0.028209238490498039 0 -0.28061922789155158 -0.02212758995382292 0 -0.28509914754831378 -0.036443504925995442 0 -0.26749775860042307 -0.016793687376760388 0 -0.26898680858242718 -0.004809513156808054 0 -0.26219195876152818 0.00075235321125272092 0 -0.26898680858242718 -0.004809513156808054 0 -0.27840740703497019 -0.011716752004615159 0 -0.28499676550050229 -0.0019309530639492691 0 -0.26749775860042307 -0.016793687376760388 0 -0.26898680858242718 -0.004809513156808054 0 -0.27840740703497019 -0.011716752004615159 0 -0.28499676550050229 -0.0019309530639492691 0 -0.28993647459994693 -0.012922016471735159 0 -0.29743990844707258 -0.0030710653019683691 0 -0.27840740703497019 -0.011716752004615159 0 -0.28499676550050229 -0.0019309530639492691 0 -0.28993647459994693 -0.012922016471735159 0 -0.28061922789155158 -0.02212758995382292 0 -0.27840740703497019 -0.011716752004615159 0 -0.28993647459994693 -0.012922016471735159 0 -0.28061922789155158 -0.02212758995382292 0 -0.28993647459994693 -0.012922016471735159 0 -0.29405050381112091 -0.025057228005339039 0 -0.28061922789155158 -0.02212758995382292 0 -0.29405050381112091 -0.025057228005339039 0 -0.28509914754831378 -0.036443504925995442 0 -0.28993647459994693 -0.012922016471735159 0 -0.29405050381112091 -0.025057228005339039 0 -0.30341445725678701 -0.014959364798607849 0 -0.29405050381112091 -0.025057228005339039 0 -0.30341445725678701 -0.014959364798607849 0 -0.30725896677632941 -0.034747733883148911 0 -0.30341445725678701 -0.014959364798607849 0 -0.30725896677632941 -0.034747733883148911 0 -0.31880639569602759 -0.01503770786338899 0 -0.31132612188382319 -0.0011984883802009631 0 -0.30341445725678701 -0.014959364798607849 0 -0.31880639569602759 -0.01503770786338899 0 -0.31132612188382319 -0.0011984883802009631 0 -0.29743990844707258 -0.0030710653019683691 0 -0.30341445725678701 -0.014959364798607849 0 -0.28993647459994693 -0.012922016471735159 0 -0.29743990844707258 -0.0030710653019683691 0 -0.30341445725678701 -0.014959364798607849 0 -0.29808428205627963 -0.050403295431694507 0 -0.29844196951799362 -0.067373773309087781 0 -0.32192658411924102 -0.052545582281510107 0 -0.29844196951799362 -0.067373773309087781 0 -0.32192658411924102 -0.052545582281510107 0 -0.29808428205627963 -0.050403295431694507 0 -0.30725896677632941 -0.034747733883148911 0 -0.32192658411924102 -0.052545582281510107 0 -0.29808428205627963 -0.050403295431694507 0 -0.30725896677632941 -0.034747733883148911 0 -0.28509914754831378 -0.036443504925995442 0 -0.29405050381112091 -0.025057228005339039 0 -0.30725896677632941 -0.034747733883148911 0 -0.28509914754831378 -0.036443504925995442 0 -0.29808428205627963 -0.050403295431694507 0 -0.28961535349062573 -0.061028932471428113 0 -0.29844196951799362 -0.067373773309087781 0 -0.28961535349062573 -0.061028932471428113 0 -0.2779013618841723 -0.054073047625398503 0 -0.28403380050405741 -0.07226561351953166 0 -0.29808428205627963 -0.050403295431694507 0 -0.28509914754831378 -0.036443504925995442 0 -0.2779013618841723 -0.054073047625398503 0 -0.29808428205627963 -0.050403295431694507 0 -0.28961535349062573 -0.061028932471428113 0 -0.2779013618841723 -0.054073047625398503 0 -0.2779013618841723 -0.054073047625398503 0 -0.253808297596955 -0.049257196646253033 0 -0.26627044543680572 -0.06867000352929313 0 -0.2779013618841723 -0.054073047625398503 0 -0.26877136223717102 -0.040601502647732761 0 -0.253808297596955 -0.049257196646253033 0 -0.27129232710181728 -0.028209238490498039 0 -0.28509914754831378 -0.036443504925995442 0 -0.26877136223717102 -0.040601502647732761 0 -0.28509914754831378 -0.036443504925995442 0 -0.2779013618841723 -0.054073047625398503 0 -0.26877136223717102 -0.040601502647732761 0 -0.2445428564739926 -0.034824032995995992 0 -0.25800012817924139 -0.024252421717500059 0 -0.253808297596955 -0.049257196646253033 0 -0.25800012817924139 -0.024252421717500059 0 -0.253808297596955 -0.049257196646253033 0 -0.25800012817924139 -0.024252421717500059 0 -0.26877136223717102 -0.040601502647732761 0 -0.253808297596955 -0.049257196646253033 0 -0.253808297596955 -0.049257196646253033 0 -0.25106972457405152 -0.065593114980598 0 -0.26627044543680572 -0.06867000352929313 0 -0.253808297596955 -0.049257196646253033 0 -0.25106972457405152 -0.065593114980598 0 -0.253808297596955 -0.049257196646253033 0 -0.26627044543680572 -0.06867000352929313 0 -0.2477847462153856 -0.085188407035406671 0 -0.25106972457405152 -0.065593114980598 0 -0.25898264607885152 -0.073891666016372634 0 -0.25106972457405152 -0.065593114980598 0 -0.26627044543680572 -0.06867000352929313 0 -0.25106972457405152 -0.065593114980598 0 -0.25898264607885152 -0.073891666016372634 0 -0.26627044543680572 -0.06867000352929313 0 -0.25898264607885152 -0.073891666016372634 0 -0.26627044543680572 -0.06867000352929313 0 -0.27097861453798139 -0.07600411468800955 0 -0.27495735491674578 -0.08220196433666474 0 -0.25219587672779159 -0.096573566868223354 0 -0.2477847462153856 -0.085188407035406671 0 -0.27097861453798139 -0.07600411468800955 0 -0.25219587672779159 -0.096573566868223354 0 -0.2477847462153856 -0.085188407035406671 0 -0.27097861453798139 -0.07600411468800955 0 -0.2477847462153856 -0.085188407035406671 0 -0.25898264607885152 -0.073891666016372634 0 -0.27097861453798139 -0.07600411468800955 0 -0.27495735491674578 -0.08220196433666474 0 -0.27097861453798139 -0.07600411468800955 0 -0.25219587672779159 -0.096573566868223354 0 -0.27495735491674578 -0.08220196433666474 0 -0.25219587672779159 -0.096573566868223354 0 -0.27188922467054338 -0.096695930799043026 0 -0.27495735491674578 -0.08220196433666474 0 -0.27097861453798139 -0.07600411468800955 0 -0.28099379812887648 -0.091605183416028482 0 -0.27495735491674578 -0.08220196433666474 0 -0.27188922467054338 -0.096695930799043026 0 -0.28099379812887648 -0.091605183416028482 0 -0.27495735491674578 -0.08220196433666474 0 -0.26627044543680572 -0.06867000352929313 0 -0.28403380050405741 -0.07226561351953166 0 -0.2779013618841723 -0.054073047625398503 0 -0.26627044543680572 -0.06867000352929313 0 -0.28403380050405741 -0.07226561351953166 0 -0.26627044543680572 -0.06867000352929313 0 -0.27097861453798139 -0.07600411468800955 0 -0.28403380050405741 -0.07226561351953166 0 -0.27495735491674578 -0.08220196433666474 0 -0.27097861453798139 -0.07600411468800955 0 -0.28403380050405741 -0.07226561351953166 0 -0.26627044543680572 -0.06867000352929313 0 -0.27097861453798139 -0.07600411468800955 0 -0.25622919086432761 -0.1090333359348112 0 -0.27000324710533807 -0.1091033803880678 0 -0.25765772953270638 -0.12725286383122411 0 -0.2422368761162057 -0.118282121211312 0 -0.25622919086432761 -0.1090333359348112 0 -0.25765772953270638 -0.12725286383122411 0 -0.25219587672779159 -0.096573566868223354 0 -0.27188922467054338 -0.096695930799043026 0 -0.27000324710533807 -0.1091033803880678 0 -0.25622919086432761 -0.1090333359348112 0 -0.25219587672779159 -0.096573566868223354 0 -0.27000324710533807 -0.1091033803880678 0 -0.25219587672779159 -0.096573566868223354 0 -0.27000324710533807 -0.1091033803880678 0 -0.2481410536782242 -0.09913378306860883 0 -0.25622919086432761 -0.1090333359348112 0 -0.25219587672779159 -0.096573566868223354 0 -0.2481410536782242 -0.09913378306860883 0 -0.25219587672779159 -0.096573566868223354 0 -0.28099379812887648 -0.091605183416028482 0 -0.27188922467054338 -0.096695930799043026 0 -0.28244873601835752 -0.1032932819330602 0 -0.27188922467054338 -0.096695930799043026 0 -0.27000324710533807 -0.1091033803880678 0 -0.28244873601835752 -0.1032932819330602 0 -0.27000324710533807 -0.1091033803880678 0 -0.28781061748288522 -0.1216331939079113 0 -0.27000324710533807 -0.1091033803880678 0 -0.28781061748288522 -0.1216331939079113 0 -0.28244873601835752 -0.1032932819330602 0 -0.27000324710533807 -0.1091033803880678 0 -0.25765772953270638 -0.12725286383122411 0 -0.27407879499076843 -0.13001296053370159 0 -0.27000324710533807 -0.1091033803880678 0 -0.28781061748288522 -0.1216331939079113 0 -0.27407879499076843 -0.13001296053370159 0 -0.28781061748288522 -0.1216331939079113 0 -0.29487589778345957 -0.10509318540289179 0 -0.30303112287322931 -0.1182650198313155 0 -0.28781061748288522 -0.1216331939079113 0 -0.29487589778345957 -0.10509318540289179 0 -0.28244873601835752 -0.1032932819330602 0 -0.28099379812887648 -0.091605183416028482 0 -0.28244873601835752 -0.1032932819330602 0 -0.29188656584558131 -0.09394335275681201 0 -0.29487589778345957 -0.10509318540289179 0 -0.28244873601835752 -0.1032932819330602 0 -0.29188656584558131 -0.09394335275681201 0 -0.29487589778345957 -0.10509318540289179 0 -0.30640266834833269 -0.090934083159093154 0 -0.31844134822637349 -0.11236281896051829 0 -0.29487589778345957 -0.10509318540289179 0 -0.29188656584558131 -0.09394335275681201 0 -0.30640266834833269 -0.090934083159093154 0 -0.30303112287322931 -0.1182650198313155 0 -0.31844134822637349 -0.11236281896051829 0 -0.30561798786043248 -0.13416300742775461 0 -0.29487589778345957 -0.10509318540289179 0 -0.30303112287322931 -0.1182650198313155 0 -0.31844134822637349 -0.11236281896051829 0 -0.28781061748288522 -0.1216331939079113 0 -0.30303112287322931 -0.1182650198313155 0 -0.30561798786043248 -0.13416300742775461 0 -0.31844134822637349 -0.11236281896051829 0 -0.30561798786043248 -0.13416300742775461 0 -0.27495735491674578 -0.08220196433666474 0 -0.29844196951799362 -0.067373773309087781 0 -0.27495735491674578 -0.08220196433666474 0 -0.28403380050405741 -0.07226561351953166 0 -0.29844196951799362 -0.067373773309087781 0 -0.27495735491674578 -0.08220196433666474 0 -0.293081853462687 -0.083925874901729758 0 -0.29844196951799362 -0.067373773309087781 0 -0.28961535349062573 -0.061028932471428113 0 -0.28403380050405741 -0.07226561351953166 0 -0.29844196951799362 -0.067373773309087781 0 -0.28099379812887648 -0.091605183416028482 0 -0.27495735491674578 -0.08220196433666474 0 -0.293081853462687 -0.083925874901729758 0 -0.28099379812887648 -0.091605183416028482 0 -0.29188656584558131 -0.09394335275681201 0 -0.293081853462687 -0.083925874901729758 0 -0.30640266834833269 -0.090934083159093154 0 -0.30511022482239192 -0.078413394862947072 0 -0.31820182796329988 -0.074228572998718767 0 -0.293081853462687 -0.083925874901729758 0 -0.30640266834833269 -0.090934083159093154 0 -0.30511022482239192 -0.078413394862947072 0 -0.29188656584558131 -0.09394335275681201 0 -0.293081853462687 -0.083925874901729758 0 -0.30640266834833269 -0.090934083159093154 0 -0.293081853462687 -0.083925874901729758 0 -0.30511022482239192 -0.078413394862947072 0 -0.29844196951799362 -0.067373773309087781 0 -0.30511022482239192 -0.078413394862947072 0 -0.29844196951799362 -0.067373773309087781 0 -0.31820182796329988 -0.074228572998718767 0 -0.29844196951799362 -0.067373773309087781 0 -0.31820182796329988 -0.074228572998718767 0 -0.32192658411924102 -0.052545582281510107 0 -0.31820182796329988 -0.074228572998718767 0 -0.34408806895825239 -0.068762442026043924 0 -0.32192658411924102 -0.052545582281510107 0 -0.30640266834833269 -0.090934083159093154 0 -0.31820182796329988 -0.074228572998718767 0 -0.33126470859231288 -0.090562630493281171 0 -0.33126470859231288 -0.090562630493281171 0 -0.34408806895825239 -0.068762442026043924 0 -0.33126470859231288 -0.090562630493281171 0 -0.34408806895825239 -0.068762442026043924 0 -0.35150133801647038 -0.091646266450663885 0 -0.31820182796329988 -0.074228572998718767 0 -0.33126470859231288 -0.090562630493281171 0 -0.34408806895825239 -0.068762442026043924 0 -0.31844134822637349 -0.11236281896051829 0 -0.30561798786043248 -0.13416300742775461 0 -0.31825603281752712 -0.1269254007633791 0 -0.31844134822637349 -0.11236281896051829 0 -0.31825603281752712 -0.1269254007633791 0 -0.33587294312978461 -0.12749806895968491 0 -0.33126470859231288 -0.090562630493281171 0 -0.31844134822637349 -0.11236281896051829 0 -0.30640266834833269 -0.090934083159093154 0 -0.33126470859231288 -0.090562630493281171 0 -0.31844134822637349 -0.11236281896051829 0 -0.33126470859231288 -0.090562630493281171 0 -0.34125218320365758 -0.10866558177218121 0 -0.35150133801647038 -0.091646266450663885 0 -0.33126470859231288 -0.090562630493281171 0 -0.31844134822637349 -0.11236281896051829 0 -0.34125218320365758 -0.10866558177218121 0 -0.34125218320365758 -0.10866558177218121 0 -0.35163991421566482 -0.1215270112912081 0 -0.33587294312978461 -0.12749806895968491 0 -0.31844134822637349 -0.11236281896051829 0 -0.34125218320365758 -0.10866558177218121 0 -0.33587294312978461 -0.12749806895968491 0 -0.34125218320365758 -0.10866558177218121 0 -0.35163991421566482 -0.1215270112912081 0 -0.35703588129874919 -0.10729386012821771 0 -0.34125218320365758 -0.10866558177218121 0 -0.35703588129874919 -0.10729386012821771 0 -0.35150133801647038 -0.091646266450663885 0 -0.35703588129874919 -0.10729386012821771 0 -0.37092681214383288 -0.095243366243769972 0 -0.35150133801647038 -0.091646266450663885 0 -0.35703588129874919 -0.10729386012821771 0 -0.37092681214383288 -0.095243366243769972 0 -0.36985915891412019 -0.11938707488326521 0 -0.35163991421566482 -0.1215270112912081 0 -0.35703588129874919 -0.10729386012821771 0 -0.36985915891412019 -0.11938707488326521 0 -0.34408806895825239 -0.068762442026043924 0 -0.36309324922779568 -0.074165289552874533 0 -0.36921263659382492 -0.046060141185988432 0 -0.34408806895825239 -0.068762442026043924 0 -0.35150133801647038 -0.091646266450663885 0 -0.36309324922779568 -0.074165289552874533 0 -0.37092681214383288 -0.095243366243769972 0 -0.35150133801647038 -0.091646266450663885 0 -0.36309324922779568 -0.074165289552874533 0 -0.37092681214383288 -0.095243366243769972 0 -0.36309324922779568 -0.074165289552874533 0 -0.37973739042659771 -0.069114231857906494 0 -0.36309324922779568 -0.074165289552874533 0 -0.36921263659382492 -0.046060141185988432 0 -0.37973739042659771 -0.069114231857906494 0 -0.36921263659382492 -0.046060141185988432 0 -0.37973739042659771 -0.069114231857906494 0 -0.34408806895825239 -0.068762442026043924 0 -0.34497486864820859 -0.044038254697304387 0 -0.36921263659382492 -0.046060141185988432 0 -0.34497486864820859 -0.044038254697304387 0 -0.36921263659382492 -0.046060141185988432 0 -0.35868788276105201 -0.023006050514070332 0 -0.34497486864820859 -0.044038254697304387 0 -0.35868788276105201 -0.023006050514070332 0 -0.33095917080867249 -0.02981705747890917 0 -0.36921263659382492 -0.046060141185988432 0 -0.35868788276105201 -0.023006050514070332 0 -0.36921263659382492 -0.046060141185988432 0 -0.35868788276105201 -0.023006050514070332 0 -0.38162470574755181 -0.025531593640554039 0 -0.36760158085974948 -0.004488683742273545 0 -0.35868788276105201 -0.023006050514070332 0 -0.38162470574755181 -0.025531593640554039 0 -0.36760158085974948 -0.004488683742273545 0 -0.35868788276105201 -0.023006050514070332 0 -0.34246086097491812 0.002873687061442511 0 -0.35868788276105201 -0.023006050514070332 0 -0.3351769037490151 -0.01353629454703131 0 -0.34246086097491812 0.002873687061442511 0 -0.33095917080867249 -0.02981705747890917 0 -0.3351769037490151 -0.01353629454703131 0 -0.31880639569602759 -0.01503770786338899 0 -0.35868788276105201 -0.023006050514070332 0 -0.33095917080867249 -0.02981705747890917 0 -0.3351769037490151 -0.01353629454703131 0 -0.3351769037490151 -0.01353629454703131 0 -0.32497020850440511 -0.002694343940230548 0 -0.34246086097491812 0.002873687061442511 0 -0.3351769037490151 -0.01353629454703131 0 -0.32497020850440511 -0.002694343940230548 0 -0.31880639569602759 -0.01503770786338899 0 -0.31132612188382319 -0.0011984883802009631 0 -0.32497020850440511 -0.002694343940230548 0 -0.31880639569602759 -0.01503770786338899 0 -0.30725896677632941 -0.034747733883148911 0 -0.33095917080867249 -0.02981705747890917 0 -0.31880639569602759 -0.01503770786338899 0 -0.30725896677632941 -0.034747733883148911 0 -0.33095917080867249 -0.02981705747890917 0 -0.32192658411924102 -0.052545582281510107 0 -0.34408806895825239 -0.068762442026043924 0 -0.34497486864820859 -0.044038254697304387 0 -0.32192658411924102 -0.052545582281510107 0 -0.34497486864820859 -0.044038254697304387 0 -0.33095917080867249 -0.02981705747890917 0 -0.32192658411924102 -0.052545582281510107 0 -0.30333262677819001 -0.2196286923743174 0 -0.29569117905825443 -0.24281310196210301 0 -0.32320426889685627 -0.23683514003091269 0 -0.30333262677819001 -0.2196286923743174 0 -0.29569117905825443 -0.24281310196210301 0 -0.27775956675475449 -0.22347822377171839 0 -0.27550038409661148 -0.25748723264139978 0 -0.29569117905825443 -0.24281310196210301 0 -0.26833892860271907 -0.2402228214658659 0 -0.29569117905825443 -0.24281310196210301 0 -0.26833892860271907 -0.2402228214658659 0 -0.27775956675475449 -0.22347822377171839 0 -0.2484047987823973 -0.25030269263885491 0 -0.26833892860271907 -0.2402228214658659 0 -0.25570994727850099 -0.2254785095757581 0 -0.27550038409661148 -0.25748723264139978 0 -0.2484047987823973 -0.25030269263885491 0 -0.26833892860271907 -0.2402228214658659 0 -0.26833892860271907 -0.2402228214658659 0 -0.25570994727850099 -0.2254785095757581 0 -0.27775956675475449 -0.22347822377171839 0 -0.25570994727850099 -0.2254785095757581 0 -0.27775956675475449 -0.22347822377171839 0 -0.26414015580821321 -0.20831510489177091 0 -0.27775956675475449 -0.22347822377171839 0 -0.26414015580821321 -0.20831510489177091 0 -0.28616963227844089 -0.20349638525588709 0 -0.24583522102665989 -0.20909413925259551 0 -0.25570994727850099 -0.2254785095757581 0 -0.26414015580821321 -0.20831510489177091 0 -0.24909357648288249 -0.19320171220448801 0 -0.24583522102665989 -0.20909413925259551 0 -0.26414015580821321 -0.20831510489177091 0 -0.24909357648288249 -0.19320171220448801 0 -0.2688684433766555 -0.19106288202310431 0 -0.24909357648288249 -0.19320171220448801 0 -0.26414015580821321 -0.20831510489177091 0 -0.2688684433766555 -0.19106288202310431 0 -0.2688684433766555 -0.19106288202310431 0 -0.28616963227844089 -0.20349638525588709 0 -0.28747356954123582 -0.18175541811538359 0 -0.26414015580821321 -0.20831510489177091 0 -0.2688684433766555 -0.19106288202310431 0 -0.28616963227844089 -0.20349638525588709 0 -0.28616963227844089 -0.20349638525588709 0 -0.30963520915519971 -0.19127497458877879 0 -0.28747356954123582 -0.18175541811538359 0 -0.30333262677819001 -0.2196286923743174 0 -0.27775956675475449 -0.22347822377171839 0 -0.28616963227844089 -0.20349638525588709 0 -0.30333262677819001 -0.2196286923743174 0 -0.28616963227844089 -0.20349638525588709 0 -0.30963520915519971 -0.19127497458877879 0 -0.30963520915519971 -0.19127497458877879 0 -0.30423037020376098 -0.171467055929589 0 -0.32265355533849782 -0.17992150013288971 0 -0.30963520915519971 -0.19127497458877879 0 -0.28747356954123582 -0.18175541811538359 0 -0.30963520915519971 -0.19127497458877879 0 -0.30423037020376098 -0.171467055929589 0 -0.28747356954123582 -0.18175541811538359 0 -0.30646692993491159 -0.15732080136616169 0 -0.30423037020376098 -0.171467055929589 0 -0.31781637217135889 -0.16314930349525189 0 -0.30646692993491159 -0.15732080136616169 0 -0.29667448075083019 -0.16165471551711519 0 -0.29587864259596008 -0.1506341316428299 0 -0.30646692993491159 -0.15732080136616169 0 -0.30423037020376098 -0.171467055929589 0 -0.29667448075083019 -0.16165471551711519 0 -0.30423037020376098 -0.171467055929589 0 -0.29114508867316452 -0.16904769991426549 0 -0.29667448075083019 -0.16165471551711519 0 -0.29114508867316452 -0.16904769991426549 0 -0.28747356954123582 -0.18175541811538359 0 -0.2801246361294526 -0.1609861734381281 0 -0.29114508867316452 -0.16904769991426549 0 -0.29667448075083019 -0.16165471551711519 0 -0.2801246361294526 -0.1609861734381281 0 -0.29667448075083019 -0.16165471551711519 0 -0.2801246361294526 -0.1609861734381281 0 -0.29587864259596008 -0.1506341316428299 0 -0.30423037020376098 -0.171467055929589 0 -0.29114508867316452 -0.16904769991426549 0 -0.28747356954123582 -0.18175541811538359 0 -0.2688684433766555 -0.19106288202310431 0 -0.28747356954123582 -0.18175541811538359 0 -0.26531192992727198 -0.1722358616419884 0 -0.28747356954123582 -0.18175541811538359 0 -0.26531192992727198 -0.1722358616419884 0 -0.24909357648288249 -0.19320171220448801 0 -0.24902456921953209 -0.17639246698618519 0 -0.2688684433766555 -0.19106288202310431 0 -0.24902456921953209 -0.17639246698618519 0 -0.2688684433766555 -0.19106288202310431 0 -0.26531192992727198 -0.1722358616419884 0 -0.24902456921953209 -0.17639246698618519 0 -0.26531192992727198 -0.1722358616419884 0 -0.25003963247768718 -0.16208663998204739 0 -0.26531192992727198 -0.1722358616419884 0 -0.25003963247768718 -0.16208663998204739 0 -0.26430607753631957 -0.14818220768488091 0 -0.28747356954123582 -0.18175541811538359 0 -0.26531192992727198 -0.1722358616419884 0 -0.2801246361294526 -0.1609861734381281 0 -0.26531192992727198 -0.1722358616419884 0 -0.2801246361294526 -0.1609861734381281 0 -0.26430607753631957 -0.14818220768488091 0 -0.2801246361294526 -0.1609861734381281 0 -0.26430607753631957 -0.14818220768488091 0 -0.28529267171009171 -0.142025134363335 0 -0.23793082060717269 -0.14396826160283149 0 -0.25003963247768718 -0.16208663998204739 0 -0.26430607753631957 -0.14818220768488091 0 -0.26430607753631957 -0.14818220768488091 0 -0.25765772953270638 -0.12725286383122411 0 -0.27407879499076843 -0.13001296053370159 0 -0.23793082060717269 -0.14396826160283149 0 -0.26430607753631957 -0.14818220768488091 0 -0.25765772953270638 -0.12725286383122411 0 -0.26430607753631957 -0.14818220768488091 0 -0.27407879499076843 -0.13001296053370159 0 -0.28529267171009171 -0.142025134363335 0 -0.28781061748288522 -0.1216331939079113 0 -0.30561798786043248 -0.13416300742775461 0 -0.28781061748288522 -0.1216331939079113 0 -0.27407879499076843 -0.13001296053370159 0 -0.28529267171009171 -0.142025134363335 0 -0.28781061748288522 -0.1216331939079113 0 -0.28529267171009171 -0.142025134363335 0 -0.29831583166361758 -0.13558234721862589 0 -0.28529267171009171 -0.142025134363335 0 -0.29547989226970989 -0.14234267338618301 0 -0.29831583166361758 -0.13558234721862589 0 -0.2801246361294526 -0.1609861734381281 0 -0.28529267171009171 -0.142025134363335 0 -0.29587864259596008 -0.1506341316428299 0 -0.28529267171009171 -0.142025134363335 0 -0.29587864259596008 -0.1506341316428299 0 -0.29547989226970989 -0.14234267338618301 0 -0.29587864259596008 -0.1506341316428299 0 -0.29547989226970989 -0.14234267338618301 0 -0.30136564284161738 -0.14233165653143751 0 -0.29587864259596008 -0.1506341316428299 0 -0.30136564284161738 -0.14233165653143751 0 -0.30487022008891218 -0.14819593116495891 0 -0.30646692993491159 -0.15732080136616169 0 -0.29587864259596008 -0.1506341316428299 0 -0.30487022008891218 -0.14819593116495891 0 -0.30646692993491159 -0.15732080136616169 0 -0.30487022008891218 -0.14819593116495891 0 -0.31428559298856729 -0.15123229662808249 0 -0.30840413316068538 -0.14177920286049531 0 -0.30487022008891218 -0.14819593116495891 0 -0.31428559298856729 -0.15123229662808249 0 -0.30136564284161738 -0.14233165653143751 0 -0.30840413316068538 -0.14177920286049531 0 -0.30487022008891218 -0.14819593116495891 0 -0.30561798786043248 -0.13416300742775461 0 -0.3154371020149524 -0.13456911072928859 0 -0.31571157524454369 -0.14126516597153521 0 -0.30136564284161738 -0.14233165653143751 0 -0.30840413316068538 -0.14177920286049531 0 -0.30561798786043248 -0.13416300742775461 0 -0.30561798786043248 -0.13416300742775461 0 -0.31571157524454369 -0.14126516597153521 0 -0.30840413316068538 -0.14177920286049531 0 -0.30561798786043248 -0.13416300742775461 0 -0.31571157524454369 -0.14126516597153521 0 -0.28781061748288522 -0.1216331939079113 0 -0.30561798786043248 -0.13416300742775461 0 -0.29831583166361758 -0.13558234721862589 0 -0.30136564284161738 -0.14233165653143751 0 -0.30561798786043248 -0.13416300742775461 0 -0.29831583166361758 -0.13558234721862589 0 -0.29547989226970989 -0.14234267338618301 0 -0.30136564284161738 -0.14233165653143751 0 -0.29831583166361758 -0.13558234721862589 0 -0.32505443932908379 -0.1376332013569849 0 -0.31825603281752712 -0.1269254007633791 0 -0.33587294312978461 -0.12749806895968491 0 -0.30561798786043248 -0.13416300742775461 0 -0.31825603281752712 -0.1269254007633791 0 -0.3154371020149524 -0.13456911072928859 0 -0.32505443932908379 -0.1376332013569849 0 -0.3154371020149524 -0.13456911072928859 0 -0.31571157524454369 -0.14126516597153521 0 -0.32505443932908379 -0.1376332013569849 0 -0.31825603281752712 -0.1269254007633791 0 -0.3154371020149524 -0.13456911072928859 0 -0.30840413316068538 -0.14177920286049531 0 -0.31571157524454369 -0.14126516597153521 0 -0.31428559298856729 -0.15123229662808249 0 -0.31571157524454369 -0.14126516597153521 0 -0.31428559298856729 -0.15123229662808249 0 -0.32703270214247432 -0.15165522847851229 0 -0.31428559298856729 -0.15123229662808249 0 -0.32703270214247432 -0.15165522847851229 0 -0.31781637217135889 -0.16314930349525189 0 -0.32505443932908379 -0.1376332013569849 0 -0.31571157524454369 -0.14126516597153521 0 -0.32703270214247432 -0.15165522847851229 0 -0.32505443932908379 -0.1376332013569849 0 -0.32703270214247432 -0.15165522847851229 0 -0.33982354762008188 -0.14495519111607191 0 -0.32703270214247432 -0.15165522847851229 0 -0.33982354762008188 -0.14495519111607191 0 -0.34539573294720122 -0.15867147345766119 0 -0.32505443932908379 -0.1376332013569849 0 -0.33982354762008188 -0.14495519111607191 0 -0.33587294312978461 -0.12749806895968491 0 -0.35163991421566482 -0.1215270112912081 0 -0.33587294312978461 -0.12749806895968491 0 -0.35757144972820792 -0.1389986435828601 0 -0.33982354762008188 -0.14495519111607191 0 -0.33587294312978461 -0.12749806895968491 0 -0.35757144972820792 -0.1389986435828601 0 -0.36985915891412019 -0.11938707488326521 0 -0.35757144972820792 -0.1389986435828601 0 -0.3777668901630421 -0.13394643063929401 0 -0.35163991421566482 -0.1215270112912081 0 -0.36985915891412019 -0.11938707488326521 0 -0.35757144972820792 -0.1389986435828601 0 -0.35757144972820792 -0.1389986435828601 0 -0.36237541352685743 -0.15425125703283801 0 -0.37766547346085683 -0.15144600416198159 0 -0.35757144972820792 -0.1389986435828601 0 -0.37766547346085683 -0.15144600416198159 0 -0.3777668901630421 -0.13394643063929401 0 -0.33982354762008188 -0.14495519111607191 0 -0.35757144972820792 -0.1389986435828601 0 -0.34539573294720122 -0.15867147345766119 0 -0.35757144972820792 -0.1389986435828601 0 -0.36237541352685743 -0.15425125703283801 0 -0.34539573294720122 -0.15867147345766119 0 -0.34539573294720122 -0.15867147345766119 0 -0.35643804304930399 -0.17067345324497729 0 -0.34109767364728782 -0.18405675346947559 0 -0.36237541352685743 -0.15425125703283801 0 -0.34539573294720122 -0.15867147345766119 0 -0.35643804304930399 -0.17067345324497729 0 -0.36237541352685743 -0.15425125703283801 0 -0.3741305950654103 -0.17193961091300511 0 -0.37766547346085683 -0.15144600416198159 0 -0.36237541352685743 -0.15425125703283801 0 -0.35643804304930399 -0.17067345324497729 0 -0.3741305950654103 -0.17193961091300511 0 -0.35643804304930399 -0.17067345324497729 0 -0.3741305950654103 -0.17193961091300511 0 -0.35919080005976323 -0.18444817135190661 0 -0.3741305950654103 -0.17193961091300511 0 -0.35919080005976323 -0.18444817135190661 0 -0.37209567462801812 -0.19764829365367059 0 -0.35643804304930399 -0.17067345324497729 0 -0.35919080005976323 -0.18444817135190661 0 -0.34109767364728782 -0.18405675346947559 0 -0.34109767364728782 -0.18405675346947559 0 -0.33214846261607373 -0.16786191635142381 0 -0.32265355533849782 -0.17992150013288971 0 -0.34539573294720122 -0.15867147345766119 0 -0.34109767364728782 -0.18405675346947559 0 -0.33214846261607373 -0.16786191635142381 0 -0.32703270214247432 -0.15165522847851229 0 -0.34539573294720122 -0.15867147345766119 0 -0.33214846261607373 -0.16786191635142381 0 -0.30423037020376098 -0.171467055929589 0 -0.31781637217135889 -0.16314930349525189 0 -0.32265355533849782 -0.17992150013288971 0 -0.33214846261607373 -0.16786191635142381 0 -0.31781637217135889 -0.16314930349525189 0 -0.32265355533849782 -0.17992150013288971 0 -0.32703270214247432 -0.15165522847851229 0 -0.33214846261607373 -0.16786191635142381 0 -0.31781637217135889 -0.16314930349525189 0 -0.30646692993491159 -0.15732080136616169 0 -0.31428559298856729 -0.15123229662808249 0 -0.31781637217135889 -0.16314930349525189 0 -0.30963520915519971 -0.19127497458877879 0 -0.33179684876916371 -0.2007945310621741 0 -0.30963520915519971 -0.19127497458877879 0 -0.32265355533849782 -0.17992150013288971 0 -0.33179684876916371 -0.2007945310621741 0 -0.30963520915519971 -0.19127497458877879 0 -0.33179684876916371 -0.2007945310621741 0 -0.32475307034528139 -0.2190056309583554 0 -0.30333262677819001 -0.2196286923743174 0 -0.30963520915519971 -0.19127497458877879 0 -0.32475307034528139 -0.2190056309583554 0 -0.33179684876916371 -0.2007945310621741 0 -0.35395848838312771 -0.21031408753556929 0 -0.33179684876916371 -0.2007945310621741 0 -0.35395848838312771 -0.21031408753556929 0 -0.32475307034528139 -0.2190056309583554 0 -0.34109767364728782 -0.18405675346947559 0 -0.33179684876916371 -0.2007945310621741 0 -0.35395848838312771 -0.21031408753556929 0 -0.34109767364728782 -0.18405675346947559 0 -0.32265355533849782 -0.17992150013288971 0 -0.33179684876916371 -0.2007945310621741 0 -0.35919080005976323 -0.18444817135190661 0 -0.34109767364728782 -0.18405675346947559 0 -0.35395848838312771 -0.21031408753556929 0 -0.35919080005976323 -0.18444817135190661 0 -0.37209567462801812 -0.19764829365367059 0 -0.35395848838312771 -0.21031408753556929 0 -0.37209567462801812 -0.19764829365367059 0 -0.35395848838312771 -0.21031408753556929 0 -0.37889137526228139 -0.2223088148270739 0 -0.36569898431644549 -0.24509394484435121 0 -0.37889137526228139 -0.2223088148270739 0 -0.35395848838312771 -0.21031408753556929 0 -0.34868372132696102 -0.23097794959607851 0 -0.37889137526228139 -0.2223088148270739 0 -0.34868372132696102 -0.23097794959607851 0 -0.36569898431644549 -0.24509394484435121 0 -0.37889137526228139 -0.2223088148270739 0 -0.34308423771481489 -0.25286804080927311 0 -0.34868372132696102 -0.23097794959607851 0 -0.36569898431644549 -0.24509394484435121 0 -0.321099140629927 -0.25778998348124121 0 -0.34308423771481489 -0.25286804080927311 0 -0.32320426889685627 -0.23683514003091269 0 -0.34308423771481489 -0.25286804080927311 0 -0.34868372132696102 -0.23097794959607851 0 -0.32320426889685627 -0.23683514003091269 0 -0.35395848838312771 -0.21031408753556929 0 -0.34868372132696102 -0.23097794959607851 0 -0.32475307034528139 -0.2190056309583554 0 -0.34868372132696102 -0.23097794959607851 0 -0.32475307034528139 -0.2190056309583554 0 -0.32320426889685627 -0.23683514003091269 0 -0.30333262677819001 -0.2196286923743174 0 -0.32475307034528139 -0.2190056309583554 0 -0.32320426889685627 -0.23683514003091269 0 -0.321099140629927 -0.25778998348124121 0 -0.29569117905825443 -0.24281310196210301 0 -0.32320426889685627 -0.23683514003091269 0 -0.43309198030049539 -0.25372594078729771 0 -0.42542271215988858 -0.2205049430465307 0 -0.40874840082738428 -0.2325586311544193 0 -0.43309198030049539 -0.25372594078729771 0 -0.42542271215988858 -0.2205049430465307 0 -0.44283490110740348 -0.22835286474738639 0 -0.42542271215988858 -0.2205049430465307 0 -0.40874840082738428 -0.2325586311544193 0 -0.40623112886794782 -0.21256295988070109 0 -0.40909065256511068 -0.25244936046849531 0 -0.43309198030049539 -0.25372594078729771 0 -0.40874840082738428 -0.2325586311544193 0 -0.40909065256511068 -0.25244936046849531 0 -0.40874840082738428 -0.2325586311544193 0 -0.3903351089779068 -0.2441590299362178 0 -0.36569898431644549 -0.24509394484435121 0 -0.3903351089779068 -0.2441590299362178 0 -0.37889137526228139 -0.2223088148270739 0 -0.40874840082738428 -0.2325586311544193 0 -0.37889137526228139 -0.2223088148270739 0 -0.40623112886794782 -0.21256295988070109 0 -0.40874840082738428 -0.2325586311544193 0 -0.3903351089779068 -0.2441590299362178 0 -0.37889137526228139 -0.2223088148270739 0 -0.37889137526228139 -0.2223088148270739 0 -0.40623112886794782 -0.21256295988070109 0 -0.39208376620811741 -0.19952368480979649 0 -0.37889137526228139 -0.2223088148270739 0 -0.39208376620811741 -0.19952368480979649 0 -0.37209567462801812 -0.19764829365367059 0 -0.37889137526228139 -0.2223088148270739 0 -0.39208376620811741 -0.19952368480979649 0 -0.37209567462801812 -0.19764829365367059 0 -0.39208376620811741 -0.19952368480979649 0 -0.3876953340703691 -0.1828005386393674 0 -0.39208376620811741 -0.19952368480979649 0 -0.40527615715395338 -0.17673855479251921 0 -0.39208376620811741 -0.19952368480979649 0 -0.42044164729203981 -0.1996186526889063 0 -0.40527615715395338 -0.17673855479251921 0 -0.40623112886794782 -0.21256295988070109 0 -0.39208376620811741 -0.19952368480979649 0 -0.42044164729203981 -0.1996186526889063 0 -0.42542271215988858 -0.2205049430465307 0 -0.40623112886794782 -0.21256295988070109 0 -0.42044164729203981 -0.1996186526889063 0 -0.42542271215988858 -0.2205049430465307 0 -0.42044164729203981 -0.1996186526889063 0 -0.44599611370667752 -0.20530682510913981 0 -0.42044164729203981 -0.1996186526889063 0 -0.43596138196482681 -0.19078593037640099 0 -0.44599611370667752 -0.20530682510913981 0 -0.42044164729203981 -0.1996186526889063 0 -0.43596138196482681 -0.19078593037640099 0 -0.42360337067769321 -0.17799142890278549 0 -0.43596138196482681 -0.19078593037640099 0 -0.42360337067769321 -0.17799142890278549 0 -0.43838772618383048 -0.17589405050466281 0 -0.42360337067769321 -0.17799142890278549 0 -0.4313134804802331 -0.16525939170346321 0 -0.43838772618383048 -0.17589405050466281 0 -0.42360337067769321 -0.17799142890278549 0 -0.4313134804802331 -0.16525939170346321 0 -0.42175317499666592 -0.16114828058918529 0 -0.4313134804802331 -0.16525939170346321 0 -0.43555633759959 -0.15572274868119851 0 -0.44299069828894411 -0.1647657353294574 0 -0.4313134804802331 -0.16525939170346321 0 -0.42720735709675972 -0.1544105799389795 0 -0.43555633759959 -0.15572274868119851 0 -0.4313134804802331 -0.16525939170346321 0 -0.42175317499666592 -0.16114828058918529 0 -0.42720735709675972 -0.1544105799389795 0 -0.42175317499666592 -0.16114828058918529 0 -0.41846854809978878 -0.15395342477524149 0 -0.42720735709675972 -0.1544105799389795 0 -0.40527615715395338 -0.17673855479251921 0 -0.41846854809978878 -0.15395342477524149 0 -0.42175317499666592 -0.16114828058918529 0 -0.40527615715395338 -0.17673855479251921 0 -0.41846854809978878 -0.15395342477524149 0 -0.40527615715395338 -0.17673855479251921 0 -0.40212676429218402 -0.1599615831538754 0 -0.41846854809978878 -0.15395342477524149 0 -0.42175317499666592 -0.16114828058918529 0 -0.41846854809978878 -0.15395342477524149 0 -0.42360337067769321 -0.17799142890278549 0 -0.42175317499666592 -0.16114828058918529 0 -0.40527615715395338 -0.17673855479251921 0 -0.42044164729203981 -0.1996186526889063 0 -0.42360337067769321 -0.17799142890278549 0 -0.40527615715395338 -0.17673855479251921 0 -0.39208376620811741 -0.19952368480979649 0 -0.40527615715395338 -0.17673855479251921 0 -0.3876953340703691 -0.1828005386393674 0 -0.40527615715395338 -0.17673855479251921 0 -0.3876953340703691 -0.1828005386393674 0 -0.3912587135673698 -0.1681086338540364 0 -0.3741305950654103 -0.17193961091300511 0 -0.37209567462801812 -0.19764829365367059 0 -0.3876953340703691 -0.1828005386393674 0 -0.3741305950654103 -0.17193961091300511 0 -0.3876953340703691 -0.1828005386393674 0 -0.3912587135673698 -0.1681086338540364 0 -0.3912587135673698 -0.1681086338540364 0 -0.39324916813857053 -0.15420446998412479 0 -0.37766547346085683 -0.15144600416198159 0 -0.3741305950654103 -0.17193961091300511 0 -0.3912587135673698 -0.1681086338540364 0 -0.37766547346085683 -0.15144600416198159 0 -0.40527615715395338 -0.17673855479251921 0 -0.3912587135673698 -0.1681086338540364 0 -0.40212676429218402 -0.1599615831538754 0 -0.3912587135673698 -0.1681086338540364 0 -0.40212676429218402 -0.1599615831538754 0 -0.39324916813857053 -0.15420446998412479 0 -0.40212676429218402 -0.1599615831538754 0 -0.40238123450123769 -0.14680283236345501 0 -0.39324916813857053 -0.15420446998412479 0 -0.40238123450123769 -0.14680283236345501 0 -0.39324916813857053 -0.15420446998412479 0 -0.38865348384030091 -0.1429479654235532 0 -0.38865348384030091 -0.1429479654235532 0 -0.37766547346085683 -0.15144600416198159 0 -0.3777668901630421 -0.13394643063929401 0 -0.39324916813857053 -0.15420446998412479 0 -0.38865348384030091 -0.1429479654235532 0 -0.37766547346085683 -0.15144600416198159 0 -0.3777668901630421 -0.13394643063929401 0 -0.39346782672421871 -0.13026452637577959 0 -0.38294047368348688 -0.12354566292245681 0 -0.38865348384030091 -0.1429479654235532 0 -0.3777668901630421 -0.13394643063929401 0 -0.39346782672421871 -0.13026452637577959 0 -0.36985915891412019 -0.11938707488326521 0 -0.3777668901630421 -0.13394643063929401 0 -0.38294047368348688 -0.12354566292245681 0 -0.40238123450123769 -0.14680283236345501 0 -0.39346782672421871 -0.13026452637577959 0 -0.40962772309596551 -0.13458791898849221 0 -0.40238123450123769 -0.14680283236345501 0 -0.38865348384030091 -0.1429479654235532 0 -0.39346782672421871 -0.13026452637577959 0 -0.39346782672421871 -0.13026452637577959 0 -0.40962772309596551 -0.13458791898849221 0 -0.40078689809214058 -0.1152224132017436 0 -0.41923084079662809 -0.1304467589748238 0 -0.40962772309596551 -0.13458791898849221 0 -0.40078689809214058 -0.1152224132017436 0 -0.41923084079662809 -0.1304467589748238 0 -0.40962772309596551 -0.13458791898849221 0 -0.42384490565900151 -0.1446676928325657 0 -0.40212676429218402 -0.1599615831538754 0 -0.40238123450123769 -0.14680283236345501 0 -0.41846854809978878 -0.15395342477524149 0 -0.40238123450123769 -0.14680283236345501 0 -0.40962772309596551 -0.13458791898849221 0 -0.41846854809978878 -0.15395342477524149 0 -0.40962772309596551 -0.13458791898849221 0 -0.41846854809978878 -0.15395342477524149 0 -0.42384490565900151 -0.1446676928325657 0 -0.40962772309596551 -0.13458791898849221 0 -0.41846854809978878 -0.15395342477524149 0 -0.41846854809978878 -0.15395342477524149 0 -0.42384490565900151 -0.1446676928325657 0 -0.42384490565900151 -0.1446676928325657 0 -0.42720735709675972 -0.1544105799389795 0 -0.43265416648092447 -0.14604781430532571 0 -0.42384490565900151 -0.1446676928325657 0 -0.43265416648092447 -0.14604781430532571 0 -0.42959433591287433 -0.13567905931842791 0 -0.41846854809978878 -0.15395342477524149 0 -0.42384490565900151 -0.1446676928325657 0 -0.42720735709675972 -0.1544105799389795 0 -0.43555633759959 -0.15572274868119851 0 -0.43265416648092447 -0.14604781430532571 0 -0.44329572744857509 -0.14896719545603579 0 -0.42720735709675972 -0.1544105799389795 0 -0.43555633759959 -0.15572274868119851 0 -0.43265416648092447 -0.14604781430532571 0 -0.43265416648092447 -0.14604781430532571 0 -0.42959433591287433 -0.13567905931842791 0 -0.44005180494653962 -0.14035418732521171 0 -0.43728711544283788 -0.13187305918953279 0 -0.44612926966579541 -0.12654003141111439 0 -0.42345808387896777 -0.12088122230642991 0 -0.43728711544283788 -0.13187305918953279 0 -0.42959433591287433 -0.13567905931842791 0 -0.44005180494653962 -0.14035418732521171 0 -0.43728711544283788 -0.13187305918953279 0 -0.42959433591287433 -0.13567905931842791 0 -0.42345808387896777 -0.12088122230642991 0 -0.41923084079662809 -0.1304467589748238 0 -0.42959433591287433 -0.13567905931842791 0 -0.42345808387896777 -0.12088122230642991 0 -0.41923084079662809 -0.1304467589748238 0 -0.42384490565900151 -0.1446676928325657 0 -0.42959433591287433 -0.13567905931842791 0 -0.44720208281001261 -0.1359107955864802 0 -0.44005180494653962 -0.14035418732521171 0 -0.45264340556062282 -0.143970928435837 0 -0.44720208281001261 -0.1359107955864802 0 -0.45264340556062282 -0.143970928435837 0 -0.45641204354094073 -0.13611228395314859 0 -0.44720208281001261 -0.1359107955864802 0 -0.44612926966579541 -0.12654003141111439 0 -0.45641204354094073 -0.13611228395314859 0 -0.43728711544283788 -0.13187305918953279 0 -0.44720208281001261 -0.1359107955864802 0 -0.44612926966579541 -0.12654003141111439 0 -0.43728711544283788 -0.13187305918953279 0 -0.44720208281001261 -0.1359107955864802 0 -0.44005180494653962 -0.14035418732521171 0 -0.43265416648092447 -0.14604781430532571 0 -0.44005180494653962 -0.14035418732521171 0 -0.44329572744857509 -0.14896719545603579 0 -0.43555633759959 -0.15572274868119851 0 -0.44329572744857509 -0.14896719545603579 0 -0.44585237926311161 -0.15600440364815549 0 -0.44329572744857509 -0.14896719545603579 0 -0.45206604111773763 -0.15215781214908961 0 -0.44585237926311161 -0.15600440364815549 0 -0.45206604111773763 -0.15215781214908961 0 -0.44585237926311161 -0.15600440364815549 0 -0.45505626860781501 -0.16007098466618899 0 -0.44329572744857509 -0.14896719545603579 0 -0.45206604111773763 -0.15215781214908961 0 -0.45264340556062282 -0.143970928435837 0 -0.44005180494653962 -0.14035418732521171 0 -0.44329572744857509 -0.14896719545603579 0 -0.45264340556062282 -0.143970928435837 0 -0.45264340556062282 -0.143970928435837 0 -0.46684725298953872 -0.14182332519405669 0 -0.45641204354094073 -0.13611228395314859 0 -0.45264340556062282 -0.143970928435837 0 -0.46088902379142321 -0.15201324565023219 0 -0.46684725298953872 -0.14182332519405669 0 -0.45206604111773763 -0.15215781214908961 0 -0.46088902379142321 -0.15201324565023219 0 -0.45505626860781501 -0.16007098466618899 0 -0.45206604111773763 -0.15215781214908961 0 -0.45264340556062282 -0.143970928435837 0 -0.46088902379142321 -0.15201324565023219 0 -0.46088902379142321 -0.15201324565023219 0 -0.47029165786973898 -0.1504513564439125 0 -0.46655530073683987 -0.16361593125027421 0 -0.46088902379142321 -0.15201324565023219 0 -0.46684725298953872 -0.14182332519405669 0 -0.47029165786973898 -0.1504513564439125 0 -0.44612926966579541 -0.12654003141111439 0 -0.46880045545262239 -0.1321988405158015 0 -0.45917630948634991 -0.12272435470562169 0 -0.44612926966579541 -0.12654003141111439 0 -0.46880045545262239 -0.1321988405158015 0 -0.44612926966579541 -0.12654003141111439 0 -0.45641204354094073 -0.13611228395314859 0 -0.46880045545262239 -0.1321988405158015 0 -0.46684725298953872 -0.14182332519405669 0 -0.46880045545262239 -0.1321988405158015 0 -0.46684725298953872 -0.14182332519405669 0 -0.45641204354094073 -0.13611228395314859 0 -0.46880045545262239 -0.1321988405158015 0 -0.46880045545262239 -0.1321988405158015 0 -0.48142668072875749 -0.12745923539429979 0 -0.47166928511243761 -0.11806256553800561 0 -0.46880045545262239 -0.1321988405158015 0 -0.48523698234997009 -0.1363014564499925 0 -0.4750561884246236 -0.14257130093019879 0 -0.46880045545262239 -0.1321988405158015 0 -0.48523698234997009 -0.1363014564499925 0 -0.46880045545262239 -0.1321988405158015 0 -0.48142668072875749 -0.12745923539429979 0 -0.48523698234997009 -0.1363014564499925 0 -0.46880045545262239 -0.1321988405158015 0 -0.47166928511243761 -0.11806256553800561 0 -0.46684725298953872 -0.14182332519405669 0 -0.46880045545262239 -0.1321988405158015 0 -0.4750561884246236 -0.14257130093019879 0 -0.48142668072875749 -0.12745923539429979 0 -0.48523698234997009 -0.1363014564499925 0 -0.50000000000000377 -0.1232740790733995 0 -0.48523698234997009 -0.1363014564499925 0 -0.5 -0.149139581324053 0 -0.50000000000000377 -0.1232740790733995 0 -0.5 -0.149139581324053 0 -0.48011645335129172 -0.1523844323423704 0 -0.48520601686328058 -0.16419295510886611 0 -0.48523698234997009 -0.1363014564499925 0 -0.5 -0.149139581324053 0 -0.48011645335129172 -0.1523844323423704 0 -0.48523698234997009 -0.1363014564499925 0 -0.48011645335129172 -0.1523844323423704 0 -0.4750561884246236 -0.14257130093019879 0 -0.46684725298953872 -0.14182332519405669 0 -0.4750561884246236 -0.14257130093019879 0 -0.47029165786973898 -0.1504513564439125 0 -0.48011645335129172 -0.1523844323423704 0 -0.47029165786973898 -0.1504513564439125 0 -0.46655530073683987 -0.16361593125027421 0 -0.48011645335129172 -0.1523844323423704 0 -0.4750561884246236 -0.14257130093019879 0 -0.47029165786973898 -0.1504513564439125 0 -0.48520601686328058 -0.16419295510886611 0 -0.47935833022827129 -0.180819747052926 0 -0.46655530073683987 -0.16361593125027421 0 -0.48011645335129172 -0.1523844323423704 0 -0.48520601686328058 -0.16419295510886611 0 -0.46655530073683987 -0.16361593125027421 0 -0.5 -0.149139581324053 0 -0.48520601686328058 -0.16419295510886611 0 -0.5 -0.17500508357470659 0 -0.48520601686328058 -0.16419295510886611 0 -0.5 -0.17500508357470659 0 -0.47935833022827129 -0.180819747052926 0 -0.5 -0.17500508357470659 0 -0.47935833022827129 -0.180819747052926 0 -0.5 -0.20087058582535999 0 -0.47935833022827129 -0.180819747052926 0 -0.45675455084832489 -0.18343917035285101 0 -0.47054814752869872 -0.19702913931303831 0 -0.45675455084832489 -0.18343917035285101 0 -0.46655530073683987 -0.16361593125027421 0 -0.45263110923619609 -0.16958310901817741 0 -0.47935833022827129 -0.180819747052926 0 -0.45675455084832489 -0.18343917035285101 0 -0.46655530073683987 -0.16361593125027421 0 -0.46088902379142321 -0.15201324565023219 0 -0.46655530073683987 -0.16361593125027421 0 -0.45505626860781501 -0.16007098466618899 0 -0.46655530073683987 -0.16361593125027421 0 -0.45505626860781501 -0.16007098466618899 0 -0.45263110923619609 -0.16958310901817741 0 -0.45505626860781501 -0.16007098466618899 0 -0.45263110923619609 -0.16958310901817741 0 -0.44299069828894411 -0.1647657353294574 0 -0.44585237926311161 -0.15600440364815549 0 -0.45505626860781501 -0.16007098466618899 0 -0.44299069828894411 -0.1647657353294574 0 -0.43555633759959 -0.15572274868119851 0 -0.44585237926311161 -0.15600440364815549 0 -0.44299069828894411 -0.1647657353294574 0 -0.4313134804802331 -0.16525939170346321 0 -0.44299069828894411 -0.1647657353294574 0 -0.43838772618383048 -0.17589405050466281 0 -0.45263110923619609 -0.16958310901817741 0 -0.44299069828894411 -0.1647657353294574 0 -0.43838772618383048 -0.17589405050466281 0 -0.43596138196482681 -0.19078593037640099 0 -0.45675455084832489 -0.18343917035285101 0 -0.43838772618383048 -0.17589405050466281 0 -0.45675455084832489 -0.18343917035285101 0 -0.45263110923619609 -0.16958310901817741 0 -0.43838772618383048 -0.17589405050466281 0 -0.43596138196482681 -0.19078593037640099 0 -0.45675455084832489 -0.18343917035285101 0 -0.44599611370667752 -0.20530682510913981 0 -0.42542271215988858 -0.2205049430465307 0 -0.44599611370667752 -0.20530682510913981 0 -0.44283490110740348 -0.22835286474738639 0 -0.44599611370667752 -0.20530682510913981 0 -0.47062030917687098 -0.21744599227032599 0 -0.44283490110740348 -0.22835286474738639 0 -0.44599611370667752 -0.20530682510913981 0 -0.47054814752869872 -0.19702913931303831 0 -0.47062030917687098 -0.21744599227032599 0 -0.45675455084832489 -0.18343917035285101 0 -0.44599611370667752 -0.20530682510913981 0 -0.47054814752869872 -0.19702913931303831 0 -0.47935833022827129 -0.180819747052926 0 -0.47054814752869872 -0.19702913931303831 0 -0.5 -0.20087058582535999 0 -0.5 -0.20087058582535999 0 -0.47062030917687098 -0.21744599227032599 0 -0.5 -0.2267360880760135 0 -0.47054814752869872 -0.19702913931303831 0 -0.5 -0.20087058582535999 0 -0.47062030917687098 -0.21744599227032599 0 -0.47062030917687098 -0.21744599227032599 0 -0.5 -0.2267360880760135 0 -0.48076974558635038 -0.2393307241689957 0 -0.47062030917687098 -0.21744599227032599 0 -0.48076974558635038 -0.2393307241689957 0 -0.45776820485501402 -0.24168441926058409 0 -0.5 -0.25260159032666712 0 -0.5 -0.2267360880760135 0 -0.48076974558635038 -0.2393307241689957 0 -0.4754602138998667 -0.25818553091138791 0 -0.48076974558635038 -0.2393307241689957 0 -0.45776820485501402 -0.24168441926058409 0 -0.47062030917687098 -0.21744599227032599 0 -0.45776820485501402 -0.24168441926058409 0 -0.44283490110740348 -0.22835286474738639 0 -0.43309198030049539 -0.25372594078729771 0 -0.44283490110740348 -0.22835286474738639 0 -0.43309198030049539 -0.25372594078729771 0 -0.45776820485501402 -0.24168441926058409 0 -0.44283490110740348 -0.22835286474738639 0 -0.41205227910413789 -0.054981018084040052 0 -0.42930583411535589 -0.039433637374997443 0 -0.40572588176379643 -0.033119237312305108 0 -0.42930583411535589 -0.039433637374997443 0 -0.4284201756545109 -0.062650471265371391 0 -0.44353298186918011 -0.053969628804331711 0 -0.41205227910413789 -0.054981018084040052 0 -0.42930583411535589 -0.039433637374997443 0 -0.4284201756545109 -0.062650471265371391 0 -0.42930583411535589 -0.039433637374997443 0 -0.43621968797711458 -0.016392020641276761 0 -0.41796149888294359 -0.01562249565668134 0 -0.42930583411535589 -0.039433637374997443 0 -0.43621968797711458 -0.016392020641276761 0 -0.44468551471724399 -0.036603055514600601 0 -0.43621968797711458 -0.016392020641276761 0 -0.43059654125743763 -0.00087909897144949727 0 -0.4435201827941605 0.0060807858078640404 0 -0.43621968797711458 -0.016392020641276761 0 -0.43059654125743763 -0.00087909897144949727 0 -0.41796149888294359 -0.01562249565668134 0 -0.41796149888294359 -0.01562249565668134 0 -0.39935962345507148 -0.01357199800785351 0 -0.41461169379042312 0.002548843807654291 0 -0.43059654125743763 -0.00087909897144949727 0 -0.41796149888294359 -0.01562249565668134 0 -0.41461169379042312 0.002548843807654291 0 -0.41796149888294359 -0.01562249565668134 0 -0.39935962345507148 -0.01357199800785351 0 -0.40572588176379643 -0.033119237312305108 0 -0.42930583411535589 -0.039433637374997443 0 -0.41796149888294359 -0.01562249565668134 0 -0.40572588176379643 -0.033119237312305108 0 -0.39935962345507148 -0.01357199800785351 0 -0.38162470574755181 -0.025531593640554039 0 -0.40572588176379643 -0.033119237312305108 0 -0.39935962345507148 -0.01357199800785351 0 -0.41461169379042312 0.002548843807654291 0 -0.39612903138702632 0.0063573482089935036 0 -0.39935962345507148 -0.01357199800785351 0 -0.38402542382712301 -0.0054964585463870017 0 -0.39612903138702632 0.0063573482089935036 0 -0.39935962345507148 -0.01357199800785351 0 -0.38402542382712301 -0.0054964585463870017 0 -0.38162470574755181 -0.025531593640554039 0 -0.36760158085974948 -0.004488683742273545 0 -0.38402542382712301 -0.0054964585463870017 0 -0.38162470574755181 -0.025531593640554039 0 -0.36921263659382492 -0.046060141185988432 0 -0.38162470574755181 -0.025531593640554039 0 -0.39102852996643378 -0.050357467876886393 0 -0.38162470574755181 -0.025531593640554039 0 -0.40572588176379643 -0.033119237312305108 0 -0.39102852996643378 -0.050357467876886393 0 -0.41205227910413789 -0.054981018084040052 0 -0.40572588176379643 -0.033119237312305108 0 -0.39102852996643378 -0.050357467876886393 0 -0.41205227910413789 -0.054981018084040052 0 -0.39102852996643378 -0.050357467876886393 0 -0.39943260753601378 -0.071224529631526173 0 -0.36921263659382492 -0.046060141185988432 0 -0.39102852996643378 -0.050357467876886393 0 -0.37973739042659771 -0.069114231857906494 0 -0.37973739042659771 -0.069114231857906494 0 -0.39026214425937039 -0.092168322529824431 0 -0.39943260753601378 -0.071224529631526173 0 -0.39102852996643378 -0.050357467876886393 0 -0.37973739042659771 -0.069114231857906494 0 -0.39943260753601378 -0.071224529631526173 0 -0.37092681214383288 -0.095243366243769972 0 -0.37973739042659771 -0.069114231857906494 0 -0.39026214425937039 -0.092168322529824431 0 -0.37973739042659771 -0.069114231857906494 0 -0.39026214425937039 -0.092168322529824431 0 -0.39026214425937039 -0.092168322529824431 0 -0.40530031963852692 -0.090740306857528832 0 -0.39943260753601378 -0.071224529631526173 0 -0.38294047368348688 -0.12354566292245681 0 -0.38448030226826141 -0.11115222852846759 0 -0.40078689809214058 -0.1152224132017436 0 -0.36985915891412019 -0.11938707488326521 0 -0.38294047368348688 -0.12354566292245681 0 -0.38448030226826141 -0.11115222852846759 0 -0.37092681214383288 -0.095243366243769972 0 -0.36985915891412019 -0.11938707488326521 0 -0.38448030226826141 -0.11115222852846759 0 -0.37092681214383288 -0.095243366243769972 0 -0.39026214425937039 -0.092168322529824431 0 -0.38448030226826141 -0.11115222852846759 0 -0.39026214425937039 -0.092168322529824431 0 -0.40530031963852692 -0.090740306857528832 0 -0.40078689809214058 -0.1152224132017436 0 -0.39026214425937039 -0.092168322529824431 0 -0.40078689809214058 -0.1152224132017436 0 -0.39026214425937039 -0.092168322529824431 0 -0.38448030226826141 -0.11115222852846759 0 -0.40078689809214058 -0.1152224132017436 0 -0.38448030226826141 -0.11115222852846759 0 -0.40078689809214058 -0.1152224132017436 0 -0.40962772309596551 -0.13458791898849221 0 -0.40078689809214058 -0.1152224132017436 0 -0.39346782672421871 -0.13026452637577959 0 -0.38294047368348688 -0.12354566292245681 0 -0.40078689809214058 -0.1152224132017436 0 -0.40078689809214058 -0.1152224132017436 0 -0.41826725837166789 -0.1118478052758882 0 -0.41287709935359129 -0.10293189374342231 0 -0.40078689809214058 -0.1152224132017436 0 -0.42345808387896777 -0.12088122230642991 0 -0.41923084079662809 -0.1304467589748238 0 -0.40078689809214058 -0.1152224132017436 0 -0.42345808387896777 -0.12088122230642991 0 -0.40078689809214058 -0.1152224132017436 0 -0.41826725837166789 -0.1118478052758882 0 -0.42345808387896777 -0.12088122230642991 0 -0.40530031963852692 -0.090740306857528832 0 -0.40078689809214058 -0.1152224132017436 0 -0.41287709935359129 -0.10293189374342231 0 -0.41826725837166789 -0.1118478052758882 0 -0.41287709935359129 -0.10293189374342231 0 -0.42854317031665068 -0.1101293971771251 0 -0.41287709935359129 -0.10293189374342231 0 -0.42901480134963421 -0.095427685002229562 0 -0.41914886261877288 -0.088198722329881019 0 -0.40530031963852692 -0.090740306857528832 0 -0.41287709935359129 -0.10293189374342231 0 -0.41914886261877288 -0.088198722329881019 0 -0.41287709935359129 -0.10293189374342231 0 -0.42901480134963421 -0.095427685002229562 0 -0.42854317031665068 -0.1101293971771251 0 -0.42901480134963421 -0.095427685002229562 0 -0.42854317031665068 -0.1101293971771251 0 -0.44130735007924632 -0.1013346453029033 0 -0.44612926966579541 -0.12654003141111439 0 -0.43743866223333039 -0.11771069739686491 0 -0.42345808387896777 -0.12088122230642991 0 -0.44612926966579541 -0.12654003141111439 0 -0.42345808387896777 -0.12088122230642991 0 -0.41826725837166789 -0.1118478052758882 0 -0.42854317031665068 -0.1101293971771251 0 -0.42345808387896777 -0.12088122230642991 0 -0.42854317031665068 -0.1101293971771251 0 -0.43743866223333039 -0.11771069739686491 0 -0.42345808387896777 -0.12088122230642991 0 -0.41205227910413789 -0.054981018084040052 0 -0.41579786747899972 -0.074599546151884813 0 -0.4284201756545109 -0.062650471265371391 0 -0.41205227910413789 -0.054981018084040052 0 -0.39943260753601378 -0.071224529631526173 0 -0.41579786747899972 -0.074599546151884813 0 -0.40530031963852692 -0.090740306857528832 0 -0.39943260753601378 -0.071224529631526173 0 -0.41579786747899972 -0.074599546151884813 0 -0.40530031963852692 -0.090740306857528832 0 -0.41579786747899972 -0.074599546151884813 0 -0.41914886261877288 -0.088198722329881019 0 -0.41579786747899972 -0.074599546151884813 0 -0.41914886261877288 -0.088198722329881019 0 -0.43043296032203598 -0.079802228742961459 0 -0.42901480134963421 -0.095427685002229562 0 -0.41914886261877288 -0.088198722329881019 0 -0.43043296032203598 -0.079802228742961459 0 -0.42901480134963421 -0.095427685002229562 0 -0.43043296032203598 -0.079802228742961459 0 -0.44402345731273551 -0.086678656501214701 0 -0.43043296032203598 -0.079802228742961459 0 -0.4284201756545109 -0.062650471265371391 0 -0.44404481606300028 -0.072017198272911018 0 -0.41579786747899972 -0.074599546151884813 0 -0.43043296032203598 -0.079802228742961459 0 -0.4284201756545109 -0.062650471265371391 0 -0.4284201756545109 -0.062650471265371391 0 -0.44404481606300028 -0.072017198272911018 0 -0.44353298186918011 -0.053969628804331711 0 -0.44404481606300028 -0.072017198272911018 0 -0.45892653486836982 -0.065584641223290926 0 -0.44353298186918011 -0.053969628804331711 0 -0.43043296032203598 -0.079802228742961459 0 -0.44404481606300028 -0.072017198272911018 0 -0.44402345731273551 -0.086678656501214701 0 -0.44404481606300028 -0.072017198272911018 0 -0.44402345731273551 -0.086678656501214701 0 -0.45893278635116969 -0.083417563100295966 0 -0.45893278635116969 -0.083417563100295966 0 -0.45858375999945422 -0.098767133027513027 0 -0.4765593594582519 -0.093966525057658498 0 -0.44402345731273551 -0.086678656501214701 0 -0.45893278635116969 -0.083417563100295966 0 -0.45858375999945422 -0.098767133027513027 0 -0.44404481606300028 -0.072017198272911018 0 -0.45893278635116969 -0.083417563100295966 0 -0.45892653486836982 -0.065584641223290926 0 -0.45893278635116969 -0.083417563100295966 0 -0.45892653486836982 -0.065584641223290926 0 -0.48144943380406191 -0.069870484577310571 0 -0.42854317031665068 -0.1101293971771251 0 -0.43743866223333039 -0.11771069739686491 0 -0.45010622771454423 -0.1140959813575653 0 -0.42854317031665068 -0.1101293971771251 0 -0.45010622771454423 -0.1140959813575653 0 -0.44612926966579541 -0.12654003141111439 0 -0.45010622771454423 -0.1140959813575653 0 -0.45917630948634991 -0.12272435470562169 0 -0.44612926966579541 -0.12654003141111439 0 -0.43743866223333039 -0.11771069739686491 0 -0.45010622771454423 -0.1140959813575653 0 -0.44402345731273551 -0.086678656501214701 0 -0.44130735007924632 -0.1013346453029033 0 -0.45858375999945422 -0.098767133027513027 0 -0.42854317031665068 -0.1101293971771251 0 -0.45010622771454423 -0.1140959813575653 0 -0.44130735007924632 -0.1013346453029033 0 -0.45010622771454423 -0.1140959813575653 0 -0.44130735007924632 -0.1013346453029033 0 -0.45858375999945422 -0.098767133027513027 0 -0.42901480134963421 -0.095427685002229562 0 -0.44402345731273551 -0.086678656501214701 0 -0.44130735007924632 -0.1013346453029033 0 -0.45010622771454423 -0.1140959813575653 0 -0.45917630948634991 -0.12272435470562169 0 -0.47166928511243761 -0.11806256553800561 0 -0.45010622771454423 -0.1140959813575653 0 -0.45858375999945422 -0.098767133027513027 0 -0.47166928511243761 -0.11806256553800561 0 -0.45010622771454423 -0.1140959813575653 0 -0.47166928511243761 -0.11806256553800561 0 -0.46880045545262239 -0.1321988405158015 0 -0.45917630948634991 -0.12272435470562169 0 -0.47166928511243761 -0.11806256553800561 0 -0.48142668072875749 -0.12745923539429979 0 -0.47166928511243761 -0.11806256553800561 0 -0.50000000000000377 -0.1232740790733995 0 -0.47166928511243761 -0.11806256553800561 0 -0.4765593594582519 -0.093966525057658498 0 -0.48766367343397221 -0.10822334412534219 0 -0.45858375999945422 -0.098767133027513027 0 -0.47166928511243761 -0.11806256553800561 0 -0.4765593594582519 -0.093966525057658498 0 -0.47166928511243761 -0.11806256553800561 0 -0.4765593594582519 -0.093966525057658498 0 -0.4765593594582519 -0.093966525057658498 0 -0.48766367343397221 -0.10822334412534219 0 -0.5 -0.093324404588145282 0 -0.48766367343397221 -0.10822334412534219 0 -0.50000000000000377 -0.1232740790733995 0 -0.5 -0.093324404588145282 0 -0.47166928511243761 -0.11806256553800561 0 -0.50000000000000377 -0.1232740790733995 0 -0.47166928511243761 -0.11806256553800561 0 -0.48766367343397221 -0.10822334412534219 0 -0.50000000000000377 -0.1232740790733995 0 -0.45892653486836982 -0.065584641223290926 0 -0.48144943380406191 -0.069870484577310571 0 -0.4703656708124998 -0.053417990170163417 0 -0.45893278635116969 -0.083417563100295966 0 -0.4765593594582519 -0.093966525057658498 0 -0.48144943380406191 -0.069870484577310571 0 -0.4765593594582519 -0.093966525057658498 0 -0.48144943380406191 -0.069870484577310571 0 -0.4765593594582519 -0.093966525057658498 0 -0.48144943380406191 -0.069870484577310571 0 -0.5 -0.093324404588145282 0 -0.48144943380406191 -0.069870484577310571 0 -0.5 -0.093324404588145282 0 -0.5 -0.063374730102890964 0 -0.48144943380406191 -0.069870484577310571 0 -0.5 -0.063374730102890964 0 -0.48633950814987198 -0.045774444096962581 0 -0.5 -0.063374730102890964 0 -0.48633950814987198 -0.045774444096962581 0 -0.5 -0.033425055617636763 0 -0.48633950814987198 -0.045774444096962581 0 -0.4796907117218922 -0.027993666259308402 0 -0.49122958249568222 -0.021678403616614501 0 -0.48633950814987198 -0.045774444096962581 0 -0.5 -0.033425055617636763 0 -0.49122958249568222 -0.021678403616614501 0 -0.48633950814987198 -0.045774444096962581 0 -0.49122958249568222 -0.021678403616614501 0 -0.48633950814987198 -0.045774444096962581 0 -0.46953881774240819 -0.036733281240829661 0 -0.4796907117218922 -0.027993666259308402 0 -0.48633950814987198 -0.045774444096962581 0 -0.46953881774240819 -0.036733281240829661 0 -0.4703656708124998 -0.053417990170163417 0 -0.48144943380406191 -0.069870484577310571 0 -0.48633950814987198 -0.045774444096962581 0 -0.48144943380406191 -0.069870484577310571 0 -0.48633950814987198 -0.045774444096962581 0 -0.4703656708124998 -0.053417990170163417 0 -0.45892653486836982 -0.065584641223290926 0 -0.4703656708124998 -0.053417990170163417 0 -0.45627001245175408 -0.046788895131811607 0 -0.46953881774240819 -0.036733281240829661 0 -0.4703656708124998 -0.053417990170163417 0 -0.45627001245175408 -0.046788895131811607 0 -0.46953881774240819 -0.036733281240829661 0 -0.45627001245175408 -0.046788895131811607 0 -0.45513388688239981 -0.025997513652040501 0 -0.45627001245175408 -0.046788895131811607 0 -0.44468551471724399 -0.036603055514600601 0 -0.44353298186918011 -0.053969628804331711 0 -0.42930583411535589 -0.039433637374997443 0 -0.44468551471724399 -0.036603055514600601 0 -0.44353298186918011 -0.053969628804331711 0 -0.45627001245175408 -0.046788895131811607 0 -0.44468551471724399 -0.036603055514600601 0 -0.45513388688239981 -0.025997513652040501 0 -0.45892653486836982 -0.065584641223290926 0 -0.45627001245175408 -0.046788895131811607 0 -0.44353298186918011 -0.053969628804331711 0 -0.43621968797711458 -0.016392020641276761 0 -0.4435201827941605 0.0060807858078640404 0 -0.43621968797711458 -0.016392020641276761 0 -0.44711659774425189 -0.0031388754220469149 0 -0.4435201827941605 0.0060807858078640404 0 -0.44711659774425189 -0.0031388754220469149 0 -0.45552738943214399 -0.003790160026333127 0 -0.4520048827967601 0.003111001443600566 0 -0.45055552738101279 -0.01296027551169013 0 -0.44711659774425189 -0.0031388754220469149 0 -0.45552738943214399 -0.003790160026333127 0 -0.43621968797711458 -0.016392020641276761 0 -0.45055552738101279 -0.01296027551169013 0 -0.44711659774425189 -0.0031388754220469149 0 -0.43621968797711458 -0.016392020641276761 0 -0.45055552738101279 -0.01296027551169013 0 -0.45513388688239981 -0.025997513652040501 0 -0.43621968797711458 -0.016392020641276761 0 -0.44468551471724399 -0.036603055514600601 0 -0.45513388688239981 -0.025997513652040501 0 -0.45055552738101279 -0.01296027551169013 0 -0.45513388688239981 -0.025997513652040501 0 -0.45878007486915362 -0.01548280781675335 0 -0.46953881774240819 -0.036733281240829661 0 -0.45513388688239981 -0.025997513652040501 0 -0.47058099146034083 -0.018317652170645109 0 -0.45513388688239981 -0.025997513652040501 0 -0.45878007486915362 -0.01548280781675335 0 -0.47058099146034083 -0.018317652170645109 0 -0.45878007486915362 -0.01548280781675335 0 -0.46401731822462211 -0.0037425928462180278 0 -0.47058099146034083 -0.018317652170645109 0 -0.45055552738101279 -0.01296027551169013 0 -0.45878007486915362 -0.01548280781675335 0 -0.45552738943214399 -0.003790160026333127 0 -0.45878007486915362 -0.01548280781675335 0 -0.45552738943214399 -0.003790160026333127 0 -0.46401731822462211 -0.0037425928462180278 0 -0.45552738943214399 -0.003790160026333127 0 -0.46401731822462211 -0.0037425928462180278 0 -0.45637860885265119 0.001720049009473169 0 -0.47493347121823531 -0.0070435263965043004 0 -0.47100114577962032 0.0023583530414499959 0 -0.47881750148044039 0.0015385149150728089 0 -0.46401731822462211 -0.0037425928462180278 0 -0.47493347121823531 -0.0070435263965043004 0 -0.47100114577962032 0.0023583530414499959 0 -0.46401731822462211 -0.0037425928462180278 0 -0.47493347121823531 -0.0070435263965043004 0 -0.47058099146034083 -0.018317652170645109 0 -0.47493347121823531 -0.0070435263965043004 0 -0.47058099146034083 -0.018317652170645109 0 -0.48076465876115798 -0.017464550171490151 0 -0.47493347121823531 -0.0070435263965043004 0 -0.48076465876115798 -0.017464550171490151 0 -0.48441921160323048 -0.0066332311471953287 0 -0.48441921160323048 -0.0066332311471953287 0 -0.48648764114448062 0.0027549744383498268 0 -0.47881750148044039 0.0015385149150728089 0 -0.47493347121823531 -0.0070435263965043004 0 -0.48441921160323048 -0.0066332311471953287 0 -0.47881750148044039 0.0015385149150728089 0 -0.46953881774240819 -0.036733281240829661 0 -0.47058099146034083 -0.018317652170645109 0 -0.4796907117218922 -0.027993666259308402 0 -0.47058099146034083 -0.018317652170645109 0 -0.48076465876115798 -0.017464550171490151 0 -0.4796907117218922 -0.027993666259308402 0 -0.48076465876115798 -0.017464550171490151 0 -0.4796907117218922 -0.027993666259308402 0 -0.49122958249568222 -0.021678403616614501 0 -0.5 -0.033425055617636763 0 -0.49122958249568222 -0.021678403616614501 0 -0.5 -0.003475381132382549 0 -0.49122958249568222 -0.021678403616614501 0 -0.5 -0.003475381132382549 0 -0.49611965684149228 0.0024176368637335581 0 -0.49122958249568222 -0.021678403616614501 0 -0.48441921160323048 -0.0066332311471953287 0 -0.49611965684149228 0.0024176368637335581 0 -0.49122958249568222 -0.021678403616614501 0 -0.49611965684149228 0.0024176368637335581 0 -0.48441921160323048 -0.0066332311471953287 0 -0.49611965684149228 0.0024176368637335581 0 -0.48648764114448062 0.0027549744383498268 0 -0.48076465876115798 -0.017464550171490151 0 -0.49122958249568222 -0.021678403616614501 0 -0.48441921160323048 -0.0066332311471953287 0 -0.5 -0.003475381132382549 0 -0.49611965684149228 0.0024176368637335581 0 -0.5 0.026474293352871551 0 -0.49611965684149228 0.0024176368637335581 0 -0.49018519287666412 0.01280538214402949 0 -0.5 0.026474293352871551 0 -0.49611965684149228 0.0024176368637335581 0 -0.48648764114448062 0.0027549744383498268 0 -0.49018519287666412 0.01280538214402949 0 -0.49018519287666412 0.01280538214402949 0 -0.48559160039974791 0.023195117866778251 0 -0.48272706599760012 0.0091848881984142733 0 -0.48648764114448062 0.0027549744383498268 0 -0.49018519287666412 0.01280538214402949 0 -0.48272706599760012 0.0091848881984142733 0 -0.5 0.026474293352871551 0 -0.48559160039974791 0.023195117866778251 0 -0.48778779903257702 0.03364187529423112 0 -0.49018519287666412 0.01280538214402949 0 -0.5 0.026474293352871551 0 -0.48559160039974791 0.023195117866778251 0 -0.48559160039974791 0.023195117866778251 0 -0.47176138759673952 0.017991255384676431 0 -0.47861503757298313 0.014921335782510739 0 -0.48559160039974791 0.023195117866778251 0 -0.46996542631049998 0.02868395088787723 0 -0.47176138759673952 0.017991255384676431 0 -0.48559160039974791 0.023195117866778251 0 -0.46996542631049998 0.02868395088787723 0 -0.47739391088158761 0.037341055608468329 0 -0.48559160039974791 0.023195117866778251 0 -0.48272706599760012 0.0091848881984142733 0 -0.47861503757298313 0.014921335782510739 0 -0.47176138759673952 0.017991255384676431 0 -0.47438009629784489 0.0093140816801740075 0 -0.47861503757298313 0.014921335782510739 0 -0.47176138759673952 0.017991255384676431 0 -0.47438009629784489 0.0093140816801740075 0 -0.46762998104504983 0.010467138648438521 0 -0.47438009629784489 0.0093140816801740075 0 -0.4698278417739758 0.0069434629573709578 0 -0.46762998104504983 0.010467138648438521 0 -0.4698278417739758 0.0069434629573709578 0 -0.47100114577962032 0.0023583530414499959 0 -0.46588313659748221 0.0047920537606029488 0 -0.47438009629784489 0.0093140816801740075 0 -0.4698278417739758 0.0069434629573709578 0 -0.47100114577962032 0.0023583530414499959 0 -0.47438009629784489 0.0093140816801740075 0 -0.47100114577962032 0.0023583530414499959 0 -0.47881750148044039 0.0015385149150728089 0 -0.47438009629784489 0.0093140816801740075 0 -0.47881750148044039 0.0015385149150728089 0 -0.48272706599760012 0.0091848881984142733 0 -0.48648764114448062 0.0027549744383498268 0 -0.47881750148044039 0.0015385149150728089 0 -0.48272706599760012 0.0091848881984142733 0 -0.47438009629784489 0.0093140816801740075 0 -0.48272706599760012 0.0091848881984142733 0 -0.47861503757298313 0.014921335782510739 0 -0.50000000000000577 0.056423967838125692 0 -0.48816568484897271 0.047557034348806371 0 -0.4813139071886916 0.060661486549950482 0 -0.50000000000000577 0.056423967838125692 0 -0.4813139071886916 0.060661486549950482 0 -0.5 0.026474293352871551 0 -0.50000000000000577 0.056423967838125692 0 -0.48816568484897271 0.047557034348806371 0 -0.5 0.026474293352871551 0 -0.48816568484897271 0.047557034348806371 0 -0.48778779903257702 0.03364187529423112 0 -0.48816568484897271 0.047557034348806371 0 -0.48778779903257702 0.03364187529423112 0 -0.47739391088158761 0.037341055608468329 0 -0.48816568484897271 0.047557034348806371 0 -0.47739391088158761 0.037341055608468329 0 -0.47141924533191998 0.049061248740820067 0 -0.48559160039974791 0.023195117866778251 0 -0.48778779903257702 0.03364187529423112 0 -0.47739391088158761 0.037341055608468329 0 -0.46996542631049998 0.02868395088787723 0 -0.47739391088158761 0.037341055608468329 0 -0.46228990870059983 0.037182611916531931 0 -0.47739391088158761 0.037341055608468329 0 -0.47141924533191998 0.049061248740820067 0 -0.46228990870059983 0.037182611916531931 0 -0.4813139071886916 0.060661486549950482 0 -0.47141924533191998 0.049061248740820067 0 -0.46262781437737699 0.064899005261773973 0 -0.48816568484897271 0.047557034348806371 0 -0.4813139071886916 0.060661486549950482 0 -0.47141924533191998 0.049061248740820067 0 -0.47141924533191998 0.049061248740820067 0 -0.45672424599429212 0.046726298759389287 0 -0.46262781437737699 0.064899005261773973 0 -0.45672424599429212 0.046726298759389287 0 -0.46262781437737699 0.064899005261773973 0 -0.45672424599429212 0.046726298759389287 0 -0.44712448163207907 0.055149145829161847 0 -0.46262781437737699 0.064899005261773973 0 -0.45672424599429212 0.046726298759389287 0 -0.46228990870059983 0.037182611916531931 0 -0.45082067761120609 0.028553592257004962 0 -0.45672424599429212 0.046726298759389287 0 -0.45082067761120609 0.028553592257004962 0 -0.47141924533191998 0.049061248740820067 0 -0.45672424599429212 0.046726298759389287 0 -0.46228990870059983 0.037182611916531931 0 -0.44476769053344711 0.042879438014174147 0 -0.43690943122466458 0.031796525049290703 0 -0.43313398625425931 0.052120067067068621 0 -0.45672424599429212 0.046726298759389287 0 -0.44476769053344711 0.042879438014174147 0 -0.45082067761120609 0.028553592257004962 0 -0.44476769053344711 0.042879438014174147 0 -0.45082067761120609 0.028553592257004962 0 -0.43690943122466458 0.031796525049290703 0 -0.44712448163207907 0.055149145829161847 0 -0.43313398625425931 0.052120067067068621 0 -0.44599317783061609 0.068671307173311269 0 -0.45672424599429212 0.046726298759389287 0 -0.44476769053344711 0.042879438014174147 0 -0.44712448163207907 0.055149145829161847 0 -0.44476769053344711 0.042879438014174147 0 -0.44712448163207907 0.055149145829161847 0 -0.43313398625425931 0.052120067067068621 0 -0.45762941386802819 0.011661615468957181 0 -0.45700487575502358 0.0063912577591023426 0 -0.46189763967669162 0.0084253749810587249 0 -0.45762941386802819 0.011661615468957181 0 -0.46189763967669162 0.0084253749810587249 0 -0.46222550276570162 0.013697568169309719 0 -0.45762941386802819 0.011661615468957181 0 -0.46222550276570162 0.013697568169309719 0 -0.45862433183081169 0.017820268453844011 0 -0.45762941386802819 0.011661615468957181 0 -0.45479490780377119 0.014510989373272019 0 -0.45345444586101852 0.0096553103067683749 0 -0.45762941386802819 0.011661615468957181 0 -0.45479490780377119 0.014510989373272019 0 -0.45862433183081169 0.017820268453844011 0 -0.45762941386802819 0.011661615468957181 0 -0.45345444586101852 0.0096553103067683749 0 -0.45700487575502358 0.0063912577591023426 0 -0.45345444586101852 0.0096553103067683749 0 -0.45700487575502358 0.0063912577591023426 0 -0.4520048827967601 0.003111001443600566 0 -0.45552738943214399 -0.003790160026333127 0 -0.45637860885265119 0.001720049009473169 0 -0.4520048827967601 0.003111001443600566 0 -0.45700487575502358 0.0063912577591023426 0 -0.45637860885265119 0.001720049009473169 0 -0.4520048827967601 0.003111001443600566 0 -0.46401731822462211 -0.0037425928462180278 0 -0.45637860885265119 0.001720049009473169 0 -0.46101292802886462 0.003542616079941649 0 -0.45700487575502358 0.0063912577591023426 0 -0.45637860885265119 0.001720049009473169 0 -0.46101292802886462 0.003542616079941649 0 -0.45700487575502358 0.0063912577591023426 0 -0.46101292802886462 0.003542616079941649 0 -0.46189763967669162 0.0084253749810587249 0 -0.46401731822462211 -0.0037425928462180278 0 -0.47100114577962032 0.0023583530414499959 0 -0.46588313659748221 0.0047920537606029488 0 -0.46101292802886462 0.003542616079941649 0 -0.46588313659748221 0.0047920537606029488 0 -0.46189763967669162 0.0084253749810587249 0 -0.46401731822462211 -0.0037425928462180278 0 -0.46101292802886462 0.003542616079941649 0 -0.46588313659748221 0.0047920537606029488 0 -0.4698278417739758 0.0069434629573709578 0 -0.46588313659748221 0.0047920537606029488 0 -0.46762998104504983 0.010467138648438521 0 -0.47176138759673952 0.017991255384676431 0 -0.46762998104504983 0.010467138648438521 0 -0.46222550276570162 0.013697568169309719 0 -0.46588313659748221 0.0047920537606029488 0 -0.46762998104504983 0.010467138648438521 0 -0.46189763967669162 0.0084253749810587249 0 -0.46762998104504983 0.010467138648438521 0 -0.46189763967669162 0.0084253749810587249 0 -0.46222550276570162 0.013697568169309719 0 -0.47176138759673952 0.017991255384676431 0 -0.46222550276570162 0.013697568169309719 0 -0.46381899706264579 0.020236833507302342 0 -0.46996542631049998 0.02868395088787723 0 -0.47176138759673952 0.017991255384676431 0 -0.46381899706264579 0.020236833507302342 0 -0.46222550276570162 0.013697568169309719 0 -0.46381899706264579 0.020236833507302342 0 -0.45862433183081169 0.017820268453844011 0 -0.46996542631049998 0.02868395088787723 0 -0.46381899706264579 0.020236833507302342 0 -0.45887081641813621 0.02667697686295635 0 -0.46996542631049998 0.02868395088787723 0 -0.46228990870059983 0.037182611916531931 0 -0.45887081641813621 0.02667697686295635 0 -0.45887081641813621 0.02667697686295635 0 -0.45082067761120609 0.028553592257004962 0 -0.45887081641813621 0.02667697686295635 0 -0.45440635306658772 0.020137627341266451 0 -0.45082067761120609 0.028553592257004962 0 -0.46228990870059983 0.037182611916531931 0 -0.45887081641813621 0.02667697686295635 0 -0.45082067761120609 0.028553592257004962 0 -0.45887081641813621 0.02667697686295635 0 -0.45862433183081169 0.017820268453844011 0 -0.45440635306658772 0.020137627341266451 0 -0.46381899706264579 0.020236833507302342 0 -0.45887081641813621 0.02667697686295635 0 -0.45862433183081169 0.017820268453844011 0 -0.45479490780377119 0.014510989373272019 0 -0.45440635306658772 0.020137627341266451 0 -0.45057723244744291 0.014337724742767521 0 -0.45479490780377119 0.014510989373272019 0 -0.45862433183081169 0.017820268453844011 0 -0.45440635306658772 0.020137627341266451 0 -0.45082067761120609 0.028553592257004962 0 -0.4435201827941605 0.0060807858078640404 0 -0.45440635306658772 0.020137627341266451 0 -0.45082067761120609 0.028553592257004962 0 -0.45057723244744291 0.014337724742767521 0 -0.44112059393882841 0.0091274772851460614 0 -0.43690943122466458 0.031796525049290703 0 -0.45082067761120609 0.028553592257004962 0 -0.44112059393882841 0.0091274772851460614 0 -0.43690943122466458 0.031796525049290703 0 -0.45082067761120609 0.028553592257004962 0 -0.45057723244744291 0.014337724742767521 0 -0.4435201827941605 0.0060807858078640404 0 -0.45082067761120609 0.028553592257004962 0 -0.43690943122466458 0.031796525049290703 0 -0.45082067761120609 0.028553592257004962 0 -0.44112059393882841 0.0091274772851460614 0 -0.4435201827941605 0.0060807858078640404 0 -0.45057723244744291 0.014337724742767521 0 -0.44928841018305993 0.0071750908055374487 0 -0.4435201827941605 0.0060807858078640404 0 -0.45345444586101852 0.0096553103067683749 0 -0.45057723244744291 0.014337724742767521 0 -0.44928841018305993 0.0071750908055374487 0 -0.45479490780377119 0.014510989373272019 0 -0.45345444586101852 0.0096553103067683749 0 -0.45057723244744291 0.014337724742767521 0 -0.44711659774425189 -0.0031388754220469149 0 -0.4479825183795581 0.0033070006587387849 0 -0.4435201827941605 0.0060807858078640404 0 -0.4520048827967601 0.003111001443600566 0 -0.44928841018305993 0.0071750908055374487 0 -0.4479825183795581 0.0033070006587387849 0 -0.45345444586101852 0.0096553103067683749 0 -0.4520048827967601 0.003111001443600566 0 -0.44928841018305993 0.0071750908055374487 0 -0.44928841018305993 0.0071750908055374487 0 -0.4479825183795581 0.0033070006587387849 0 -0.4435201827941605 0.0060807858078640404 0 -0.44711659774425189 -0.0031388754220469149 0 -0.4520048827967601 0.003111001443600566 0 -0.4479825183795581 0.0033070006587387849 0 -0.43059654125743763 -0.00087909897144949727 0 -0.44112059393882841 0.0091274772851460614 0 -0.4435201827941605 0.0060807858078640404 0 -0.43059654125743763 -0.00087909897144949727 0 -0.44112059393882841 0.0091274772851460614 0 -0.42918280372820161 0.011434927787017249 0 -0.43059654125743763 -0.00087909897144949727 0 -0.42918280372820161 0.011434927787017249 0 -0.41461169379042312 0.002548843807654291 0 -0.42918280372820161 0.011434927787017249 0 -0.41461169379042312 0.002548843807654291 0 -0.42075018556374683 0.019485116201285759 0 -0.41461169379042312 0.002548843807654291 0 -0.42075018556374683 0.019485116201285759 0 -0.40733634114817308 0.017788213238631341 0 -0.42075018556374683 0.019485116201285759 0 -0.40733634114817308 0.017788213238631341 0 -0.41526291069360871 0.036842673274867281 0 -0.42918280372820161 0.011434927787017249 0 -0.42075018556374683 0.019485116201285759 0 -0.43690943122466458 0.031796525049290703 0 -0.42075018556374683 0.019485116201285759 0 -0.43690943122466458 0.031796525049290703 0 -0.41526291069360871 0.036842673274867281 0 -0.44112059393882841 0.0091274772851460614 0 -0.42918280372820161 0.011434927787017249 0 -0.43690943122466458 0.031796525049290703 0 -0.43690943122466458 0.031796525049290703 0 -0.41526291069360871 0.036842673274867281 0 -0.43690943122466458 0.031796525049290703 0 -0.43313398625425931 0.052120067067068621 0 -0.41526291069360871 0.036842673274867281 0 -0.43690943122466458 0.031796525049290703 0 -0.43313398625425931 0.052120067067068621 0 -0.43313398625425931 0.052120067067068621 0 -0.42935854128385492 0.072443609084846664 0 -0.43313398625425931 0.052120067067068621 0 -0.41595331421444698 0.057553562393037619 0 -0.42935854128385492 0.072443609084846664 0 -0.41595331421444698 0.057553562393037619 0 -0.40590690396714729 0.04905494562468464 0 -0.39879500079798103 0.059934725330390307 0 -0.41595331421444698 0.057553562393037619 0 -0.41526291069360871 0.036842673274867281 0 -0.40590690396714729 0.04905494562468464 0 -0.43313398625425931 0.052120067067068621 0 -0.41595331421444698 0.057553562393037619 0 -0.41526291069360871 0.036842673274867281 0 -0.41526291069360871 0.036842673274867281 0 -0.39361639016255268 0.041888821500443332 0 -0.3922443251907089 0.024875874483676421 0 -0.41526291069360871 0.036842673274867281 0 -0.39361639016255268 0.041888821500443332 0 -0.41526291069360871 0.036842673274867281 0 -0.39361639016255268 0.041888821500443332 0 -0.40590690396714729 0.04905494562468464 0 -0.39361639016255268 0.041888821500443332 0 -0.39879500079798103 0.059934725330390307 0 -0.38625181815490311 0.052986250681370813 0 -0.39361639016255268 0.041888821500443332 0 -0.40590690396714729 0.04905494562468464 0 -0.39879500079798103 0.059934725330390307 0 -0.38625181815490311 0.052986250681370813 0 -0.38062601202758201 0.063186486168630221 0 -0.3719698696314967 0.04693496972601939 0 -0.39361639016255268 0.041888821500443332 0 -0.38625181815490311 0.052986250681370813 0 -0.3719698696314967 0.04693496972601939 0 -0.39879500079798103 0.059934725330390307 0 -0.38625181815490311 0.052986250681370813 0 -0.38062601202758201 0.063186486168630221 0 -0.39361639016255268 0.041888821500443332 0 -0.38026370425951489 0.036089164097603703 0 -0.3719698696314967 0.04693496972601939 0 -0.39361639016255268 0.041888821500443332 0 -0.3719698696314967 0.04693496972601939 0 -0.39361639016255268 0.041888821500443332 0 -0.38026370425951489 0.036089164097603703 0 -0.3922443251907089 0.024875874483676421 0 -0.38026370425951489 0.036089164097603703 0 -0.3922443251907089 0.024875874483676421 0 -0.37088066758443761 0.027250145542840259 0 -0.3922443251907089 0.024875874483676421 0 -0.37088066758443761 0.027250145542840259 0 -0.37919678091065828 0.011999614278239489 0 -0.3922443251907089 0.024875874483676421 0 -0.37088066758443761 0.027250145542840259 0 -0.36760158085974948 -0.004488683742273545 0 -0.38402542382712301 -0.0054964585463870017 0 -0.37919678091065828 0.011999614278239489 0 -0.37919678091065828 0.011999614278239489 0 -0.39612903138702632 0.0063573482089935036 0 -0.3922443251907089 0.024875874483676421 0 -0.38402542382712301 -0.0054964585463870017 0 -0.37919678091065828 0.011999614278239489 0 -0.39612903138702632 0.0063573482089935036 0 -0.41461169379042312 0.002548843807654291 0 -0.40733634114817308 0.017788213238631341 0 -0.39612903138702632 0.0063573482089935036 0 -0.40733634114817308 0.017788213238631341 0 -0.41526291069360871 0.036842673274867281 0 -0.3922443251907089 0.024875874483676421 0 -0.40733634114817308 0.017788213238631341 0 -0.39612903138702632 0.0063573482089935036 0 -0.3922443251907089 0.024875874483676421 0 -0.38730025292104753 0.095968756154585416 0 -0.40967514977829411 0.09452626301171807 0 -0.3993249751897881 0.1057537457165539 0 -0.38730025292104753 0.095968756154585416 0 -0.40967514977829411 0.09452626301171807 0 -0.3993249751897881 0.1057537457165539 0 -0.38705803702588309 0.1112579398871711 0 -0.38730025292104753 0.095968756154585416 0 -0.40241189838663072 0.1186427545127379 0 -0.38705803702588309 0.1112579398871711 0 -0.38553743362499759 0.13342089625716211 0 -0.3993249751897881 0.1057537457165539 0 -0.40241189838663072 0.1186427545127379 0 -0.41017953783708527 0.1083730150165567 0 -0.3993249751897881 0.1057537457165539 0 -0.40241189838663072 0.1186427545127379 0 -0.38705803702588309 0.1112579398871711 0 -0.38705803702588309 0.1112579398871711 0 -0.38553743362499759 0.13342089625716211 0 -0.3733223470021152 0.1196158063350172 0 -0.38705803702588309 0.1112579398871711 0 -0.37558930984549621 0.1065588620034935 0 -0.3733223470021152 0.1196158063350172 0 -0.37558930984549621 0.1065588620034935 0 -0.38730025292104753 0.095968756154585416 0 -0.36492535606380078 0.097411249297452596 0 -0.38730025292104753 0.095968756154585416 0 -0.36492535606380078 0.097411249297452596 0 -0.38705803702588309 0.1112579398871711 0 -0.37558930984549621 0.1065588620034935 0 -0.38730025292104753 0.095968756154585416 0 -0.38730025292104753 0.095968756154585416 0 -0.37558996584851528 0.08463692027173228 0 -0.36492535606380078 0.097411249297452596 0 -0.38730025292104753 0.095968756154585416 0 -0.37558996584851528 0.08463692027173228 0 -0.39618051305229041 0.079967520951942456 0 -0.37558996584851528 0.08463692027173228 0 -0.39618051305229041 0.079967520951942456 0 -0.38062601202758201 0.063186486168630221 0 -0.39618051305229041 0.079967520951942456 0 -0.37558996584851528 0.08463692027173228 0 -0.38062601202758201 0.063186486168630221 0 -0.39618051305229041 0.079967520951942456 0 -0.39879500079798103 0.059934725330390307 0 -0.38062601202758201 0.063186486168630221 0 -0.39618051305229041 0.079967520951942456 0 -0.39879500079798103 0.059934725330390307 0 -0.39618051305229041 0.079967520951942456 0 -0.4127695271680728 0.076205565018395413 0 -0.39618051305229041 0.079967520951942456 0 -0.4127695271680728 0.076205565018395413 0 -0.38730025292104753 0.095968756154585416 0 -0.39618051305229041 0.079967520951942456 0 -0.40967514977829411 0.09452626301171807 0 -0.39618051305229041 0.079967520951942456 0 -0.4127695271680728 0.076205565018395413 0 -0.40967514977829411 0.09452626301171807 0 -0.39618051305229041 0.079967520951942456 0 -0.40967514977829411 0.09452626301171807 0 -0.4127695271680728 0.076205565018395413 0 -0.42544517729410247 0.093509580937179287 0 -0.40967514977829411 0.09452626301171807 0 -0.4127695271680728 0.076205565018395413 0 -0.42935854128385492 0.072443609084846664 0 -0.41595331421444698 0.057553562393037619 0 -0.4127695271680728 0.076205565018395413 0 -0.42935854128385492 0.072443609084846664 0 -0.41595331421444698 0.057553562393037619 0 -0.39879500079798103 0.059934725330390307 0 -0.4127695271680728 0.076205565018395413 0 -0.43313398625425931 0.052120067067068621 0 -0.42935854128385492 0.072443609084846664 0 -0.44599317783061609 0.068671307173311269 0 -0.42935854128385492 0.072443609084846664 0 -0.43670077885520781 0.083659883849729139 0 -0.44599317783061609 0.068671307173311269 0 -0.42935854128385492 0.072443609084846664 0 -0.42544517729410247 0.093509580937179287 0 -0.42544517729410247 0.093509580937179287 0 -0.44629616629392399 0.092165333012994524 0 -0.43670077885520781 0.083659883849729139 0 -0.42544517729410247 0.093509580937179287 0 -0.44629616629392399 0.092165333012994524 0 -0.42935854128385492 0.072443609084846664 0 -0.43670077885520781 0.083659883849729139 0 -0.42544517729410247 0.093509580937179287 0 -0.4127695271680728 0.076205565018395413 0 -0.42935854128385492 0.072443609084846664 0 -0.42544517729410247 0.093509580937179287 0 -0.42544517729410247 0.093509580937179287 0 -0.43308644579309769 0.10043228543162599 0 -0.44629616629392399 0.092165333012994524 0 -0.43308644579309769 0.10043228543162599 0 -0.43177628733790252 0.1091300634751057 0 -0.44018182693408642 0.1071554465486196 0 -0.43308644579309769 0.10043228543162599 0 -0.43177628733790252 0.1091300634751057 0 -0.42367107274081489 0.1030597369360876 0 -0.43177628733790252 0.1091300634751057 0 -0.42367107274081489 0.1030597369360876 0 -0.4238724136666025 0.10984303715697109 0 -0.42544517729410247 0.093509580937179287 0 -0.43308644579309769 0.10043228543162599 0 -0.42367107274081489 0.1030597369360876 0 -0.42544517729410247 0.093509580937179287 0 -0.42367107274081489 0.1030597369360876 0 -0.42544517729410247 0.093509580937179287 0 -0.42367107274081489 0.1030597369360876 0 -0.40967514977829411 0.09452626301171807 0 -0.42544517729410247 0.093509580937179287 0 -0.40967514977829411 0.09452626301171807 0 -0.40967514977829411 0.09452626301171807 0 -0.4238724136666025 0.10984303715697109 0 -0.42367107274081489 0.1030597369360876 0 -0.40967514977829411 0.09452626301171807 0 -0.4238724136666025 0.10984303715697109 0 -0.41017953783708527 0.1083730150165567 0 -0.40967514977829411 0.09452626301171807 0 -0.4238724136666025 0.10984303715697109 0 -0.3993249751897881 0.1057537457165539 0 -0.41017953783708527 0.1083730150165567 0 -0.40967514977829411 0.09452626301171807 0 -0.40241189838663072 0.1186427545127379 0 -0.41600146829336232 0.1166400565883082 0 -0.41453370548102508 0.1267105636553047 0 -0.40241189838663072 0.1186427545127379 0 -0.41017953783708527 0.1083730150165567 0 -0.41600146829336232 0.1166400565883082 0 -0.41600146829336232 0.1166400565883082 0 -0.42414305525899748 0.1229935254138811 0 -0.4238724136666025 0.10984303715697109 0 -0.41017953783708527 0.1083730150165567 0 -0.41600146829336232 0.1166400565883082 0 -0.4238724136666025 0.10984303715697109 0 -0.41600146829336232 0.1166400565883082 0 -0.42414305525899748 0.1229935254138811 0 -0.41453370548102508 0.1267105636553047 0 -0.43177628733790252 0.1091300634751057 0 -0.4238724136666025 0.10984303715697109 0 -0.43806967755491072 0.1251598113022242 0 -0.42414305525899748 0.1229935254138811 0 -0.4238724136666025 0.10984303715697109 0 -0.43806967755491072 0.1251598113022242 0 -0.43177628733790252 0.1091300634751057 0 -0.44018182693408642 0.1071554465486196 0 -0.43806967755491072 0.1251598113022242 0 -0.4238724136666025 0.10984303715697109 0 -0.43806967755491072 0.1251598113022242 0 -0.44636597479958762 0.1160572901891332 0 -0.44018182693408642 0.1071554465486196 0 -0.43806967755491072 0.1251598113022242 0 -0.44636597479958762 0.1160572901891332 0 -0.43806967755491072 0.1251598113022242 0 -0.46294613148467401 0.1289782761535837 0 -0.44636597479958762 0.1160572901891332 0 -0.44018182693408642 0.1071554465486196 0 -0.45348587312188537 0.1066694989040709 0 -0.43308644579309769 0.10043228543162599 0 -0.44018182693408642 0.1071554465486196 0 -0.44629616629392399 0.092165333012994524 0 -0.44018182693408642 0.1071554465486196 0 -0.45348587312188537 0.1066694989040709 0 -0.44629616629392399 0.092165333012994524 0 -0.45348587312188537 0.1066694989040709 0 -0.45974878852589329 0.095076875532699473 0 -0.47681834031615888 0.10858110501329089 0 -0.45348587312188537 0.1066694989040709 0 -0.45974878852589329 0.095076875532699473 0 -0.44629616629392399 0.092165333012994524 0 -0.45348587312188537 0.1066694989040709 0 -0.47681834031615888 0.10858110501329089 0 -0.46294613148467401 0.1289782761535837 0 -0.45348587312188537 0.1066694989040709 0 -0.46294613148467401 0.1289782761535837 0 -0.44636597479958762 0.1160572901891332 0 -0.45348587312188537 0.1066694989040709 0 -0.46294613148467401 0.1289782761535837 0 -0.43670077885520781 0.083659883849729139 0 -0.44599317783061609 0.068671307173311269 0 -0.45343077630848438 0.08181948504089917 0 -0.44712448163207907 0.055149145829161847 0 -0.44599317783061609 0.068671307173311269 0 -0.46262781437737699 0.064899005261773973 0 -0.42935854128385492 0.072443609084846664 0 -0.44599317783061609 0.068671307173311269 0 -0.43670077885520781 0.083659883849729139 0 -0.44629616629392399 0.092165333012994524 0 -0.45343077630848438 0.08181948504089917 0 -0.45974878852589329 0.095076875532699473 0 -0.45343077630848438 0.08181948504089917 0 -0.46972307734676622 0.086740055137532968 0 -0.45974878852589329 0.095076875532699473 0 -0.44629616629392399 0.092165333012994524 0 -0.45343077630848438 0.08181948504089917 0 -0.44599317783061609 0.068671307173311269 0 -0.45343077630848438 0.08181948504089917 0 -0.46262781437737699 0.064899005261773973 0 -0.46262781437737699 0.064899005261773973 0 -0.46972307734676622 0.086740055137532968 0 -0.44599317783061609 0.068671307173311269 0 -0.46262781437737699 0.064899005261773973 0 -0.45343077630848438 0.08181948504089917 0 -0.46262781437737699 0.064899005261773973 0 -0.46972307734676622 0.086740055137532968 0 -0.4813139071886916 0.060661486549950482 0 -0.46262781437737699 0.064899005261773973 0 -0.48284785531367491 0.076032474764414562 0 -0.4813139071886916 0.060661486549950482 0 -0.46262781437737699 0.064899005261773973 0 -0.46262781437737699 0.064899005261773973 0 -0.48284785531367491 0.076032474764414562 0 -0.46972307734676622 0.086740055137532968 0 -0.48284785531367491 0.076032474764414562 0 -0.46972307734676622 0.086740055137532968 0 -0.48840917015807622 0.091538387244587141 0 -0.48840917015807622 0.091538387244587141 0 -0.49999999999999478 0.074495669475884263 0 -0.49999999999999989 0.096440364810139234 0 -0.48840917015807622 0.091538387244587141 0 -0.49999999999999478 0.074495669475884263 0 -0.48284785531367491 0.076032474764414562 0 -0.48840917015807622 0.091538387244587141 0 -0.49999999999999478 0.074495669475884263 0 -0.50000000000000577 0.056423967838125692 0 -0.4813139071886916 0.060661486549950482 0 -0.49999999999999478 0.074495669475884263 0 -0.4813139071886916 0.060661486549950482 0 -0.48284785531367491 0.076032474764414562 0 -0.49999999999999478 0.074495669475884263 0 -0.47681834031615888 0.10858110501329089 0 -0.482519979286122 0.1261322206877781 0 -0.46294613148467401 0.1289782761535837 0 -0.47681834031615888 0.10858110501329089 0 -0.482519979286122 0.1261322206877781 0 -0.47681834031615888 0.10858110501329089 0 -0.49171057813706331 0.1168648580605372 0 -0.482519979286122 0.1261322206877781 0 -0.47681834031615888 0.10858110501329089 0 -0.46294613148467401 0.1289782761535837 0 -0.46972307734676622 0.086740055137532968 0 -0.48840917015807622 0.091538387244587141 0 -0.47681834031615888 0.10858110501329089 0 -0.46972307734676622 0.086740055137532968 0 -0.47681834031615888 0.10858110501329089 0 -0.48840917015807622 0.091538387244587141 0 -0.47681834031615888 0.10858110501329089 0 -0.45974878852589329 0.095076875532699473 0 -0.46972307734676622 0.086740055137532968 0 -0.47681834031615888 0.10858110501329089 0 -0.48923452215282509 0.103356178782139 0 -0.49999999999999989 0.096440364810139234 0 -0.49171057813706331 0.1168648580605372 0 -0.49999999999999989 0.096440364810139234 0 -0.49171057813706331 0.1168648580605372 0 -0.48840917015807622 0.091538387244587141 0 -0.47681834031615888 0.10858110501329089 0 -0.48923452215282509 0.103356178782139 0 -0.48840917015807622 0.091538387244587141 0 -0.48923452215282509 0.103356178782139 0 -0.49999999999999989 0.096440364810139234 0 -0.49999999999999989 0.096440364810139234 0 -0.49171057813706331 0.1168648580605372 0 -0.5 0.12608263063289329 0 -0.47681834031615888 0.10858110501329089 0 -0.48923452215282509 0.103356178782139 0 -0.49171057813706331 0.1168648580605372 0 -0.49171057813706331 0.1168648580605372 0 -0.48955691868723278 0.1221713080909544 0 -0.482519979286122 0.1261322206877781 0 -0.49171057813706331 0.1168648580605372 0 -0.48955691868723278 0.1221713080909544 0 -0.49171057813706331 0.1168648580605372 0 -0.48955691868723278 0.1221713080909544 0 -0.5 0.12608263063289329 0 -0.5 0.12608263063289329 0 -0.49232811019944639 0.13571319988754249 0 -0.4938578731244686 0.14388004118922459 0 -0.48955691868723278 0.1221713080909544 0 -0.48342115627412691 0.1372893513109352 0 -0.48509528399674862 0.14583181475032481 0 -0.48955691868723278 0.1221713080909544 0 -0.5 0.12608263063289329 0 -0.49232811019944639 0.13571319988754249 0 -0.48955691868723278 0.1221713080909544 0 -0.49232811019944639 0.13571319988754249 0 -0.48509528399674862 0.14583181475032481 0 -0.48955691868723278 0.1221713080909544 0 -0.48509528399674862 0.14583181475032481 0 -0.48955691868723278 0.1221713080909544 0 -0.482519979286122 0.1261322206877781 0 -0.48342115627412691 0.1372893513109352 0 -0.48955691868723278 0.1221713080909544 0 -0.48342115627412691 0.1372893513109352 0 -0.482519979286122 0.1261322206877781 0 -0.47448154999821379 0.13393647712743931 0 -0.46294613148467401 0.1289782761535837 0 -0.482519979286122 0.1261322206877781 0 -0.48342115627412691 0.1372893513109352 0 -0.47448154999821379 0.13393647712743931 0 -0.47448154999821379 0.13393647712743931 0 -0.46903893294793059 0.1433460603574592 0 -0.46294613148467401 0.1289782761535837 0 -0.48342115627412691 0.1372893513109352 0 -0.47448154999821379 0.13393647712743931 0 -0.46903893294793059 0.1433460603574592 0 -0.48342115627412691 0.1372893513109352 0 -0.46903893294793059 0.1433460603574592 0 -0.47513173441119078 0.15771384456133331 0 -0.48342115627412691 0.1372893513109352 0 -0.48509528399674862 0.14583181475032481 0 -0.47513173441119078 0.15771384456133331 0 -0.48342115627412691 0.1372893513109352 0 -0.47513173441119078 0.15771384456133331 0 -0.46903893294793059 0.1433460603574592 0 -0.47513173441119078 0.15771384456133331 0 -0.46480178243427661 0.15361861463968021 0 -0.46903893294793059 0.1433460603574592 0 -0.47513173441119078 0.15771384456133331 0 -0.49186597142614802 0.15604766421971489 0 -0.48509528399674862 0.14583181475032481 0 -0.4938578731244686 0.14388004118922459 0 -0.49186597142614802 0.15604766421971489 0 -0.48509528399674862 0.14583181475032481 0 -0.48678091825491149 0.16268265665361151 0 -0.5 0.12608263063289329 0 -0.4938578731244686 0.14388004118922459 0 -0.5 0.15572489645564741 0 -0.49232811019944639 0.13571319988754249 0 -0.48509528399674862 0.14583181475032481 0 -0.4938578731244686 0.14388004118922459 0 -0.49186597142614802 0.15604766421971489 0 -0.4938578731244686 0.14388004118922459 0 -0.5 0.15572489645564741 0 -0.5 0.15572489645564741 0 -0.49399651186918853 0.1661967687080306 0 -0.5 0.18536716227840161 0 -0.49186597142614802 0.15604766421971489 0 -0.5 0.15572489645564741 0 -0.49399651186918853 0.1661967687080306 0 -0.49399651186918853 0.1661967687080306 0 -0.48292573609372208 0.17609332646870859 0 -0.49399651186918853 0.1661967687080306 0 -0.48678091825491149 0.16268265665361151 0 -0.48292573609372208 0.17609332646870859 0 -0.49186597142614802 0.15604766421971489 0 -0.49399651186918853 0.1661967687080306 0 -0.48678091825491149 0.16268265665361151 0 -0.49399651186918853 0.1661967687080306 0 -0.5 0.18536716227840161 0 -0.49138783211936138 0.1792999917907164 0 -0.5 0.18536716227840161 0 -0.49138783211936138 0.1792999917907164 0 -0.48862908051453502 0.18954270970772469 0 -0.49399651186918853 0.1661967687080306 0 -0.49138783211936138 0.1792999917907164 0 -0.48292573609372208 0.17609332646870859 0 -0.48292573609372208 0.17609332646870859 0 -0.48862908051453502 0.18954270970772469 0 -0.49138783211936138 0.1792999917907164 0 -0.48292573609372208 0.17609332646870859 0 -0.48862908051453502 0.18954270970772469 0 -0.47748177490671728 0.18095987578980441 0 -0.48292573609372208 0.17609332646870859 0 -0.48862908051453502 0.18954270970772469 0 -0.47748177490671728 0.18095987578980441 0 -0.48292573609372208 0.17609332646870859 0 -0.48002108788874959 0.16924370912127851 0 -0.47748177490671728 0.18095987578980441 0 -0.48002108788874959 0.16924370912127851 0 -0.47748177490671728 0.18095987578980441 0 -0.48292573609372208 0.17609332646870859 0 -0.48292573609372208 0.17609332646870859 0 -0.48002108788874959 0.16924370912127851 0 -0.47748177490671728 0.18095987578980441 0 -0.48002108788874959 0.16924370912127851 0 -0.46691782502150703 0.17795228092793691 0 -0.47748177490671728 0.18095987578980441 0 -0.46385659402778229 0.193139906557556 0 -0.47748177490671728 0.18095987578980441 0 -0.46691782502150703 0.17795228092793691 0 -0.46385659402778229 0.193139906557556 0 -0.48509528399674862 0.14583181475032481 0 -0.48002108788874959 0.16924370912127851 0 -0.47513173441119078 0.15771384456133331 0 -0.48509528399674862 0.14583181475032481 0 -0.48678091825491149 0.16268265665361151 0 -0.48002108788874959 0.16924370912127851 0 -0.47513173441119078 0.15771384456133331 0 -0.46691782502150703 0.17795228092793691 0 -0.48509528399674862 0.14583181475032481 0 -0.48002108788874959 0.16924370912127851 0 -0.48002108788874959 0.16924370912127851 0 -0.47513173441119078 0.15771384456133331 0 -0.46691782502150703 0.17795228092793691 0 -0.48002108788874959 0.16924370912127851 0 -0.47513173441119078 0.15771384456133331 0 -0.48678091825491149 0.16268265665361151 0 -0.48292573609372208 0.17609332646870859 0 -0.48002108788874959 0.16924370912127851 0 -0.47513173441119078 0.15771384456133331 0 -0.45866862224365063 0.16259954250473441 0 -0.46480178243427661 0.15361861463968021 0 -0.47513173441119078 0.15771384456133331 0 -0.45866862224365063 0.16259954250473441 0 -0.46691782502150703 0.17795228092793691 0 -0.45866862224365063 0.16259954250473441 0 -0.46691782502150703 0.17795228092793691 0 -0.45571830555797282 0.17396209009791089 0 -0.46691782502150703 0.17795228092793691 0 -0.45719096384996361 0.1839940479767827 0 -0.46385659402778229 0.193139906557556 0 -0.46691782502150703 0.17795228092793691 0 -0.45571830555797282 0.17396209009791089 0 -0.45719096384996361 0.1839940479767827 0 -0.45571830555797282 0.17396209009791089 0 -0.45719096384996361 0.1839940479767827 0 -0.44763789634992862 0.18135855141034549 0 -0.45571830555797282 0.17396209009791089 0 -0.44763789634992862 0.18135855141034549 0 -0.43824551998703581 0.16529712098265911 0 -0.44763789634992862 0.18135855141034549 0 -0.43824551998703581 0.16529712098265911 0 -0.43702594979372789 0.18202363607168681 0 -0.45719096384996361 0.1839940479767827 0 -0.44763789634992862 0.18135855141034549 0 -0.45182419829262738 0.19355741089016429 0 -0.44763789634992862 0.18135855141034549 0 -0.44369339864906687 0.1905943594902296 0 -0.43702594979372789 0.18202363607168681 0 -0.45866862224365063 0.16259954250473441 0 -0.43824551998703581 0.16529712098265911 0 -0.45059582573585583 0.14713769856812201 0 -0.45866862224365063 0.16259954250473441 0 -0.45571830555797282 0.17396209009791089 0 -0.43824551998703581 0.16529712098265911 0 -0.43824551998703581 0.16529712098265911 0 -0.45059582573585583 0.14713769856812201 0 -0.43329697710695142 0.1510635745045612 0 -0.43824551998703581 0.16529712098265911 0 -0.45059582573585583 0.14713769856812201 0 -0.45059582573585583 0.14713769856812201 0 -0.43806967755491072 0.1251598113022242 0 -0.42823801129908712 0.1366141583665974 0 -0.45059582573585583 0.14713769856812201 0 -0.43806967755491072 0.1251598113022242 0 -0.46294613148467401 0.1289782761535837 0 -0.46903893294793059 0.1433460603574592 0 -0.45059582573585583 0.14713769856812201 0 -0.46294613148467401 0.1289782761535837 0 -0.45059582573585583 0.14713769856812201 0 -0.46294613148467401 0.1289782761535837 0 -0.46903893294793059 0.1433460603574592 0 -0.46294613148467401 0.1289782761535837 0 -0.46903893294793059 0.1433460603574592 0 -0.45059582573585583 0.14713769856812201 0 -0.46480178243427661 0.15361861463968021 0 -0.45866862224365063 0.16259954250473441 0 -0.45059582573585583 0.14713769856812201 0 -0.46480178243427661 0.15361861463968021 0 -0.47140919036984552 0.24324699533267899 0 -0.47622041687324468 0.23589113099488901 0 -0.46780025776337691 0.23382628992496091 0 -0.47140919036984552 0.24324699533267899 0 -0.47622041687324468 0.23589113099488901 0 -0.48409586529763748 0.2443360010212681 0 -0.47622041687324468 0.23589113099488901 0 -0.48409586529763748 0.2443360010212681 0 -0.48692370066453011 0.23431758851297621 0 -0.47140919036984552 0.24324699533267899 0 -0.48409586529763748 0.2443360010212681 0 -0.47874644332747068 0.25510029245731491 0 -0.48409586529763748 0.2443360010212681 0 -0.4999999999999975 0.24465169392391009 0 -0.49038037276704011 0.25557132441729552 0 -0.48409586529763748 0.2443360010212681 0 -0.4999999999999975 0.24465169392391009 0 -0.48692370066453011 0.23431758851297621 0 -0.4999999999999975 0.24465169392391009 0 -0.48692370066453011 0.23431758851297621 0 -0.4999999999999975 0.24465169392391009 0 -0.48692370066453011 0.23431758851297621 0 -0.5 0.21500942810115581 0 -0.48692370066453011 0.23431758851297621 0 -0.48852981376459881 0.2195372037209751 0 -0.5 0.21500942810115581 0 -0.48852981376459881 0.2195372037209751 0 -0.47384740132906278 0.2239834831020423 0 -0.47895690893462572 0.21366752806292061 0 -0.48852981376459881 0.2195372037209751 0 -0.47384740132906278 0.2239834831020423 0 -0.48692370066453011 0.23431758851297621 0 -0.48852981376459881 0.2195372037209751 0 -0.47384740132906278 0.2239834831020423 0 -0.47622041687324468 0.23589113099488901 0 -0.48692370066453011 0.23431758851297621 0 -0.47384740132906278 0.2239834831020423 0 -0.48692370066453011 0.23431758851297621 0 -0.47384740132906278 0.2239834831020423 0 -0.47622041687324468 0.23589113099488901 0 -0.47384740132906278 0.2239834831020423 0 -0.46780025776337691 0.23382628992496091 0 -0.46898916070867191 0.22014405044645491 0 -0.47384740132906278 0.2239834831020423 0 -0.47895690893462572 0.21366752806292061 0 -0.46898916070867191 0.22014405044645491 0 -0.47384740132906278 0.2239834831020423 0 -0.46809245567754149 0.22428136856027811 0 -0.46898916070867191 0.22014405044645491 0 -0.47384740132906278 0.2239834831020423 0 -0.46898916070867191 0.22014405044645491 0 -0.47323546780769488 0.20055196311812959 0 -0.46898916070867191 0.22014405044645491 0 -0.47895690893462572 0.21366752806292061 0 -0.47323546780769488 0.20055196311812959 0 -0.47895690893462572 0.21366752806292061 0 -0.48878449447296329 0.2039959822397753 0 -0.47323546780769488 0.20055196311812959 0 -0.48852981376459881 0.2195372037209751 0 -0.47895690893462572 0.21366752806292061 0 -0.48878449447296329 0.2039959822397753 0 -0.48852981376459881 0.2195372037209751 0 -0.5 0.21500942810115581 0 -0.48878449447296329 0.2039959822397753 0 -0.5 0.18536716227840161 0 -0.48878449447296329 0.2039959822397753 0 -0.48862908051453502 0.18954270970772469 0 -0.5 0.18536716227840161 0 -0.5 0.21500942810115581 0 -0.48878449447296329 0.2039959822397753 0 -0.47748177490671728 0.18095987578980441 0 -0.47323546780769488 0.20055196311812959 0 -0.47748177490671728 0.18095987578980441 0 -0.47323546780769488 0.20055196311812959 0 -0.46385659402778229 0.193139906557556 0 -0.47748177490671728 0.18095987578980441 0 -0.48862908051453502 0.18954270970772469 0 -0.47323546780769488 0.20055196311812959 0 -0.48878449447296329 0.2039959822397753 0 -0.48862908051453502 0.18954270970772469 0 -0.47323546780769488 0.20055196311812959 0 -0.47323546780769488 0.20055196311812959 0 -0.46385659402778229 0.193139906557556 0 -0.46352694912601711 0.2048322709586721 0 -0.46385659402778229 0.193139906557556 0 -0.4502314131488474 0.20531993732530759 0 -0.46385659402778229 0.193139906557556 0 -0.45182419829262738 0.19355741089016429 0 -0.4502314131488474 0.20531993732530759 0 -0.46385659402778229 0.193139906557556 0 -0.4502314131488474 0.20531993732530759 0 -0.46352694912601711 0.2048322709586721 0 -0.45719096384996361 0.1839940479767827 0 -0.46385659402778229 0.193139906557556 0 -0.45182419829262738 0.19355741089016429 0 -0.4502314131488474 0.20531993732530759 0 -0.43174753566020319 0.19071226175364339 0 -0.44763789634992862 0.18135855141034549 0 -0.45182419829262738 0.19355741089016429 0 -0.44369339864906687 0.1905943594902296 0 -0.4502314131488474 0.20531993732530759 0 -0.44202151697784331 0.2034499617986352 0 -0.43174753566020319 0.19071226175364339 0 -0.44369339864906687 0.1905943594902296 0 -0.4502314131488474 0.20531993732530759 0 -0.43174753566020319 0.19071226175364339 0 -0.45182419829262738 0.19355741089016429 0 -0.44369339864906687 0.1905943594902296 0 -0.4502314131488474 0.20531993732530759 0 -0.4502314131488474 0.20531993732530759 0 -0.43414696991058022 0.21969838963834501 0 -0.4502314131488474 0.20531993732530759 0 -0.44097622777588652 0.21870461041154601 0 -0.43414696991058022 0.21969838963834501 0 -0.4502314131488474 0.20531993732530759 0 -0.43414696991058022 0.21969838963834501 0 -0.43485348961596271 0.21000844127733259 0 -0.4502314131488474 0.20531993732530759 0 -0.44202151697784331 0.2034499617986352 0 -0.43485348961596271 0.21000844127733259 0 -0.4502314131488474 0.20531993732530759 0 -0.44097622777588652 0.21870461041154601 0 -0.44814577207494488 0.21719185510645911 0 -0.4502314131488474 0.20531993732530759 0 -0.44814577207494488 0.21719185510645911 0 -0.4521035239001619 0.21550739706952771 0 -0.44814577207494488 0.21719185510645911 0 -0.4521035239001619 0.21550739706952771 0 -0.45213583372101329 0.22179388996415361 0 -0.4502314131488474 0.20531993732530759 0 -0.4521035239001619 0.21550739706952771 0 -0.45790107665584201 0.21772390588219021 0 -0.46898916070867191 0.22014405044645491 0 -0.4502314131488474 0.20531993732530759 0 -0.45790107665584201 0.21772390588219021 0 -0.4521035239001619 0.21550739706952771 0 -0.45790107665584201 0.21772390588219021 0 -0.45213583372101329 0.22179388996415361 0 -0.46898916070867191 0.22014405044645491 0 -0.4502314131488474 0.20531993732530759 0 -0.46352694912601711 0.2048322709586721 0 -0.46898916070867191 0.22014405044645491 0 -0.47323546780769488 0.20055196311812959 0 -0.46352694912601711 0.2048322709586721 0 -0.46898916070867191 0.22014405044645491 0 -0.4502314131488474 0.20531993732530759 0 -0.47384740132906278 0.2239834831020423 0 -0.46780025776337691 0.23382628992496091 0 -0.45712786856977761 0.2290466642444538 0 -0.47384740132906278 0.2239834831020423 0 -0.46809245567754149 0.22428136856027811 0 -0.45712786856977761 0.2290466642444538 0 -0.47384740132906278 0.2239834831020423 0 -0.45712786856977761 0.2290466642444538 0 -0.45790107665584201 0.21772390588219021 0 -0.46809245567754149 0.22428136856027811 0 -0.45712786856977761 0.2290466642444538 0 -0.46898916070867191 0.22014405044645491 0 -0.45790107665584201 0.21772390588219021 0 -0.46809245567754149 0.22428136856027811 0 -0.46898916070867191 0.22014405044645491 0 -0.46809245567754149 0.22428136856027811 0 -0.45790107665584201 0.21772390588219021 0 -0.45712786856977761 0.2290466642444538 0 -0.45213583372101329 0.22179388996415361 0 -0.45712786856977761 0.2290466642444538 0 -0.4404083358104921 0.23410984538686419 0 -0.45712786856977761 0.2290466642444538 0 -0.44559006955521901 0.22554666287466879 0 -0.45213583372101329 0.22179388996415361 0 -0.45712786856977761 0.2290466642444538 0 -0.44559006955521901 0.22554666287466879 0 -0.4404083358104921 0.23410984538686419 0 -0.44814577207494488 0.21719185510645911 0 -0.44559006955521901 0.22554666287466879 0 -0.45213583372101329 0.22179388996415361 0 -0.44097622777588652 0.21870461041154601 0 -0.44559006955521901 0.22554666287466879 0 -0.43454993949386711 0.22128657871431229 0 -0.44097622777588652 0.21870461041154601 0 -0.44814577207494488 0.21719185510645911 0 -0.44559006955521901 0.22554666287466879 0 -0.44559006955521901 0.22554666287466879 0 -0.4404083358104921 0.23410984538686419 0 -0.43454993949386711 0.22128657871431229 0 -0.4404083358104921 0.23410984538686419 0 -0.45858711411261111 0.2417962392944282 0 -0.44987037221171883 0.25482101094831611 0 -0.45712786856977761 0.2290466642444538 0 -0.4404083358104921 0.23410984538686419 0 -0.45858711411261111 0.2417962392944282 0 -0.4404083358104921 0.23410984538686419 0 -0.43535073689811121 0.24802721624926291 0 -0.44987037221171883 0.25482101094831611 0 -0.4404083358104921 0.23410984538686419 0 -0.44987037221171883 0.25482101094831611 0 -0.46780025776337691 0.23382628992496091 0 -0.45712786856977761 0.2290466642444538 0 -0.45858711411261111 0.2417962392944282 0 -0.47140919036984552 0.24324699533267899 0 -0.46780025776337691 0.23382628992496091 0 -0.45858711411261111 0.2417962392944282 0 -0.47140919036984552 0.24324699533267899 0 -0.45858711411261111 0.2417962392944282 0 -0.46578519863329582 0.25659275838981482 0 -0.41043671487978012 0.24813903361116141 0 -0.41733077143754832 0.2410984311582563 0 -0.39425320706460443 0.24808701692964799 0 -0.41098747859262807 0.23613833384476901 0 -0.41733077143754832 0.2410984311582563 0 -0.40349064825995151 0.23890897829117019 0 -0.41098747859262807 0.23613833384476901 0 -0.40838842839765183 0.229756958107699 0 -0.40349064825995151 0.23890897829117019 0 -0.41733077143754832 0.2410984311582563 0 -0.42336555289634531 0.23454784261753001 0 -0.41640261844793708 0.23274595445641161 0 -0.41098747859262807 0.23613833384476901 0 -0.41733077143754832 0.2410984311582563 0 -0.41640261844793708 0.23274595445641161 0 -0.41043671487978012 0.24813903361116141 0 -0.41733077143754832 0.2410984311582563 0 -0.42198451048501912 0.24165410790607419 0 -0.4404083358104921 0.23410984538686419 0 -0.41733077143754832 0.2410984311582563 0 -0.42336555289634531 0.23454784261753001 0 -0.4404083358104921 0.23410984538686419 0 -0.41733077143754832 0.2410984311582563 0 -0.43535073689811121 0.24802721624926291 0 -0.42198451048501912 0.24165410790607419 0 -0.42372073458691062 0.25401258507241897 0 -0.4404083358104921 0.23410984538686419 0 -0.43535073689811121 0.24802721624926291 0 -0.42198451048501912 0.24165410790607419 0 -0.4404083358104921 0.23410984538686419 0 -0.41733077143754832 0.2410984311582563 0 -0.42198451048501912 0.24165410790607419 0 -0.4404083358104921 0.23410984538686419 0 -0.42336555289634531 0.23454784261753001 0 -0.42783521806327979 0.23135990248147659 0 -0.42336555289634531 0.23454784261753001 0 -0.42783521806327979 0.23135990248147659 0 -0.42122494747513162 0.2296237428298539 0 -0.42591456385497573 0.2274410228105507 0 -0.42783521806327979 0.23135990248147659 0 -0.42122494747513162 0.2296237428298539 0 -0.42591456385497573 0.2274410228105507 0 -0.41854786256712062 0.22436637653129859 0 -0.42122494747513162 0.2296237428298539 0 -0.42591456385497573 0.2274410228105507 0 -0.42783521806327979 0.23135990248147659 0 -0.43147972447848382 0.22874118328355439 0 -0.42591456385497573 0.2274410228105507 0 -0.43147972447848382 0.22874118328355439 0 -0.42940682968320942 0.22514739605895809 0 -0.4404083358104921 0.23410984538686419 0 -0.42783521806327979 0.23135990248147659 0 -0.43147972447848382 0.22874118328355439 0 -0.4404083358104921 0.23410984538686419 0 -0.43454993949386711 0.22128657871431229 0 -0.43343749726242797 0.22621914534277229 0 -0.4404083358104921 0.23410984538686419 0 -0.43147972447848382 0.22874118328355439 0 -0.43343749726242797 0.22621914534277229 0 -0.4404083358104921 0.23410984538686419 0 -0.43454993949386711 0.22128657871431229 0 -0.43147972447848382 0.22874118328355439 0 -0.43343749726242797 0.22621914534277229 0 -0.42940682968320942 0.22514739605895809 0 -0.44097622777588652 0.21870461041154601 0 -0.43454993949386711 0.22128657871431229 0 -0.43414696991058022 0.21969838963834501 0 -0.43454993949386711 0.22128657871431229 0 -0.43343749726242797 0.22621914534277229 0 -0.43134265684608769 0.22181072327017259 0 -0.43343749726242797 0.22621914534277229 0 -0.43134265684608769 0.22181072327017259 0 -0.42940682968320942 0.22514739605895809 0 -0.43414696991058022 0.21969838963834501 0 -0.42997660295789808 0.21879586074483859 0 -0.43134265684608769 0.22181072327017259 0 -0.43454993949386711 0.22128657871431229 0 -0.43414696991058022 0.21969838963834501 0 -0.43134265684608769 0.22181072327017259 0 -0.42997660295789808 0.21879586074483859 0 -0.43134265684608769 0.22181072327017259 0 -0.42656286791925219 0.2223612206869007 0 -0.42591456385497573 0.2274410228105507 0 -0.42656286791925219 0.2223612206869007 0 -0.41854786256712062 0.22436637653129859 0 -0.42656286791925219 0.2223612206869007 0 -0.41854786256712062 0.22436637653129859 0 -0.42627282817189738 0.21457374562022141 0 -0.43134265684608769 0.22181072327017259 0 -0.42656286791925219 0.2223612206869007 0 -0.42940682968320942 0.22514739605895809 0 -0.42591456385497573 0.2274410228105507 0 -0.42656286791925219 0.2223612206869007 0 -0.42940682968320942 0.22514739605895809 0 -0.41854786256712062 0.22436637653129859 0 -0.40838842839765183 0.229756958107699 0 -0.40960257205325012 0.2074126281859448 0 -0.41854786256712062 0.22436637653129859 0 -0.41640261844793708 0.23274595445641161 0 -0.40838842839765183 0.229756958107699 0 -0.41854786256712062 0.22436637653129859 0 -0.42122494747513162 0.2296237428298539 0 -0.41640261844793708 0.23274595445641161 0 -0.42336555289634531 0.23454784261753001 0 -0.42122494747513162 0.2296237428298539 0 -0.41640261844793708 0.23274595445641161 0 -0.41098747859262807 0.23613833384476901 0 -0.41640261844793708 0.23274595445641161 0 -0.40838842839765183 0.229756958107699 0 -0.41854786256712062 0.22436637653129859 0 -0.40960257205325012 0.2074126281859448 0 -0.42627282817189738 0.21457374562022141 0 -0.40960257205325012 0.2074126281859448 0 -0.42618733366957451 0.20585369303338241 0 -0.42489270080070851 0.19811845540771189 0 -0.40960257205325012 0.2074126281859448 0 -0.42627282817189738 0.21457374562022141 0 -0.42618733366957451 0.20585369303338241 0 -0.42997660295789808 0.21879586074483859 0 -0.42627282817189738 0.21457374562022141 0 -0.43155769194167332 0.21553522450855281 0 -0.42997660295789808 0.21879586074483859 0 -0.42656286791925219 0.2223612206869007 0 -0.42627282817189738 0.21457374562022141 0 -0.43414696991058022 0.21969838963834501 0 -0.42997660295789808 0.21879586074483859 0 -0.43155769194167332 0.21553522450855281 0 -0.43414696991058022 0.21969838963834501 0 -0.43155769194167332 0.21553522450855281 0 -0.43485348961596271 0.21000844127733259 0 -0.42627282817189738 0.21457374562022141 0 -0.43155769194167332 0.21553522450855281 0 -0.43485348961596271 0.21000844127733259 0 -0.43485348961596271 0.21000844127733259 0 -0.42618733366957451 0.20585369303338241 0 -0.4321945247497041 0.2014461249545931 0 -0.44202151697784331 0.2034499617986352 0 -0.43485348961596271 0.21000844127733259 0 -0.4321945247497041 0.2014461249545931 0 -0.42627282817189738 0.21457374562022141 0 -0.43485348961596271 0.21000844127733259 0 -0.42618733366957451 0.20585369303338241 0 -0.42489270080070851 0.19811845540771189 0 -0.4321945247497041 0.2014461249545931 0 -0.43174753566020319 0.19071226175364339 0 -0.42618733366957451 0.20585369303338241 0 -0.42489270080070851 0.19811845540771189 0 -0.4321945247497041 0.2014461249545931 0 -0.44202151697784331 0.2034499617986352 0 -0.4321945247497041 0.2014461249545931 0 -0.43174753566020319 0.19071226175364339 0 -0.44202151697784331 0.2034499617986352 0 -0.43174753566020319 0.19071226175364339 0 -0.44369339864906687 0.1905943594902296 0 -0.43174753566020319 0.19071226175364339 0 -0.43702594979372789 0.18202363607168681 0 -0.42489270080070851 0.19811845540771189 0 -0.43174753566020319 0.19071226175364339 0 -0.42473153787081108 0.18516756911099599 0 -0.43174753566020319 0.19071226175364339 0 -0.42473153787081108 0.18516756911099599 0 -0.40960257205325012 0.2074126281859448 0 -0.4076705609913342 0.18983148992168419 0 -0.42473153787081108 0.18516756911099599 0 -0.40960257205325012 0.2074126281859448 0 -0.42473153787081108 0.18516756911099599 0 -0.40960257205325012 0.2074126281859448 0 -0.42489270080070851 0.19811845540771189 0 -0.42473153787081108 0.18516756911099599 0 -0.4076705609913342 0.18983148992168419 0 -0.39210169100609871 0.1979789397960354 0 -0.39888966439433321 0.18185531004364289 0 -0.40960257205325012 0.2074126281859448 0 -0.4076705609913342 0.18983148992168419 0 -0.39210169100609871 0.1979789397960354 0 -0.39210169100609871 0.1979789397960354 0 -0.38679544961612039 0.18028050442871479 0 -0.37362785887905919 0.20648123798227391 0 -0.38876916461332989 0.21488003352701621 0 -0.38339615745520339 0.233649742287037 0 -0.37362785887905919 0.20648123798227391 0 -0.39210169100609871 0.1979789397960354 0 -0.38876916461332989 0.21488003352701621 0 -0.37362785887905919 0.20648123798227391 0 -0.40960257205325012 0.2074126281859448 0 -0.39447360623568922 0.22965768726089381 0 -0.40960257205325012 0.2074126281859448 0 -0.38876916461332989 0.21488003352701621 0 -0.39447360623568922 0.22965768726089381 0 -0.40960257205325012 0.2074126281859448 0 -0.39210169100609871 0.1979789397960354 0 -0.38876916461332989 0.21488003352701621 0 -0.40838842839765183 0.229756958107699 0 -0.40960257205325012 0.2074126281859448 0 -0.39447360623568922 0.22965768726089381 0 -0.40838842839765183 0.229756958107699 0 -0.39447360623568922 0.22965768726089381 0 -0.40349064825995151 0.23890897829117019 0 -0.38876916461332989 0.21488003352701621 0 -0.39447360623568922 0.22965768726089381 0 -0.38339615745520339 0.233649742287037 0 -0.38339615745520339 0.233649742287037 0 -0.37362785887905919 0.20648123798227391 0 -0.39447360623568922 0.22965768726089381 0 -0.37955297187683812 0.24135174748520841 0 -0.37953854733362519 0.25254306176890989 0 -0.39447360623568922 0.22965768726089381 0 -0.39425320706460443 0.24808701692964799 0 -0.37953854733362519 0.25254306176890989 0 -0.39447360623568922 0.22965768726089381 0 -0.37953854733362519 0.25254306176890989 0 -0.39447360623568922 0.22965768726089381 0 -0.38339615745520339 0.233649742287037 0 -0.37955297187683812 0.24135174748520841 0 -0.38339615745520339 0.233649742287037 0 -0.37955297187683812 0.24135174748520841 0 -0.36807822273912838 0.2392344403747432 0 -0.37955297187683812 0.24135174748520841 0 -0.37245560190602828 0.2474017800549676 0 -0.37953854733362519 0.25254306176890989 0 -0.41733077143754832 0.2410984311582563 0 -0.39425320706460443 0.24808701692964799 0 -0.39447360623568922 0.22965768726089381 0 -0.39425320706460443 0.24808701692964799 0 -0.40349064825995151 0.23890897829117019 0 -0.41733077143754832 0.2410984311582563 0 -0.39425320706460443 0.24808701692964799 0 -0.40349064825995151 0.23890897829117019 0 -0.42177156631024798 0.14623374165803391 0 -0.41381752163520202 0.1520068474368069 0 -0.41247521861241132 0.13880643253443639 0 -0.42177156631024798 0.14623374165803391 0 -0.41381752163520202 0.1520068474368069 0 -0.42340817539013909 0.1581166233372048 0 -0.41381752163520202 0.1520068474368069 0 -0.41247521861241132 0.13880643253443639 0 -0.3989900271627364 0.15009944530384051 0 -0.41247521861241132 0.13880643253443639 0 -0.41453370548102508 0.1267105636553047 0 -0.42823801129908712 0.1366141583665974 0 -0.42177156631024798 0.14623374165803391 0 -0.41247521861241132 0.13880643253443639 0 -0.42823801129908712 0.1366141583665974 0 -0.40241189838663072 0.1186427545127379 0 -0.41453370548102508 0.1267105636553047 0 -0.40201305669346771 0.1328209829456039 0 -0.41247521861241132 0.13880643253443639 0 -0.41453370548102508 0.1267105636553047 0 -0.40201305669346771 0.1328209829456039 0 -0.42414305525899748 0.1229935254138811 0 -0.41453370548102508 0.1267105636553047 0 -0.42823801129908712 0.1366141583665974 0 -0.42414305525899748 0.1229935254138811 0 -0.43806967755491072 0.1251598113022242 0 -0.42823801129908712 0.1366141583665974 0 -0.45059582573585583 0.14713769856812201 0 -0.42823801129908712 0.1366141583665974 0 -0.43329697710695142 0.1510635745045612 0 -0.42177156631024798 0.14623374165803391 0 -0.42823801129908712 0.1366141583665974 0 -0.43329697710695142 0.1510635745045612 0 -0.42177156631024798 0.14623374165803391 0 -0.43329697710695142 0.1510635745045612 0 -0.42340817539013909 0.1581166233372048 0 -0.43824551998703581 0.16529712098265911 0 -0.43329697710695142 0.1510635745045612 0 -0.42340817539013909 0.1581166233372048 0 -0.43824551998703581 0.16529712098265911 0 -0.4253046050265587 0.1695147219125884 0 -0.42340817539013909 0.1581166233372048 0 -0.43824551998703581 0.16529712098265911 0 -0.42589521423821541 0.183456543397196 0 -0.43824551998703581 0.16529712098265911 0 -0.43702594979372789 0.18202363607168681 0 -0.42589521423821541 0.183456543397196 0 -0.43824551998703581 0.16529712098265911 0 -0.4253046050265587 0.1695147219125884 0 -0.42589521423821541 0.183456543397196 0 -0.43174753566020319 0.19071226175364339 0 -0.43702594979372789 0.18202363607168681 0 -0.42589521423821541 0.183456543397196 0 -0.42589521423821541 0.183456543397196 0 -0.42473153787081108 0.18516756911099599 0 -0.43174753566020319 0.19071226175364339 0 -0.42589521423821541 0.183456543397196 0 -0.42473153787081108 0.18516756911099599 0 -0.43174753566020319 0.19071226175364339 0 -0.42589521423821541 0.183456543397196 0 -0.42473153787081108 0.18516756911099599 0 -0.40826542856195103 0.17215452123404371 0 -0.4076705609913342 0.18983148992168419 0 -0.42473153787081108 0.18516756911099599 0 -0.40826542856195103 0.17215452123404371 0 -0.42589521423821541 0.183456543397196 0 -0.42473153787081108 0.18516756911099599 0 -0.40826542856195103 0.17215452123404371 0 -0.42589521423821541 0.183456543397196 0 -0.40826542856195103 0.17215452123404371 0 -0.4124426207004751 0.16677799435051879 0 -0.4253046050265587 0.1695147219125884 0 -0.42589521423821541 0.183456543397196 0 -0.4124426207004751 0.16677799435051879 0 -0.42589521423821541 0.183456543397196 0 -0.4124426207004751 0.16677799435051879 0 -0.41381752163520202 0.1520068474368069 0 -0.4124426207004751 0.16677799435051879 0 -0.3989900271627364 0.15009944530384051 0 -0.41381752163520202 0.1520068474368069 0 -0.42340817539013909 0.1581166233372048 0 -0.4124426207004751 0.16677799435051879 0 -0.4253046050265587 0.1695147219125884 0 -0.42340817539013909 0.1581166233372048 0 -0.4124426207004751 0.16677799435051879 0 -0.40826542856195103 0.17215452123404371 0 -0.4124426207004751 0.16677799435051879 0 -0.40102778127832073 0.16222040721632031 0 -0.4124426207004751 0.16677799435051879 0 -0.40102778127832073 0.16222040721632031 0 -0.3989900271627364 0.15009944530384051 0 -0.4124426207004751 0.16677799435051879 0 -0.3989900271627364 0.15009944530384051 0 -0.40102778127832073 0.16222040721632031 0 -0.3954117281649091 0.17099087767814569 0 -0.38208031697382039 0.1584436454680071 0 -0.40102778127832073 0.16222040721632031 0 -0.38208031697382039 0.1584436454680071 0 -0.3989900271627364 0.15009944530384051 0 -0.40826542856195103 0.17215452123404371 0 -0.40102778127832073 0.16222040721632031 0 -0.3954117281649091 0.17099087767814569 0 -0.39210169100609871 0.1979789397960354 0 -0.39888966439433321 0.18185531004364289 0 -0.38679544961612039 0.18028050442871479 0 -0.4076705609913342 0.18983148992168419 0 -0.40826542856195103 0.17215452123404371 0 -0.39888966439433321 0.18185531004364289 0 -0.40826542856195103 0.17215452123404371 0 -0.3954117281649091 0.17099087767814569 0 -0.39888966439433321 0.18185531004364289 0 -0.3954117281649091 0.17099087767814569 0 -0.39888966439433321 0.18185531004364289 0 -0.38679544961612039 0.18028050442871479 0 -0.38679544961612039 0.18028050442871479 0 -0.38208031697382039 0.1584436454680071 0 -0.36385956030291522 0.17931273367751119 0 -0.3954117281649091 0.17099087767814569 0 -0.38679544961612039 0.18028050442871479 0 -0.38208031697382039 0.1584436454680071 0 -0.38208031697382039 0.1584436454680071 0 -0.38553743362499759 0.13342089625716211 0 -0.36719901499070801 0.1369195831729304 0 -0.38208031697382039 0.1584436454680071 0 -0.3989900271627364 0.15009944530384051 0 -0.38553743362499759 0.13342089625716211 0 -0.3989900271627364 0.15009944530384051 0 -0.38553743362499759 0.13342089625716211 0 -0.3989900271627364 0.15009944530384051 0 -0.40201305669346771 0.1328209829456039 0 -0.38553743362499759 0.13342089625716211 0 -0.40241189838663072 0.1186427545127379 0 -0.40201305669346771 0.1328209829456039 0 -0.38553743362499759 0.13342089625716211 0 -0.41247521861241132 0.13880643253443639 0 -0.3989900271627364 0.15009944530384051 0 -0.40201305669346771 0.1328209829456039 0 -0.38553743362499759 0.13342089625716211 0 -0.36719901499070801 0.1369195831729304 0 -0.3733223470021152 0.1196158063350172 0 -0.36719901499070801 0.1369195831729304 0 -0.3733223470021152 0.1196158063350172 0 -0.35694571185984808 0.1213129410944602 0 -0.36719901499070801 0.1369195831729304 0 -0.35121701875669609 0.1365799805101878 0 -0.35694571185984808 0.1213129410944602 0 -0.35121701875669609 0.1365799805101878 0 -0.35694571185984808 0.1213129410944602 0 -0.34234431772772778 0.1234734061386261 0 -0.35121701875669609 0.1365799805101878 0 -0.35409126172677108 0.15214422937274841 0 -0.3323452591802914 0.1460357568309 0 -0.36719901499070801 0.1369195831729304 0 -0.35121701875669609 0.1365799805101878 0 -0.35409126172677108 0.15214422937274841 0 -0.38208031697382039 0.1584436454680071 0 -0.36719901499070801 0.1369195831729304 0 -0.35409126172677108 0.15214422937274841 0 -0.38208031697382039 0.1584436454680071 0 -0.35409126172677108 0.15214422937274841 0 -0.36385956030291522 0.17931273367751119 0 -0.35409126172677108 0.15214422937274841 0 -0.36385956030291522 0.17931273367751119 0 -0.35409126172677108 0.15214422937274841 0 -0.36385956030291522 0.17931273367751119 0 -0.34542350677884109 0.18015353795158551 0 -0.35409126172677108 0.15214422937274841 0 -0.34542350677884109 0.18015353795158551 0 -0.33107176261762661 0.16900614866254421 0 -0.34542350677884109 0.18015353795158551 0 -0.33107176261762661 0.16900614866254421 0 -0.32879383097670872 0.1941859201549139 0 -0.33107176261762661 0.16900614866254421 0 -0.32879383097670872 0.1941859201549139 0 -0.30852210975126892 0.17518997468716579 0 -0.32879383097670872 0.1941859201549139 0 -0.30852210975126892 0.17518997468716579 0 -0.32879383097670872 0.1941859201549139 0 -0.31084004039996749 0.1923896960997889 0 -0.30852210975126892 0.17518997468716579 0 -0.33107176261762661 0.16900614866254421 0 -0.3180629284745719 0.16007239789958189 0 -0.3323452591802914 0.1460357568309 0 -0.33107176261762661 0.16900614866254421 0 -0.3180629284745719 0.16007239789958189 0 -0.30852210975126892 0.17518997468716579 0 -0.3180629284745719 0.16007239789958189 0 -0.31276161669564201 0.1447594537292495 0 -0.3323452591802914 0.1460357568309 0 -0.31276161669564201 0.1447594537292495 0 -0.32333759292258513 0.1256726980054412 0 -0.3323452591802914 0.1460357568309 0 -0.31276161669564201 0.1447594537292495 0 -0.32333759292258513 0.1256726980054412 0 -0.30269462434898953 0.128928470670165 0 -0.35121701875669609 0.1365799805101878 0 -0.3323452591802914 0.1460357568309 0 -0.34234431772772778 0.1234734061386261 0 -0.32333759292258513 0.1256726980054412 0 -0.3323452591802914 0.1460357568309 0 -0.34234431772772778 0.1234734061386261 0 -0.35409126172677108 0.15214422937274841 0 -0.33107176261762661 0.16900614866254421 0 -0.3323452591802914 0.1460357568309 0 -0.35399039374227648 0.24872414955354211 0 -0.33697276924571601 0.2427247353279546 0 -0.34266004937055677 0.25821455341305599 0 -0.35399039374227648 0.24872414955354211 0 -0.36807822273912838 0.2392344403747432 0 -0.35163137670310579 0.22973028548409441 0 -0.35399039374227648 0.24872414955354211 0 -0.35163137670310579 0.22973028548409441 0 -0.33697276924571601 0.2427247353279546 0 -0.35399039374227648 0.24872414955354211 0 -0.36483867825705801 0.24946241242578249 0 -0.36807822273912838 0.2392344403747432 0 -0.36483867825705801 0.24946241242578249 0 -0.37245560190602828 0.2474017800549676 0 -0.36807822273912838 0.2392344403747432 0 -0.37955297187683812 0.24135174748520841 0 -0.37245560190602828 0.2474017800549676 0 -0.36807822273912838 0.2392344403747432 0 -0.38339615745520339 0.233649742287037 0 -0.36807822273912838 0.2392344403747432 0 -0.3665388155498675 0.22308011611506459 0 -0.36807822273912838 0.2392344403747432 0 -0.3665388155498675 0.22308011611506459 0 -0.35163137670310579 0.22973028548409441 0 -0.38339615745520339 0.233649742287037 0 -0.3665388155498675 0.22308011611506459 0 -0.37362785887905919 0.20648123798227391 0 -0.3665388155498675 0.22308011611506459 0 -0.35163137670310579 0.22973028548409441 0 -0.34930111827018412 0.20611865789020989 0 -0.3665388155498675 0.22308011611506459 0 -0.34930111827018412 0.20611865789020989 0 -0.37362785887905919 0.20648123798227391 0 -0.38679544961612039 0.18028050442871479 0 -0.36385956030291522 0.17931273367751119 0 -0.37362785887905919 0.20648123798227391 0 -0.36385956030291522 0.17931273367751119 0 -0.34930111827018412 0.20611865789020989 0 -0.37362785887905919 0.20648123798227391 0 -0.36385956030291522 0.17931273367751119 0 -0.37362785887905919 0.20648123798227391 0 -0.36385956030291522 0.17931273367751119 0 -0.34542350677884109 0.18015353795158551 0 -0.34930111827018412 0.20611865789020989 0 -0.34542350677884109 0.18015353795158551 0 -0.34930111827018412 0.20611865789020989 0 -0.32879383097670872 0.1941859201549139 0 -0.32879383097670872 0.1941859201549139 0 -0.3126220779638777 0.207294049519504 0 -0.31084004039996749 0.1923896960997889 0 -0.3126220779638777 0.207294049519504 0 -0.3280147264522178 0.22085355642758589 0 -0.29951137227837632 0.22336715529916221 0 -0.32879383097670872 0.1941859201549139 0 -0.3126220779638777 0.207294049519504 0 -0.3280147264522178 0.22085355642758589 0 -0.34930111827018412 0.20611865789020989 0 -0.32879383097670872 0.1941859201549139 0 -0.3280147264522178 0.22085355642758589 0 -0.35163137670310579 0.22973028548409441 0 -0.3280147264522178 0.22085355642758589 0 -0.33697276924571601 0.2427247353279546 0 -0.35163137670310579 0.22973028548409441 0 -0.34930111827018412 0.20611865789020989 0 -0.3280147264522178 0.22085355642758589 0 -0.3280147264522178 0.22085355642758589 0 -0.31737657300669908 0.24062655903877669 0 -0.29951137227837632 0.22336715529916221 0 -0.3280147264522178 0.22085355642758589 0 -0.31737657300669908 0.24062655903877669 0 -0.33697276924571601 0.2427247353279546 0 -0.31737657300669908 0.24062655903877669 0 -0.33697276924571601 0.2427247353279546 0 -0.32874076048385781 0.26112219366185208 0 -0.29767337890495782 0.24407184993012401 0 -0.28059026184646763 0.23379017568803251 0 -0.28405747160943501 0.25832370851674252 0 -0.31737657300669908 0.24062655903877669 0 -0.29767337890495782 0.24407184993012401 0 -0.29951137227837632 0.22336715529916221 0 -0.31737657300669908 0.24062655903877669 0 -0.29767337890495782 0.24407184993012401 0 -0.30758209034138839 0.262261807621402 0 -0.29767337890495782 0.24407184993012401 0 -0.29951137227837632 0.22336715529916221 0 -0.28059026184646763 0.23379017568803251 0 -0.29951137227837632 0.22336715529916221 0 -0.27919674603026029 0.20821201623299021 0 -0.28059026184646763 0.23379017568803251 0 -0.29951137227837632 0.22336715529916221 0 -0.29575771102752602 0.2009761132725813 0 -0.27919674603026029 0.20821201623299021 0 -0.3126220779638777 0.207294049519504 0 -0.29951137227837632 0.22336715529916221 0 -0.29575771102752602 0.2009761132725813 0 -0.29951137227837632 0.22336715529916221 0 -0.29575771102752602 0.2009761132725813 0 -0.3126220779638777 0.207294049519504 0 -0.31084004039996749 0.1923896960997889 0 -0.29575771102752602 0.2009761132725813 0 -0.31084004039996749 0.1923896960997889 0 -0.29575771102752602 0.2009761132725813 0 -0.29200404977667571 0.1785850712460004 0 -0.28446731545422549 0.19207598256110001 0 -0.29575771102752602 0.2009761132725813 0 -0.29200404977667571 0.1785850712460004 0 -0.29575771102752602 0.2009761132725813 0 -0.29200404977667571 0.1785850712460004 0 -0.28446731545422549 0.19207598256110001 0 -0.29575771102752602 0.2009761132725813 0 -0.27919674603026029 0.20821201623299021 0 -0.28446731545422549 0.19207598256110001 0 -0.27919674603026029 0.20821201623299021 0 -0.27083910806058042 0.18554654809498991 0 -0.26049401854676302 0.20169757637690361 0 -0.27919674603026029 0.20821201623299021 0 -0.27083910806058042 0.18554654809498991 0 -0.26049401854676302 0.20169757637690361 0 -0.2478771691703221 0.18597643835916239 0 -0.2472271737918712 0.19821686000465291 0 -0.26049401854676302 0.20169757637690361 0 -0.27083910806058042 0.18554654809498991 0 -0.25941087938739649 0.18007592907293429 0 -0.26049401854676302 0.20169757637690361 0 -0.25941087938739649 0.18007592907293429 0 -0.2478771691703221 0.18597643835916239 0 -0.26049401854676302 0.20169757637690361 0 -0.26270716451023202 0.22074957303227941 0 -0.24084024831293541 0.20983886062041651 0 -0.26049401854676302 0.20169757637690361 0 -0.27919674603026029 0.20821201623299021 0 -0.26270716451023202 0.22074957303227941 0 -0.28059026184646763 0.23379017568803251 0 -0.26270716451023202 0.22074957303227941 0 -0.26167914317137358 0.24594879361926031 0 -0.27919674603026029 0.20821201623299021 0 -0.28059026184646763 0.23379017568803251 0 -0.26270716451023202 0.22074957303227941 0 -0.26270716451023202 0.22074957303227941 0 -0.26167914317137358 0.24594879361926031 0 -0.24581436977621191 0.2304073522679074 0 -0.26167914317137358 0.24594879361926031 0 -0.24646631454805509 0.24550208357914341 0 -0.24581436977621191 0.2304073522679074 0 -0.28059026184646763 0.23379017568803251 0 -0.26167914317137358 0.24594879361926031 0 -0.28405747160943501 0.25832370851674252 0 -0.28825038852582779 0.15619402921941919 0 -0.28526995693509349 0.13841539536152669 0 -0.29849530956781928 0.14533741981843901 0 -0.28825038852582779 0.15619402921941919 0 -0.28526995693509349 0.13841539536152669 0 -0.28825038852582779 0.15619402921941919 0 -0.28526995693509349 0.13841539536152669 0 -0.2761214547593025 0.14482841493099061 0 -0.28825038852582779 0.15619402921941919 0 -0.2761214547593025 0.14482841493099061 0 -0.28526995693509349 0.13841539536152669 0 -0.30269462434898953 0.128928470670165 0 -0.29849530956781928 0.14533741981843901 0 -0.28526995693509349 0.13841539536152669 0 -0.28228952534435903 0.1206367615036342 0 -0.28526995693509349 0.13841539536152669 0 -0.27641310332306468 0.1341572021584371 0 -0.28228952534435903 0.1206367615036342 0 -0.28526995693509349 0.13841539536152669 0 -0.30269462434898953 0.128928470670165 0 -0.28228952534435903 0.1206367615036342 0 -0.31276161669564201 0.1447594537292495 0 -0.30269462434898953 0.128928470670165 0 -0.29849530956781928 0.14533741981843901 0 -0.28825038852582779 0.15619402921941919 0 -0.29849530956781928 0.14533741981843901 0 -0.30525441819620852 0.1571342914814326 0 -0.31276161669564201 0.1447594537292495 0 -0.29849530956781928 0.14533741981843901 0 -0.30525441819620852 0.1571342914814326 0 -0.3180629284745719 0.16007239789958189 0 -0.31276161669564201 0.1447594537292495 0 -0.30525441819620852 0.1571342914814326 0 -0.28825038852582779 0.15619402921941919 0 -0.30525441819620852 0.1571342914814326 0 -0.30852210975126892 0.17518997468716579 0 -0.28825038852582779 0.15619402921941919 0 -0.30852210975126892 0.17518997468716579 0 -0.3180629284745719 0.16007239789958189 0 -0.30525441819620852 0.1571342914814326 0 -0.30852210975126892 0.17518997468716579 0 -0.31084004039996749 0.1923896960997889 0 -0.30852210975126892 0.17518997468716579 0 -0.29200404977667571 0.1785850712460004 0 -0.28446731545422549 0.19207598256110001 0 -0.29200404977667571 0.1785850712460004 0 -0.27083910806058042 0.18554654809498991 0 -0.28825038852582779 0.15619402921941919 0 -0.29200404977667571 0.1785850712460004 0 -0.28825038852582779 0.15619402921941919 0 -0.29200404977667571 0.1785850712460004 0 -0.27516495814292002 0.1702133972714571 0 -0.28825038852582779 0.15619402921941919 0 -0.30852210975126892 0.17518997468716579 0 -0.29200404977667571 0.1785850712460004 0 -0.28825038852582779 0.15619402921941919 0 -0.27516495814292002 0.1702133972714571 0 -0.2709899160482836 0.15687985002819599 0 -0.27516495814292002 0.1702133972714571 0 -0.2709899160482836 0.15687985002819599 0 -0.26162110179380188 0.1652624341574683 0 -0.29200404977667571 0.1785850712460004 0 -0.27516495814292002 0.1702133972714571 0 -0.27083910806058042 0.18554654809498991 0 -0.27516495814292002 0.1702133972714571 0 -0.27083910806058042 0.18554654809498991 0 -0.25941087938739649 0.18007592907293429 0 -0.25941087938739649 0.18007592907293429 0 -0.24995263048411609 0.1704783397427152 0 -0.2478771691703221 0.18597643835916239 0 -0.25941087938739649 0.18007592907293429 0 -0.26162110179380188 0.1652624341574683 0 -0.24995263048411609 0.1704783397427152 0 -0.27516495814292002 0.1702133972714571 0 -0.25941087938739649 0.18007592907293429 0 -0.26162110179380188 0.1652624341574683 0 -0.2709899160482836 0.15687985002819599 0 -0.26162110179380188 0.1652624341574683 0 -0.25393692785613931 0.1550256105710959 0 -0.26162110179380188 0.1652624341574683 0 -0.25393692785613931 0.1550256105710959 0 -0.24995263048411609 0.1704783397427152 0 -0.2709899160482836 0.15687985002819599 0 -0.25393692785613931 0.1550256105710959 0 -0.263327267074289 0.1463272994930277 0 -0.25393692785613931 0.1550256105710959 0 -0.25100710053238262 0.14256546618606861 0 -0.263327267074289 0.1463272994930277 0 -0.25100710053238262 0.14256546618606861 0 -0.263327267074289 0.1463272994930277 0 -0.26399252099277382 0.1334628006425656 0 -0.2709899160482836 0.15687985002819599 0 -0.263327267074289 0.1463272994930277 0 -0.2761214547593025 0.14482841493099061 0 -0.28825038852582779 0.15619402921941919 0 -0.2709899160482836 0.15687985002819599 0 -0.2761214547593025 0.14482841493099061 0 -0.263327267074289 0.1463272994930277 0 -0.2761214547593025 0.14482841493099061 0 -0.26399252099277382 0.1334628006425656 0 -0.26399252099277382 0.1334628006425656 0 -0.28228952534435903 0.1206367615036342 0 -0.27641310332306468 0.1341572021584371 0 -0.26399252099277382 0.1334628006425656 0 -0.28228952534435903 0.1206367615036342 0 -0.28526995693509349 0.13841539536152669 0 -0.2761214547593025 0.14482841493099061 0 -0.27641310332306468 0.1341572021584371 0 -0.2761214547593025 0.14482841493099061 0 -0.27641310332306468 0.1341572021584371 0 -0.26399252099277382 0.1334628006425656 0 -0.2761214547593025 0.14482841493099061 0 -0.26399252099277382 0.1334628006425656 0 -0.25965792320607362 0.12940099541817421 0 -0.26399252099277382 0.1334628006425656 0 -0.25529521177584968 0.13394649129606151 0 -0.25965792320607362 0.12940099541817421 0 -0.26399252099277382 0.1334628006425656 0 -0.26914584881881221 0.11411538093446751 0 -0.25965792320607362 0.12940099541817421 0 -0.26399252099277382 0.1334628006425656 0 -0.25100710053238262 0.14256546618606861 0 -0.26399252099277382 0.1334628006425656 0 -0.25100710053238262 0.14256546618606861 0 -0.25529521177584968 0.13394649129606151 0 -0.24964446852777181 0.13261493155280701 0 -0.25100710053238262 0.14256546618606861 0 -0.26399252099277382 0.1334628006425656 0 -0.25529521177584968 0.13394649129606151 0 -0.25965792320607362 0.12940099541817421 0 -0.25417857664130289 0.1242664847673165 0 -0.25907888395580481 0.12155568545067991 0 -0.25965792320607362 0.12940099541817421 0 -0.25448303463337429 0.12899112215010181 0 -0.25417857664130289 0.1242664847673165 0 -0.25965792320607362 0.12940099541817421 0 -0.25417857664130289 0.1242664847673165 0 -0.25965792320607362 0.12940099541817421 0 -0.25529521177584968 0.13394649129606151 0 -0.25448303463337429 0.12899112215010181 0 -0.25448303463337429 0.12899112215010181 0 -0.24824707843623489 0.12578158396356739 0 -0.24964446852777181 0.13261493155280701 0 -0.25529521177584968 0.13394649129606151 0 -0.25448303463337429 0.12899112215010181 0 -0.24964446852777181 0.13261493155280701 0 -0.25448303463337429 0.12899112215010181 0 -0.25417857664130289 0.1242664847673165 0 -0.24824707843623489 0.12578158396356739 0 -0.25417857664130289 0.1242664847673165 0 -0.24957446628960209 0.1172886197127147 0 -0.24824707843623489 0.12578158396356739 0 -0.25417857664130289 0.1242664847673165 0 -0.25638414763734391 0.1167949241659279 0 -0.25907888395580481 0.12155568545067991 0 -0.25417857664130289 0.1242664847673165 0 -0.25638414763734391 0.1167949241659279 0 -0.24957446628960209 0.1172886197127147 0 -0.25638414763734391 0.1167949241659279 0 -0.25478591689589342 0.1088736405992687 0 -0.24957446628960209 0.1172886197127147 0 -0.25638414763734391 0.1167949241659279 0 -0.2600947320921449 0.11475354574946769 0 -0.25478591689589342 0.1088736405992687 0 -0.2600947320921449 0.11475354574946769 0 -0.26418206277047712 0.1192493874003144 0 -0.26282539091684859 0.1084939945961331 0 -0.2600947320921449 0.11475354574946769 0 -0.25478591689589342 0.1088736405992687 0 -0.26282539091684859 0.1084939945961331 0 -0.25965792320607362 0.12940099541817421 0 -0.26418206277047712 0.1192493874003144 0 -0.25907888395580481 0.12155568545067991 0 -0.25965792320607362 0.12940099541817421 0 -0.26914584881881221 0.11411538093446751 0 -0.25965792320607362 0.12940099541817421 0 -0.26418206277047712 0.1192493874003144 0 -0.26914584881881221 0.11411538093446751 0 -0.2600947320921449 0.11475354574946769 0 -0.26418206277047712 0.1192493874003144 0 -0.25907888395580481 0.12155568545067991 0 -0.25638414763734391 0.1167949241659279 0 -0.2600947320921449 0.11475354574946769 0 -0.25907888395580481 0.12155568545067991 0 -0.26418206277047712 0.1192493874003144 0 -0.26282539091684859 0.1084939945961331 0 -0.2696149331604355 0.098344202550996879 0 -0.25478591689589342 0.1088736405992687 0 -0.25843484717399567 0.099518080126909478 0 -0.2490249111450448 0.096245607722758475 0 -0.25843484717399567 0.099518080126909478 0 -0.25744469204883519 0.089158201810431353 0 -0.2490249111450448 0.096245607722758475 0 -0.25478591689589342 0.1088736405992687 0 -0.26282539091684859 0.1084939945961331 0 -0.25843484717399567 0.099518080126909478 0 -0.26282539091684859 0.1084939945961331 0 -0.25843484717399567 0.099518080126909478 0 -0.2696149331604355 0.098344202550996879 0 -0.25843484717399567 0.099518080126909478 0 -0.26263998121044008 0.09364786696669028 0 -0.25744469204883519 0.089158201810431353 0 -0.25843484717399567 0.099518080126909478 0 -0.2696149331604355 0.098344202550996879 0 -0.26263998121044008 0.09364786696669028 0 -0.26418206277047712 0.1192493874003144 0 -0.2696149331604355 0.098344202550996879 0 -0.2696149331604355 0.098344202550996879 0 -0.27863377443155068 0.098829766450760664 0 -0.26914584881881221 0.11411538093446751 0 -0.27863377443155068 0.098829766450760664 0 -0.26914584881881221 0.11411538093446751 0 -0.26399252099277382 0.1334628006425656 0 -0.26914584881881221 0.11411538093446751 0 -0.28228952534435903 0.1206367615036342 0 -0.26418206277047712 0.1192493874003144 0 -0.2696149331604355 0.098344202550996879 0 -0.26914584881881221 0.11411538093446751 0 -0.27863377443155068 0.098829766450760664 0 -0.26914584881881221 0.11411538093446751 0 -0.28228952534435903 0.1206367615036342 0 -0.27863377443155068 0.098829766450760664 0 -0.28228952534435903 0.1206367615036342 0 -0.28228952534435903 0.1206367615036342 0 -0.29251707651521469 0.1034756859007865 0 -0.29793818936776362 0.1096671856441388 0 -0.28228952534435903 0.1206367615036342 0 -0.29793818936776362 0.1096671856441388 0 -0.30269462434898953 0.128928470670165 0 -0.28228952534435903 0.1206367615036342 0 -0.29793818936776362 0.1096671856441388 0 -0.27863377443155068 0.098829766450760664 0 -0.28228952534435903 0.1206367615036342 0 -0.29251707651521469 0.1034756859007865 0 -0.27863377443155068 0.098829766450760664 0 -0.29251707651521469 0.1034756859007865 0 -0.29017853594191523 0.080230466566195216 0 -0.29251707651521469 0.1034756859007865 0 -0.3135868533911681 0.098697609784643259 0 -0.29793818936776362 0.1096671856441388 0 -0.31275141586137162 0.11380250981165189 0 -0.3135868533911681 0.098697609784643259 0 -0.29251707651521469 0.1034756859007865 0 -0.29793818936776362 0.1096671856441388 0 -0.3135868533911681 0.098697609784643259 0 -0.29793818936776362 0.1096671856441388 0 -0.3135868533911681 0.098697609784643259 0 -0.29251707651521469 0.1034756859007865 0 -0.30099646802421731 0.091122416508888179 0 -0.3135868533911681 0.098697609784643259 0 -0.30269462434898953 0.128928470670165 0 -0.29793818936776362 0.1096671856441388 0 -0.31275141586137162 0.11380250981165189 0 -0.30770340624857029 0.082085903783926717 0 -0.30172329745227933 0.061631166681629483 0 -0.31637402114390001 0.066743669139946921 0 -0.30770340624857029 0.082085903783926717 0 -0.29017853594191523 0.080230466566195216 0 -0.30172329745227933 0.061631166681629483 0 -0.30172329745227933 0.061631166681629483 0 -0.31637402114390001 0.066743669139946921 0 -0.30770340624857029 0.082085903783926717 0 -0.30099646802421731 0.091122416508888179 0 -0.29017853594191523 0.080230466566195216 0 -0.30770340624857029 0.082085903783926717 0 -0.30099646802421731 0.091122416508888179 0 -0.3135868533911681 0.098697609784643259 0 -0.29251707651521469 0.1034756859007865 0 -0.30099646802421731 0.091122416508888179 0 -0.29017853594191523 0.080230466566195216 0 -0.27863377443155068 0.098829766450760664 0 -0.29017853594191523 0.080230466566195216 0 -0.27504780355039349 0.077439017701679255 0 -0.27863377443155068 0.098829766450760664 0 -0.29017853594191523 0.080230466566195216 0 -0.29017853594191523 0.080230466566195216 0 -0.28794478783017968 0.067074957580721628 0 -0.30172329745227933 0.061631166681629483 0 -0.29017853594191523 0.080230466566195216 0 -0.28794478783017968 0.067074957580721628 0 -0.27504780355039349 0.077439017701679255 0 -0.28794478783017968 0.067074957580721628 0 -0.27504780355039349 0.077439017701679255 0 -0.28103238827700322 0.054410886902276523 0 -0.29017853594191523 0.080230466566195216 0 -0.30172329745227933 0.061631166681629483 0 -0.27504780355039349 0.077439017701679255 0 -0.27145954912850578 0.056034647356773062 0 -0.27504780355039349 0.077439017701679255 0 -0.25988982308859748 0.064652692907788703 0 -0.27145954912850578 0.056034647356773062 0 -0.27504780355039349 0.077439017701679255 0 -0.28103238827700322 0.054410886902276523 0 -0.27504780355039349 0.077439017701679255 0 -0.28103238827700322 0.054410886902276523 0 -0.27145954912850578 0.056034647356773062 0 -0.27863377443155068 0.098829766450760664 0 -0.27504780355039349 0.077439017701679255 0 -0.2696149331604355 0.098344202550996879 0 -0.27863377443155068 0.098829766450760664 0 -0.27504780355039349 0.077439017701679255 0 -0.2696149331604355 0.098344202550996879 0 -0.27504780355039349 0.077439017701679255 0 -0.26506545245849389 0.087570983378423409 0 -0.2696149331604355 0.098344202550996879 0 -0.27504780355039349 0.077439017701679255 0 -0.27504780355039349 0.077439017701679255 0 -0.26506545245849389 0.087570983378423409 0 -0.25970056119494112 0.078797890411802254 0 -0.2696149331604355 0.098344202550996879 0 -0.26263998121044008 0.09364786696669028 0 -0.26506545245849389 0.087570983378423409 0 -0.26263998121044008 0.09364786696669028 0 -0.26506545245849389 0.087570983378423409 0 -0.25744469204883519 0.089158201810431353 0 -0.26506545245849389 0.087570983378423409 0 -0.25970056119494112 0.078797890411802254 0 -0.25744469204883519 0.089158201810431353 0 -0.25970056119494112 0.078797890411802254 0 -0.25744469204883519 0.089158201810431353 0 -0.24976180809408241 0.081585985454475179 0 -0.25744469204883519 0.089158201810431353 0 -0.24976180809408241 0.081585985454475179 0 -0.2490249111450448 0.096245607722758475 0 -0.27504780355039349 0.077439017701679255 0 -0.25970056119494112 0.078797890411802254 0 -0.25988982308859748 0.064652692907788703 0 -0.25970056119494112 0.078797890411802254 0 -0.24941040641799569 0.072543547962933969 0 -0.24976180809408241 0.081585985454475179 0 -0.25970056119494112 0.078797890411802254 0 -0.25988982308859748 0.064652692907788703 0 -0.24941040641799569 0.072543547962933969 0 -0.25988982308859748 0.064652692907788703 0 -0.25033167758740738 0.063270345931912539 0 -0.24941040641799569 0.072543547962933969 0 -0.25988982308859748 0.064652692907788703 0 -0.24941040641799569 0.072543547962933969 0 -0.25988982308859748 0.064652692907788703 0 -0.25127344042153787 0.052392004008869092 0 -0.25988982308859748 0.064652692907788703 0 -0.25729131276850581 0.051833636408778673 0 -0.25127344042153787 0.052392004008869092 0 -0.25988982308859748 0.064652692907788703 0 -0.25033167758740738 0.063270345931912539 0 -0.25127344042153787 0.052392004008869092 0 -0.25729131276850581 0.051833636408778673 0 -0.27057561992610318 0.050761903068758323 0 -0.2434840224862716 0.04130804526443832 0 -0.25988982308859748 0.064652692907788703 0 -0.25729131276850581 0.051833636408778673 0 -0.27145954912850578 0.056034647356773062 0 -0.25729131276850581 0.051833636408778673 0 -0.25127344042153787 0.052392004008869092 0 -0.2434840224862716 0.04130804526443832 0 -0.25729131276850581 0.051833636408778673 0 -0.25127344042153787 0.052392004008869092 0 -0.27057561992610318 0.050761903068758323 0 -0.26638378934381512 0.025757128140005608 0 -0.2434840224862716 0.04130804526443832 0 -0.27057561992610318 0.050761903068758323 0 -0.2434840224862716 0.04130804526443832 0 -0.27576320070651361 0.033903421183028512 0 -0.27737845819442852 0.044125418538963047 0 -0.27057561992610318 0.050761903068758323 0 -0.27576320070651361 0.033903421183028512 0 -0.27057561992610318 0.050761903068758323 0 -0.26638378934381512 0.025757128140005608 0 -0.27057561992610318 0.050761903068758323 0 -0.26638378934381512 0.025757128140005608 0 -0.27576320070651361 0.033903421183028512 0 -0.27737845819442852 0.044125418538963047 0 -0.28625376210260989 0.034319521352042262 0 -0.27737845819442852 0.044125418538963047 0 -0.27598203190406551 0.052648519396376693 0 -0.27057561992610318 0.050761903068758323 0 -0.27598203190406551 0.052648519396376693 0 -0.28103238827700322 0.054410886902276523 0 -0.27145954912850578 0.056034647356773062 0 -0.27598203190406551 0.052648519396376693 0 -0.28282116429750231 0.047527841536110269 0 -0.27737845819442852 0.044125418538963047 0 -0.27598203190406551 0.052648519396376693 0 -0.28282116429750231 0.047527841536110269 0 -0.27598203190406551 0.052648519396376693 0 -0.27145954912850578 0.056034647356773062 0 -0.27598203190406551 0.052648519396376693 0 -0.28103238827700322 0.054410886902276523 0 -0.27598203190406551 0.052648519396376693 0 -0.28103238827700322 0.054410886902276523 0 -0.28282116429750231 0.047527841536110269 0 -0.25988982308859748 0.064652692907788703 0 -0.27145954912850578 0.056034647356773062 0 -0.25729131276850581 0.051833636408778673 0 -0.27145954912850578 0.056034647356773062 0 -0.27057561992610318 0.050761903068758323 0 -0.27598203190406551 0.052648519396376693 0 -0.27145954912850578 0.056034647356773062 0 -0.27057561992610318 0.050761903068758323 0 -0.27145954912850578 0.056034647356773062 0 -0.27057561992610318 0.050761903068758323 0 -0.27598203190406551 0.052648519396376693 0 -0.27057561992610318 0.050761903068758323 0 -0.26219195876152818 0.00075235321125272092 0 -0.24747936783635979 0.019387135744552111 0 -0.24108948540814429 0.0001228137568196347 0 -0.26219195876152818 0.00075235321125272092 0 -0.26638378934381512 0.025757128140005608 0 -0.24747936783635979 0.019387135744552111 0 -0.26219195876152818 0.00075235321125272092 0 -0.26638378934381512 0.025757128140005608 0 -0.26638378934381512 0.025757128140005608 0 -0.24747936783635979 0.019387135744552111 0 -0.2434840224862716 0.04130804526443832 0 -0.27576320070651361 0.033903421183028512 0 -0.26638378934381512 0.025757128140005608 0 -0.28286549406593958 0.016146860066302809 0 -0.26898680858242718 -0.004809513156808054 0 -0.28286549406593958 0.016146860066302809 0 -0.26898680858242718 -0.004809513156808054 0 -0.28499676550050229 -0.0019309530639492691 0 -0.28286549406593958 0.016146860066302809 0 -0.26898680858242718 -0.004809513156808054 0 -0.26219195876152818 0.00075235321125272092 0 -0.28286549406593958 0.016146860066302809 0 -0.26219195876152818 0.00075235321125272092 0 -0.26638378934381512 0.025757128140005608 0 -0.28286549406593958 0.016146860066302809 0 -0.28499676550050229 -0.0019309530639492691 0 -0.29252860209690912 0.0073895292923086501 0 -0.28286549406593958 0.016146860066302809 0 -0.28499676550050229 -0.0019309530639492691 0 -0.29743990844707258 -0.0030710653019683691 0 -0.29252860209690912 0.0073895292923086501 0 -0.29252860209690912 0.0073895292923086501 0 -0.29526651945739768 0.017375167997717711 0 -0.28286549406593958 0.016146860066302809 0 -0.29252860209690912 0.0073895292923086501 0 -0.29526651945739768 0.017375167997717711 0 -0.30207432301363329 0.0084276367634403687 0 -0.27576320070651361 0.033903421183028512 0 -0.28286549406593958 0.016146860066302809 0 -0.28625376210260989 0.034319521352042262 0 -0.28286549406593958 0.016146860066302809 0 -0.2967441795494522 0.037103233289413701 0 -0.29526651945739768 0.017375167997717711 0 -0.28286549406593958 0.016146860066302809 0 -0.2967441795494522 0.037103233289413701 0 -0.28286549406593958 0.016146860066302809 0 -0.28625376210260989 0.034319521352042262 0 -0.2967441795494522 0.037103233289413701 0 -0.29526651945739768 0.017375167997717711 0 -0.30457139272525019 0.02050736112087307 0 -0.2967441795494522 0.037103233289413701 0 -0.30457139272525019 0.02050736112087307 0 -0.2967441795494522 0.037103233289413701 0 -0.31960252026218539 0.01998846017542846 0 -0.2967441795494522 0.037103233289413701 0 -0.31567285750029961 0.033385719709882952 0 -0.31960252026218539 0.01998846017542846 0 -0.2967441795494522 0.037103233289413701 0 -0.31960252026218539 0.01998846017542846 0 -0.30457139272525019 0.02050736112087307 0 -0.31095837849857982 0.012484691747884189 0 -0.31960252026218539 0.01998846017542846 0 -0.29526651945739768 0.017375167997717711 0 -0.30457139272525019 0.02050736112087307 0 -0.30207432301363329 0.0084276367634403687 0 -0.30457139272525019 0.02050736112087307 0 -0.30207432301363329 0.0084276367634403687 0 -0.31095837849857982 0.012484691747884189 0 -0.31132612188382319 -0.0011984883802009631 0 -0.30207432301363329 0.0084276367634403687 0 -0.31095837849857982 0.012484691747884189 0 -0.29743990844707258 -0.0030710653019683691 0 -0.29252860209690912 0.0073895292923086501 0 -0.30207432301363329 0.0084276367634403687 0 -0.31132612188382319 -0.0011984883802009631 0 -0.29743990844707258 -0.0030710653019683691 0 -0.30207432301363329 0.0084276367634403687 0 -0.28103238827700322 0.054410886902276523 0 -0.29389886682116861 0.050704801677172028 0 -0.30172329745227933 0.061631166681629483 0 -0.28794478783017968 0.067074957580721628 0 -0.28103238827700322 0.054410886902276523 0 -0.30172329745227933 0.061631166681629483 0 -0.28103238827700322 0.054410886902276523 0 -0.30172329745227933 0.061631166681629483 0 -0.28103238827700322 0.054410886902276523 0 -0.28282116429750231 0.047527841536110269 0 -0.28103238827700322 0.054410886902276523 0 -0.29389886682116861 0.050704801677172028 0 -0.28282116429750231 0.047527841536110269 0 -0.27737845819442852 0.044125418538963047 0 -0.28282116429750231 0.047527841536110269 0 -0.28625376210260989 0.034319521352042262 0 -0.28282116429750231 0.047527841536110269 0 -0.28625376210260989 0.034319521352042262 0 -0.2967441795494522 0.037103233289413701 0 -0.28282116429750231 0.047527841536110269 0 -0.28625376210260989 0.034319521352042262 0 -0.28282116429750231 0.047527841536110269 0 -0.2967441795494522 0.037103233289413701 0 -0.29389886682116861 0.050704801677172028 0 -0.28282116429750231 0.047527841536110269 0 -0.2967441795494522 0.037103233289413701 0 -0.2967441795494522 0.037103233289413701 0 -0.30717330452960467 0.052850879976429802 0 -0.2967441795494522 0.037103233289413701 0 -0.30717330452960467 0.052850879976429802 0 -0.31567285750029961 0.033385719709882952 0 -0.29389886682116861 0.050704801677172028 0 -0.2967441795494522 0.037103233289413701 0 -0.30717330452960467 0.052850879976429802 0 -0.29389886682116861 0.050704801677172028 0 -0.30717330452960467 0.052850879976429802 0 -0.30172329745227933 0.061631166681629483 0 -0.30717330452960467 0.052850879976429802 0 -0.30172329745227933 0.061631166681629483 0 -0.30717330452960467 0.052850879976429802 0 -0.30172329745227933 0.061631166681629483 0 -0.31637402114390001 0.066743669139946921 0 -0.30717330452960467 0.052850879976429802 0 -0.31637402114390001 0.066743669139946921 0 -0.30717330452960467 0.052850879976429802 0 -0.32434262027711769 0.052794862462864398 0 -0.31637402114390001 0.066743669139946921 0 -0.32434262027711769 0.052794862462864398 0 -0.31952096862537022 0.03295805610259963 0 -0.33778111855861931 0.047035870624306857 0 -0.30717330452960467 0.052850879976429802 0 -0.32434262027711769 0.052794862462864398 0 -0.31952096862537022 0.03295805610259963 0 -0.30717330452960467 0.052850879976429802 0 -0.31567285750029961 0.033385719709882952 0 -0.31952096862537022 0.03295805610259963 0 -0.30717330452960467 0.052850879976429802 0 -0.31952096862537022 0.03295805610259963 0 -0.31567285750029961 0.033385719709882952 0 -0.31952096862537022 0.03295805610259963 0 -0.32289190621589231 0.02752727443751599 0 -0.31567285750029961 0.033385719709882952 0 -0.31952096862537022 0.03295805610259963 0 -0.31952096862537022 0.03295805610259963 0 -0.34951700997816643 0.02962441660200477 0 -0.31952096862537022 0.03295805610259963 0 -0.33778111855861931 0.047035870624306857 0 -0.34951700997816643 0.02962441660200477 0 -0.32434262027711769 0.052794862462864398 0 -0.33778111855861931 0.047035870624306857 0 -0.34061256539079082 0.064729164585506316 0 -0.32161918177025722 0.0064607347314644542 0 -0.31960252026218539 0.01998846017542846 0 -0.34246086097491812 0.002873687061442511 0 -0.31132612188382319 -0.0011984883802009631 0 -0.31095837849857982 0.012484691747884189 0 -0.32161918177025722 0.0064607347314644542 0 -0.31132612188382319 -0.0011984883802009631 0 -0.32497020850440511 -0.002694343940230548 0 -0.32161918177025722 0.0064607347314644542 0 -0.31095837849857982 0.012484691747884189 0 -0.32161918177025722 0.0064607347314644542 0 -0.31960252026218539 0.01998846017542846 0 -0.31960252026218539 0.01998846017542846 0 -0.32289190621589231 0.02752727443751599 0 -0.32970676417224271 0.020997171704672819 0 -0.31567285750029961 0.033385719709882952 0 -0.31960252026218539 0.01998846017542846 0 -0.32289190621589231 0.02752727443751599 0 -0.31952096862537022 0.03295805610259963 0 -0.32289190621589231 0.02752727443751599 0 -0.32289190621589231 0.02752727443751599 0 -0.33749012194741779 0.02103957864736276 0 -0.34631413619932411 0.026168983592362732 0 -0.31952096862537022 0.03295805610259963 0 -0.34631413619932411 0.026168983592362732 0 -0.34951700997816643 0.02962441660200477 0 -0.31952096862537022 0.03295805610259963 0 -0.32289190621589231 0.02752727443751599 0 -0.34631413619932411 0.026168983592362732 0 -0.33749012194741779 0.02103957864736276 0 -0.33513966236291898 0.015816207462863541 0 -0.34599244898559828 0.015453923848357649 0 -0.33749012194741779 0.02103957864736276 0 -0.34599244898559828 0.015453923848357649 0 -0.34631413619932411 0.026168983592362732 0 -0.31960252026218539 0.01998846017542846 0 -0.33513966236291898 0.015816207462863541 0 -0.32970676417224271 0.020997171704672819 0 -0.32289190621589231 0.02752727443751599 0 -0.33749012194741779 0.02103957864736276 0 -0.32970676417224271 0.020997171704672819 0 -0.33749012194741779 0.02103957864736276 0 -0.33513966236291898 0.015816207462863541 0 -0.32970676417224271 0.020997171704672819 0 -0.32497020850440511 -0.002694343940230548 0 -0.32161918177025722 0.0064607347314644542 0 -0.34246086097491812 0.002873687061442511 0 -0.31960252026218539 0.01998846017542846 0 -0.34246086097491812 0.002873687061442511 0 -0.31960252026218539 0.01998846017542846 0 -0.33513966236291898 0.015816207462863541 0 -0.34246086097491812 0.002873687061442511 0 -0.33513966236291898 0.015816207462863541 0 -0.34246086097491812 0.002873687061442511 0 -0.34599244898559828 0.015453923848357649 0 -0.36760158085974948 -0.004488683742273545 0 -0.34246086097491812 0.002873687061442511 0 -0.35961383093719429 0.012228698907688089 0 -0.34246086097491812 0.002873687061442511 0 -0.34599244898559828 0.015453923848357649 0 -0.35961383093719429 0.012228698907688089 0 -0.3550959572858583 0.021241133572589471 0 -0.34951700997816643 0.02962441660200477 0 -0.37088066758443761 0.027250145542840259 0 -0.34599244898559828 0.015453923848357649 0 -0.3550959572858583 0.021241133572589471 0 -0.35961383093719429 0.012228698907688089 0 -0.34599244898559828 0.015453923848357649 0 -0.3550959572858583 0.021241133572589471 0 -0.34631413619932411 0.026168983592362732 0 -0.3550959572858583 0.021241133572589471 0 -0.34631413619932411 0.026168983592362732 0 -0.34951700997816643 0.02962441660200477 0 -0.34631413619932411 0.026168983592362732 0 -0.34951700997816643 0.02962441660200477 0 -0.3550959572858583 0.021241133572589471 0 -0.37088066758443761 0.027250145542840259 0 -0.35961383093719429 0.012228698907688089 0 -0.34951700997816643 0.02962441660200477 0 -0.37088066758443761 0.027250145542840259 0 -0.37919678091065828 0.011999614278239489 0 -0.37088066758443761 0.027250145542840259 0 -0.35961383093719429 0.012228698907688089 0 -0.36760158085974948 -0.004488683742273545 0 -0.37919678091065828 0.011999614278239489 0 -0.35961383093719429 0.012228698907688089 0 -0.33778111855861931 0.047035870624306857 0 -0.35446700450307977 0.05532912934050143 0 -0.34061256539079082 0.064729164585506316 0 -0.33778111855861931 0.047035870624306857 0 -0.34951700997816643 0.02962441660200477 0 -0.35446700450307977 0.05532912934050143 0 -0.34951700997816643 0.02962441660200477 0 -0.36507151100287383 0.046405451385317847 0 -0.34951700997816643 0.02962441660200477 0 -0.35446700450307977 0.05532912934050143 0 -0.36507151100287383 0.046405451385317847 0 -0.34951700997816643 0.02962441660200477 0 -0.37088066758443761 0.027250145542840259 0 -0.36924661805120768 0.037213106877042379 0 -0.34951700997816643 0.02962441660200477 0 -0.36507151100287383 0.046405451385317847 0 -0.36924661805120768 0.037213106877042379 0 -0.38026370425951489 0.036089164097603703 0 -0.37088066758443761 0.027250145542840259 0 -0.36924661805120768 0.037213106877042379 0 -0.36507151100287383 0.046405451385317847 0 -0.36924661805120768 0.037213106877042379 0 -0.3719698696314967 0.04693496972601939 0 -0.38026370425951489 0.036089164097603703 0 -0.36924661805120768 0.037213106877042379 0 -0.3719698696314967 0.04693496972601939 0 -0.38062601202758201 0.063186486168630221 0 -0.36507151100287383 0.046405451385317847 0 -0.38062601202758201 0.063186486168630221 0 -0.36507151100287383 0.046405451385317847 0 -0.3719698696314967 0.04693496972601939 0 -0.38062601202758201 0.063186486168630221 0 -0.35446700450307977 0.05532912934050143 0 -0.36507151100287383 0.046405451385317847 0 -0.37558996584851528 0.08463692027173228 0 -0.38062601202758201 0.063186486168630221 0 -0.35414096154165398 0.070269536620984577 0 -0.38062601202758201 0.063186486168630221 0 -0.35446700450307977 0.05532912934050143 0 -0.35414096154165398 0.070269536620984577 0 -0.35446700450307977 0.05532912934050143 0 -0.35414096154165398 0.070269536620984577 0 -0.34061256539079082 0.064729164585506316 0 -0.35499941864474022 0.089306319591522229 0 -0.33440887144096532 0.093975718911313483 0 -0.35414096154165398 0.070269536620984577 0 -0.35499941864474022 0.089306319591522229 0 -0.3299428641489438 0.087232190085054701 0 -0.37558996584851528 0.08463692027173228 0 -0.35499941864474022 0.089306319591522229 0 -0.37558996584851528 0.08463692027173228 0 -0.35414096154165398 0.070269536620984577 0 -0.35499941864474022 0.089306319591522229 0 -0.37558996584851528 0.08463692027173228 0 -0.35499941864474022 0.089306319591522229 0 -0.36492535606380078 0.097411249297452596 0 -0.37558930984549621 0.1065588620034935 0 -0.36533483527957289 0.10936192491045239 0 -0.36492535606380078 0.097411249297452596 0 -0.36533483527957289 0.10936192491045239 0 -0.36492535606380078 0.097411249297452596 0 -0.35584156507286802 0.1090730822879192 0 -0.36533483527957289 0.10936192491045239 0 -0.3733223470021152 0.1196158063350172 0 -0.35694571185984808 0.1213129410944602 0 -0.37558930984549621 0.1065588620034935 0 -0.36533483527957289 0.10936192491045239 0 -0.3733223470021152 0.1196158063350172 0 -0.35694571185984808 0.1213129410944602 0 -0.34560397577228069 0.1122828572944346 0 -0.35584156507286802 0.1090730822879192 0 -0.36533483527957289 0.10936192491045239 0 -0.35694571185984808 0.1213129410944602 0 -0.35584156507286802 0.1090730822879192 0 -0.35694571185984808 0.1213129410944602 0 -0.34560397577228069 0.1122828572944346 0 -0.34234431772772778 0.1234734061386261 0 -0.36492535606380078 0.097411249297452596 0 -0.34939782491901072 0.1043435861576992 0 -0.34255045920655419 0.098853742440319789 0 -0.36492535606380078 0.097411249297452596 0 -0.34255045920655419 0.098853742440319789 0 -0.35499941864474022 0.089306319591522229 0 -0.36492535606380078 0.097411249297452596 0 -0.34255045920655419 0.098853742440319789 0 -0.35499941864474022 0.089306319591522229 0 -0.34255045920655419 0.098853742440319789 0 -0.33440887144096532 0.093975718911313483 0 -0.36492535606380078 0.097411249297452596 0 -0.35584156507286802 0.1090730822879192 0 -0.34939782491901072 0.1043435861576992 0 -0.34560397577228069 0.1122828572944346 0 -0.34939782491901072 0.1043435861576992 0 -0.34051713942317069 0.10319900909495799 0 -0.34560397577228069 0.1122828572944346 0 -0.35584156507286802 0.1090730822879192 0 -0.34939782491901072 0.1043435861576992 0 -0.34939782491901072 0.1043435861576992 0 -0.34255045920655419 0.098853742440319789 0 -0.34051713942317069 0.10319900909495799 0 -0.34051713942317069 0.10319900909495799 0 -0.33440887144096532 0.093975718911313483 0 -0.34255045920655419 0.098853742440319789 0 -0.34051713942317069 0.10319900909495799 0 -0.33440887144096532 0.093975718911313483 0 -0.34051713942317069 0.10319900909495799 0 -0.33406388932295111 0.1038205899649457 0 -0.33440887144096532 0.093975718911313483 0 -0.34051713942317069 0.10319900909495799 0 -0.33406388932295111 0.1038205899649457 0 -0.335129727151317 0.11206104689964019 0 -0.34560397577228069 0.1122828572944346 0 -0.34051713942317069 0.10319900909495799 0 -0.335129727151317 0.11206104689964019 0 -0.33406388932295111 0.1038205899649457 0 -0.335129727151317 0.11206104689964019 0 -0.32619981927635178 0.10604658495387249 0 -0.33406388932295111 0.1038205899649457 0 -0.33440887144096532 0.093975718911313483 0 -0.32619981927635178 0.10604658495387249 0 -0.32333759292258513 0.1256726980054412 0 -0.335129727151317 0.11206104689964019 0 -0.32619981927635178 0.10604658495387249 0 -0.32333759292258513 0.1256726980054412 0 -0.34234431772772778 0.1234734061386261 0 -0.335129727151317 0.11206104689964019 0 -0.34560397577228069 0.1122828572944346 0 -0.34234431772772778 0.1234734061386261 0 -0.335129727151317 0.11206104689964019 0 -0.32333759292258513 0.1256726980054412 0 -0.31275141586137162 0.11380250981165189 0 -0.32619981927635178 0.10604658495387249 0 -0.32333759292258513 0.1256726980054412 0 -0.30269462434898953 0.128928470670165 0 -0.31275141586137162 0.11380250981165189 0 -0.33440887144096532 0.093975718911313483 0 -0.3135868533911681 0.098697609784643259 0 -0.33440887144096532 0.093975718911313483 0 -0.32619981927635178 0.10604658495387249 0 -0.3135868533911681 0.098697609784643259 0 -0.31275141586137162 0.11380250981165189 0 -0.32619981927635178 0.10604658495387249 0 -0.3135868533911681 0.098697609784643259 0 -0.30770340624857029 0.082085903783926717 0 -0.31637402114390001 0.066743669139946921 0 -0.3299428641489438 0.087232190085054701 0 -0.33440887144096532 0.093975718911313483 0 -0.3135868533911681 0.098697609784643259 0 -0.3299428641489438 0.087232190085054701 0 -0.30770340624857029 0.082085903783926717 0 -0.3135868533911681 0.098697609784643259 0 -0.3299428641489438 0.087232190085054701 0 -0.3135868533911681 0.098697609784643259 0 -0.3299428641489438 0.087232190085054701 0 -0.31637402114390001 0.066743669139946921 0 -0.3299428641489438 0.087232190085054701 0 -0.32434262027711769 0.052794862462864398 0 -0.31637402114390001 0.066743669139946921 0 -0.32914640674794449 0.071200708544534114 0 -0.31637402114390001 0.066743669139946921 0 -0.32914640674794449 0.071200708544534114 0 -0.3299428641489438 0.087232190085054701 0 -0.31637402114390001 0.066743669139946921 0 -0.32914640674794449 0.071200708544534114 0 -0.32914640674794449 0.071200708544534114 0 -0.34061256539079082 0.064729164585506316 0 -0.3299428641489438 0.087232190085054701 0 -0.35414096154165398 0.070269536620984577 0 -0.34061256539079082 0.064729164585506316 0 -0.3299428641489438 0.087232190085054701 0 -0.32434262027711769 0.052794862462864398 0 -0.32914640674794449 0.071200708544534114 0 -0.34061256539079082 0.064729164585506316 0 -0.35414096154165398 0.070269536620984577 0 -0.3299428641489438 0.087232190085054701 0 -0.35499941864474022 0.089306319591522229 0 -0.33440887144096532 0.093975718911313483 0 -0.3299428641489438 0.087232190085054701 0 -0.33440887144096532 0.093975718911313483 0 -0.3299428641489438 0.087232190085054701 0 -0.39489299170277509 0.47455012033027921 0 -0.38556188426203208 0.5 0 -0.4133676430502744 0.5 0 -0.39489299170277509 0.47455012033027921 0 -0.38556188426203208 0.5 0 -0.36405067062163232 0.48028926433953512 0 -0.39489299170277509 0.47455012033027921 0 -0.37175587269468641 0.45991955253372813 0 -0.36405067062163232 0.48028926433953512 0 -0.39489299170277509 0.47455012033027921 0 -0.39071884002075558 0.44910627578763163 0 -0.37175587269468641 0.45991955253372813 0 -0.37538081396359169 0.43982484532242078 0 -0.39071884002075558 0.44910627578763163 0 -0.38882753234256129 0.43192816712441617 0 -0.37538081396359169 0.43982484532242078 0 -0.39071884002075558 0.44910627578763163 0 -0.37175587269468641 0.45991955253372813 0 -0.39071884002075558 0.44910627578763163 0 -0.40055593987219612 0.433462545915345 0 -0.38882753234256129 0.43192816712441617 0 -0.39071884002075558 0.44910627578763163 0 -0.41409509386096982 0.45564169727689602 0 -0.40055593987219612 0.433462545915345 0 -0.39489299170277509 0.47455012033027921 0 -0.39071884002075558 0.44910627578763163 0 -0.41409509386096982 0.45564169727689602 0 -0.41409509386096982 0.45564169727689602 0 -0.42763424784974358 0.47782084863844693 0 -0.44646904861131792 0.46167976462988569 0 -0.41409509386096982 0.45564169727689602 0 -0.43486093393488939 0.44351644011633068 0 -0.44646904861131792 0.46167976462988569 0 -0.41409509386096982 0.45564169727689602 0 -0.42763424784974358 0.47782084863844693 0 -0.41409509386096982 0.45564169727689602 0 -0.40055593987219612 0.433462545915345 0 -0.41409509386096982 0.45564169727689602 0 -0.41861165440804138 0.43766255437953272 0 -0.40055593987219612 0.433462545915345 0 -0.41409509386096982 0.45564169727689602 0 -0.41861165440804138 0.43766255437953272 0 -0.43486093393488939 0.44351644011633068 0 -0.39489299170277509 0.47455012033027921 0 -0.42763424784974358 0.47782084863844693 0 -0.4133676430502744 0.5 0 -0.39489299170277509 0.47455012033027921 0 -0.41409509386096982 0.45564169727689602 0 -0.42763424784974358 0.47782084863844693 0 -0.42763424784974358 0.47782084863844693 0 -0.44117340183851661 0.49999999999999822 0 -0.42763424784974358 0.47782084863844693 0 -0.4133676430502744 0.5 0 -0.44117340183851661 0.49999999999999822 0 -0.44117340183851661 0.49999999999999822 0 -0.44906353612911992 0.48156434098680928 0 -0.46645574522790079 0.5 0 -0.42763424784974358 0.47782084863844693 0 -0.44117340183851661 0.49999999999999822 0 -0.44906353612911992 0.48156434098680928 0 -0.42763424784974358 0.47782084863844693 0 -0.44906353612911992 0.48156434098680928 0 -0.44646904861131792 0.46167976462988569 0 -0.4691035686143018 0.48083988231494179 0 -0.44646904861131792 0.46167976462988569 0 -0.44906353612911992 0.48156434098680928 0 -0.4691035686143018 0.48083988231494179 0 -0.44646904861131792 0.46167976462988569 0 -0.44906353612911992 0.48156434098680928 0 -0.46645574522790079 0.5 0 -0.4691035686143018 0.48083988231494179 0 -0.4691035686143018 0.48083988231494179 0 -0.49173808861728507 0.49999999999999861 0 -0.46645574522790079 0.5 0 -0.4691035686143018 0.48083988231494179 0 -0.49173808861728507 0.49999999999999861 0 -0.4691035686143018 0.48083988231494179 0 -0.48677721820737802 0.47779699692455541 0 -0.49173808861728507 0.49999999999999861 0 -0.48677721820737802 0.47779699692455541 0 -0.5 0.5 0 -0.5 0.4528103964209238 0 -0.4691035686143018 0.48083988231494179 0 -0.48677721820737802 0.47779699692455541 0 -0.47304443380530309 0.45533470588691138 0 -0.48677721820737802 0.47779699692455541 0 -0.5 0.5 0 -0.49173808861728507 0.49999999999999861 0 -0.5 0.4528103964209238 0 -0.47304443380530309 0.45533470588691138 0 -0.48394378969843699 0.43665819720796978 0 -0.48677721820737802 0.47779699692455541 0 -0.5 0.4528103964209238 0 -0.47304443380530309 0.45533470588691138 0 -0.47304443380530309 0.45533470588691138 0 -0.45609134640560911 0.4403868251042925 0 -0.48394378969843699 0.43665819720796978 0 -0.47304443380530309 0.45533470588691138 0 -0.45609134640560911 0.4403868251042925 0 -0.44646904861131792 0.46167976462988569 0 -0.4691035686143018 0.48083988231494179 0 -0.47304443380530309 0.45533470588691138 0 -0.44646904861131792 0.46167976462988569 0 -0.43486093393488939 0.44351644011633068 0 -0.45609134640560911 0.4403868251042925 0 -0.44646904861131792 0.46167976462988569 0 -0.43486093393488939 0.44351644011633068 0 -0.45609134640560911 0.4403868251042925 0 -0.43903752638850868 0.4222113591910468 0 -0.43903752638850868 0.4222113591910468 0 -0.45417713113482239 0.40762594837423222 0 -0.43832041546479977 0.40172222871594648 0 -0.43903752638850868 0.4222113591910468 0 -0.45417713113482239 0.40762594837423222 0 -0.46909446082783007 0.42259972000684431 0 -0.45417713113482239 0.40762594837423222 0 -0.46909446082783007 0.42259972000684431 0 -0.46954520695370611 0.40810500502147162 0 -0.45609134640560911 0.4403868251042925 0 -0.43903752638850868 0.4222113591910468 0 -0.46909446082783007 0.42259972000684431 0 -0.43903752638850868 0.4222113591910468 0 -0.46909446082783007 0.42259972000684431 0 -0.48394378969843699 0.43665819720796978 0 -0.46909446082783007 0.42259972000684431 0 -0.49999999999999989 0.42298808082264178 0 -0.45609134640560911 0.4403868251042925 0 -0.48394378969843699 0.43665819720796978 0 -0.46909446082783007 0.42259972000684431 0 -0.48337108485897029 0.40874115168257902 0 -0.49999999999999989 0.42298808082264178 0 -0.49999999999999989 0.38943661929146972 0 -0.46909446082783007 0.42259972000684431 0 -0.48337108485897029 0.40874115168257902 0 -0.49999999999999989 0.42298808082264178 0 -0.46909446082783007 0.42259972000684431 0 -0.46954520695370611 0.40810500502147162 0 -0.48337108485897029 0.40874115168257902 0 -0.46909446082783007 0.42259972000684431 0 -0.49999999999999989 0.42298808082264178 0 -0.5 0.4528103964209238 0 -0.48394378969843699 0.43665819720796978 0 -0.49999999999999989 0.42298808082264178 0 -0.49999999999999989 0.38943661929146972 0 -0.47182424415338292 0.3855749284122218 0 -0.48699427047412891 0.37424226404452038 0 -0.49999999999999989 0.38943661929146972 0 -0.47182424415338292 0.3855749284122218 0 -0.48337108485897029 0.40874115168257902 0 -0.49999999999999989 0.38943661929146972 0 -0.47030624059692822 0.39479509475575042 0 -0.46954520695370611 0.40810500502147162 0 -0.48337108485897029 0.40874115168257902 0 -0.47030624059692822 0.39479509475575042 0 -0.47030624059692822 0.39479509475575042 0 -0.47182424415338292 0.3855749284122218 0 -0.46558438103991601 0.39165358422976709 0 -0.47030624059692822 0.39479509475575042 0 -0.47182424415338292 0.3855749284122218 0 -0.49999999999999989 0.38943661929146972 0 -0.47030624059692822 0.39479509475575042 0 -0.47182424415338292 0.3855749284122218 0 -0.47182424415338292 0.3855749284122218 0 -0.45402564786071359 0.37358804916444471 0 -0.46548331890984662 0.37022020494876989 0 -0.47182424415338292 0.3855749284122218 0 -0.45916914084298688 0.38822644340192108 0 -0.44769413258793123 0.38226772230727202 0 -0.47182424415338292 0.3855749284122218 0 -0.44769413258793123 0.38226772230727202 0 -0.47182424415338292 0.3855749284122218 0 -0.44769413258793123 0.38226772230727202 0 -0.45402564786071359 0.37358804916444471 0 -0.47182424415338292 0.3855749284122218 0 -0.45916914084298688 0.38822644340192108 0 -0.46558438103991601 0.39165358422976709 0 -0.45417713113482239 0.40762594837423222 0 -0.46954520695370611 0.40810500502147162 0 -0.46103789856636601 0.39801787034917507 0 -0.46954520695370611 0.40810500502147162 0 -0.47030624059692822 0.39479509475575042 0 -0.46103789856636601 0.39801787034917507 0 -0.45916914084298688 0.38822644340192108 0 -0.46103789856636601 0.39801787034917507 0 -0.46558438103991601 0.39165358422976709 0 -0.47030624059692822 0.39479509475575042 0 -0.46103789856636601 0.39801787034917507 0 -0.46558438103991601 0.39165358422976709 0 -0.45916914084298688 0.38822644340192108 0 -0.46103789856636601 0.39801787034917507 0 -0.44994319180787978 0.39461520911011311 0 -0.45417713113482239 0.40762594837423222 0 -0.46103789856636601 0.39801787034917507 0 -0.44994319180787978 0.39461520911011311 0 -0.45417713113482239 0.40762594837423222 0 -0.44994319180787978 0.39461520911011311 0 -0.43832041546479977 0.40172222871594648 0 -0.44994319180787978 0.39461520911011311 0 -0.43832041546479977 0.40172222871594648 0 -0.43734081087181848 0.38978642170248379 0 -0.44769413258793123 0.38226772230727202 0 -0.43730482272815069 0.37321961231913447 0 -0.45402564786071359 0.37358804916444471 0 -0.45916914084298688 0.38822644340192108 0 -0.44994319180787978 0.39461520911011311 0 -0.44769413258793123 0.38226772230727202 0 -0.44994319180787978 0.39461520911011311 0 -0.44769413258793123 0.38226772230727202 0 -0.43734081087181848 0.38978642170248379 0 -0.44769413258793123 0.38226772230727202 0 -0.42356402102247959 0.37896051620232157 0 -0.44769413258793123 0.38226772230727202 0 -0.43734081087181848 0.38978642170248379 0 -0.42356402102247959 0.37896051620232157 0 -0.44769413258793123 0.38226772230727202 0 -0.42356402102247959 0.37896051620232157 0 -0.43730482272815069 0.37321961231913447 0 -0.43734081087181848 0.38978642170248379 0 -0.42356402102247959 0.37896051620232157 0 -0.4258382157122288 0.3939679342110089 0 -0.42356402102247959 0.37896051620232157 0 -0.40904366876005721 0.39357121109795551 0 -0.39943390945702789 0.37565331009737118 0 -0.42356402102247959 0.37896051620232157 0 -0.39943390945702789 0.37565331009737118 0 -0.42356402102247959 0.37896051620232157 0 -0.40904366876005721 0.39357121109795551 0 -0.4258382157122288 0.3939679342110089 0 -0.40904366876005721 0.39357121109795551 0 -0.42092216244198882 0.40579929333633702 0 -0.4258382157122288 0.3939679342110089 0 -0.40904366876005721 0.39357121109795551 0 -0.42092216244198882 0.40579929333633702 0 -0.40866528556994808 0.40655697943653818 0 -0.43832041546479977 0.40172222871594648 0 -0.42092216244198882 0.40579929333633702 0 -0.4258382157122288 0.3939679342110089 0 -0.43832041546479977 0.40172222871594648 0 -0.43734081087181848 0.38978642170248379 0 -0.4258382157122288 0.3939679342110089 0 -0.43903752638850868 0.4222113591910468 0 -0.42092216244198882 0.40579929333633702 0 -0.40898059194918729 0.42182299837524928 0 -0.43903752638850868 0.4222113591910468 0 -0.43832041546479977 0.40172222871594648 0 -0.42092216244198882 0.40579929333633702 0 -0.41861165440804138 0.43766255437953272 0 -0.43903752638850868 0.4222113591910468 0 -0.40898059194918729 0.42182299837524928 0 -0.41861165440804138 0.43766255437953272 0 -0.43486093393488939 0.44351644011633068 0 -0.43903752638850868 0.4222113591910468 0 -0.43903752638850868 0.4222113591910468 0 -0.40898059194918729 0.42182299837524928 0 -0.41861165440804138 0.43766255437953272 0 -0.40898059194918729 0.42182299837524928 0 -0.40055593987219612 0.433462545915345 0 -0.42092216244198882 0.40579929333633702 0 -0.40898059194918729 0.42182299837524928 0 -0.40866528556994808 0.40655697943653818 0 -0.40898059194918729 0.42182299837524928 0 -0.40866528556994808 0.40655697943653818 0 -0.39571471912855899 0.40503441493661119 0 -0.40898059194918729 0.42182299837524928 0 -0.37892365750986601 0.42143463755945182 0 -0.40898059194918729 0.42182299837524928 0 -0.37892365750986601 0.42143463755945182 0 -0.39571471912855899 0.40503441493661119 0 -0.40898059194918729 0.42182299837524928 0 -0.38882753234256129 0.43192816712441617 0 -0.37892365750986601 0.42143463755945182 0 -0.40898059194918729 0.42182299837524928 0 -0.40055593987219612 0.433462545915345 0 -0.38882753234256129 0.43192816712441617 0 -0.37538081396359169 0.43982484532242078 0 -0.38882753234256129 0.43192816712441617 0 -0.37892365750986601 0.42143463755945182 0 -0.37892365750986601 0.42143463755945182 0 -0.37574485273575192 0.40100363198788119 0 -0.39571471912855899 0.40503441493661119 0 -0.37574485273575192 0.40100363198788119 0 -0.39571471912855899 0.40503441493661119 0 -0.37574485273575192 0.40100363198788119 0 -0.38851953333458128 0.38919766825539143 0 -0.39571471912855899 0.40503441493661119 0 -0.37574485273575192 0.40100363198788119 0 -0.38851953333458128 0.38919766825539143 0 -0.37103411106942352 0.37285810611397929 0 -0.38851953333458128 0.38919766825539143 0 -0.39943390945702789 0.37565331009737118 0 -0.37103411106942352 0.37285810611397929 0 -0.40904366876005721 0.39357121109795551 0 -0.38851953333458128 0.38919766825539143 0 -0.39943390945702789 0.37565331009737118 0 -0.40904366876005721 0.39357121109795551 0 -0.38851953333458128 0.38919766825539143 0 -0.39571471912855899 0.40503441493661119 0 -0.40904366876005721 0.39357121109795551 0 -0.40866528556994808 0.40655697943653818 0 -0.39571471912855899 0.40503441493661119 0 -0.39023237312745201 0.35776202772306298 0 -0.40843151781898912 0.34595955817796481 0 -0.41335588660269451 0.36375840173745649 0 -0.39023237312745201 0.35776202772306298 0 -0.38598293812771178 0.34498203859092208 0 -0.40843151781898912 0.34595955817796481 0 -0.39943390945702789 0.37565331009737118 0 -0.39023237312745201 0.35776202772306298 0 -0.41335588660269451 0.36375840173745649 0 -0.39943390945702789 0.37565331009737118 0 -0.39023237312745201 0.35776202772306298 0 -0.37103411106942352 0.37285810611397929 0 -0.39023237312745201 0.35776202772306298 0 -0.37197010723877211 0.35178857060051533 0 -0.37103411106942352 0.37285810611397929 0 -0.39023237312745201 0.35776202772306298 0 -0.38598293812771178 0.34498203859092208 0 -0.37197010723877211 0.35178857060051533 0 -0.38598293812771178 0.34498203859092208 0 -0.37364623965521909 0.33725472376834259 0 -0.37197010723877211 0.35178857060051533 0 -0.38598293812771178 0.34498203859092208 0 -0.3856344527981268 0.3321453126847248 0 -0.37364623965521909 0.33725472376834259 0 -0.3856344527981268 0.3321453126847248 0 -0.37486932739658901 0.32791068817876412 0 -0.37364623965521909 0.33725472376834259 0 -0.3811898693172851 0.31891116270078651 0 -0.37960688551718907 0.3118567167260593 0 -0.36675995067273642 0.32190399008444642 0 -0.3811898693172851 0.31891116270078651 0 -0.38687483605579182 0.31020397474263289 0 -0.37960688551718907 0.3118567167260593 0 -0.3856344527981268 0.3321453126847248 0 -0.3811898693172851 0.31891116270078651 0 -0.37486932739658901 0.32791068817876412 0 -0.3856344527981268 0.3321453126847248 0 -0.3811898693172851 0.31891116270078651 0 -0.39177725719143358 0.31959447829832399 0 -0.3811898693172851 0.31891116270078651 0 -0.39177725719143358 0.31959447829832399 0 -0.38687483605579182 0.31020397474263289 0 -0.40557352250745582 0.3267020959359046 0 -0.39177725719143358 0.31959447829832399 0 -0.39820804030055162 0.30836532487037699 0 -0.3856344527981268 0.3321453126847248 0 -0.40557352250745582 0.3267020959359046 0 -0.39177725719143358 0.31959447829832399 0 -0.40557352250745582 0.3267020959359046 0 -0.41347883284948678 0.31191254886300351 0 -0.39820804030055162 0.30836532487037699 0 -0.39177725719143358 0.31959447829832399 0 -0.39820804030055162 0.30836532487037699 0 -0.38687483605579182 0.31020397474263289 0 -0.3856344527981268 0.3321453126847248 0 -0.40843151781898912 0.34595955817796481 0 -0.38598293812771178 0.34498203859092208 0 -0.3856344527981268 0.3321453126847248 0 -0.40843151781898912 0.34595955817796481 0 -0.3856344527981268 0.3321453126847248 0 -0.40557352250745582 0.3267020959359046 0 -0.40843151781898912 0.34595955817796481 0 -0.40557352250745582 0.3267020959359046 0 -0.42781497981311628 0.33276291431159399 0 -0.40843151781898912 0.34595955817796481 0 -0.40557352250745582 0.3267020959359046 0 -0.42781497981311628 0.33276291431159399 0 -0.41347883284948678 0.31191254886300351 0 -0.42781497981311628 0.33276291431159399 0 -0.43115063472496262 0.31049125041674158 0 -0.41347883284948678 0.31191254886300351 0 -0.42781497981311628 0.33276291431159399 0 -0.44915629966393722 0.32239810121082152 0 -0.43115063472496262 0.31049125041674158 0 -0.42781497981311628 0.33276291431159399 0 -0.40843151781898912 0.34595955817796481 0 -0.43122858283985133 0.35977380367120471 0 -0.40843151781898912 0.34595955817796481 0 -0.43122858283985133 0.35977380367120471 0 -0.40843151781898912 0.34595955817796481 0 -0.41335588660269451 0.36375840173745649 0 -0.43122858283985133 0.35977380367120471 0 -0.42356402102247959 0.37896051620232157 0 -0.39943390945702789 0.37565331009737118 0 -0.41335588660269451 0.36375840173745649 0 -0.42356402102247959 0.37896051620232157 0 -0.43730482272815069 0.37321961231913447 0 -0.43122858283985133 0.35977380367120471 0 -0.42356402102247959 0.37896051620232157 0 -0.41335588660269451 0.36375840173745649 0 -0.43122858283985133 0.35977380367120471 0 -0.43730482272815069 0.37321961231913447 0 -0.43122858283985133 0.35977380367120471 0 -0.45402564786071359 0.37358804916444471 0 -0.43122858283985133 0.35977380367120471 0 -0.45402564786071359 0.37358804916444471 0 -0.43122858283985133 0.35977380367120471 0 -0.44964025164253812 0.36130093468917301 0 -0.45402564786071359 0.37358804916444471 0 -0.43122858283985133 0.35977380367120471 0 -0.44964025164253812 0.36130093468917301 0 -0.45348146315186078 0.34876845535940099 0 -0.42781497981311628 0.33276291431159399 0 -0.43122858283985133 0.35977380367120471 0 -0.45348146315186078 0.34876845535940099 0 -0.45348146315186078 0.34876845535940099 0 -0.45982531271772659 0.36307343056164137 0 -0.47625807090756361 0.35864441165677191 0 -0.45348146315186078 0.34876845535940099 0 -0.47625807090756361 0.35864441165677191 0 -0.46254259565397288 0.33299111900149431 0 -0.44964025164253812 0.36130093468917301 0 -0.45348146315186078 0.34876845535940099 0 -0.45982531271772659 0.36307343056164137 0 -0.45982531271772659 0.36307343056164137 0 -0.46548331890984662 0.37022020494876989 0 -0.47625807090756361 0.35864441165677191 0 -0.45402564786071359 0.37358804916444471 0 -0.45982531271772659 0.36307343056164137 0 -0.46548331890984662 0.37022020494876989 0 -0.44964025164253812 0.36130093468917301 0 -0.45402564786071359 0.37358804916444471 0 -0.45982531271772659 0.36307343056164137 0 -0.47182424415338292 0.3855749284122218 0 -0.47625807090756361 0.35864441165677191 0 -0.47182424415338292 0.3855749284122218 0 -0.47625807090756361 0.35864441165677191 0 -0.48699427047412891 0.37424226404452038 0 -0.47182424415338292 0.3855749284122218 0 -0.46548331890984662 0.37022020494876989 0 -0.47625807090756361 0.35864441165677191 0 -0.47625807090756361 0.35864441165677191 0 -0.48069189766174419 0.33171389490132203 0 -0.47625807090756361 0.35864441165677191 0 -0.48923749214232692 0.34559014748012429 0 -0.48069189766174419 0.33171389490132203 0 -0.47625807090756361 0.35864441165677191 0 -0.48923749214232692 0.34559014748012429 0 -0.5 0.3604796342179577 0 -0.48923749214232692 0.34559014748012429 0 -0.5 0.3604796342179577 0 -0.5 0.33152264914444579 0 -0.47625807090756361 0.35864441165677191 0 -0.5 0.3604796342179577 0 -0.48699427047412891 0.37424226404452038 0 -0.49999999999999989 0.38943661929146972 0 -0.5 0.3604796342179577 0 -0.48699427047412891 0.37424226404452038 0 -0.49022545486711488 0.31945324508908512 0 -0.48069189766174419 0.33171389490132203 0 -0.48512572441592489 0.30478337814587192 0 -0.49022545486711488 0.31945324508908512 0 -0.5 0.33152264914444579 0 -0.48069189766174419 0.33171389490132203 0 -0.49022545486711488 0.31945324508908512 0 -0.5 0.33152264914444579 0 -0.5 0.30256566407093383 0 -0.48923749214232692 0.34559014748012429 0 -0.5 0.33152264914444579 0 -0.48069189766174419 0.33171389490132203 0 -0.47625807090756361 0.35864441165677191 0 -0.48069189766174419 0.33171389490132203 0 -0.46254259565397288 0.33299111900149431 0 -0.48069189766174419 0.33171389490132203 0 -0.46889257864627432 0.31594101106140171 0 -0.48512572441592489 0.30478337814587192 0 -0.48069189766174419 0.33171389490132203 0 -0.48512572441592489 0.30478337814587192 0 -0.48069189766174419 0.33171389490132203 0 -0.46889257864627432 0.31594101106140171 0 -0.46254259565397288 0.33299111900149431 0 -0.46889257864627432 0.31594101106140171 0 -0.46254259565397288 0.33299111900149431 0 -0.44915629966393722 0.32239810121082152 0 -0.46889257864627432 0.31594101106140171 0 -0.44915629966393722 0.32239810121082152 0 -0.45857374220865033 0.30780460618625177 0 -0.45348146315186078 0.34876845535940099 0 -0.46254259565397288 0.33299111900149431 0 -0.44915629966393722 0.32239810121082152 0 -0.42781497981311628 0.33276291431159399 0 -0.45348146315186078 0.34876845535940099 0 -0.44915629966393722 0.32239810121082152 0 -0.44915629966393722 0.32239810121082152 0 -0.44683022947601481 0.29929709142479072 0 -0.45857374220865033 0.30780460618625177 0 -0.44915629966393722 0.32239810121082152 0 -0.44683022947601481 0.29929709142479072 0 -0.43115063472496262 0.31049125041674158 0 -0.44683022947601481 0.29929709142479072 0 -0.459332408612943 0.27553217650976908 0 -0.44223118813430379 0.27338001189733507 0 -0.44683022947601481 0.29929709142479072 0 -0.44223118813430379 0.27338001189733507 0 -0.42948471824876022 0.28617070103850778 0 -0.46879444501416723 0.29624334207122222 0 -0.459332408612943 0.27553217650976908 0 -0.44683022947601481 0.29929709142479072 0 -0.46879444501416723 0.29624334207122222 0 -0.459332408612943 0.27553217650976908 0 -0.46879444501416723 0.29624334207122222 0 -0.47591555847566558 0.28469431878273338 0 -0.459332408612943 0.27553217650976908 0 -0.44683022947601481 0.29929709142479072 0 -0.45857374220865033 0.30780460618625177 0 -0.46879444501416723 0.29624334207122222 0 -0.46889257864627432 0.31594101106140171 0 -0.45857374220865033 0.30780460618625177 0 -0.46879444501416723 0.29624334207122222 0 -0.46889257864627432 0.31594101106140171 0 -0.46879444501416723 0.29624334207122222 0 -0.48512572441592489 0.30478337814587192 0 -0.47591555847566558 0.28469431878273338 0 -0.48512572441592489 0.30478337814587192 0 -0.48955955117010569 0.27785286139042192 0 -0.46879444501416723 0.29624334207122222 0 -0.47591555847566558 0.28469431878273338 0 -0.48512572441592489 0.30478337814587192 0 -0.48512572441592489 0.30478337814587192 0 -0.48955955117010569 0.27785286139042192 0 -0.48512572441592489 0.30478337814587192 0 -0.5 0.30256566407093383 0 -0.48955955117010569 0.27785286139042192 0 -0.5 0.30256566407093383 0 -0.5 0.27360867899742181 0 -0.48955955117010569 0.27785286139042192 0 -0.49022545486711488 0.31945324508908512 0 -0.48512572441592489 0.30478337814587192 0 -0.5 0.30256566407093383 0 -0.4999999999999975 0.24465169392391009 0 -0.49038037276704011 0.25557132441729552 0 -0.5 0.27360867899742181 0 -0.49038037276704011 0.25557132441729552 0 -0.5 0.27360867899742181 0 -0.4872694196427001 0.26568599470947568 0 -0.49038037276704011 0.25557132441729552 0 -0.4872694196427001 0.26568599470947568 0 -0.47874644332747068 0.25510029245731491 0 -0.48409586529763748 0.2443360010212681 0 -0.49038037276704011 0.25557132441729552 0 -0.47874644332747068 0.25510029245731491 0 -0.5 0.27360867899742181 0 -0.48955955117010569 0.27785286139042192 0 -0.4872694196427001 0.26568599470947568 0 -0.48955955117010569 0.27785286139042192 0 -0.4872694196427001 0.26568599470947568 0 -0.47676566316518648 0.26905983579638182 0 -0.47591555847566558 0.28469431878273338 0 -0.48955955117010569 0.27785286139042192 0 -0.47676566316518648 0.26905983579638182 0 -0.47591555847566558 0.28469431878273338 0 -0.47676566316518648 0.26905983579638182 0 -0.459332408612943 0.27553217650976908 0 -0.47676566316518648 0.26905983579638182 0 -0.47874644332747068 0.25510029245731491 0 -0.46578519863329582 0.25659275838981482 0 -0.4872694196427001 0.26568599470947568 0 -0.47676566316518648 0.26905983579638182 0 -0.47874644332747068 0.25510029245731491 0 -0.47140919036984552 0.24324699533267899 0 -0.47874644332747068 0.25510029245731491 0 -0.46578519863329582 0.25659275838981482 0 -0.459332408612943 0.27553217650976908 0 -0.44987037221171883 0.25482101094831611 0 -0.45858711411261111 0.2417962392944282 0 -0.46578519863329582 0.25659275838981482 0 -0.44987037221171883 0.25482101094831611 0 -0.46578519863329582 0.25659275838981482 0 -0.459332408612943 0.27553217650976908 0 -0.44987037221171883 0.25482101094831611 0 -0.47676566316518648 0.26905983579638182 0 -0.46578519863329582 0.25659275838981482 0 -0.459332408612943 0.27553217650976908 0 -0.459332408612943 0.27553217650976908 0 -0.44223118813430379 0.27338001189733507 0 -0.44987037221171883 0.25482101094831611 0 -0.44223118813430379 0.27338001189733507 0 -0.44987037221171883 0.25482101094831611 0 -0.42936932043256382 0.26465243768367192 0 -0.43535073689811121 0.24802721624926291 0 -0.44987037221171883 0.25482101094831611 0 -0.42936932043256382 0.26465243768367192 0 -0.43535073689811121 0.24802721624926291 0 -0.42936932043256382 0.26465243768367192 0 -0.42372073458691062 0.25401258507241897 0 -0.41043671487978012 0.24813903361116141 0 -0.42198451048501912 0.24165410790607419 0 -0.40817837053194839 0.2617165784506672 0 -0.42198451048501912 0.24165410790607419 0 -0.42372073458691062 0.25401258507241897 0 -0.40817837053194839 0.2617165784506672 0 -0.42936932043256382 0.26465243768367192 0 -0.42372073458691062 0.25401258507241897 0 -0.40817837053194839 0.2617165784506672 0 -0.42198451048501912 0.24165410790607419 0 -0.40817837053194839 0.2617165784506672 0 -0.42936932043256382 0.26465243768367192 0 -0.40817837053194839 0.2617165784506672 0 -0.41463770205689571 0.27740801226235129 0 -0.42936932043256382 0.26465243768367192 0 -0.41463770205689571 0.27740801226235129 0 -0.42948471824876022 0.28617070103850778 0 -0.44223118813430379 0.27338001189733507 0 -0.42936932043256382 0.26465243768367192 0 -0.42948471824876022 0.28617070103850778 0 -0.42948471824876022 0.28617070103850778 0 -0.43115063472496262 0.31049125041674158 0 -0.41178387049232829 0.29272129514364931 0 -0.44683022947601481 0.29929709142479072 0 -0.42948471824876022 0.28617070103850778 0 -0.43115063472496262 0.31049125041674158 0 -0.43115063472496262 0.31049125041674158 0 -0.41347883284948678 0.31191254886300351 0 -0.41178387049232829 0.29272129514364931 0 -0.41347883284948678 0.31191254886300351 0 -0.41178387049232829 0.29272129514364931 0 -0.39820804030055162 0.30836532487037699 0 -0.41463770205689571 0.27740801226235129 0 -0.41178387049232829 0.29272129514364931 0 -0.39437223057887771 0.2817790489952603 0 -0.41463770205689571 0.27740801226235129 0 -0.42948471824876022 0.28617070103850778 0 -0.41178387049232829 0.29272129514364931 0 -0.41178387049232829 0.29272129514364931 0 -0.39270713155227699 0.29541483336055979 0 -0.39437223057887771 0.2817790489952603 0 -0.41178387049232829 0.29272129514364931 0 -0.39270713155227699 0.29541483336055979 0 -0.39820804030055162 0.30836532487037699 0 -0.39270713155227699 0.29541483336055979 0 -0.39820804030055162 0.30836532487037699 0 -0.38821120514386698 0.30365150308844829 0 -0.39820804030055162 0.30836532487037699 0 -0.38687483605579182 0.31020397474263289 0 -0.38821120514386698 0.30365150308844829 0 -0.38056609062580699 0.30184151953985328 0 -0.37960688551718907 0.3118567167260593 0 -0.36675995067273642 0.32190399008444642 0 -0.38687483605579182 0.31020397474263289 0 -0.3838147543356637 0.30688842852424852 0 -0.37960688551718907 0.3118567167260593 0 -0.38687483605579182 0.31020397474263289 0 -0.3838147543356637 0.30688842852424852 0 -0.38821120514386698 0.30365150308844829 0 -0.39270713155227699 0.29541483336055979 0 -0.38821120514386698 0.30365150308844829 0 -0.38056609062580699 0.30184151953985328 0 -0.3838147543356637 0.30688842852424852 0 -0.38821120514386698 0.30365150308844829 0 -0.38056609062580699 0.30184151953985328 0 -0.37702319674223472 0.30038153216959818 0 -0.37660916402755878 0.29641208408479458 0 -0.37335978936544573 0.30007870569940459 0 -0.37702319674223472 0.30038153216959818 0 -0.38056609062580699 0.30184151953985328 0 -0.37660916402755878 0.29641208408479458 0 -0.37702319674223472 0.30038153216959818 0 -0.37755774295012728 0.30319381935434009 0 -0.37335978936544573 0.30007870569940459 0 -0.37702319674223472 0.30038153216959818 0 -0.37755774295012728 0.30319381935434009 0 -0.38056609062580699 0.30184151953985328 0 -0.3838147543356637 0.30688842852424852 0 -0.38056609062580699 0.30184151953985328 0 -0.37960688551718907 0.3118567167260593 0 -0.39437223057887771 0.2817790489952603 0 -0.38056609062580699 0.30184151953985328 0 -0.39270713155227699 0.29541483336055979 0 -0.39437223057887771 0.2817790489952603 0 -0.38056609062580699 0.30184151953985328 0 -0.39437223057887771 0.2817790489952603 0 -0.38056609062580699 0.30184151953985328 0 -0.38026381911308271 0.28906345461131538 0 -0.39437223057887771 0.2817790489952603 0 -0.38026381911308271 0.28906345461131538 0 -0.38161651625618748 0.27984037801288453 0 -0.38056609062580699 0.30184151953985328 0 -0.38026381911308271 0.28906345461131538 0 -0.37660916402755878 0.29641208408479458 0 -0.38026381911308271 0.28906345461131538 0 -0.37660916402755878 0.29641208408479458 0 -0.37398983029070793 0.29082320666409361 0 -0.38026381911308271 0.28906345461131538 0 -0.3744290828993575 0.28368449037100663 0 -0.37398983029070793 0.29082320666409361 0 -0.38026381911308271 0.28906345461131538 0 -0.38161651625618748 0.27984037801288453 0 -0.3744290828993575 0.28368449037100663 0 -0.38161651625618748 0.27984037801288453 0 -0.38254162876578057 0.26862912564028618 0 -0.37289141478335519 0.27388713531172132 0 -0.38161651625618748 0.27984037801288453 0 -0.37289141478335519 0.27388713531172132 0 -0.3744290828993575 0.28368449037100663 0 -0.39437223057887771 0.2817790489952603 0 -0.38254162876578057 0.26862912564028618 0 -0.393358335449772 0.2642540838886227 0 -0.39437223057887771 0.2817790489952603 0 -0.38161651625618748 0.27984037801288453 0 -0.38254162876578057 0.26862912564028618 0 -0.38254162876578057 0.26862912564028618 0 -0.37509452161898382 0.26363015914875232 0 -0.37289141478335519 0.27388713531172132 0 -0.38254162876578057 0.26862912564028618 0 -0.37509452161898382 0.26363015914875232 0 -0.38366299195356829 0.26003732964035903 0 -0.37509452161898382 0.26363015914875232 0 -0.38366299195356829 0.26003732964035903 0 -0.37117564269166059 0.25507560270103968 0 -0.39425320706460443 0.24808701692964799 0 -0.38366299195356829 0.26003732964035903 0 -0.393358335449772 0.2642540838886227 0 -0.37953854733362519 0.25254306176890989 0 -0.38366299195356829 0.26003732964035903 0 -0.37117564269166059 0.25507560270103968 0 -0.37953854733362519 0.25254306176890989 0 -0.37117564269166059 0.25507560270103968 0 -0.39425320706460443 0.24808701692964799 0 -0.37953854733362519 0.25254306176890989 0 -0.38366299195356829 0.26003732964035903 0 -0.39425320706460443 0.24808701692964799 0 -0.37953854733362519 0.25254306176890989 0 -0.38254162876578057 0.26862912564028618 0 -0.38366299195356829 0.26003732964035903 0 -0.393358335449772 0.2642540838886227 0 -0.39425320706460443 0.24808701692964799 0 -0.40817837053194839 0.2617165784506672 0 -0.393358335449772 0.2642540838886227 0 -0.41043671487978012 0.24813903361116141 0 -0.39425320706460443 0.24808701692964799 0 -0.40817837053194839 0.2617165784506672 0 -0.40817837053194839 0.2617165784506672 0 -0.39437223057887771 0.2817790489952603 0 -0.393358335449772 0.2642540838886227 0 -0.40817837053194839 0.2617165784506672 0 -0.39437223057887771 0.2817790489952603 0 -0.40817837053194839 0.2617165784506672 0 -0.41463770205689571 0.27740801226235129 0 -0.39437223057887771 0.2817790489952603 0 -0.35393073858614832 0.26605951848032838 0 -0.34010494796101648 0.28161782828492771 0 -0.34266004937055677 0.25821455341305599 0 -0.35393073858614832 0.26605951848032838 0 -0.3561602462531796 0.27847758162160918 0 -0.34010494796101648 0.28161782828492771 0 -0.35393073858614832 0.26605951848032838 0 -0.3561602462531796 0.27847758162160918 0 -0.36315879298373638 0.27338031498865573 0 -0.35399039374227648 0.24872414955354211 0 -0.35393073858614832 0.26605951848032838 0 -0.34266004937055677 0.25821455341305599 0 -0.35399039374227648 0.24872414955354211 0 -0.35393073858614832 0.26605951848032838 0 -0.36191183317902142 0.25696272487395649 0 -0.36633585907063548 0.26550999025686861 0 -0.36191183317902142 0.25696272487395649 0 -0.37117564269166059 0.25507560270103968 0 -0.35393073858614832 0.26605951848032838 0 -0.36633585907063548 0.26550999025686861 0 -0.36191183317902142 0.25696272487395649 0 -0.35399039374227648 0.24872414955354211 0 -0.36483867825705801 0.24946241242578249 0 -0.36191183317902142 0.25696272487395649 0 -0.36483867825705801 0.24946241242578249 0 -0.36191183317902142 0.25696272487395649 0 -0.37117564269166059 0.25507560270103968 0 -0.37245560190602828 0.2474017800549676 0 -0.37953854733362519 0.25254306176890989 0 -0.37117564269166059 0.25507560270103968 0 -0.36483867825705801 0.24946241242578249 0 -0.37245560190602828 0.2474017800549676 0 -0.37117564269166059 0.25507560270103968 0 -0.37509452161898382 0.26363015914875232 0 -0.36633585907063548 0.26550999025686861 0 -0.37117564269166059 0.25507560270103968 0 -0.36633585907063548 0.26550999025686861 0 -0.36315879298373638 0.27338031498865573 0 -0.37289141478335519 0.27388713531172132 0 -0.37509452161898382 0.26363015914875232 0 -0.36633585907063548 0.26550999025686861 0 -0.37289141478335519 0.27388713531172132 0 -0.35393073858614832 0.26605951848032838 0 -0.36633585907063548 0.26550999025686861 0 -0.36315879298373638 0.27338031498865573 0 -0.3561602462531796 0.27847758162160918 0 -0.36315879298373638 0.27338031498865573 0 -0.36671059122788491 0.2809765649884135 0 -0.36315879298373638 0.27338031498865573 0 -0.36671059122788491 0.2809765649884135 0 -0.37289141478335519 0.27388713531172132 0 -0.36671059122788491 0.2809765649884135 0 -0.37289141478335519 0.27388713531172132 0 -0.3744290828993575 0.28368449037100663 0 -0.36671059122788491 0.2809765649884135 0 -0.3744290828993575 0.28368449037100663 0 -0.36915538280662169 0.28711829082625601 0 -0.3744290828993575 0.28368449037100663 0 -0.36915538280662169 0.28711829082625601 0 -0.37398983029070793 0.29082320666409361 0 -0.37398983029070793 0.29082320666409361 0 -0.3721255313099221 0.29555625916969308 0 -0.36912403774855901 0.29217858379317241 0 -0.37660916402755878 0.29641208408479458 0 -0.37398983029070793 0.29082320666409361 0 -0.3721255313099221 0.29555625916969308 0 -0.3721255313099221 0.29555625916969308 0 -0.36912403774855901 0.29217858379317241 0 -0.36755402274200372 0.29888917469176951 0 -0.36915538280662169 0.28711829082625601 0 -0.37398983029070793 0.29082320666409361 0 -0.36912403774855901 0.29217858379317241 0 -0.36283952219193022 0.29138819122094223 0 -0.36755402274200372 0.29888917469176951 0 -0.3605743312344023 0.30030924793363312 0 -0.36915538280662169 0.28711829082625601 0 -0.36912403774855901 0.29217858379317241 0 -0.36283952219193022 0.29138819122094223 0 -0.36912403774855901 0.29217858379317241 0 -0.36283952219193022 0.29138819122094223 0 -0.36755402274200372 0.29888917469176951 0 -0.36671059122788491 0.2809765649884135 0 -0.36915538280662169 0.28711829082625601 0 -0.36283952219193022 0.29138819122094223 0 -0.3561602462531796 0.27847758162160918 0 -0.36671059122788491 0.2809765649884135 0 -0.36283952219193022 0.29138819122094223 0 -0.37755774295012728 0.30319381935434009 0 -0.36878396113671091 0.30632466799303892 0 -0.36323076296240181 0.32289807648436197 0 -0.37755774295012728 0.30319381935434009 0 -0.38056609062580699 0.30184151953985328 0 -0.36675995067273642 0.32190399008444642 0 -0.36878396113671091 0.30632466799303892 0 -0.36274026119491237 0.30623732457834119 0 -0.36323076296240181 0.32289807648436197 0 -0.38056609062580699 0.30184151953985328 0 -0.36675995067273642 0.32190399008444642 0 -0.37755774295012728 0.30319381935434009 0 -0.36878396113671091 0.30632466799303892 0 -0.37335978936544573 0.30007870569940459 0 -0.36878396113671091 0.30632466799303892 0 -0.37335978936544573 0.30007870569940459 0 -0.36755402274200372 0.29888917469176951 0 -0.37660916402755878 0.29641208408479458 0 -0.3721255313099221 0.29555625916969308 0 -0.37335978936544573 0.30007870569940459 0 -0.3721255313099221 0.29555625916969308 0 -0.37335978936544573 0.30007870569940459 0 -0.36755402274200372 0.29888917469176951 0 -0.36755402274200372 0.29888917469176951 0 -0.3605743312344023 0.30030924793363312 0 -0.36274026119491237 0.30623732457834119 0 -0.36878396113671091 0.30632466799303892 0 -0.36755402274200372 0.29888917469176951 0 -0.36274026119491237 0.30623732457834119 0 -0.36274026119491237 0.30623732457834119 0 -0.35146913543817521 0.30211346290800312 0 -0.36323076296240181 0.32289807648436197 0 -0.35146913543817521 0.30211346290800312 0 -0.34096160786313751 0.3086859869774744 0 -0.34418548838822488 0.31803845869753478 0 -0.3605743312344023 0.30030924793363312 0 -0.36274026119491237 0.30623732457834119 0 -0.35146913543817521 0.30211346290800312 0 -0.36283952219193022 0.29138819122094223 0 -0.3605743312344023 0.30030924793363312 0 -0.35146913543817521 0.30211346290800312 0 -0.35146913543817521 0.30211346290800312 0 -0.34010494796101648 0.28161782828492771 0 -0.3561602462531796 0.27847758162160918 0 -0.36283952219193022 0.29138819122094223 0 -0.35146913543817521 0.30211346290800312 0 -0.3561602462531796 0.27847758162160918 0 -0.35146913543817521 0.30211346290800312 0 -0.34010494796101648 0.28161782828492771 0 -0.34010494796101648 0.28161782828492771 0 -0.32544232935081108 0.28741627171751172 0 -0.32237247532769059 0.27533729275543778 0 -0.35146913543817521 0.30211346290800312 0 -0.34010494796101648 0.28161782828492771 0 -0.33560874851476208 0.29946858486196959 0 -0.34010494796101648 0.28161782828492771 0 -0.33560874851476208 0.29946858486196959 0 -0.32544232935081108 0.28741627171751172 0 -0.33560874851476208 0.29946858486196959 0 -0.31682737297892799 0.31757041618983739 0 -0.33258305911138758 0.31512344144239018 0 -0.35146913543817521 0.30211346290800312 0 -0.33560874851476208 0.29946858486196959 0 -0.34096160786313751 0.3086859869774744 0 -0.33560874851476208 0.29946858486196959 0 -0.34096160786313751 0.3086859869774744 0 -0.33258305911138758 0.31512344144239018 0 -0.33560874851476208 0.29946858486196959 0 -0.31389961565945268 0.29837302479495131 0 -0.31682737297892799 0.31757041618983739 0 -0.33560874851476208 0.29946858486196959 0 -0.31682737297892799 0.31757041618983739 0 -0.33560874851476208 0.29946858486196959 0 -0.31389961565945268 0.29837302479495131 0 -0.32544232935081108 0.28741627171751172 0 -0.31389961565945268 0.29837302479495131 0 -0.32544232935081108 0.28741627171751172 0 -0.30999224850137908 0.28426836249149551 0 -0.32544232935081108 0.28741627171751172 0 -0.32237247532769059 0.27533729275543778 0 -0.30999224850137908 0.28426836249149551 0 -0.32237247532769059 0.27533729275543778 0 -0.32874076048385781 0.26112219366185208 0 -0.30758209034138839 0.262261807621402 0 -0.32237247532769059 0.27533729275543778 0 -0.30758209034138839 0.262261807621402 0 -0.30999224850137908 0.28426836249149551 0 -0.34010494796101648 0.28161782828492771 0 -0.32874076048385781 0.26112219366185208 0 -0.34010494796101648 0.28161782828492771 0 -0.34266004937055677 0.25821455341305599 0 -0.32874076048385781 0.26112219366185208 0 -0.34010494796101648 0.28161782828492771 0 -0.32237247532769059 0.27533729275543778 0 -0.32874076048385781 0.26112219366185208 0 -0.33697276924571601 0.2427247353279546 0 -0.34266004937055677 0.25821455341305599 0 -0.32874076048385781 0.26112219366185208 0 -0.31737657300669908 0.24062655903877669 0 -0.32874076048385781 0.26112219366185208 0 -0.30758209034138839 0.262261807621402 0 -0.31737657300669908 0.24062655903877669 0 -0.32874076048385781 0.26112219366185208 0 -0.30758209034138839 0.262261807621402 0 -0.29535950726253091 0.27301403891217879 0 -0.30999224850137908 0.28426836249149551 0 -0.28235147927719723 0.27928476048378792 0 -0.29535950726253091 0.27301403891217879 0 -0.28405747160943501 0.25832370851674252 0 -0.28235147927719723 0.27928476048378792 0 -0.29535950726253091 0.27301403891217879 0 -0.2971374558390531 0.2912242307397635 0 -0.30758209034138839 0.262261807621402 0 -0.29535950726253091 0.27301403891217879 0 -0.28405747160943501 0.25832370851674252 0 -0.29767337890495782 0.24407184993012401 0 -0.30758209034138839 0.262261807621402 0 -0.28405747160943501 0.25832370851674252 0 -0.26167914317137358 0.24594879361926031 0 -0.28405747160943501 0.25832370851674252 0 -0.26787990181476251 0.27048500477863979 0 -0.28235147927719723 0.27928476048378792 0 -0.26787990181476251 0.27048500477863979 0 -0.27256137932555702 0.28794463191001268 0 -0.28235147927719723 0.27928476048378792 0 -0.28405747160943501 0.25832370851674252 0 -0.26787990181476251 0.27048500477863979 0 -0.26787990181476251 0.27048500477863979 0 -0.26037951681760069 0.28714305349917479 0 -0.24625042068741179 0.26426508064286031 0 -0.26037951681760069 0.28714305349917479 0 -0.24625042068741179 0.26426508064286031 0 -0.26167914317137358 0.24594879361926031 0 -0.24625042068741179 0.26426508064286031 0 -0.24646631454805509 0.24550208357914341 0 -0.26167914317137358 0.24594879361926031 0 -0.26787990181476251 0.27048500477863979 0 -0.24625042068741179 0.26426508064286031 0 -0.26353395275116342 0.30486023956924618 0 -0.25404126920174203 0.30074513647233991 0 -0.26263976171914089 0.29665573583056082 0 -0.26353395275116342 0.30486023956924618 0 -0.26263976171914089 0.29665573583056082 0 -0.27013539022088739 0.30048607560457408 0 -0.26353395275116342 0.30486023956924618 0 -0.25404126920174203 0.30074513647233991 0 -0.25973350083257563 0.31470308736704122 0 -0.26353395275116342 0.30486023956924618 0 -0.27197450918069621 0.31147038939540128 0 -0.25973350083257563 0.31470308736704122 0 -0.25973350083257563 0.31470308736704122 0 -0.2450172565205653 0.31304908197236531 0 -0.2456827818410823 0.29929770528224292 0 -0.25404126920174203 0.30074513647233991 0 -0.25973350083257563 0.31470308736704122 0 -0.2456827818410823 0.29929770528224292 0 -0.25973350083257563 0.31470308736704122 0 -0.2456827818410823 0.29929770528224292 0 -0.25404126920174203 0.30074513647233991 0 -0.26037951681760069 0.28714305349917479 0 -0.24006211596432489 0.28356882637725001 0 -0.25404126920174203 0.30074513647233991 0 -0.26037951681760069 0.28714305349917479 0 -0.26263976171914089 0.29665573583056082 0 -0.26037951681760069 0.28714305349917479 0 -0.26263976171914089 0.29665573583056082 0 -0.27256137932555702 0.28794463191001268 0 -0.26263976171914089 0.29665573583056082 0 -0.27256137932555702 0.28794463191001268 0 -0.27013539022088739 0.30048607560457408 0 -0.26787990181476251 0.27048500477863979 0 -0.26037951681760069 0.28714305349917479 0 -0.27256137932555702 0.28794463191001268 0 -0.28235147927719723 0.27928476048378792 0 -0.27256137932555702 0.28794463191001268 0 -0.2820326576383792 0.29983321412164499 0 -0.27256137932555702 0.28794463191001268 0 -0.27013539022088739 0.30048607560457408 0 -0.2820326576383792 0.29983321412164499 0 -0.27013539022088739 0.30048607560457408 0 -0.27197450918069621 0.31147038939540128 0 -0.2820326576383792 0.29983321412164499 0 -0.27197450918069621 0.31147038939540128 0 -0.2820326576383792 0.29983321412164499 0 -0.28389515654803332 0.31816089919678581 0 -0.26353395275116342 0.30486023956924618 0 -0.27013539022088739 0.30048607560457408 0 -0.27197450918069621 0.31147038939540128 0 -0.2820326576383792 0.29983321412164499 0 -0.29838953877178293 0.31029028276913012 0 -0.28389515654803332 0.31816089919678581 0 -0.2820326576383792 0.29983321412164499 0 -0.2971374558390531 0.2912242307397635 0 -0.29838953877178293 0.31029028276913012 0 -0.28235147927719723 0.27928476048378792 0 -0.2820326576383792 0.29983321412164499 0 -0.2971374558390531 0.2912242307397635 0 -0.29535950726253091 0.27301403891217879 0 -0.2971374558390531 0.2912242307397635 0 -0.30999224850137908 0.28426836249149551 0 -0.31389961565945268 0.29837302479495131 0 -0.2971374558390531 0.2912242307397635 0 -0.30999224850137908 0.28426836249149551 0 -0.31389961565945268 0.29837302479495131 0 -0.2971374558390531 0.2912242307397635 0 -0.29838953877178293 0.31029028276913012 0 -0.31389961565945268 0.29837302479495131 0 -0.29838953877178293 0.31029028276913012 0 -0.31682737297892799 0.31757041618983739 0 -0.29838953877178293 0.31029028276913012 0 -0.29395380077855537 0.32946555242043168 0 -0.31682737297892799 0.31757041618983739 0 -0.29804599744309368 0.33567224751770491 0 -0.29395380077855537 0.32946555242043168 0 -0.31682737297892799 0.31757041618983739 0 -0.29804599744309368 0.33567224751770491 0 -0.31682737297892799 0.31757041618983739 0 -0.29804599744309368 0.33567224751770491 0 -0.31133697578144082 0.35583087058817359 0 -0.31682576527042722 0.33763624585729279 0 -0.29804599744309368 0.33567224751770491 0 -0.31682576527042722 0.33763624585729279 0 -0.31682737297892799 0.31757041618983739 0 -0.29804599744309368 0.33567224751770491 0 -0.28783493881556332 0.34551385153663677 0 -0.29804599744309368 0.33567224751770491 0 -0.28842505514176509 0.33534417277603201 0 -0.28783493881556332 0.34551385153663677 0 -0.29804599744309368 0.33567224751770491 0 -0.29395380077855537 0.32946555242043168 0 -0.28842505514176509 0.33534417277603201 0 -0.29804599744309368 0.33567224751770491 0 -0.29395380077855537 0.32946555242043168 0 -0.28382468298091929 0.32839637507881958 0 -0.28842505514176509 0.33534417277603201 0 -0.27378421982406898 0.33010846945183953 0 -0.29395380077855537 0.32946555242043168 0 -0.28382468298091929 0.32839637507881958 0 -0.28842505514176509 0.33534417277603201 0 -0.28842505514176509 0.33534417277603201 0 -0.27378421982406898 0.33010846945183953 0 -0.28783493881556332 0.34551385153663677 0 -0.29838953877178293 0.31029028276913012 0 -0.29395380077855537 0.32946555242043168 0 -0.28389515654803332 0.31816089919678581 0 -0.29395380077855537 0.32946555242043168 0 -0.28382468298091929 0.32839637507881958 0 -0.28389515654803332 0.31816089919678581 0 -0.27197450918069621 0.31147038939540128 0 -0.27378421982406898 0.33010846945183953 0 -0.25973350083257563 0.31470308736704122 0 -0.27197450918069621 0.31147038939540128 0 -0.28389515654803332 0.31816089919678581 0 -0.27378421982406898 0.33010846945183953 0 -0.27378421982406898 0.33010846945183953 0 -0.25973350083257563 0.31470308736704122 0 -0.28382468298091929 0.32839637507881958 0 -0.28389515654803332 0.31816089919678581 0 -0.27378421982406898 0.33010846945183953 0 -0.27378421982406898 0.33010846945183953 0 -0.25513945157750401 0.34018899623773352 0 -0.26873287089091752 0.34654575363404733 0 -0.27378421982406898 0.33010846945183953 0 -0.26873287089091752 0.34654575363404733 0 -0.28783493881556332 0.34551385153663677 0 -0.27378421982406898 0.33010846945183953 0 -0.28783493881556332 0.34551385153663677 0 -0.27378421982406898 0.33010846945183953 0 -0.25513945157750401 0.34018899623773352 0 -0.250954521962239 0.32574295231807221 0 -0.27378421982406898 0.33010846945183953 0 -0.250954521962239 0.32574295231807221 0 -0.25973350083257563 0.31470308736704122 0 -0.250954521962239 0.32574295231807221 0 -0.25973350083257563 0.31470308736704122 0 -0.2450172565205653 0.31304908197236531 0 -0.25175548383290353 0.36493711302424092 0 -0.26531818958941522 0.37861840841054872 0 -0.24466530149434931 0.37769245548415392 0 -0.25175548383290353 0.36493711302424092 0 -0.25756233860237832 0.35358112341311237 0 -0.2693434056350732 0.36333632753091383 0 -0.25175548383290353 0.36493711302424092 0 -0.2693434056350732 0.36333632753091383 0 -0.26531818958941522 0.37861840841054872 0 -0.25756233860237832 0.35358112341311237 0 -0.26873287089091752 0.34654575363404733 0 -0.2693434056350732 0.36333632753091383 0 -0.25513945157750401 0.34018899623773352 0 -0.25756233860237832 0.35358112341311237 0 -0.24046711451865549 0.35278193549151199 0 -0.25513945157750401 0.34018899623773352 0 -0.25756233860237832 0.35358112341311237 0 -0.26873287089091752 0.34654575363404733 0 -0.26873287089091752 0.34654575363404733 0 -0.2693434056350732 0.36333632753091383 0 -0.28783493881556332 0.34551385153663677 0 -0.2693434056350732 0.36333632753091383 0 -0.28783493881556332 0.34551385153663677 0 -0.2693434056350732 0.36333632753091383 0 -0.28633968758416811 0.37352146630595467 0 -0.26531818958941522 0.37861840841054872 0 -0.2693434056350732 0.36333632753091383 0 -0.28633968758416811 0.37352146630595467 0 -0.29045547811524952 0.36178879352139931 0 -0.28633968758416811 0.37352146630595467 0 -0.29045547811524952 0.36178879352139931 0 -0.30110819037080933 0.37388949535392252 0 -0.2693434056350732 0.36333632753091383 0 -0.29045547811524952 0.36178879352139931 0 -0.28783493881556332 0.34551385153663677 0 -0.29045547811524952 0.36178879352139931 0 -0.28783493881556332 0.34551385153663677 0 -0.30465113992400822 0.36395134241858201 0 -0.28783493881556332 0.34551385153663677 0 -0.30465113992400822 0.36395134241858201 0 -0.29804599744309368 0.33567224751770491 0 -0.28783493881556332 0.34551385153663677 0 -0.3004672629910265 0.35024207801527429 0 -0.29804599744309368 0.33567224751770491 0 -0.31133697578144082 0.35583087058817359 0 -0.29804599744309368 0.33567224751770491 0 -0.3004672629910265 0.35024207801527429 0 -0.31133697578144082 0.35583087058817359 0 -0.28783493881556332 0.34551385153663677 0 -0.3004672629910265 0.35024207801527429 0 -0.30465113992400822 0.36395134241858201 0 -0.3004672629910265 0.35024207801527429 0 -0.31133697578144082 0.35583087058817359 0 -0.30465113992400822 0.36395134241858201 0 -0.31133697578144082 0.35583087058817359 0 -0.30465113992400822 0.36395134241858201 0 -0.31225472683300459 0.37307423611538398 0 -0.29045547811524952 0.36178879352139931 0 -0.30110819037080933 0.37388949535392252 0 -0.30465113992400822 0.36395134241858201 0 -0.30110819037080933 0.37388949535392252 0 -0.30465113992400822 0.36395134241858201 0 -0.31225472683300459 0.37307423611538398 0 -0.31133697578144082 0.35583087058817359 0 -0.31225472683300459 0.37307423611538398 0 -0.32462795411979067 0.37598949365864059 0 -0.31133697578144082 0.35583087058817359 0 -0.32462795411979067 0.37598949365864059 0 -0.31133697578144082 0.35583087058817359 0 -0.32638715020252351 0.35757812195897049 0 -0.32462795411979067 0.37598949365864059 0 -0.34227121706323638 0.35172426889054059 0 -0.32462795411979067 0.37598949365864059 0 -0.34227121706323638 0.35172426889054059 0 -0.33920606135120079 0.37741899080522912 0 -0.32462795411979067 0.37598949365864059 0 -0.34227121706323638 0.35172426889054059 0 -0.32638715020252351 0.35757812195897049 0 -0.32462795411979067 0.37598949365864059 0 -0.34227121706323638 0.35172426889054059 0 -0.32731245384562591 0.34676785469852739 0 -0.34346239625255182 0.33388610573374899 0 -0.34227121706323638 0.35172426889054059 0 -0.32731245384562591 0.34676785469852739 0 -0.32638715020252351 0.35757812195897049 0 -0.31133697578144082 0.35583087058817359 0 -0.32731245384562591 0.34676785469852739 0 -0.31682576527042722 0.33763624585729279 0 -0.31133697578144082 0.35583087058817359 0 -0.32731245384562591 0.34676785469852739 0 -0.32638715020252351 0.35757812195897049 0 -0.32731245384562591 0.34676785469852739 0 -0.31682576527042722 0.33763624585729279 0 -0.33011584640182629 0.32852445954242432 0 -0.31682576527042722 0.33763624585729279 0 -0.31682737297892799 0.31757041618983739 0 -0.33011584640182629 0.32852445954242432 0 -0.31682737297892799 0.31757041618983739 0 -0.33258305911138758 0.31512344144239018 0 -0.33011584640182629 0.32852445954242432 0 -0.34346239625255182 0.33388610573374899 0 -0.33011584640182629 0.32852445954242432 0 -0.34418548838822488 0.31803845869753478 0 -0.33258305911138758 0.31512344144239018 0 -0.33011584640182629 0.32852445954242432 0 -0.34418548838822488 0.31803845869753478 0 -0.34096160786313751 0.3086859869774744 0 -0.33258305911138758 0.31512344144239018 0 -0.34418548838822488 0.31803845869753478 0 -0.32731245384562591 0.34676785469852739 0 -0.34346239625255182 0.33388610573374899 0 -0.33011584640182629 0.32852445954242432 0 -0.34227121706323638 0.35172426889054059 0 -0.35991448000668191 0.32745904412244042 0 -0.34227121706323638 0.35172426889054059 0 -0.34346239625255182 0.33388610573374899 0 -0.35991448000668191 0.32745904412244042 0 -0.34227121706323638 0.35172426889054059 0 -0.35991448000668191 0.32745904412244042 0 -0.3616025635236032 0.34240098224965643 0 -0.34346239625255182 0.33388610573374899 0 -0.34418548838822488 0.31803845869753478 0 -0.35237296460019352 0.32082123379856109 0 -0.35146913543817521 0.30211346290800312 0 -0.34418548838822488 0.31803845869753478 0 -0.35237296460019352 0.32082123379856109 0 -0.34346239625255182 0.33388610573374899 0 -0.35237296460019352 0.32082123379856109 0 -0.35991448000668191 0.32745904412244042 0 -0.35146913543817521 0.30211346290800312 0 -0.35237296460019352 0.32082123379856109 0 -0.36323076296240181 0.32289807648436197 0 -0.35146913543817521 0.30211346290800312 0 -0.36323076296240181 0.32289807648436197 0 -0.35237296460019352 0.32082123379856109 0 -0.36323076296240181 0.32289807648436197 0 -0.35991448000668191 0.32745904412244042 0 -0.37755774295012728 0.30319381935434009 0 -0.36675995067273642 0.32190399008444642 0 -0.36323076296240181 0.32289807648436197 0 -0.37755774295012728 0.30319381935434009 0 -0.36323076296240181 0.32289807648436197 0 -0.36675995067273642 0.32190399008444642 0 -0.35991448000668191 0.32745904412244042 0 -0.36735851225096589 0.33138588568073002 0 -0.36675995067273642 0.32190399008444642 0 -0.36323076296240181 0.32289807648436197 0 -0.35991448000668191 0.32745904412244042 0 -0.36323076296240181 0.32289807648436197 0 -0.35991448000668191 0.32745904412244042 0 -0.36675995067273642 0.32190399008444642 0 -0.37486932739658901 0.32791068817876412 0 -0.36735851225096589 0.33138588568073002 0 -0.3811898693172851 0.31891116270078651 0 -0.36675995067273642 0.32190399008444642 0 -0.37486932739658901 0.32791068817876412 0 -0.35991448000668191 0.32745904412244042 0 -0.3616025635236032 0.34240098224965643 0 -0.36735851225096589 0.33138588568073002 0 -0.37486932739658901 0.32791068817876412 0 -0.36735851225096589 0.33138588568073002 0 -0.37364623965521909 0.33725472376834259 0 -0.3616025635236032 0.34240098224965643 0 -0.36735851225096589 0.33138588568073002 0 -0.37364623965521909 0.33725472376834259 0 -0.3616025635236032 0.34240098224965643 0 -0.37197010723877211 0.35178857060051533 0 -0.35929301869643271 0.3595232069482871 0 -0.3616025635236032 0.34240098224965643 0 -0.37364623965521909 0.33725472376834259 0 -0.37197010723877211 0.35178857060051533 0 -0.37103411106942352 0.37285810611397929 0 -0.35929301869643271 0.3595232069482871 0 -0.35143659405378441 0.37400043063711902 0 -0.37197010723877211 0.35178857060051533 0 -0.37103411106942352 0.37285810611397929 0 -0.35929301869643271 0.3595232069482871 0 -0.34227121706323638 0.35172426889054059 0 -0.35143659405378441 0.37400043063711902 0 -0.33920606135120079 0.37741899080522912 0 -0.34227121706323638 0.35172426889054059 0 -0.35929301869643271 0.3595232069482871 0 -0.35143659405378441 0.37400043063711902 0 -0.34227121706323638 0.35172426889054059 0 -0.3616025635236032 0.34240098224965643 0 -0.35929301869643271 0.3595232069482871 0 -0.35577498634294469 0.3969728490391512 0 -0.3358051199501374 0.39294206609042132 0 -0.34201822524350872 0.40236557461761668 0 -0.35577498634294469 0.3969728490391512 0 -0.3358051199501374 0.39294206609042132 0 -0.35577498634294469 0.3969728490391512 0 -0.34807894485568031 0.38525403099241168 0 -0.3358051199501374 0.39294206609042132 0 -0.35577498634294469 0.3969728490391512 0 -0.36229910190065229 0.40970319805130462 0 -0.35000809200533872 0.40872945253394127 0 -0.35577498634294469 0.3969728490391512 0 -0.35000809200533872 0.40872945253394127 0 -0.34201822524350872 0.40236557461761668 0 -0.35143659405378441 0.37400043063711902 0 -0.34807894485568031 0.38525403099241168 0 -0.33920606135120079 0.37741899080522912 0 -0.35143659405378441 0.37400043063711902 0 -0.34807894485568031 0.38525403099241168 0 -0.360413897811517 0.38601780975410849 0 -0.35577498634294469 0.3969728490391512 0 -0.34807894485568031 0.38525403099241168 0 -0.360413897811517 0.38601780975410849 0 -0.37574485273575192 0.40100363198788119 0 -0.37103411106942352 0.37285810611397929 0 -0.360413897811517 0.38601780975410849 0 -0.37103411106942352 0.37285810611397929 0 -0.35143659405378441 0.37400043063711902 0 -0.360413897811517 0.38601780975410849 0 -0.37574485273575192 0.40100363198788119 0 -0.35577498634294469 0.3969728490391512 0 -0.360413897811517 0.38601780975410849 0 -0.37574485273575192 0.40100363198788119 0 -0.35577498634294469 0.3969728490391512 0 -0.36229910190065229 0.40970319805130462 0 -0.37574485273575192 0.40100363198788119 0 -0.35577498634294469 0.3969728490391512 0 -0.37892365750986601 0.42143463755945182 0 -0.36229910190065229 0.40970319805130462 0 -0.34886672307054473 0.4210462767436543 0 -0.37892365750986601 0.42143463755945182 0 -0.34886672307054473 0.4210462767436543 0 -0.37892365750986601 0.42143463755945182 0 -0.37574485273575192 0.40100363198788119 0 -0.36229910190065229 0.40970319805130462 0 -0.37538081396359169 0.43982484532242078 0 -0.37892365750986601 0.42143463755945182 0 -0.3640881866638967 0.43179277659042731 0 -0.37892365750986601 0.42143463755945182 0 -0.3640881866638967 0.43179277659042731 0 -0.34886672307054473 0.4210462767436543 0 -0.3640881866638967 0.43179277659042731 0 -0.34886672307054473 0.4210462767436543 0 -0.35318155211158442 0.44486534673618211 0 -0.34886672307054473 0.4210462767436543 0 -0.33869978255989158 0.43518837098833862 0 -0.35318155211158442 0.44486534673618211 0 -0.36229910190065229 0.40970319805130462 0 -0.34886672307054473 0.4210462767436543 0 -0.35000809200533872 0.40872945253394127 0 -0.34886672307054473 0.4210462767436543 0 -0.35000809200533872 0.40872945253394127 0 -0.33925561363432311 0.41448288927489851 0 -0.35000809200533872 0.40872945253394127 0 -0.33925561363432311 0.41448288927489851 0 -0.34201822524350872 0.40236557461761668 0 -0.33925561363432311 0.41448288927489851 0 -0.32599869708845741 0.42326998448596292 0 -0.3299421618381978 0.39629767627987739 0 -0.33925561363432311 0.41448288927489851 0 -0.33869978255989158 0.43518837098833862 0 -0.32599869708845741 0.42326998448596292 0 -0.33869978255989158 0.43518837098833862 0 -0.32599869708845741 0.42326998448596292 0 -0.32205523233871702 0.4502422926920483 0 -0.34886672307054473 0.4210462767436543 0 -0.33925561363432311 0.41448288927489851 0 -0.33869978255989158 0.43518837098833862 0 -0.32599869708845741 0.42326998448596292 0 -0.30231461620130817 0.43616180549618461 0 -0.32205523233871702 0.4502422926920483 0 -0.32599869708845741 0.42326998448596292 0 -0.32205523233871702 0.4502422926920483 0 -0.32599869708845741 0.42326998448596292 0 -0.31856278261698251 0.40465240929181578 0 -0.30583689965984789 0.41127387952771433 0 -0.32599869708845741 0.42326998448596292 0 -0.3299421618381978 0.39629767627987739 0 -0.32599869708845741 0.42326998448596292 0 -0.31856278261698251 0.40465240929181578 0 -0.3299421618381978 0.39629767627987739 0 -0.31856278261698251 0.40465240929181578 0 -0.32139337816327268 0.39670646465040288 0 -0.30939356662958473 0.39739507448605371 0 -0.3358051199501374 0.39294206609042132 0 -0.31892351024528198 0.38953462694150642 0 -0.32139337816327268 0.39670646465040288 0 -0.31892351024528198 0.38953462694150642 0 -0.30939356662958473 0.39739507448605371 0 -0.32139337816327268 0.39670646465040288 0 -0.3299421618381978 0.39629767627987739 0 -0.31892351024528198 0.38953462694150642 0 -0.31856278261698251 0.40465240929181578 0 -0.32139337816327268 0.39670646465040288 0 -0.3299421618381978 0.39629767627987739 0 -0.33925561363432311 0.41448288927489851 0 -0.3299421618381978 0.39629767627987739 0 -0.34201822524350872 0.40236557461761668 0 -0.3358051199501374 0.39294206609042132 0 -0.3299421618381978 0.39629767627987739 0 -0.31892351024528198 0.38953462694150642 0 -0.3358051199501374 0.39294206609042132 0 -0.3299421618381978 0.39629767627987739 0 -0.34201822524350872 0.40236557461761668 0 -0.3358051199501374 0.39294206609042132 0 -0.34201822524350872 0.40236557461761668 0 -0.3358051199501374 0.39294206609042132 0 -0.32462795411979067 0.37598949365864059 0 -0.3358051199501374 0.39294206609042132 0 -0.33920606135120079 0.37741899080522912 0 -0.32462795411979067 0.37598949365864059 0 -0.34807894485568031 0.38525403099241168 0 -0.3358051199501374 0.39294206609042132 0 -0.33920606135120079 0.37741899080522912 0 -0.3358051199501374 0.39294206609042132 0 -0.32462795411979067 0.37598949365864059 0 -0.31853708075642317 0.38436642550338568 0 -0.32462795411979067 0.37598949365864059 0 -0.31853708075642317 0.38436642550338568 0 -0.3358051199501374 0.39294206609042132 0 -0.31853708075642317 0.38436642550338568 0 -0.31892351024528198 0.38953462694150642 0 -0.31853708075642317 0.38436642550338568 0 -0.31892351024528198 0.38953462694150642 0 -0.30995113532358992 0.38207702496058688 0 -0.31225472683300459 0.37307423611538398 0 -0.31634272425820209 0.37887679505949928 0 -0.30995113532358992 0.38207702496058688 0 -0.31853708075642317 0.38436642550338568 0 -0.31634272425820209 0.37887679505949928 0 -0.30995113532358992 0.38207702496058688 0 -0.32462795411979067 0.37598949365864059 0 -0.31853708075642317 0.38436642550338568 0 -0.31634272425820209 0.37887679505949928 0 -0.31225472683300459 0.37307423611538398 0 -0.32462795411979067 0.37598949365864059 0 -0.31634272425820209 0.37887679505949928 0 -0.30110819037080933 0.37388949535392252 0 -0.31225472683300459 0.37307423611538398 0 -0.30995113532358992 0.38207702496058688 0 -0.31892351024528198 0.38953462694150642 0 -0.30204190054042651 0.38612718779259181 0 -0.31892351024528198 0.38953462694150642 0 -0.30995113532358992 0.38207702496058688 0 -0.30204190054042651 0.38612718779259181 0 -0.30110819037080933 0.37388949535392252 0 -0.30995113532358992 0.38207702496058688 0 -0.30204190054042651 0.38612718779259181 0 -0.30204190054042651 0.38612718779259181 0 -0.30939356662958473 0.39739507448605371 0 -0.29008274683884361 0.39998054543431688 0 -0.30939356662958473 0.39739507448605371 0 -0.29008274683884361 0.39998054543431688 0 -0.30583689965984789 0.41127387952771433 0 -0.31892351024528198 0.38953462694150642 0 -0.30204190054042651 0.38612718779259181 0 -0.30939356662958473 0.39739507448605371 0 -0.31856278261698251 0.40465240929181578 0 -0.30939356662958473 0.39739507448605371 0 -0.30583689965984789 0.41127387952771433 0 -0.30204190054042651 0.38612718779259181 0 -0.29008274683884361 0.39998054543431688 0 -0.28212022874920822 0.38703900483815151 0 -0.28633968758416811 0.37352146630595467 0 -0.30110819037080933 0.37388949535392252 0 -0.30204190054042651 0.38612718779259181 0 -0.28633968758416811 0.37352146630595467 0 -0.30204190054042651 0.38612718779259181 0 -0.28212022874920822 0.38703900483815151 0 -0.28212022874920822 0.38703900483815151 0 -0.26867275567893317 0.39295930200029738 0 -0.26531818958941522 0.37861840841054872 0 -0.28633968758416811 0.37352146630595467 0 -0.28212022874920822 0.38703900483815151 0 -0.26531818958941522 0.37861840841054872 0 -0.29008274683884361 0.39998054543431688 0 -0.26867275567893317 0.39295930200029738 0 -0.27234931265318019 0.41006404786671879 0 -0.26867275567893317 0.39295930200029738 0 -0.25897147026851802 0.40494654613692171 0 -0.27234931265318019 0.41006404786671879 0 -0.29008274683884361 0.39998054543431688 0 -0.28212022874920822 0.38703900483815151 0 -0.26867275567893317 0.39295930200029738 0 -0.26867275567893317 0.39295930200029738 0 -0.25897147026851802 0.40494654613692171 0 -0.25433046415127092 0.39084318969012882 0 -0.25897147026851802 0.40494654613692171 0 -0.25433046415127092 0.39084318969012882 0 -0.24944235966793371 0.40195745254293302 0 -0.25433046415127092 0.39084318969012882 0 -0.26531818958941522 0.37861840841054872 0 -0.24466530149434931 0.37769245548415392 0 -0.26867275567893317 0.39295930200029738 0 -0.25433046415127092 0.39084318969012882 0 -0.26531818958941522 0.37861840841054872 0 -0.26251792993396611 0.43668284464809271 0 -0.25147459497330998 0.43245482731428381 0 -0.25568563878340889 0.41835735499381499 0 -0.25897147026851802 0.40494654613692171 0 -0.25568563878340889 0.41835735499381499 0 -0.27234931265318019 0.41006404786671879 0 -0.25897147026851802 0.40494654613692171 0 -0.24707317266057849 0.41195204374791122 0 -0.24944235966793371 0.40195745254293302 0 -0.25897147026851802 0.40494654613692171 0 -0.25568563878340889 0.41835735499381499 0 -0.24707317266057849 0.41195204374791122 0 -0.25568563878340889 0.41835735499381499 0 -0.27234931265318019 0.41006404786671879 0 -0.27900012749235847 0.42725958024499983 0 -0.27234931265318019 0.41006404786671879 0 -0.27900012749235847 0.42725958024499983 0 -0.29090012677011129 0.41667262676501199 0 -0.26251792993396611 0.43668284464809271 0 -0.25568563878340889 0.41835735499381499 0 -0.27900012749235847 0.42725958024499983 0 -0.25568563878340889 0.41835735499381499 0 -0.27900012749235847 0.42725958024499983 0 -0.26251792993396611 0.43668284464809271 0 -0.27900012749235847 0.42725958024499983 0 -0.28259728745066198 0.4463602534947424 0 -0.27900012749235847 0.42725958024499983 0 -0.29090012677011129 0.41667262676501199 0 -0.30231461620130817 0.43616180549618461 0 -0.27900012749235847 0.42725958024499983 0 -0.30231461620130817 0.43616180549618461 0 -0.28259728745066198 0.4463602534947424 0 -0.27900012749235847 0.42725958024499983 0 -0.30231461620130817 0.43616180549618461 0 -0.29008274683884361 0.39998054543431688 0 -0.29090012677011129 0.41667262676501199 0 -0.30583689965984789 0.41127387952771433 0 -0.29008274683884361 0.39998054543431688 0 -0.27234931265318019 0.41006404786671879 0 -0.29090012677011129 0.41667262676501199 0 -0.29090012677011129 0.41667262676501199 0 -0.30583689965984789 0.41127387952771433 0 -0.30231461620130817 0.43616180549618461 0 -0.32599869708845741 0.42326998448596292 0 -0.30583689965984789 0.41127387952771433 0 -0.30231461620130817 0.43616180549618461 0 -0.30231461620130817 0.43616180549618461 0 -0.29727594627880682 0.45660684135346702 0 -0.32205523233871702 0.4502422926920483 0 -0.29727594627880682 0.45660684135346702 0 -0.30618502729152869 0.46789744363585212 0 -0.29078877894560679 0.47397994859954579 0 -0.29727594627880682 0.45660684135346702 0 -0.30618502729152869 0.46789744363585212 0 -0.32205523233871702 0.4502422926920483 0 -0.29727594627880682 0.45660684135346702 0 -0.27973513180640958 0.46410762794492849 0 -0.29078877894560679 0.47397994859954579 0 -0.29727594627880682 0.45660684135346702 0 -0.28259728745066198 0.4463602534947424 0 -0.27973513180640958 0.46410762794492849 0 -0.30231461620130817 0.43616180549618461 0 -0.29727594627880682 0.45660684135346702 0 -0.28259728745066198 0.4463602534947424 0 -0.26251792993396611 0.43668284464809271 0 -0.28259728745066198 0.4463602534947424 0 -0.26694282370713007 0.45299745958115611 0 -0.26694282370713007 0.45299745958115611 0 -0.27973513180640958 0.46410762794492849 0 -0.26306832597180629 0.46976303543305847 0 -0.28259728745066198 0.4463602534947424 0 -0.26694282370713007 0.45299745958115611 0 -0.27973513180640958 0.46410762794492849 0 -0.26694282370713007 0.45299745958115611 0 -0.26306832597180629 0.46976303543305847 0 -0.24679544337280659 0.44807353638495823 0 -0.26306832597180629 0.46976303543305847 0 -0.246670724337647 0.47275866351528117 0 -0.24679544337280659 0.44807353638495823 0 -0.26251792993396611 0.43668284464809271 0 -0.26694282370713007 0.45299745958115611 0 -0.24679544337280659 0.44807353638495823 0 -0.26251792993396611 0.43668284464809271 0 -0.25147459497330998 0.43245482731428381 0 -0.24679544337280659 0.44807353638495823 0 -0.26850515525437801 0.49628204785188629 0 -0.24654600530248569 0.49744379064560418 0 -0.25690608372156631 0.48515325523322389 0 -0.26850515525437801 0.49628204785188629 0 -0.24654600530248569 0.49744379064560418 0 -0.26850515525437801 0.49628204785188629 0 -0.24654600530248569 0.49744379064560418 0 -0.24653309032081999 0.49999999999999911 0 -0.25690608372156631 0.48515325523322389 0 -0.246670724337647 0.47275866351528117 0 -0.24654600530248569 0.49744379064560418 0 -0.27433884910906248 0.5 0 -0.26850515525437801 0.49628204785188629 0 -0.24653309032081999 0.49999999999999911 0 -0.25690608372156631 0.48515325523322389 0 -0.26799531991770248 0.48520441971463008 0 -0.26850515525437801 0.49628204785188629 0 -0.25690608372156631 0.48515325523322389 0 -0.26306832597180629 0.46976303543305847 0 -0.246670724337647 0.47275866351528117 0 -0.25690608372156631 0.48515325523322389 0 -0.26306832597180629 0.46976303543305847 0 -0.26799531991770248 0.48520441971463008 0 -0.27973513180640958 0.46410762794492849 0 -0.26306832597180629 0.46976303543305847 0 -0.277436339772 0.4797734551674866 0 -0.26306832597180629 0.46976303543305847 0 -0.277436339772 0.4797734551674866 0 -0.26799531991770248 0.48520441971463008 0 -0.26850515525437801 0.49628204785188629 0 -0.29046430520627031 0.49512030505816851 0 -0.27610028003758758 0.48909505694804278 0 -0.26850515525437801 0.49628204785188629 0 -0.29046430520627031 0.49512030505816851 0 -0.27433884910906248 0.5 0 -0.26850515525437801 0.49628204785188629 0 -0.29046430520627031 0.49512030505816851 0 -0.277436339772 0.4797734551674866 0 -0.27610028003758758 0.48909505694804278 0 -0.26799531991770248 0.48520441971463008 0 -0.27610028003758758 0.48909505694804278 0 -0.26799531991770248 0.48520441971463008 0 -0.26850515525437801 0.49628204785188629 0 -0.27433884910906248 0.5 0 -0.29046430520627031 0.49512030505816851 0 -0.30214460789730491 0.5 0 -0.277436339772 0.4797734551674866 0 -0.27610028003758758 0.48909505694804278 0 -0.29046430520627031 0.49512030505816851 0 -0.27973513180640958 0.46410762794492849 0 -0.277436339772 0.4797734551674866 0 -0.29078877894560679 0.47397994859954579 0 -0.277436339772 0.4797734551674866 0 -0.29046430520627031 0.49512030505816851 0 -0.29078877894560679 0.47397994859954579 0 -0.29046430520627031 0.49512030505816851 0 -0.29078877894560679 0.47397994859954579 0 -0.30269341130553662 0.48144353463606571 0 -0.30269341130553662 0.48144353463606571 0 -0.3124234551581625 0.49395856226445067 0 -0.31811176758897652 0.47721460089813372 0 -0.30618502729152869 0.46789744363585212 0 -0.29078877894560679 0.47397994859954579 0 -0.30269341130553662 0.48144353463606571 0 -0.30618502729152869 0.46789744363585212 0 -0.30269341130553662 0.48144353463606571 0 -0.31811176758897652 0.47721460089813372 0 -0.29046430520627031 0.49512030505816851 0 -0.3124234551581625 0.49395856226445067 0 -0.29046430520627031 0.49512030505816851 0 -0.30269341130553662 0.48144353463606571 0 -0.3124234551581625 0.49395856226445067 0 -0.29046430520627031 0.49512030505816851 0 -0.3124234551581625 0.49395856226445067 0 -0.30214460789730491 0.5 0 -0.3124234551581625 0.49395856226445067 0 -0.32440816511652598 0.48853746155764138 0 -0.31811176758897652 0.47721460089813372 0 -0.3124234551581625 0.49395856226445067 0 -0.32440816511652598 0.48853746155764138 0 -0.32995036668554728 0.5 0 -0.3124234551581625 0.49395856226445067 0 -0.30214460789730491 0.5 0 -0.32995036668554728 0.5 0 -0.32440816511652598 0.48853746155764138 0 -0.32995036668554728 0.5 0 -0.33714707103341768 0.48297668306798108 0 -0.32995036668554728 0.5 0 -0.33714707103341768 0.48297668306798108 0 -0.35775612547378988 0.5 0 -0.33714707103341768 0.48297668306798108 0 -0.3322190396903279 0.46570800746228402 0 -0.34543090062295578 0.46631616185085462 0 -0.33714707103341768 0.48297668306798108 0 -0.31811176758897652 0.47721460089813372 0 -0.3322190396903279 0.46570800746228402 0 -0.32440816511652598 0.48853746155764138 0 -0.33714707103341768 0.48297668306798108 0 -0.31811176758897652 0.47721460089813372 0 -0.30618502729152869 0.46789744363585212 0 -0.31811176758897652 0.47721460089813372 0 -0.32205523233871702 0.4502422926920483 0 -0.31811176758897652 0.47721460089813372 0 -0.32205523233871702 0.4502422926920483 0 -0.31811176758897652 0.47721460089813372 0 -0.32205523233871702 0.4502422926920483 0 -0.3322190396903279 0.46570800746228402 0 -0.33869978255989158 0.43518837098833862 0 -0.33835022686757249 0.45179029880240212 0 -0.35318155211158442 0.44486534673618211 0 -0.33869978255989158 0.43518837098833862 0 -0.32205523233871702 0.4502422926920483 0 -0.33835022686757249 0.45179029880240212 0 -0.32205523233871702 0.4502422926920483 0 -0.33835022686757249 0.45179029880240212 0 -0.3322190396903279 0.46570800746228402 0 -0.33835022686757249 0.45179029880240212 0 -0.3322190396903279 0.46570800746228402 0 -0.34543090062295578 0.46631616185085462 0 -0.34543090062295578 0.46631616185085462 0 -0.35318155211158442 0.44486534673618211 0 -0.37175587269468641 0.45991955253372813 0 -0.33835022686757249 0.45179029880240212 0 -0.34543090062295578 0.46631616185085462 0 -0.35318155211158442 0.44486534673618211 0 -0.37538081396359169 0.43982484532242078 0 -0.35318155211158442 0.44486534673618211 0 -0.37175587269468641 0.45991955253372813 0 -0.37538081396359169 0.43982484532242078 0 -0.3640881866638967 0.43179277659042731 0 -0.35318155211158442 0.44486534673618211 0 -0.34543090062295578 0.46631616185085462 0 -0.37175587269468641 0.45991955253372813 0 -0.36405067062163232 0.48028926433953512 0 -0.38556188426203208 0.5 0 -0.36405067062163232 0.48028926433953512 0 -0.35775612547378988 0.5 0 -0.33714707103341768 0.48297668306798108 0 -0.36405067062163232 0.48028926433953512 0 -0.35775612547378988 0.5 0 -0.33714707103341768 0.48297668306798108 0 -0.34543090062295578 0.46631616185085462 0 -0.36405067062163232 0.48028926433953512 0 -0.15524387574373491 0.47313099805610659 0 -0.13762824545901681 0.47796704311223098 0 -0.1659498925513786 0.48821739532940139 0 -0.15524387574373491 0.47313099805610659 0 -0.13762824545901681 0.47796704311223098 0 -0.14454837416875041 0.45901507440307099 0 -0.13762824545901681 0.47796704311223098 0 -0.1659498925513786 0.48821739532940139 0 -0.15103710788112659 0.49174395566214968 0 -0.1381272083349151 0.5 0 -0.13762824545901681 0.47796704311223098 0 -0.15103710788112659 0.49174395566214968 0 -0.13762824545901681 0.47796704311223098 0 -0.1659498925513786 0.48821739532940139 0 -0.15103710788112659 0.49174395566214968 0 -0.1381272083349151 0.5 0 -0.16394700742733809 0.5 0 -0.1381272083349151 0.5 0 -0.13762824545901681 0.47796704311223098 0 -0.1193475938167666 0.48446108402926802 0 -0.13762824545901681 0.47796704311223098 0 -0.1294134865506549 0.46171504414127501 0 -0.10930659836665479 0.46771669089506163 0 -0.13762824545901681 0.47796704311223098 0 -0.1294134865506549 0.46171504414127501 0 -0.14454837416875041 0.45901507440307099 0 -0.1294134865506549 0.46171504414127501 0 -0.1350657150251742 0.44727137425359431 0 -0.14454837416875041 0.45901507440307099 0 -0.13624442315839061 0.43231421562475381 0 -0.1227755107625234 0.45001545325990822 0 -0.1350657150251742 0.44727137425359431 0 -0.13624442315839061 0.43231421562475381 0 -0.1227755107625234 0.45001545325990822 0 -0.1294134865506549 0.46171504414127501 0 -0.1350657150251742 0.44727137425359431 0 -0.1227755107625234 0.45001545325990822 0 -0.1350657150251742 0.44727137425359431 0 -0.14415205640226231 0.44646331749810952 0 -0.14163389064521431 0.43652715909217438 0 -0.1350657150251742 0.44727137425359431 0 -0.14163389064521431 0.43652715909217438 0 -0.13624442315839061 0.43231421562475381 0 -0.14415205640226231 0.44646331749810952 0 -0.1536633160729565 0.44590759201804148 0 -0.14163389064521431 0.43652715909217438 0 -0.1350657150251742 0.44727137425359431 0 -0.14415205640226231 0.44646331749810952 0 -0.14454837416875041 0.45901507440307099 0 -0.14415205640226231 0.44646331749810952 0 -0.1536633160729565 0.44590759201804148 0 -0.14454837416875041 0.45901507440307099 0 -0.1536633160729565 0.44590759201804148 0 -0.15184215151169869 0.43110603188125662 0 -0.14163389064521431 0.43652715909217438 0 -0.15524387574373491 0.47313099805610659 0 -0.14454837416875041 0.45901507440307099 0 -0.16335243961637699 0.45983226355948947 0 -0.1536633160729565 0.44590759201804148 0 -0.14454837416875041 0.45901507440307099 0 -0.16335243961637699 0.45983226355948947 0 -0.1536633160729565 0.44590759201804148 0 -0.1680351797122919 0.43766662601992917 0 -0.15184215151169869 0.43110603188125662 0 -0.16335243961637699 0.45983226355948947 0 -0.1680351797122919 0.43766662601992917 0 -0.1816243046057687 0.45200915444430101 0 -0.1536633160729565 0.44590759201804148 0 -0.16335243961637699 0.45983226355948947 0 -0.1680351797122919 0.43766662601992917 0 -0.1680351797122919 0.43766662601992917 0 -0.1816243046057687 0.45200915444430101 0 -0.18551212714848489 0.42813159859157079 0 -0.16335243961637699 0.45983226355948947 0 -0.1783850400334813 0.46485757799264071 0 -0.17655962306806941 0.47991613177974413 0 -0.16335243961637699 0.45983226355948947 0 -0.1816243046057687 0.45200915444430101 0 -0.1783850400334813 0.46485757799264071 0 -0.1816243046057687 0.45200915444430101 0 -0.1783850400334813 0.46485757799264071 0 -0.19200379284371019 0.46767276218702819 0 -0.1783850400334813 0.46485757799264071 0 -0.17655962306806941 0.47991613177974413 0 -0.19200379284371019 0.46767276218702819 0 -0.17655962306806941 0.47991613177974413 0 -0.1906753434333604 0.48318334533709473 0 -0.19200379284371019 0.46767276218702819 0 -0.16335243961637699 0.45983226355948947 0 -0.17655962306806941 0.47991613177974413 0 -0.16527645774489 0.47527419718118541 0 -0.16335243961637699 0.45983226355948947 0 -0.17655962306806941 0.47991613177974413 0 -0.17655962306806941 0.47991613177974413 0 -0.16527645774489 0.47527419718118541 0 -0.1659498925513786 0.48821739532940139 0 -0.15524387574373491 0.47313099805610659 0 -0.16527645774489 0.47527419718118541 0 -0.1659498925513786 0.48821739532940139 0 -0.15524387574373491 0.47313099805610659 0 -0.16335243961637699 0.45983226355948947 0 -0.16527645774489 0.47527419718118541 0 -0.15103710788112659 0.49174395566214968 0 -0.16394700742733809 0.5 0 -0.1659498925513786 0.48821739532940139 0 -0.17655962306806941 0.47991613177974413 0 -0.1659498925513786 0.48821739532940139 0 -0.1897668065197613 0.49999999999999911 0 -0.16394700742733809 0.5 0 -0.1659498925513786 0.48821739532940139 0 -0.1897668065197613 0.49999999999999911 0 -0.17655962306806941 0.47991613177974413 0 -0.1897668065197613 0.49999999999999911 0 -0.17655962306806941 0.47991613177974413 0 -0.1897668065197613 0.49999999999999911 0 -0.1906753434333604 0.48318334533709473 0 -0.1897668065197613 0.49999999999999911 0 -0.20565179715382931 0.48036581894121211 0 -0.21304710084790451 0.49242593167335152 0 -0.1897668065197613 0.49999999999999911 0 -0.1906753434333604 0.48318334533709473 0 -0.20565179715382931 0.48036581894121211 0 -0.20565179715382931 0.48036581894121211 0 -0.20997814635502091 0.46336345420696939 0 -0.19200379284371019 0.46767276218702819 0 -0.1906753434333604 0.48318334533709473 0 -0.20565179715382931 0.48036581894121211 0 -0.19200379284371019 0.46767276218702819 0 -0.20565179715382931 0.48036581894121211 0 -0.2243267132015386 0.47133791255236962 0 -0.20997814635502091 0.46336345420696939 0 -0.20565179715382931 0.48036581894121211 0 -0.22053106375346621 0.48387268196176608 0 -0.2243267132015386 0.47133791255236962 0 -0.1897668065197613 0.49999999999999911 0 -0.21304710084790451 0.49242593167335152 0 -0.21951468040077521 0.49887387546118228 0 -0.20565179715382931 0.48036581894121211 0 -0.21304710084790451 0.49242593167335152 0 -0.22053106375346621 0.48387268196176608 0 -0.21951468040077521 0.49887387546118228 0 -0.23088944315724169 0.49320722498138281 0 -0.22440373491999219 0.49117507731151311 0 -0.21951468040077521 0.49887387546118228 0 -0.23088944315724169 0.49320722498138281 0 -0.24654600530248569 0.49744379064560418 0 -0.21304710084790451 0.49242593167335152 0 -0.21951468040077521 0.49887387546118228 0 -0.22440373491999219 0.49117507731151311 0 -0.21951468040077521 0.49887387546118228 0 -0.24654600530248569 0.49744379064560418 0 -0.23088944315724169 0.49320722498138281 0 -0.23309335200571371 0.48533615650723172 0 -0.22440373491999219 0.49117507731151311 0 -0.21304710084790451 0.49242593167335152 0 -0.22440373491999219 0.49117507731151311 0 -0.22053106375346621 0.48387268196176608 0 -0.23309335200571371 0.48533615650723172 0 -0.22440373491999219 0.49117507731151311 0 -0.22053106375346621 0.48387268196176608 0 -0.23309335200571371 0.48533615650723172 0 -0.22053106375346621 0.48387268196176608 0 -0.2243267132015386 0.47133791255236962 0 -0.23309335200571371 0.48533615650723172 0 -0.2243267132015386 0.47133791255236962 0 -0.246670724337647 0.47275866351528117 0 -0.23309335200571371 0.48533615650723172 0 -0.246670724337647 0.47275866351528117 0 -0.24654600530248569 0.49744379064560418 0 -0.23088944315724169 0.49320722498138281 0 -0.23309335200571371 0.48533615650723172 0 -0.24654600530248569 0.49744379064560418 0 -0.246670724337647 0.47275866351528117 0 -0.24654600530248569 0.49744379064560418 0 -0.21951468040077521 0.49887387546118228 0 -0.24654600530248569 0.49744379064560418 0 -0.24653309032081999 0.49999999999999911 0 -0.24654600530248569 0.49744379064560418 0 -0.24653309032081999 0.49999999999999911 0 -0.246670724337647 0.47275866351528117 0 -0.24679544337280659 0.44807353638495823 0 -0.246670724337647 0.47275866351528117 0 -0.24679544337280659 0.44807353638495823 0 -0.22452009993714311 0.4523138631537838 0 -0.2243267132015386 0.47133791255236962 0 -0.246670724337647 0.47275866351528117 0 -0.22452009993714311 0.4523138631537838 0 -0.2243267132015386 0.47133791255236962 0 -0.22452009993714311 0.4523138631537838 0 -0.20997814635502091 0.46336345420696939 0 -0.24679544337280659 0.44807353638495823 0 -0.22452009993714311 0.4523138631537838 0 -0.22812443792859649 0.43261402139574429 0 -0.22452009993714311 0.4523138631537838 0 -0.21367294594307071 0.43836984863833028 0 -0.22812443792859649 0.43261402139574429 0 -0.22452009993714311 0.4523138631537838 0 -0.21367294594307071 0.43836984863833028 0 -0.2012720101033717 0.4472019566518366 0 -0.21367294594307071 0.43836984863833028 0 -0.2012720101033717 0.4472019566518366 0 -0.20237903292288681 0.43042187733055681 0 -0.22452009993714311 0.4523138631537838 0 -0.20997814635502091 0.46336345420696939 0 -0.2012720101033717 0.4472019566518366 0 -0.20997814635502091 0.46336345420696939 0 -0.19200379284371019 0.46767276218702819 0 -0.2012720101033717 0.4472019566518366 0 -0.1816243046057687 0.45200915444430101 0 -0.19200379284371019 0.46767276218702819 0 -0.2012720101033717 0.4472019566518366 0 -0.1816243046057687 0.45200915444430101 0 -0.2012720101033717 0.4472019566518366 0 -0.18551212714848489 0.42813159859157079 0 -0.2012720101033717 0.4472019566518366 0 -0.20237903292288681 0.43042187733055681 0 -0.18551212714848489 0.42813159859157079 0 -0.20237903292288681 0.43042187733055681 0 -0.19923645581584731 0.41629843476461342 0 -0.18551212714848489 0.42813159859157079 0 -0.19923645581584731 0.41629843476461342 0 -0.18856800527572179 0.40614289288162292 0 -0.18551212714848489 0.42813159859157079 0 -0.19923645581584731 0.41629843476461342 0 -0.2115251537266053 0.41528084707405072 0 -0.20905666136550979 0.40055290449144559 0 -0.2115251537266053 0.41528084707405072 0 -0.22403311405643811 0.41842677705434411 0 -0.20905666136550979 0.40055290449144559 0 -0.22403311405643811 0.41842677705434411 0 -0.20905666136550979 0.40055290449144559 0 -0.19923645581584731 0.41629843476461342 0 -0.2115251537266053 0.41528084707405072 0 -0.21377438366862611 0.42584527198579969 0 -0.2115251537266053 0.41528084707405072 0 -0.21377438366862611 0.42584527198579969 0 -0.22403311405643811 0.41842677705434411 0 -0.21367294594307071 0.43836984863833028 0 -0.20237903292288681 0.43042187733055681 0 -0.21377438366862611 0.42584527198579969 0 -0.20237903292288681 0.43042187733055681 0 -0.19923645581584731 0.41629843476461342 0 -0.21377438366862611 0.42584527198579969 0 -0.21367294594307071 0.43836984863833028 0 -0.21377438366862611 0.42584527198579969 0 -0.22812443792859649 0.43261402139574429 0 -0.22812443792859649 0.43261402139574429 0 -0.22403311405643811 0.41842677705434411 0 -0.2347303183772774 0.41986353032304918 0 -0.21377438366862611 0.42584527198579969 0 -0.22812443792859649 0.43261402139574429 0 -0.22403311405643811 0.41842677705434411 0 -0.22403311405643811 0.41842677705434411 0 -0.23237115007445941 0.40945512974263021 0 -0.20905666136550979 0.40055290449144559 0 -0.22403311405643811 0.41842677705434411 0 -0.23237115007445941 0.40945512974263021 0 -0.2347303183772774 0.41986353032304918 0 -0.25568563878340889 0.41835735499381499 0 -0.23237115007445941 0.40945512974263021 0 -0.2347303183772774 0.41986353032304918 0 -0.24707317266057849 0.41195204374791122 0 -0.22788996105301049 0.40507238477624391 0 -0.23237115007445941 0.40945512974263021 0 -0.24707317266057849 0.41195204374791122 0 -0.22788996105301049 0.40507238477624391 0 -0.25568563878340889 0.41835735499381499 0 -0.23237115007445941 0.40945512974263021 0 -0.24707317266057849 0.41195204374791122 0 -0.25568563878340889 0.41835735499381499 0 -0.23237115007445941 0.40945512974263021 0 -0.25568563878340889 0.41835735499381499 0 -0.2347303183772774 0.41986353032304918 0 -0.24089936780305829 0.42670557323026942 0 -0.25147459497330998 0.43245482731428381 0 -0.24679544337280659 0.44807353638495823 0 -0.24089936780305829 0.42670557323026942 0 -0.24679544337280659 0.44807353638495823 0 -0.22812443792859649 0.43261402139574429 0 -0.24089936780305829 0.42670557323026942 0 -0.25147459497330998 0.43245482731428381 0 -0.25568563878340889 0.41835735499381499 0 -0.24089936780305829 0.42670557323026942 0 -0.22812443792859649 0.43261402139574429 0 -0.2347303183772774 0.41986353032304918 0 -0.24089936780305829 0.42670557323026942 0 -0.2345901414124264 0.38400434201240791 0 -0.24316252258666129 0.39115847757936267 0 -0.23449110129558709 0.39268609709586477 0 -0.2345901414124264 0.38400434201240791 0 -0.24466530149434931 0.37769245548415392 0 -0.24316252258666129 0.39115847757936267 0 -0.2345901414124264 0.38400434201240791 0 -0.24466530149434931 0.37769245548415392 0 -0.23248540059263861 0.37451275265472889 0 -0.25433046415127092 0.39084318969012882 0 -0.24466530149434931 0.37769245548415392 0 -0.24316252258666129 0.39115847757936267 0 -0.25433046415127092 0.39084318969012882 0 -0.24316252258666129 0.39115847757936267 0 -0.24944235966793371 0.40195745254293302 0 -0.24707317266057849 0.41195204374791122 0 -0.2353013657267346 0.40116808277035088 0 -0.22788996105301049 0.40507238477624391 0 -0.24316252258666129 0.39115847757936267 0 -0.24944235966793371 0.40195745254293302 0 -0.24145576749840059 0.39976732865068793 0 -0.24707317266057849 0.41195204374791122 0 -0.24944235966793371 0.40195745254293302 0 -0.24145576749840059 0.39976732865068793 0 -0.24707317266057849 0.41195204374791122 0 -0.24145576749840059 0.39976732865068793 0 -0.2353013657267346 0.40116808277035088 0 -0.24145576749840059 0.39976732865068793 0 -0.2353013657267346 0.40116808277035088 0 -0.23449110129558709 0.39268609709586477 0 -0.24316252258666129 0.39115847757936267 0 -0.24145576749840059 0.39976732865068793 0 -0.23449110129558709 0.39268609709586477 0 -0.2353013657267346 0.40116808277035088 0 -0.23449110129558709 0.39268609709586477 0 -0.22840461365561279 0.39708673913604198 0 -0.23237115007445941 0.40945512974263021 0 -0.22788996105301049 0.40507238477624391 0 -0.20905666136550979 0.40055290449144559 0 -0.23237115007445941 0.40945512974263021 0 -0.20905666136550979 0.40055290449144559 0 -0.23449110129558709 0.39268609709586477 0 -0.22840461365561279 0.39708673913604198 0 -0.22708517559421601 0.38973074132887708 0 -0.2353013657267346 0.40116808277035088 0 -0.22840461365561279 0.39708673913604198 0 -0.22788996105301049 0.40507238477624391 0 -0.22840461365561279 0.39708673913604198 0 -0.22788996105301049 0.40507238477624391 0 -0.22457780404934161 0.39879102584587822 0 -0.22788996105301049 0.40507238477624391 0 -0.22457780404934161 0.39879102584587822 0 -0.2192304458077497 0.39791671219940428 0 -0.22278619568099331 0.39508826727182278 0 -0.22056819711030581 0.39112953709101361 0 -0.22708517559421601 0.38973074132887708 0 -0.22840461365561279 0.39708673913604198 0 -0.22278619568099331 0.39508826727182278 0 -0.22708517559421601 0.38973074132887708 0 -0.22840461365561279 0.39708673913604198 0 -0.22457780404934161 0.39879102584587822 0 -0.22278619568099331 0.39508826727182278 0 -0.22278619568099331 0.39508826727182278 0 -0.2192304458077497 0.39791671219940428 0 -0.2185408378808453 0.39403605729903041 0 -0.22457780404934161 0.39879102584587822 0 -0.22278619568099331 0.39508826727182278 0 -0.2192304458077497 0.39791671219940428 0 -0.22278619568099331 0.39508826727182278 0 -0.22056819711030581 0.39112953709101361 0 -0.2185408378808453 0.39403605729903041 0 -0.2219521910117345 0.3861693333947957 0 -0.22708517559421601 0.38973074132887708 0 -0.2282693577600102 0.3812802763548121 0 -0.2219521910117345 0.3861693333947957 0 -0.2178195858124049 0.38583170221560947 0 -0.21829570761162351 0.38874276632497079 0 -0.22056819711030581 0.39112953709101361 0 -0.2219521910117345 0.3861693333947957 0 -0.21829570761162351 0.38874276632497079 0 -0.2219521910117345 0.3861693333947957 0 -0.2207687403676 0.37980614518076761 0 -0.2178195858124049 0.38583170221560947 0 -0.22056819711030581 0.39112953709101361 0 -0.2219521910117345 0.3861693333947957 0 -0.22708517559421601 0.38973074132887708 0 -0.2345901414124264 0.38400434201240791 0 -0.23449110129558709 0.39268609709586477 0 -0.22708517559421601 0.38973074132887708 0 -0.2345901414124264 0.38400434201240791 0 -0.22708517559421601 0.38973074132887708 0 -0.2282693577600102 0.3812802763548121 0 -0.2345901414124264 0.38400434201240791 0 -0.2282693577600102 0.3812802763548121 0 -0.23248540059263861 0.37451275265472889 0 -0.2282693577600102 0.3812802763548121 0 -0.22551114783908541 0.37210376702034509 0 -0.23248540059263861 0.37451275265472889 0 -0.2282693577600102 0.3812802763548121 0 -0.2207687403676 0.37980614518076761 0 -0.22551114783908541 0.37210376702034509 0 -0.2219521910117345 0.3861693333947957 0 -0.2282693577600102 0.3812802763548121 0 -0.2207687403676 0.37980614518076761 0 -0.2207687403676 0.37980614518076761 0 -0.21237265176420861 0.38697288886841802 0 -0.21888536387194121 0.36704012429723831 0 -0.21237265176420861 0.38697288886841802 0 -0.2063798596882159 0.39735823529684322 0 -0.1906560680844378 0.37859243987576019 0 -0.21237265176420861 0.38697288886841802 0 -0.21888536387194121 0.36704012429723831 0 -0.2207687403676 0.37980614518076761 0 -0.2178195858124049 0.38583170221560947 0 -0.21237265176420861 0.38697288886841802 0 -0.22056819711030581 0.39112953709101361 0 -0.21829570761162351 0.38874276632497079 0 -0.21602103518689261 0.39153626726220397 0 -0.2178195858124049 0.38583170221560947 0 -0.21524543586827091 0.38808149881398141 0 -0.21237265176420861 0.38697288886841802 0 -0.2178195858124049 0.38583170221560947 0 -0.21829570761162351 0.38874276632497079 0 -0.21524543586827091 0.38808149881398141 0 -0.21829570761162351 0.38874276632497079 0 -0.21524543586827091 0.38808149881398141 0 -0.21602103518689261 0.39153626726220397 0 -0.21524543586827091 0.38808149881398141 0 -0.21237265176420861 0.38697288886841802 0 -0.21602103518689261 0.39153626726220397 0 -0.21524543586827091 0.38808149881398141 0 -0.21237265176420861 0.38697288886841802 0 -0.22788996105301049 0.40507238477624391 0 -0.2087067494454424 0.39819272580457721 0 -0.20905666136550979 0.40055290449144559 0 -0.22788996105301049 0.40507238477624391 0 -0.2192304458077497 0.39791671219940428 0 -0.2087067494454424 0.39819272580457721 0 -0.22788996105301049 0.40507238477624391 0 -0.2087067494454424 0.39819272580457721 0 -0.21237265176420861 0.38697288886841802 0 -0.21409831561828521 0.39450950267070722 0 -0.2087067494454424 0.39819272580457721 0 -0.2192304458077497 0.39791671219940428 0 -0.21409831561828521 0.39450950267070722 0 -0.2087067494454424 0.39819272580457721 0 -0.2192304458077497 0.39791671219940428 0 -0.2185408378808453 0.39403605729903041 0 -0.21409831561828521 0.39450950267070722 0 -0.2185408378808453 0.39403605729903041 0 -0.21602103518689261 0.39153626726220397 0 -0.21409831561828521 0.39450950267070722 0 -0.22056819711030581 0.39112953709101361 0 -0.2185408378808453 0.39403605729903041 0 -0.21602103518689261 0.39153626726220397 0 -0.21237265176420861 0.38697288886841802 0 -0.21602103518689261 0.39153626726220397 0 -0.21409831561828521 0.39450950267070722 0 -0.21237265176420861 0.38697288886841802 0 -0.2087067494454424 0.39819272580457721 0 -0.21237265176420861 0.38697288886841802 0 -0.2063798596882159 0.39735823529684322 0 -0.2087067494454424 0.39819272580457721 0 -0.2063798596882159 0.39735823529684322 0 -0.2087067494454424 0.39819272580457721 0 -0.20905666136550979 0.40055290449144559 0 -0.20091663371703999 0.39744477887127122 0 -0.2063798596882159 0.39735823529684322 0 -0.20905666136550979 0.40055290449144559 0 -0.20091663371703999 0.39744477887127122 0 -0.2063798596882159 0.39735823529684322 0 -0.20905666136550979 0.40055290449144559 0 -0.2063798596882159 0.39735823529684322 0 -0.2087067494454424 0.39819272580457721 0 -0.20905666136550979 0.40055290449144559 0 -0.19923645581584731 0.41629843476461342 0 -0.20905666136550979 0.40055290449144559 0 -0.20091663371703999 0.39744477887127122 0 -0.19923645581584731 0.41629843476461342 0 -0.20091663371703999 0.39744477887127122 0 -0.19432601840784211 0.39303537638228803 0 -0.19923645581584731 0.41629843476461342 0 -0.18856800527572179 0.40614289288162292 0 -0.19432601840784211 0.39303537638228803 0 -0.19923645581584731 0.41629843476461342 0 -0.19432601840784211 0.39303537638228803 0 -0.2063798596882159 0.39735823529684322 0 -0.19432601840784211 0.39303537638228803 0 -0.2063798596882159 0.39735823529684322 0 -0.20091663371703999 0.39744477887127122 0 -0.19432601840784211 0.39303537638228803 0 -0.2063798596882159 0.39735823529684322 0 -0.1906560680844378 0.37859243987576019 0 -0.21237265176420861 0.38697288886841802 0 -0.1906560680844378 0.37859243987576019 0 -0.21237265176420861 0.38697288886841802 0 -0.1906560680844378 0.37859243987576019 0 -0.20296133096728899 0.36712553801451342 0 -0.2063798596882159 0.39735823529684322 0 -0.19432601840784211 0.39303537638228803 0 -0.1906560680844378 0.37859243987576019 0 -0.19432601840784211 0.39303537638228803 0 -0.1906560680844378 0.37859243987576019 0 -0.1906560680844378 0.37859243987576019 0 -0.17348233705183749 0.37196508176756699 0 -0.19432601840784211 0.39303537638228803 0 -0.17226211490274859 0.38512261730919489 0 -0.19432601840784211 0.39303537638228803 0 -0.1906560680844378 0.37859243987576019 0 -0.17226211490274859 0.38512261730919489 0 -0.1906560680844378 0.37859243987576019 0 -0.17226211490274859 0.38512261730919489 0 -0.17348233705183749 0.37196508176756699 0 -0.17226211490274859 0.38512261730919489 0 -0.1501982113976543 0.37720985823610381 0 -0.17226211490274859 0.38512261730919489 0 -0.1501982113976543 0.37720985823610381 0 -0.16306281734286929 0.37490882024305999 0 -0.17226211490274859 0.38512261730919489 0 -0.16306281734286929 0.37490882024305999 0 -0.17348233705183749 0.37196508176756699 0 -0.17226211490274859 0.38512261730919489 0 -0.157354276250051 0.39925258897276189 0 -0.1501982113976543 0.37720985823610381 0 -0.17226211490274859 0.38512261730919489 0 -0.157354276250051 0.39925258897276189 0 -0.17486956054207181 0.4079763266621772 0 -0.18856800527572179 0.40614289288162292 0 -0.19432601840784211 0.39303537638228803 0 -0.17226211490274859 0.38512261730919489 0 -0.18856800527572179 0.40614289288162292 0 -0.17226211490274859 0.38512261730919489 0 -0.17486956054207181 0.4079763266621772 0 -0.18856800527572179 0.40614289288162292 0 -0.17486956054207181 0.4079763266621772 0 -0.18551212714848489 0.42813159859157079 0 -0.17486956054207181 0.4079763266621772 0 -0.18551212714848489 0.42813159859157079 0 -0.16428450524248381 0.42014577912047929 0 -0.1680351797122919 0.43766662601992917 0 -0.18551212714848489 0.42813159859157079 0 -0.16428450524248381 0.42014577912047929 0 -0.1680351797122919 0.43766662601992917 0 -0.16428450524248381 0.42014577912047929 0 -0.15184215151169869 0.43110603188125662 0 -0.157354276250051 0.39925258897276189 0 -0.16428450524248381 0.42014577912047929 0 -0.14809373629030489 0.41674150259518011 0 -0.157354276250051 0.39925258897276189 0 -0.17486956054207181 0.4079763266621772 0 -0.16428450524248381 0.42014577912047929 0 -0.14809373629030489 0.41674150259518011 0 -0.13708124880948441 0.4206565168744838 0 -0.13808431337144161 0.40074644409064392 0 -0.16428450524248381 0.42014577912047929 0 -0.14809373629030489 0.41674150259518011 0 -0.15184215151169869 0.43110603188125662 0 -0.14809373629030489 0.41674150259518011 0 -0.13624442315839061 0.43231421562475381 0 -0.14809373629030489 0.41674150259518011 0 -0.15184215151169869 0.43110603188125662 0 -0.13624442315839061 0.43231421562475381 0 -0.15184215151169869 0.43110603188125662 0 -0.14163389064521431 0.43652715909217438 0 -0.13624442315839061 0.43231421562475381 0 -0.13624442315839061 0.43231421562475381 0 -0.1244297334730869 0.4272764835040414 0 -0.11523573852528859 0.43769027782701359 0 -0.14163389064521431 0.43652715909217438 0 -0.13624442315839061 0.43231421562475381 0 -0.13624442315839061 0.43231421562475381 0 -0.1259704153452291 0.42428302994518391 0 -0.13708124880948441 0.4206565168744838 0 -0.14809373629030489 0.41674150259518011 0 -0.13624442315839061 0.43231421562475381 0 -0.13708124880948441 0.4206565168744838 0 -0.13624442315839061 0.43231421562475381 0 -0.1259704153452291 0.42428302994518391 0 -0.1244297334730869 0.4272764835040414 0 -0.13624442315839061 0.43231421562475381 0 -0.1259704153452291 0.42428302994518391 0 -0.1259704153452291 0.42428302994518391 0 -0.1244297334730869 0.4272764835040414 0 -0.1259704153452291 0.42428302994518391 0 -0.13708124880948441 0.4206565168744838 0 -0.13808431337144161 0.40074644409064392 0 -0.1259704153452291 0.42428302994518391 0 -0.13808431337144161 0.40074644409064392 0 -0.1259704153452291 0.42428302994518391 0 -0.13808431337144161 0.40074644409064392 0 -0.12383595548414859 0.40779885420034301 0 -0.13808431337144161 0.40074644409064392 0 -0.1214923807050364 0.39452588651853709 0 -0.12383595548414859 0.40779885420034301 0 -0.13808431337144161 0.40074644409064392 0 -0.13303612468219811 0.38530026937690071 0 -0.1214923807050364 0.39452588651853709 0 -0.13303612468219811 0.38530026937690071 0 -0.1328083900415602 0.3711206349635861 0 -0.11735694522763999 0.37843776867175322 0 -0.13808431337144161 0.40074644409064392 0 -0.13303612468219811 0.38530026937690071 0 -0.1501982113976543 0.37720985823610381 0 -0.14056156457940239 0.37735200309640637 0 -0.13303612468219811 0.38530026937690071 0 -0.1328083900415602 0.3711206349635861 0 -0.13808431337144161 0.40074644409064392 0 -0.1501982113976543 0.37720985823610381 0 -0.14056156457940239 0.37735200309640637 0 -0.13303612468219811 0.38530026937690071 0 -0.1501982113976543 0.37720985823610381 0 -0.14056156457940239 0.37735200309640637 0 -0.14620353219619711 0.37577724980903482 0 -0.1501982113976543 0.37720985823610381 0 -0.14620353219619711 0.37577724980903482 0 -0.1501982113976543 0.37720985823610381 0 -0.157354276250051 0.39925258897276189 0 -0.14809373629030489 0.41674150259518011 0 -0.13808431337144161 0.40074644409064392 0 -0.157354276250051 0.39925258897276189 0 -0.13808431337144161 0.40074644409064392 0 -0.1501982113976543 0.37720985823610381 0 -0.14978526732883579 0.34959734326449438 0 -0.1349775419262422 0.35710604701876991 0 -0.15630860601923699 0.36533772365937439 0 -0.14620353219619711 0.37577724980903482 0 -0.1349775419262422 0.35710604701876991 0 -0.15630860601923699 0.36533772365937439 0 -0.1349775419262422 0.35710604701876991 0 -0.15630860601923699 0.36533772365937439 0 -0.1501982113976543 0.37720985823610381 0 -0.15630860601923699 0.36533772365937439 0 -0.14620353219619711 0.37577724980903482 0 -0.1501982113976543 0.37720985823610381 0 -0.15630860601923699 0.36533772365937439 0 -0.14620353219619711 0.37577724980903482 0 -0.1328083900415602 0.3711206349635861 0 -0.1349775419262422 0.35710604701876991 0 -0.14056156457940239 0.37735200309640637 0 -0.14620353219619711 0.37577724980903482 0 -0.1328083900415602 0.3711206349635861 0 -0.1328083900415602 0.3711206349635861 0 -0.1349775419262422 0.35710604701876991 0 -0.1214095853587191 0.36413711033090462 0 -0.14978526732883579 0.34959734326449438 0 -0.1349775419262422 0.35710604701876991 0 -0.13628078380655459 0.34312545983138559 0 -0.1349775419262422 0.35710604701876991 0 -0.13628078380655459 0.34312545983138559 0 -0.12273676033142369 0.34296785535702928 0 -0.12809363909794799 0.33351291963834501 0 -0.13628078380655459 0.34312545983138559 0 -0.12273676033142369 0.34296785535702928 0 -0.12809363909794799 0.33351291963834501 0 -0.1389914366274892 0.33097900649586393 0 -0.1311274610351692 0.32031545001377659 0 -0.12809363909794799 0.33351291963834501 0 -0.1389914366274892 0.33097900649586393 0 -0.13628078380655459 0.34312545983138559 0 -0.1311274610351692 0.32031545001377659 0 -0.12891667901855169 0.30648747599881693 0 -0.1204582426008957 0.31405081811486402 0 -0.12809363909794799 0.33351291963834501 0 -0.1311274610351692 0.32031545001377659 0 -0.119321205064779 0.32709915625813007 0 -0.1389914366274892 0.33097900649586393 0 -0.1311274610351692 0.32031545001377659 0 -0.14476099821437191 0.3200822413325336 0 -0.1311274610351692 0.32031545001377659 0 -0.14476099821437191 0.3200822413325336 0 -0.1401500050077788 0.30901778163218041 0 -0.14476099821437191 0.3200822413325336 0 -0.15361481563473189 0.30850199542457951 0 -0.1401500050077788 0.30901778163218041 0 -0.1389914366274892 0.33097900649586393 0 -0.14476099821437191 0.3200822413325336 0 -0.15117971624128479 0.33022115591659212 0 -0.14476099821437191 0.3200822413325336 0 -0.15117971624128479 0.33022115591659212 0 -0.15872144613206521 0.32100303066185082 0 -0.14476099821437191 0.3200822413325336 0 -0.15872144613206521 0.32100303066185082 0 -0.15361481563473189 0.30850199542457951 0 -0.14978526732883579 0.34959734326449438 0 -0.13628078380655459 0.34312545983138559 0 -0.1466739458882057 0.33850124590923591 0 -0.1389914366274892 0.33097900649586393 0 -0.13628078380655459 0.34312545983138559 0 -0.1466739458882057 0.33850124590923591 0 -0.1389914366274892 0.33097900649586393 0 -0.1466739458882057 0.33850124590923591 0 -0.15117971624128479 0.33022115591659212 0 -0.1466739458882057 0.33850124590923591 0 -0.15117971624128479 0.33022115591659212 0 -0.15713252543686421 0.33858326403784328 0 -0.14978526732883579 0.34959734326449438 0 -0.1466739458882057 0.33850124590923591 0 -0.15713252543686421 0.33858326403784328 0 -0.1756532646059186 0.32775219861475202 0 -0.16515241666408059 0.34815472376344159 0 -0.15713252543686421 0.33858326403784328 0 -0.16338202318819561 0.33142855965568419 0 -0.16515241666408059 0.34815472376344159 0 -0.16338202318819561 0.33142855965568419 0 -0.1756532646059186 0.32775219861475202 0 -0.16515241666408059 0.34815472376344159 0 -0.15713252543686421 0.33858326403784328 0 -0.16515241666408059 0.34815472376344159 0 -0.15117971624128479 0.33022115591659212 0 -0.15713252543686421 0.33858326403784328 0 -0.16338202318819561 0.33142855965568419 0 -0.15872144613206521 0.32100303066185082 0 -0.17205595754548131 0.31299715274576978 0 -0.15361481563473189 0.30850199542457951 0 -0.16338202318819561 0.33142855965568419 0 -0.15872144613206521 0.32100303066185082 0 -0.16769138205074649 0.32340354316006492 0 -0.15117971624128479 0.33022115591659212 0 -0.16338202318819561 0.33142855965568419 0 -0.15872144613206521 0.32100303066185082 0 -0.16769138205074649 0.32340354316006492 0 -0.17205595754548131 0.31299715274576978 0 -0.1756532646059186 0.32775219861475202 0 -0.16338202318819561 0.33142855965568419 0 -0.16769138205074649 0.32340354316006492 0 -0.1756532646059186 0.32775219861475202 0 -0.15872144613206521 0.32100303066185082 0 -0.16769138205074649 0.32340354316006492 0 -0.17205595754548131 0.31299715274576978 0 -0.1756532646059186 0.32775219861475202 0 -0.1861541125477541 0.30734967346606129 0 -0.17205595754548131 0.31299715274576978 0 -0.1756532646059186 0.32775219861475202 0 -0.1861541125477541 0.30734967346606129 0 -0.1795184795037772 0.32288507949383077 0 -0.19267192342744621 0.3246913687960562 0 -0.1861541125477541 0.30734967346606129 0 -0.1756532646059186 0.32775219861475202 0 -0.1795184795037772 0.32288507949383077 0 -0.1861541125477541 0.30734967346606129 0 -0.1756532646059186 0.32775219861475202 0 -0.17765590813861171 0.33637264943429862 0 -0.16515241666408059 0.34815472376344159 0 -0.1795184795037772 0.32288507949383077 0 -0.1837250852246288 0.34281375515845952 0 -0.1795184795037772 0.32288507949383077 0 -0.1837250852246288 0.34281375515845952 0 -0.19267192342744621 0.3246913687960562 0 -0.1795184795037772 0.32288507949383077 0 -0.17765590813861171 0.33637264943429862 0 -0.1837250852246288 0.34281375515845952 0 -0.17765590813861171 0.33637264943429862 0 -0.1837250852246288 0.34281375515845952 0 -0.17629210283785621 0.34511629255737508 0 -0.17765590813861171 0.33637264943429862 0 -0.17629210283785621 0.34511629255737508 0 -0.16515241666408059 0.34815472376344159 0 -0.1756532646059186 0.32775219861475202 0 -0.1795184795037772 0.32288507949383077 0 -0.17765590813861171 0.33637264943429862 0 -0.1837250852246288 0.34281375515845952 0 -0.1786350013241037 0.35312404187330038 0 -0.1837250852246288 0.34281375515845952 0 -0.1786350013241037 0.35312404187330038 0 -0.18752877055023451 0.36083360684280869 0 -0.1837250852246288 0.34281375515845952 0 -0.18752877055023451 0.36083360684280869 0 -0.1786350013241037 0.35312404187330038 0 -0.1779042423742585 0.3633735818196015 0 -0.18752877055023451 0.36083360684280869 0 -0.1786350013241037 0.35312404187330038 0 -0.16515241666408059 0.34815472376344159 0 -0.1779042423742585 0.3633735818196015 0 -0.1786350013241037 0.35312404187330038 0 -0.17629210283785621 0.34511629255737508 0 -0.16515241666408059 0.34815472376344159 0 -0.1837250852246288 0.34281375515845952 0 -0.1786350013241037 0.35312404187330038 0 -0.17629210283785621 0.34511629255737508 0 -0.16515241666408059 0.34815472376344159 0 -0.15630860601923699 0.36533772365937439 0 -0.16700090767254661 0.36319550409851198 0 -0.16515241666408059 0.34815472376344159 0 -0.15630860601923699 0.36533772365937439 0 -0.14978526732883579 0.34959734326449438 0 -0.16515241666408059 0.34815472376344159 0 -0.15630860601923699 0.36533772365937439 0 -0.16515241666408059 0.34815472376344159 0 -0.16700090767254661 0.36319550409851198 0 -0.1779042423742585 0.3633735818196015 0 -0.16515241666408059 0.34815472376344159 0 -0.1779042423742585 0.3633735818196015 0 -0.14978526732883579 0.34959734326449438 0 -0.15713252543686421 0.33858326403784328 0 -0.16515241666408059 0.34815472376344159 0 -0.15630860601923699 0.36533772365937439 0 -0.17348233705183749 0.37196508176756699 0 -0.16306281734286929 0.37490882024305999 0 -0.15630860601923699 0.36533772365937439 0 -0.17348233705183749 0.37196508176756699 0 -0.15630860601923699 0.36533772365937439 0 -0.16700090767254661 0.36319550409851198 0 -0.17348233705183749 0.37196508176756699 0 -0.1501982113976543 0.37720985823610381 0 -0.16306281734286929 0.37490882024305999 0 -0.15630860601923699 0.36533772365937439 0 -0.1906560680844378 0.37859243987576019 0 -0.1779042423742585 0.3633735818196015 0 -0.18752877055023451 0.36083360684280869 0 -0.1906560680844378 0.37859243987576019 0 -0.17348233705183749 0.37196508176756699 0 -0.1779042423742585 0.3633735818196015 0 -0.16700090767254661 0.36319550409851198 0 -0.17348233705183749 0.37196508176756699 0 -0.1779042423742585 0.3633735818196015 0 -0.1906560680844378 0.37859243987576019 0 -0.1779042423742585 0.3633735818196015 0 -0.20296133096728899 0.36712553801451342 0 -0.18752877055023451 0.36083360684280869 0 -0.2062881596575144 0.3508195708282052 0 -0.1906560680844378 0.37859243987576019 0 -0.18752877055023451 0.36083360684280869 0 -0.1906560680844378 0.37859243987576019 0 -0.20296133096728899 0.36712553801451342 0 -0.18752877055023451 0.36083360684280869 0 -0.1837250852246288 0.34281375515845952 0 -0.18752877055023451 0.36083360684280869 0 -0.19563233307298411 0.34343039824836258 0 -0.18752877055023451 0.36083360684280869 0 -0.2062881596575144 0.3508195708282052 0 -0.19563233307298411 0.34343039824836258 0 -0.2062881596575144 0.3508195708282052 0 -0.20366971947123841 0.33802879575539141 0 -0.19563233307298411 0.34343039824836258 0 -0.2062881596575144 0.3508195708282052 0 -0.21888536387194121 0.36704012429723831 0 -0.22539807597967329 0.34710735972605838 0 -0.2062881596575144 0.3508195708282052 0 -0.22539807597967329 0.34710735972605838 0 -0.21328730110874281 0.33554282483529962 0 -0.20296133096728899 0.36712553801451342 0 -0.2062881596575144 0.3508195708282052 0 -0.21888536387194121 0.36704012429723831 0 -0.21237265176420861 0.38697288886841802 0 -0.20296133096728899 0.36712553801451342 0 -0.21888536387194121 0.36704012429723831 0 -0.22551114783908541 0.37210376702034509 0 -0.22873070844617741 0.3638061590518859 0 -0.21888536387194121 0.36704012429723831 0 -0.2207687403676 0.37980614518076761 0 -0.22551114783908541 0.37210376702034509 0 -0.21888536387194121 0.36704012429723831 0 -0.23248540059263861 0.37451275265472889 0 -0.22873070844617741 0.3638061590518859 0 -0.23920765390189611 0.36635541769700181 0 -0.22551114783908541 0.37210376702034509 0 -0.23248540059263861 0.37451275265472889 0 -0.22873070844617741 0.3638061590518859 0 -0.22873070844617741 0.3638061590518859 0 -0.21888536387194121 0.36704012429723831 0 -0.22539807597967329 0.34710735972605838 0 -0.22873070844617741 0.3638061590518859 0 -0.22539807597967329 0.34710735972605838 0 -0.22873070844617741 0.3638061590518859 0 -0.22539807597967329 0.34710735972605838 0 -0.24046711451865549 0.35278193549151199 0 -0.21888536387194121 0.36704012429723831 0 -0.22539807597967329 0.34710735972605838 0 -0.25175548383290353 0.36493711302424092 0 -0.25756233860237832 0.35358112341311237 0 -0.24046711451865549 0.35278193549151199 0 -0.22539807597967329 0.34710735972605838 0 -0.24046711451865549 0.35278193549151199 0 -0.24128221962405619 0.33704368478509672 0 -0.25175548383290353 0.36493711302424092 0 -0.24046711451865549 0.35278193549151199 0 -0.23920765390189611 0.36635541769700181 0 -0.25175548383290353 0.36493711302424092 0 -0.24466530149434931 0.37769245548415392 0 -0.23920765390189611 0.36635541769700181 0 -0.24466530149434931 0.37769245548415392 0 -0.23248540059263861 0.37451275265472889 0 -0.23920765390189611 0.36635541769700181 0 -0.22873070844617741 0.3638061590518859 0 -0.24046711451865549 0.35278193549151199 0 -0.23920765390189611 0.36635541769700181 0 -0.250954521962239 0.32574295231807221 0 -0.23445193408220971 0.31939718015210722 0 -0.2450172565205653 0.31304908197236531 0 -0.250954521962239 0.32574295231807221 0 -0.23445193408220971 0.31939718015210722 0 -0.24128221962405619 0.33704368478509672 0 -0.23445193408220971 0.31939718015210722 0 -0.2450172565205653 0.31304908197236531 0 -0.23426354388472009 0.30610448474236313 0 -0.25513945157750401 0.34018899623773352 0 -0.250954521962239 0.32574295231807221 0 -0.24128221962405619 0.33704368478509672 0 -0.25513945157750401 0.34018899623773352 0 -0.24046711451865549 0.35278193549151199 0 -0.24128221962405619 0.33704368478509672 0 -0.22539807597967329 0.34710735972605838 0 -0.23445193408220971 0.31939718015210722 0 -0.24128221962405619 0.33704368478509672 0 -0.22539807597967329 0.34710735972605838 0 -0.23445193408220971 0.31939718015210722 0 -0.21967737333318629 0.31844267303871998 0 -0.22539807597967329 0.34710735972605838 0 -0.21967737333318629 0.31844267303871998 0 -0.21328730110874281 0.33554282483529962 0 -0.22539807597967329 0.34710735972605838 0 -0.23445193408220971 0.31939718015210722 0 -0.22539807597967329 0.34710735972605838 0 -0.21967737333318629 0.31844267303871998 0 -0.23445193408220971 0.31939718015210722 0 -0.21967737333318629 0.31844267303871998 0 -0.23426354388472009 0.30610448474236313 0 -0.21967737333318629 0.31844267303871998 0 -0.21328730110874281 0.33554282483529962 0 -0.20700548626929499 0.32899501649554369 0 -0.21967737333318629 0.31844267303871998 0 -0.20599146831942061 0.32096787610370248 0 -0.20161876163026379 0.30656898243365288 0 -0.20599146831942061 0.32096787610370248 0 -0.20700548626929499 0.32899501649554369 0 -0.19711788254601609 0.33118860406031919 0 -0.21967737333318629 0.31844267303871998 0 -0.20599146831942061 0.32096787610370248 0 -0.20700548626929499 0.32899501649554369 0 -0.21328730110874281 0.33554282483529962 0 -0.20700548626929499 0.32899501649554369 0 -0.20366971947123841 0.33802879575539141 0 -0.2062881596575144 0.3508195708282052 0 -0.21328730110874281 0.33554282483529962 0 -0.20366971947123841 0.33802879575539141 0 -0.1837250852246288 0.34281375515845952 0 -0.19267192342744621 0.3246913687960562 0 -0.1837250852246288 0.34281375515845952 0 -0.19711788254601609 0.33118860406031919 0 -0.19267192342744621 0.3246913687960562 0 -0.20366971947123841 0.33802879575539141 0 -0.19563233307298411 0.34343039824836258 0 -0.19711788254601609 0.33118860406031919 0 -0.20700548626929499 0.32899501649554369 0 -0.20366971947123841 0.33802879575539141 0 -0.19711788254601609 0.33118860406031919 0 -0.1837250852246288 0.34281375515845952 0 -0.19563233307298411 0.34343039824836258 0 -0.19711788254601609 0.33118860406031919 0 -0.19711788254601609 0.33118860406031919 0 -0.20161876163026379 0.30656898243365288 0 -0.19267192342744621 0.3246913687960562 0 -0.20161876163026379 0.30656898243365288 0 -0.1861541125477541 0.30734967346606129 0 -0.19711788254601609 0.33118860406031919 0 -0.19267192342744621 0.3246913687960562 0 -0.20161876163026379 0.30656898243365288 0 -0.20599146831942061 0.32096787610370248 0 -0.19711788254601609 0.33118860406031919 0 -0.20161876163026379 0.30656898243365288 0 -0.19267192342744621 0.3246913687960562 0 -0.20161876163026379 0.30656898243365288 0 -0.20161876163026379 0.30656898243365288 0 -0.19052112724495099 0.29593520262569839 0 -0.1861541125477541 0.30734967346606129 0 -0.2050429829953973 0.28783863380673269 0 -0.17974139769670211 0.2823337635967742 0 -0.20161876163026379 0.30656898243365288 0 -0.19052112724495099 0.29593520262569839 0 -0.2050429829953973 0.28783863380673269 0 -0.19052112724495099 0.29593520262569839 0 -0.2050429829953973 0.28783863380673269 0 -0.17974139769670211 0.2823337635967742 0 -0.2050429829953973 0.28783863380673269 0 -0.19471490787330631 0.27551960978177081 0 -0.17974139769670211 0.2823337635967742 0 -0.20161876163026379 0.30656898243365288 0 -0.21030097249418189 0.28898261547485471 0 -0.21395667068669921 0.28977798635138169 0 -0.20161876163026379 0.30656898243365288 0 -0.2050429829953973 0.28783863380673269 0 -0.21030097249418189 0.28898261547485471 0 -0.2050429829953973 0.28783863380673269 0 -0.2127912471989126 0.28393840663542042 0 -0.21151285398591921 0.27753277026902068 0 -0.2050429829953973 0.28783863380673269 0 -0.21030097249418189 0.28898261547485471 0 -0.2050429829953973 0.28783863380673269 0 -0.21030097249418189 0.28898261547485471 0 -0.2127912471989126 0.28393840663542042 0 -0.21030097249418189 0.28898261547485471 0 -0.21395667068669921 0.28977798635138169 0 -0.21395667068669921 0.28977798635138169 0 -0.2127912471989126 0.28393840663542042 0 -0.22379356235478909 0.28265649102431561 0 -0.21395667068669921 0.28977798635138169 0 -0.2127912471989126 0.28393840663542042 0 -0.21030097249418189 0.28898261547485471 0 -0.21395667068669921 0.28977798635138169 0 -0.2127912471989126 0.28393840663542042 0 -0.21030097249418189 0.28898261547485471 0 -0.2127912471989126 0.28393840663542042 0 -0.21967737333318629 0.31844267303871998 0 -0.20161876163026379 0.30656898243365288 0 -0.21395667068669921 0.28977798635138169 0 -0.21967737333318629 0.31844267303871998 0 -0.21395667068669921 0.28977798635138169 0 -0.20161876163026379 0.30656898243365288 0 -0.2050429829953973 0.28783863380673269 0 -0.20161876163026379 0.30656898243365288 0 -0.21030097249418189 0.28898261547485471 0 -0.21967737333318629 0.31844267303871998 0 -0.21395667068669921 0.28977798635138169 0 -0.23426354388472009 0.30610448474236313 0 -0.23426354388472009 0.30610448474236313 0 -0.23045528601025439 0.29336759288899789 0 -0.23761593192509539 0.29558465232271353 0 -0.21395667068669921 0.28977798635138169 0 -0.23045528601025439 0.29336759288899789 0 -0.22379356235478909 0.28265649102431561 0 -0.23045528601025439 0.29336759288899789 0 -0.24006211596432489 0.28356882637725001 0 -0.21395667068669921 0.28977798635138169 0 -0.23426354388472009 0.30610448474236313 0 -0.23045528601025439 0.29336759288899789 0 -0.21395667068669921 0.28977798635138169 0 -0.22379356235478909 0.28265649102431561 0 -0.23045528601025439 0.29336759288899789 0 -0.23761593192509539 0.29558465232271353 0 -0.24006211596432489 0.28356882637725001 0 -0.2456827818410823 0.29929770528224292 0 -0.25404126920174203 0.30074513647233991 0 -0.24006211596432489 0.28356882637725001 0 -0.2456827818410823 0.29929770528224292 0 -0.23045528601025439 0.29336759288899789 0 -0.23761593192509539 0.29558465232271353 0 -0.24006211596432489 0.28356882637725001 0 -0.25404126920174203 0.30074513647233991 0 -0.24006211596432489 0.28356882637725001 0 -0.2450172565205653 0.31304908197236531 0 -0.23426354388472009 0.30610448474236313 0 -0.2456827818410823 0.29929770528224292 0 -0.23426354388472009 0.30610448474236313 0 -0.23761593192509539 0.29558465232271353 0 -0.2456827818410823 0.29929770528224292 0 -0.24625042068741179 0.26426508064286031 0 -0.23212132455722281 0.24138710778654551 0 -0.24646631454805509 0.24550208357914341 0 -0.24625042068741179 0.26426508064286031 0 -0.23212132455722281 0.24138710778654551 0 -0.24625042068741179 0.26426508064286031 0 -0.2250928350229453 0.25292163524428368 0 -0.23212132455722281 0.24138710778654551 0 -0.26037951681760069 0.28714305349917479 0 -0.24006211596432489 0.28356882637725001 0 -0.24625042068741179 0.26426508064286031 0 -0.24006211596432489 0.28356882637725001 0 -0.24625042068741179 0.26426508064286031 0 -0.2260829627269077 0.2663925162821601 0 -0.24006211596432489 0.28356882637725001 0 -0.2260829627269077 0.2663925162821601 0 -0.22379356235478909 0.28265649102431561 0 -0.24006211596432489 0.28356882637725001 0 -0.22727485292936031 0.27591359196757609 0 -0.24006211596432489 0.28356882637725001 0 -0.22727485292936031 0.27591359196757609 0 -0.2260829627269077 0.2663925162821601 0 -0.22379356235478909 0.28265649102431561 0 -0.22727485292936031 0.27591359196757609 0 -0.21916077067141951 0.27103653418657903 0 -0.22727485292936031 0.27591359196757609 0 -0.2260829627269077 0.2663925162821601 0 -0.21916077067141951 0.27103653418657903 0 -0.2260829627269077 0.2663925162821601 0 -0.21916077067141951 0.27103653418657903 0 -0.219522907968977 0.26579258796510441 0 -0.24625042068741179 0.26426508064286031 0 -0.2260829627269077 0.2663925162821601 0 -0.2250928350229453 0.25292163524428368 0 -0.2260829627269077 0.2663925162821601 0 -0.2121038094894917 0.24921620618706919 0 -0.2260829627269077 0.2663925162821601 0 -0.219522907968977 0.26579258796510441 0 -0.21664125500520931 0.25980005857922228 0 -0.2260829627269077 0.2663925162821601 0 -0.2250928350229453 0.25292163524428368 0 -0.2121038094894917 0.24921620618706919 0 -0.208573396242446 0.26852741999690127 0 -0.2121038094894917 0.24921620618706919 0 -0.2260829627269077 0.2663925162821601 0 -0.21664125500520931 0.25980005857922228 0 -0.2121038094894917 0.24921620618706919 0 -0.208573396242446 0.26852741999690127 0 -0.19847446918091749 0.25736130383407751 0 -0.2121038094894917 0.24921620618706919 0 -0.21664125500520931 0.25980005857922228 0 -0.208573396242446 0.26852741999690127 0 -0.2121038094894917 0.24921620618706919 0 -0.21664125500520931 0.25980005857922228 0 -0.21620664347237159 0.26594124281245601 0 -0.208573396242446 0.26852741999690127 0 -0.219522907968977 0.26579258796510441 0 -0.21664125500520931 0.25980005857922228 0 -0.21620664347237159 0.26594124281245601 0 -0.2050429829953973 0.28783863380673269 0 -0.208573396242446 0.26852741999690127 0 -0.2050429829953973 0.28783863380673269 0 -0.21151285398591921 0.27753277026902068 0 -0.208573396242446 0.26852741999690127 0 -0.2127912471989126 0.28393840663542042 0 -0.21916077067141951 0.27103653418657903 0 -0.2127912471989126 0.28393840663542042 0 -0.22379356235478909 0.28265649102431561 0 -0.21916077067141951 0.27103653418657903 0 -0.2127912471989126 0.28393840663542042 0 -0.21916077067141951 0.27103653418657903 0 -0.21151285398591921 0.27753277026902068 0 -0.2127912471989126 0.28393840663542042 0 -0.21151285398591921 0.27753277026902068 0 -0.21916077067141951 0.27103653418657903 0 -0.21620664347237159 0.26594124281245601 0 -0.208573396242446 0.26852741999690127 0 -0.21916077067141951 0.27103653418657903 0 -0.21151285398591921 0.27753277026902068 0 -0.208573396242446 0.26852741999690127 0 -0.21916077067141951 0.27103653418657903 0 -0.219522907968977 0.26579258796510441 0 -0.21620664347237159 0.26594124281245601 0 -0.2050429829953973 0.28783863380673269 0 -0.208573396242446 0.26852741999690127 0 -0.19471490787330631 0.27551960978177081 0 -0.208573396242446 0.26852741999690127 0 -0.1987120725033808 0.26690177500242152 0 -0.19471490787330631 0.27551960978177081 0 -0.1987120725033808 0.26690177500242152 0 -0.19471490787330631 0.27551960978177081 0 -0.1869683068365415 0.26626206407440378 0 -0.19847446918091749 0.25736130383407751 0 -0.18464767838559679 0.25049223878500199 0 -0.1869683068365415 0.26626206407440378 0 -0.19847446918091749 0.25736130383407751 0 -0.19648852076111289 0.24343219406896049 0 -0.2121038094894917 0.24921620618706919 0 -0.208573396242446 0.26852741999690127 0 -0.1987120725033808 0.26690177500242152 0 -0.19847446918091749 0.25736130383407751 0 -0.1987120725033808 0.26690177500242152 0 -0.19847446918091749 0.25736130383407751 0 -0.1869683068365415 0.26626206407440378 0 -0.19847446918091749 0.25736130383407751 0 -0.18464767838559679 0.25049223878500199 0 -0.19648852076111289 0.24343219406896049 0 -0.18464767838559679 0.25049223878500199 0 -0.17024674266260831 0.26408138757583061 0 -0.1869683068365415 0.26626206407440378 0 -0.18464767838559679 0.25049223878500199 0 -0.17024674266260831 0.26408138757583061 0 -0.16958305356179451 0.2481989936065177 0 -0.17024674266260831 0.26408138757583061 0 -0.1539614220325887 0.2535618054154064 0 -0.15443981239800689 0.27682889338681571 0 -0.17024674266260831 0.26408138757583061 0 -0.1539614220325887 0.2535618054154064 0 -0.16958305356179451 0.2481989936065177 0 -0.17024674266260831 0.26408138757583061 0 -0.17974139769670211 0.2823337635967742 0 -0.15443981239800689 0.27682889338681571 0 -0.17974139769670211 0.2823337635967742 0 -0.15443981239800689 0.27682889338681571 0 -0.17024674266260831 0.26408138757583061 0 -0.1869683068365415 0.26626206407440378 0 -0.17974139769670211 0.2823337635967742 0 -0.19471490787330631 0.27551960978177081 0 -0.1869683068365415 0.26626206407440378 0 -0.17974139769670211 0.2823337635967742 0 -0.19052112724495099 0.29593520262569839 0 -0.17974139769670211 0.2823337635967742 0 -0.17882772487495979 0.29874331004413029 0 -0.17974139769670211 0.2823337635967742 0 -0.17882772487495979 0.29874331004413029 0 -0.16566602933991051 0.29510075778634781 0 -0.17205595754548131 0.31299715274576978 0 -0.17882772487495979 0.29874331004413029 0 -0.16566602933991051 0.29510075778634781 0 -0.19052112724495099 0.29593520262569839 0 -0.1861541125477541 0.30734967346606129 0 -0.17882772487495979 0.29874331004413029 0 -0.17205595754548131 0.31299715274576978 0 -0.1861541125477541 0.30734967346606129 0 -0.17882772487495979 0.29874331004413029 0 -0.17205595754548131 0.31299715274576978 0 -0.16566602933991051 0.29510075778634781 0 -0.15361481563473189 0.30850199542457951 0 -0.17974139769670211 0.2823337635967742 0 -0.16566602933991051 0.29510075778634781 0 -0.15443981239800689 0.27682889338681571 0 -0.16566602933991051 0.29510075778634781 0 -0.14083718702827969 0.29278352896941839 0 -0.15443981239800689 0.27682889338681571 0 -0.16566602933991051 0.29510075778634781 0 -0.14083718702827969 0.29278352896941839 0 -0.15361481563473189 0.30850199542457951 0 -0.14083718702827969 0.29278352896941839 0 -0.15361481563473189 0.30850199542457951 0 -0.1401500050077788 0.30901778163218041 0 -0.14083718702827969 0.29278352896941839 0 -0.12891667901855169 0.30648747599881693 0 -0.1244559503007249 0.29511977913865572 0 -0.14083718702827969 0.29278352896941839 0 -0.1401500050077788 0.30901778163218041 0 -0.12891667901855169 0.30648747599881693 0 -0.1311274610351692 0.32031545001377659 0 -0.1401500050077788 0.30901778163218041 0 -0.12891667901855169 0.30648747599881693 0 -0.14083718702827969 0.29278352896941839 0 -0.12284197801624699 0.28095417648403259 0 -0.1244559503007249 0.29511977913865572 0 -0.13727347711331059 0.26943622851994509 0 -0.12028023580015811 0.26182730098009199 0 -0.12284197801624699 0.28095417648403259 0 -0.14083718702827969 0.29278352896941839 0 -0.13727347711331059 0.26943622851994509 0 -0.12284197801624699 0.28095417648403259 0 -0.13727347711331059 0.26943622851994509 0 -0.1312802274045832 0.25066166588390548 0 -0.12028023580015811 0.26182730098009199 0 -0.13727347711331059 0.26943622851994509 0 -0.1312802274045832 0.25066166588390548 0 -0.1539614220325887 0.2535618054154064 0 -0.13727347711331059 0.26943622851994509 0 -0.1539614220325887 0.2535618054154064 0 -0.15443981239800689 0.27682889338681571 0 -0.14083718702827969 0.29278352896941839 0 -0.13727347711331059 0.26943622851994509 0 -0.15443981239800689 0.27682889338681571 0 -0.1068899535629859 0.26997417547326391 0 -0.093995705333090693 0.27185874400195631 0 -0.089864983184404265 0.25660839634379939 0 -0.1068899535629859 0.26997417547326391 0 -0.1103347456988836 0.28831588879129011 0 -0.099914324434277654 0.28129206490731179 0 -0.1068899535629859 0.26997417547326391 0 -0.093995705333090693 0.27185874400195631 0 -0.099914324434277654 0.28129206490731179 0 -0.093995705333090693 0.27185874400195631 0 -0.099914324434277654 0.28129206490731179 0 -0.090846772445701635 0.28450380064968289 0 -0.1068899535629859 0.26997417547326391 0 -0.089864983184404265 0.25660839634379939 0 -0.11095354651722571 0.24912079121846531 0 -0.1312802274045832 0.25066166588390548 0 -0.12028023580015811 0.26182730098009199 0 -0.11095354651722571 0.24912079121846531 0 -0.1068899535629859 0.26997417547326391 0 -0.12028023580015811 0.26182730098009199 0 -0.11095354651722571 0.24912079121846531 0 -0.1068899535629859 0.26997417547326391 0 -0.12284197801624699 0.28095417648403259 0 -0.1103347456988836 0.28831588879129011 0 -0.1068899535629859 0.26997417547326391 0 -0.12028023580015811 0.26182730098009199 0 -0.12284197801624699 0.28095417648403259 0 -0.12284197801624699 0.28095417648403259 0 -0.1244559503007249 0.29511977913865572 0 -0.1103347456988836 0.28831588879129011 0 -0.1103347456988836 0.28831588879129011 0 -0.1153520285246331 0.30202886520641031 0 -0.1053183064747 0.29960454853029889 0 -0.1244559503007249 0.29511977913865572 0 -0.1103347456988836 0.28831588879129011 0 -0.1153520285246331 0.30202886520641031 0 -0.12891667901855169 0.30648747599881693 0 -0.1153520285246331 0.30202886520641031 0 -0.1204582426008957 0.31405081811486402 0 -0.12891667901855169 0.30648747599881693 0 -0.1244559503007249 0.29511977913865572 0 -0.1153520285246331 0.30202886520641031 0 -0.1153520285246331 0.30202886520641031 0 -0.10757383936134531 0.31432314309718629 0 -0.1204582426008957 0.31405081811486402 0 -0.1153520285246331 0.30202886520641031 0 -0.1053183064747 0.29960454853029889 0 -0.10757383936134531 0.31432314309718629 0 -0.1053183064747 0.29960454853029889 0 -0.095826473657911485 0.30154712993624239 0 -0.10757383936134531 0.31432314309718629 0 -0.095826473657911485 0.30154712993624239 0 -0.10757383936134531 0.31432314309718629 0 -0.1053183064747 0.29960454853029889 0 -0.095826473657911485 0.30154712993624239 0 -0.097504445130726439 0.29180771562036589 0 -0.1103347456988836 0.28831588879129011 0 -0.097504445130726439 0.29180771562036589 0 -0.099914324434277654 0.28129206490731179 0 -0.1103347456988836 0.28831588879129011 0 -0.1053183064747 0.29960454853029889 0 -0.097504445130726439 0.29180771562036589 0 -0.097504445130726439 0.29180771562036589 0 -0.099914324434277654 0.28129206490731179 0 -0.090846772445701635 0.28450380064968289 0 -0.095826473657911485 0.30154712993624239 0 -0.086581714595924453 0.28519407156823279 0 -0.081540292160641681 0.28600999187171861 0 -0.097504445130726439 0.29180771562036589 0 -0.090846772445701635 0.28450380064968289 0 -0.086581714595924453 0.28519407156823279 0 -0.090846772445701635 0.28450380064968289 0 -0.086581714595924453 0.28519407156823279 0 -0.082361742517192693 0.27772936110340068 0 -0.095826473657911485 0.30154712993624239 0 -0.097504445130726439 0.29180771562036589 0 -0.086581714595924453 0.28519407156823279 0 -0.095826473657911485 0.30154712993624239 0 -0.086581714595924453 0.28519407156823279 0 -0.090846772445701635 0.28450380064968289 0 -0.086581714595924453 0.28519407156823279 0 -0.095826473657911485 0.30154712993624239 0 -0.081540292160641681 0.28600999187171861 0 -0.081540292160641681 0.28600999187171861 0 -0.080010924817602358 0.28434670685991947 0 -0.086581714595924453 0.28519407156823279 0 -0.082361742517192693 0.27772936110340068 0 -0.086581714595924453 0.28519407156823279 0 -0.080010924817602358 0.28434670685991947 0 -0.082361742517192693 0.27772936110340068 0 -0.086581714595924453 0.28519407156823279 0 -0.081540292160641681 0.28600999187171861 0 -0.086581714595924453 0.28519407156823279 0 -0.081540292160641681 0.28600999187171861 0 -0.080010924817602358 0.28434670685991947 0 -0.095826473657911485 0.30154712993624239 0 -0.081500047347027219 0.30722491678981773 0 -0.10211840383922551 0.32509638607342362 0 -0.095826473657911485 0.30154712993624239 0 -0.081540292160641681 0.28600999187171861 0 -0.081500047347027219 0.30722491678981773 0 -0.081500047347027219 0.30722491678981773 0 -0.060881690854828127 0.28935344750621278 0 -0.081500047347027219 0.30722491678981773 0 -0.06144263305936172 0.30975985499095182 0 -0.072388998725557679 0.31921834881778699 0 -0.081500047347027219 0.30722491678981773 0 -0.060881690854828127 0.28935344750621278 0 -0.06144263305936172 0.30975985499095182 0 -0.081540292160641681 0.28600999187171861 0 -0.080010924817602358 0.28434670685991947 0 -0.060881690854828127 0.28935344750621278 0 -0.081540292160641681 0.28600999187171861 0 -0.081500047347027219 0.30722491678981773 0 -0.060881690854828127 0.28935344750621278 0 -0.081540292160641681 0.28600999187171861 0 -0.060881690854828127 0.28935344750621278 0 -0.080010924817602358 0.28434670685991947 0 -0.06891770397089203 0.28100974650849719 0 -0.060881690854828127 0.28935344750621278 0 -0.080010924817602358 0.28434670685991947 0 -0.06479206455230449 0.26779522085423801 0 -0.06479206455230449 0.26779522085423801 0 -0.082361742517192693 0.27772936110340068 0 -0.072451411930741241 0.26019897297323691 0 -0.080010924817602358 0.28434670685991947 0 -0.06891770397089203 0.28100974650849719 0 -0.06479206455230449 0.26779522085423801 0 -0.082361742517192693 0.27772936110340068 0 -0.072451411930741241 0.26019897297323691 0 -0.080010924817602358 0.28434670685991947 0 -0.06479206455230449 0.26779522085423801 0 -0.082361742517192693 0.27772936110340068 0 -0.082361742517192693 0.27772936110340068 0 -0.089864983184404265 0.25660839634379939 0 -0.093995705333090693 0.27185874400195631 0 -0.082361742517192693 0.27772936110340068 0 -0.089864983184404265 0.25660839634379939 0 -0.080010924817602358 0.28434670685991947 0 -0.082361742517192693 0.27772936110340068 0 -0.093995705333090693 0.27185874400195631 0 -0.090846772445701635 0.28450380064968289 0 -0.082361742517192693 0.27772936110340068 0 -0.089864983184404265 0.25660839634379939 0 -0.072451411930741241 0.26019897297323691 0 -0.084909817891176437 0.24784320227871631 0 -0.082361742517192693 0.27772936110340068 0 -0.089864983184404265 0.25660839634379939 0 -0.072451411930741241 0.26019897297323691 0 -0.072451411930741241 0.26019897297323691 0 -0.084909817891176437 0.24784320227871631 0 -0.071423605748982696 0.25838088616658211 0 -0.0676227815044987 0.25583539391149163 0 -0.072915420794760738 0.24639139995760401 0 -0.071423605748982696 0.25838088616658211 0 -0.072915420794760738 0.24639139995760401 0 -0.084909817891176437 0.24784320227871631 0 -0.071423605748982696 0.25838088616658211 0 -0.072451411930741241 0.26019897297323691 0 -0.084909817891176437 0.24784320227871631 0 -0.071423605748982696 0.25838088616658211 0 -0.072451411930741241 0.26019897297323691 0 -0.068347579951402893 0.25886351798231672 0 -0.071423605748982696 0.25838088616658211 0 -0.072451411930741241 0.26019897297323691 0 -0.06479206455230449 0.26779522085423801 0 -0.068347579951402893 0.25886351798231672 0 -0.063849985052532116 0.25899027592772889 0 -0.06479206455230449 0.26779522085423801 0 -0.063849985052532116 0.25899027592772889 0 -0.059653188003827712 0.26220636322664131 0 -0.06479206455230449 0.26779522085423801 0 -0.072451411930741241 0.26019897297323691 0 -0.068347579951402893 0.25886351798231672 0 -0.06479206455230449 0.26779522085423801 0 -0.072451411930741241 0.26019897297323691 0 -0.068347579951402893 0.25886351798231672 0 -0.063849985052532116 0.25899027592772889 0 -0.0676227815044987 0.25583539391149163 0 -0.0676227815044987 0.25583539391149163 0 -0.064712478575736129 0.25282925044640969 0 -0.072915420794760738 0.24639139995760401 0 -0.071423605748982696 0.25838088616658211 0 -0.068347579951402893 0.25886351798231672 0 -0.0676227815044987 0.25583539391149163 0 -0.063849985052532116 0.25899027592772889 0 -0.0676227815044987 0.25583539391149163 0 -0.064712478575736129 0.25282925044640969 0 -0.064712478575736129 0.25282925044640969 0 -0.058385095657061223 0.25594665726573879 0 -0.059665981296547051 0.24568162203931529 0 -0.058385095657061223 0.25594665726573879 0 -0.051164090418747747 0.25312880362289952 0 -0.059665981296547051 0.24568162203931529 0 -0.063849985052532116 0.25899027592772889 0 -0.064712478575736129 0.25282925044640969 0 -0.058385095657061223 0.25594665726573879 0 -0.059653188003827712 0.26220636322664131 0 -0.052256717626109797 0.26172702382054858 0 -0.053544771613629867 0.26971181384820458 0 -0.063849985052532116 0.25899027592772889 0 -0.058385095657061223 0.25594665726573879 0 -0.059653188003827712 0.26220636322664131 0 -0.06479206455230449 0.26779522085423801 0 -0.059653188003827712 0.26220636322664131 0 -0.058385095657061223 0.25594665726573879 0 -0.059653188003827712 0.26220636322664131 0 -0.052256717626109797 0.26172702382054858 0 -0.052256717626109797 0.26172702382054858 0 -0.051164090418747747 0.25312880362289952 0 -0.044139537781178788 0.26067742413446421 0 -0.052256717626109797 0.26172702382054858 0 -0.047066900211852288 0.26822582894580621 0 -0.044139537781178788 0.26067742413446421 0 -0.058385095657061223 0.25594665726573879 0 -0.052256717626109797 0.26172702382054858 0 -0.051164090418747747 0.25312880362289952 0 -0.06891770397089203 0.28100974650849719 0 -0.06479206455230449 0.26779522085423801 0 -0.051368792897103888 0.28110790845396572 0 -0.06479206455230449 0.26779522085423801 0 -0.051368792897103888 0.28110790845396572 0 -0.06479206455230449 0.26779522085423801 0 -0.059653188003827712 0.26220636322664131 0 -0.053544771613629867 0.26971181384820458 0 -0.06479206455230449 0.26779522085423801 0 -0.053544771613629867 0.26971181384820458 0 -0.051368792897103888 0.28110790845396572 0 -0.047066900211852288 0.26822582894580621 0 -0.053544771613629867 0.26971181384820458 0 -0.046023902262863133 0.27647509260221648 0 -0.052256717626109797 0.26172702382054858 0 -0.047066900211852288 0.26822582894580621 0 -0.053544771613629867 0.26971181384820458 0 -0.053544771613629867 0.26971181384820458 0 -0.051368792897103888 0.28110790845396572 0 -0.046023902262863133 0.27647509260221648 0 -0.051368792897103888 0.28110790845396572 0 -0.046023902262863133 0.27647509260221648 0 -0.051368792897103888 0.28110790845396572 0 -0.046023902262863133 0.27647509260221648 0 -0.037724296909993578 0.28263384314914719 0 -0.046023902262863133 0.27647509260221648 0 -0.035793593140652183 0.26947971709787383 0 -0.037724296909993578 0.28263384314914719 0 -0.047066900211852288 0.26822582894580621 0 -0.035793593140652183 0.26947971709787383 0 -0.044139537781178788 0.26067742413446421 0 -0.047066900211852288 0.26822582894580621 0 -0.046023902262863133 0.27647509260221648 0 -0.035793593140652183 0.26947971709787383 0 -0.035793593140652183 0.26947971709787383 0 -0.027669886692409901 0.28024166997622391 0 -0.037724296909993578 0.28263384314914719 0 -0.035793593140652183 0.26947971709787383 0 -0.044139537781178788 0.26067742413446421 0 -0.033074366645123962 0.25046226796462451 0 -0.051164090418747747 0.25312880362289952 0 -0.042933441299488867 0.25132212986177549 0 -0.044139537781178788 0.26067742413446421 0 -0.042933441299488867 0.25132212986177549 0 -0.044139537781178788 0.26067742413446421 0 -0.033074366645123962 0.25046226796462451 0 -0.033074366645123962 0.25046226796462451 0 -0.024171673373767438 0.26254926720664162 0 -0.01944836177611171 0.24838787954432581 0 -0.035793593140652183 0.26947971709787383 0 -0.033074366645123962 0.25046226796462451 0 -0.024171673373767438 0.26254926720664162 0 -0.024171673373767438 0.26254926720664162 0 -0.0093065408195293787 0.26808480785676941 0 -0.01944836177611171 0.24838787954432581 0 -0.035793593140652183 0.26947971709787383 0 -0.024171673373767438 0.26254926720664162 0 -0.027669886692409901 0.28024166997622391 0 -0.027669886692409901 0.28024166997622391 0 -0.0093065408195293787 0.26808480785676941 0 -0.01261014928209923 0.28423869010515601 0 -0.024171673373767438 0.26254926720664162 0 -0.027669886692409901 0.28024166997622391 0 -0.0093065408195293787 0.26808480785676941 0 -0.0093065408195293787 0.26808480785676941 0 -0.01261014928209923 0.28423869010515601 0 0.00098394795991902555 0.28003402474780498 0 -0.0093065408195293787 0.26808480785676941 0 -0.0028794500280274371 0.2473374118160242 0 -0.01944836177611171 0.24838787954432581 0 -0.0018193191166929329 0.29891229501245009 0 -0.025678207936909579 0.29505089437463128 0 -0.01181913129182134 0.30765463681126559 0 -0.0018193191166929329 0.29891229501245009 0 -0.025678207936909579 0.29505089437463128 0 -0.01181913129182134 0.30765463681126559 0 -0.023887963460079879 0.30836234438239801 0 -0.0107254178884356 0.32141645382111161 0 -0.01181913129182134 0.30765463681126559 0 -0.0018193191166929329 0.29891229501245009 0 0.0030152519430094241 0.31453119646573691 0 -0.0018193191166929329 0.29891229501245009 0 -0.01261014928209923 0.28423869010515601 0 0.00098394795991902555 0.28003402474780498 0 -0.0018193191166929329 0.29891229501245009 0 -0.01261014928209923 0.28423869010515601 0 -0.025678207936909579 0.29505089437463128 0 -0.027669886692409901 0.28024166997622391 0 -0.01261014928209923 0.28423869010515601 0 -0.025678207936909579 0.29505089437463128 0 -0.027669886692409901 0.28024166997622391 0 -0.025678207936909579 0.29505089437463128 0 -0.037724296909993578 0.28263384314914719 0 -0.027669886692409901 0.28024166997622391 0 -0.025678207936909579 0.29505089437463128 0 -0.025678207936909579 0.29505089437463128 0 -0.023887963460079879 0.30836234438239801 0 -0.025678207936909579 0.29505089437463128 0 -0.023887963460079879 0.30836234438239801 0 -0.039578312673764243 0.29280125594003809 0 -0.01181913129182134 0.30765463681126559 0 -0.025678207936909579 0.29505089437463128 0 -0.023887963460079879 0.30836234438239801 0 -0.023887963460079879 0.30836234438239801 0 -0.039578312673764243 0.29280125594003809 0 -0.023887963460079879 0.30836234438239801 0 -0.039578312673764243 0.29280125594003809 0 -0.048020945365948663 0.30500249651733469 0 -0.023887963460079879 0.30836234438239801 0 -0.048020945365948663 0.30500249651733469 0 -0.042559825678648862 0.32048678544367137 0 -0.025678207936909579 0.29505089437463128 0 -0.037724296909993578 0.28263384314914719 0 -0.039578312673764243 0.29280125594003809 0 -0.025678207936909579 0.29505089437463128 0 -0.039578312673764243 0.29280125594003809 0 -0.051368792897103888 0.28110790845396572 0 -0.039578312673764243 0.29280125594003809 0 -0.051368792897103888 0.28110790845396572 0 -0.037724296909993578 0.28263384314914719 0 -0.039578312673764243 0.29280125594003809 0 -0.051368792897103888 0.28110790845396572 0 -0.039578312673764243 0.29280125594003809 0 -0.060881690854828127 0.28935344750621278 0 -0.039578312673764243 0.29280125594003809 0 -0.060881690854828127 0.28935344750621278 0 -0.06891770397089203 0.28100974650849719 0 -0.051368792897103888 0.28110790845396572 0 -0.060881690854828127 0.28935344750621278 0 -0.039578312673764243 0.29280125594003809 0 -0.060881690854828127 0.28935344750621278 0 -0.048020945365948663 0.30500249651733469 0 -0.051368792897103888 0.28110790845396572 0 -0.060881690854828127 0.28935344750621278 0 -0.048020945365948663 0.30500249651733469 0 -0.06144263305936172 0.30975985499095182 0 -0.042559825678648862 0.32048678544367137 0 -0.060881690854828127 0.28935344750621278 0 -0.048020945365948663 0.30500249651733469 0 -0.06144263305936172 0.30975985499095182 0 -0.06144263305936172 0.30975985499095182 0 -0.057140802826726587 0.32663392235006339 0 -0.042559825678648862 0.32048678544367137 0 -0.057140802826726587 0.32663392235006339 0 -0.045818826064889448 0.33354111494582561 0 -0.042559825678648862 0.32048678544367137 0 -0.057140802826726587 0.32663392235006339 0 -0.053499095508060618 0.34120151107162061 0 -0.068149107719353536 0.33563280233269732 0 -0.057140802826726587 0.32663392235006339 0 -0.053499095508060618 0.34120151107162061 0 -0.045818826064889448 0.33354111494582561 0 -0.053499095508060618 0.34120151107162061 0 -0.041313144327142247 0.34101947187470072 0 -0.045818826064889448 0.33354111494582561 0 -0.041313144327142247 0.34101947187470072 0 -0.045818826064889448 0.33354111494582561 0 -0.034785289166849351 0.33352921818477022 0 -0.045818826064889448 0.33354111494582561 0 -0.034785289166849351 0.33352921818477022 0 -0.042559825678648862 0.32048678544367137 0 -0.041313144327142247 0.34101947187470072 0 -0.034785289166849351 0.33352921818477022 0 -0.03117157631752537 0.3429542637565286 0 -0.023887963460079879 0.30836234438239801 0 -0.042559825678648862 0.32048678544367137 0 -0.02774575028353268 0.32666516599388729 0 -0.034785289166849351 0.33352921818477022 0 -0.042559825678648862 0.32048678544367137 0 -0.02774575028353268 0.32666516599388729 0 -0.023887963460079879 0.30836234438239801 0 -0.020102612329358699 0.33650850709400759 0 -0.0107254178884356 0.32141645382111161 0 -0.023887963460079879 0.30836234438239801 0 -0.02774575028353268 0.32666516599388729 0 -0.020102612329358699 0.33650850709400759 0 -0.023887963460079879 0.30836234438239801 0 -0.020102612329358699 0.33650850709400759 0 -0.023887963460079879 0.30836234438239801 0 -0.0107254178884356 0.32141645382111161 0 -0.02774575028353268 0.32666516599388729 0 -0.020102612329358699 0.33650850709400759 0 -0.034785289166849351 0.33352921818477022 0 -0.02774575028353268 0.32666516599388729 0 -0.020102612329358699 0.33650850709400759 0 -0.034785289166849351 0.33352921818477022 0 -0.03117157631752537 0.3429542637565286 0 -0.020102612329358699 0.33650850709400759 0 -0.03117157631752537 0.3429542637565286 0 -0.020102612329358699 0.33650850709400759 0 -0.018720277411054 0.34678692571064451 0 -0.020102612329358699 0.33650850709400759 0 -0.018720277411054 0.34678692571064451 0 -0.020102612329358699 0.33650850709400759 0 -0.0131381541385872 0.34547779928268407 0 -0.018720277411054 0.34678692571064451 0 -0.020102612329358699 0.33650850709400759 0 -0.0131381541385872 0.34547779928268407 0 -0.020102612329358699 0.33650850709400759 0 -0.008168180912223471 0.33602171207242371 0 -0.0107254178884356 0.32141645382111161 0 -0.020102612329358699 0.33650850709400759 0 -0.008168180912223471 0.33602171207242371 0 -0.0131381541385872 0.34547779928268407 0 -0.008168180912223471 0.33602171207242371 0 0.0024371276832097252 0.33447056325982411 0 0.00068815211205307844 0.34223523690449309 0 -0.008168180912223471 0.33602171207242371 0 -0.0131381541385872 0.34547779928268407 0 0.00068815211205307844 0.34223523690449309 0 -0.0107254178884356 0.32141645382111161 0 0.0032776194458498981 0.33073915365893419 0 0.0024371276832097252 0.33447056325982411 0 -0.008168180912223471 0.33602171207242371 0 -0.0107254178884356 0.32141645382111161 0 0.0024371276832097252 0.33447056325982411 0 -0.0107254178884356 0.32141645382111161 0 0.0024371276832097252 0.33447056325982411 0 -0.0107254178884356 0.32141645382111161 0 0.00063675055893517793 0.32328312616982818 0 0.0032776194458498981 0.33073915365893419 0 -0.0107254178884356 0.32141645382111161 0 0.0030152519430094241 0.31453119646573691 0 0.00063675055893517793 0.32328312616982818 0 -0.01181913129182134 0.30765463681126559 0 -0.0107254178884356 0.32141645382111161 0 0.0030152519430094241 0.31453119646573691 0 -0.0041794056526042161 0.36384502843755762 0 -0.0080455913418213676 0.38100917333558221 0 -0.011545606085483001 0.37035237353726019 0 -0.01667830148865581 0.36197013714342008 0 -0.014281344412804689 0.37979282823332128 0 -0.0041794056526042161 0.36384502843755762 0 -0.0080455913418213676 0.38100917333558221 0 0.001150257802333904 0.37218443526046402 0 -0.011545606085483001 0.37035237353726019 0 -0.0041794056526042161 0.36384502843755762 0 -0.0080455913418213676 0.38100917333558221 0 -0.01667830148865581 0.36197013714342008 0 -0.014281344412804689 0.37979282823332128 0 -0.0041794056526042161 0.36384502843755762 0 -0.01667830148865581 0.36197013714342008 0 -0.0041794056526042161 0.36384502843755762 0 -0.011140622592694081 0.35532621080836307 0 -0.01667830148865581 0.36197013714342008 0 -0.011545606085483001 0.37035237353726019 0 -0.0041794056526042161 0.36384502843755762 0 -0.01667830148865581 0.36197013714342008 0 -0.0041794056526042161 0.36384502843755762 0 0.0001016014555435055 0.36448719899905768 0 -0.0041794056526042161 0.36384502843755762 0 0.0001016014555435055 0.36448719899905768 0 0.001150257802333904 0.37218443526046402 0 -0.0041794056526042161 0.36384502843755762 0 -0.002986974272574112 0.35855116346750959 0 0.0001016014555435055 0.36448719899905768 0 -0.0041794056526042161 0.36384502843755762 0 -0.002986974272574112 0.35855116346750959 0 -0.002986974272574112 0.35855116346750959 0 -0.0131381541385872 0.34547779928268407 0 0.00068815211205307844 0.34223523690449309 0 -0.0041794056526042161 0.36384502843755762 0 -0.002986974272574112 0.35855116346750959 0 -0.011140622592694081 0.35532621080836307 0 -0.002986974272574112 0.35855116346750959 0 0.00068815211205307844 0.34223523690449309 0 -0.0131381541385872 0.34547779928268407 0 0.00068815211205307844 0.34223523690449309 0 -0.0131381541385872 0.34547779928268407 0 -0.011140622592694081 0.35532621080836307 0 -0.018720277411054 0.34678692571064451 0 -0.011140622592694081 0.35532621080836307 0 -0.018720277411054 0.34678692571064451 0 -0.01667830148865581 0.36197013714342008 0 -0.002986974272574112 0.35855116346750959 0 -0.0131381541385872 0.34547779928268407 0 -0.002986974272574112 0.35855116346750959 0 -0.0131381541385872 0.34547779928268407 0 -0.011140622592694081 0.35532621080836307 0 -0.018720277411054 0.34678692571064451 0 -0.030061033355854489 0.35488224139679492 0 -0.01667830148865581 0.36197013714342008 0 -0.03117157631752537 0.3429542637565286 0 -0.018720277411054 0.34678692571064451 0 -0.043249481279942763 0.35253954482601008 0 -0.018720277411054 0.34678692571064451 0 -0.030061033355854489 0.35488224139679492 0 -0.043249481279942763 0.35253954482601008 0 -0.018720277411054 0.34678692571064451 0 -0.01667830148865581 0.36197013714342008 0 -0.018720277411054 0.34678692571064451 0 -0.043249481279942763 0.35253954482601008 0 -0.030061033355854489 0.35488224139679492 0 -0.01667830148865581 0.36197013714342008 0 -0.041596073243765602 0.35823235790710473 0 -0.0131381541385872 0.34547779928268407 0 -0.018720277411054 0.34678692571064451 0 -0.031222988852221072 0.36612465705122371 0 -0.01667830148865581 0.36197013714342008 0 -0.041596073243765602 0.35823235790710473 0 -0.01667830148865581 0.36197013714342008 0 -0.041596073243765602 0.35823235790710473 0 -0.01667830148865581 0.36197013714342008 0 -0.02072758592548482 0.37339846111204489 0 -0.014281344412804689 0.37979282823332128 0 -0.031222988852221072 0.36612465705122371 0 -0.01667830148865581 0.36197013714342008 0 -0.02402582462065261 0.36921596580461769 0 -0.01667830148865581 0.36197013714342008 0 -0.02072758592548482 0.37339846111204489 0 -0.02402582462065261 0.36921596580461769 0 -0.02402582462065261 0.36921596580461769 0 -0.028801108459020001 0.37109740760827381 0 -0.026700945513074972 0.37586294977960671 0 -0.02072758592548482 0.37339846111204489 0 -0.02402582462065261 0.36921596580461769 0 -0.026700945513074972 0.37586294977960671 0 -0.031222988852221072 0.36612465705122371 0 -0.02402582462065261 0.36921596580461769 0 -0.028801108459020001 0.37109740760827381 0 -0.031222988852221072 0.36612465705122371 0 -0.028801108459020001 0.37109740760827381 0 -0.033254674850131373 0.37318605779764707 0 -0.028801108459020001 0.37109740760827381 0 -0.033254674850131373 0.37318605779764707 0 -0.026700945513074972 0.37586294977960671 0 -0.031222988852221072 0.36612465705122371 0 -0.036579994692376723 0.36969753491054252 0 -0.039537988571094168 0.36578555330352402 0 -0.033254674850131373 0.37318605779764707 0 -0.039531892278341009 0.37361411869263561 0 -0.038295824535547182 0.37803051746238509 0 -0.033254674850131373 0.37318605779764707 0 -0.036579994692376723 0.36969753491054252 0 -0.039531892278341009 0.37361411869263561 0 -0.031222988852221072 0.36612465705122371 0 -0.033254674850131373 0.37318605779764707 0 -0.036579994692376723 0.36969753491054252 0 -0.031222988852221072 0.36612465705122371 0 -0.039537988571094168 0.36578555330352402 0 -0.041596073243765602 0.35823235790710473 0 -0.039537988571094168 0.36578555330352402 0 -0.044906121574996363 0.36375896665937207 0 -0.042563476007853963 0.36915769835741152 0 -0.039537988571094168 0.36578555330352402 0 -0.044906121574996363 0.36375896665937207 0 -0.041596073243765602 0.35823235790710473 0 -0.044906121574996363 0.36375896665937207 0 -0.042563476007853963 0.36915769835741152 0 -0.047762720361533437 0.36728505886413199 0 -0.042563476007853963 0.36915769835741152 0 -0.04713920426734327 0.37434655365944491 0 -0.047762720361533437 0.36728505886413199 0 -0.039531892278341009 0.37361411869263561 0 -0.042563476007853963 0.36915769835741152 0 -0.04713920426734327 0.37434655365944491 0 -0.036579994692376723 0.36969753491054252 0 -0.039537988571094168 0.36578555330352402 0 -0.042563476007853963 0.36915769835741152 0 -0.036579994692376723 0.36969753491054252 0 -0.039531892278341009 0.37361411869263561 0 -0.042563476007853963 0.36915769835741152 0 -0.041313144327142247 0.34101947187470072 0 -0.03117157631752537 0.3429542637565286 0 -0.043249481279942763 0.35253954482601008 0 -0.030061033355854489 0.35488224139679492 0 -0.043249481279942763 0.35253954482601008 0 -0.041596073243765602 0.35823235790710473 0 -0.053499095508060618 0.34120151107162061 0 -0.041313144327142247 0.34101947187470072 0 -0.043249481279942763 0.35253954482601008 0 -0.053499095508060618 0.34120151107162061 0 -0.043249481279942763 0.35253954482601008 0 -0.066513844998875207 0.35449457867078799 0 -0.041596073243765602 0.35823235790710473 0 -0.066513844998875207 0.35449457867078799 0 -0.043249481279942763 0.35253954482601008 0 -0.041596073243765602 0.35823235790710473 0 -0.066513844998875207 0.35449457867078799 0 -0.041596073243765602 0.35823235790710473 0 -0.058028025130744093 0.36240999231730497 0 -0.066513844998875207 0.35449457867078799 0 -0.044906121574996363 0.36375896665937207 0 -0.041596073243765602 0.35823235790710473 0 -0.058028025130744093 0.36240999231730497 0 -0.051995370800508263 0.36941695226313598 0 -0.04713920426734327 0.37434655365944491 0 -0.055051533442412232 0.37362620421166209 0 -0.051995370800508263 0.36941695226313598 0 -0.04713920426734327 0.37434655365944491 0 -0.047762720361533437 0.36728505886413199 0 -0.044906121574996363 0.36375896665937207 0 -0.047762720361533437 0.36728505886413199 0 -0.058028025130744093 0.36240999231730497 0 -0.051995370800508263 0.36941695226313598 0 -0.047762720361533437 0.36728505886413199 0 -0.058028025130744093 0.36240999231730497 0 -0.058028025130744093 0.36240999231730497 0 -0.055051533442412232 0.37362620421166209 0 -0.061330546677696128 0.37463217708822222 0 -0.051995370800508263 0.36941695226313598 0 -0.058028025130744093 0.36240999231730497 0 -0.055051533442412232 0.37362620421166209 0 -0.058028025130744093 0.36240999231730497 0 -0.061330546677696128 0.37463217708822222 0 -0.068207334565341643 0.37256525745018682 0 -0.072627904975830049 0.36687489661654099 0 -0.083981908967526428 0.36623169928325189 0 -0.066513844998875207 0.35449457867078799 0 -0.058028025130744093 0.36240999231730497 0 -0.068207334565341643 0.37256525745018682 0 -0.072627904975830049 0.36687489661654099 0 -0.058028025130744093 0.36240999231730497 0 -0.072627904975830049 0.36687489661654099 0 -0.066513844998875207 0.35449457867078799 0 -0.068207334565341643 0.37256525745018682 0 -0.072627904975830049 0.36687489661654099 0 -0.074296989381219092 0.37382552593362889 0 -0.072627904975830049 0.36687489661654099 0 -0.074296989381219092 0.37382552593362889 0 -0.079622100299710563 0.3728284361101975 0 -0.074296989381219092 0.37382552593362889 0 -0.079622100299710563 0.3728284361101975 0 -0.078118068880294489 0.37804568649981579 0 -0.079622100299710563 0.3728284361101975 0 -0.083981908967526428 0.36623169928325189 0 -0.086632967906845618 0.37958111179560527 0 -0.072627904975830049 0.36687489661654099 0 -0.079622100299710563 0.3728284361101975 0 -0.083981908967526428 0.36623169928325189 0 -0.083981908967526428 0.36623169928325189 0 -0.091431616753984812 0.35075679943447141 0 -0.096077085514692032 0.36785809746646181 0 -0.083981908967526428 0.36623169928325189 0 -0.096077085514692032 0.36785809746646181 0 -0.086632967906845618 0.37958111179560527 0 -0.091431616753984812 0.35075679943447141 0 -0.066513844998875207 0.35449457867078799 0 -0.083189603277821447 0.34095728328990788 0 -0.091431616753984812 0.35075679943447141 0 -0.066513844998875207 0.35449457867078799 0 -0.083981908967526428 0.36623169928325189 0 -0.091431616753984812 0.35075679943447141 0 -0.066513844998875207 0.35449457867078799 0 -0.091431616753984812 0.35075679943447141 0 -0.083189603277821447 0.34095728328990788 0 -0.10093124895733829 0.34330881031635108 0 -0.053499095508060618 0.34120151107162061 0 -0.066513844998875207 0.35449457867078799 0 -0.068149107719353536 0.33563280233269732 0 -0.066513844998875207 0.35449457867078799 0 -0.068149107719353536 0.33563280233269732 0 -0.083189603277821447 0.34095728328990788 0 -0.068149107719353536 0.33563280233269732 0 -0.083189603277821447 0.34095728328990788 0 -0.080126966370801134 0.32928782491308278 0 -0.06144263305936172 0.30975985499095182 0 -0.057140802826726587 0.32663392235006339 0 -0.072388998725557679 0.31921834881778699 0 -0.057140802826726587 0.32663392235006339 0 -0.068149107719353536 0.33563280233269732 0 -0.072388998725557679 0.31921834881778699 0 -0.068149107719353536 0.33563280233269732 0 -0.072388998725557679 0.31921834881778699 0 -0.080126966370801134 0.32928782491308278 0 -0.081500047347027219 0.30722491678981773 0 -0.10211840383922551 0.32509638607342362 0 -0.081500047347027219 0.30722491678981773 0 -0.085623850229837428 0.32261807213323362 0 -0.10211840383922551 0.32509638607342362 0 -0.085623850229837428 0.32261807213323362 0 -0.09198483486657566 0.33226288407205667 0 -0.10211840383922551 0.32509638607342362 0 -0.081500047347027219 0.30722491678981773 0 -0.072388998725557679 0.31921834881778699 0 -0.085623850229837428 0.32261807213323362 0 -0.072388998725557679 0.31921834881778699 0 -0.085623850229837428 0.32261807213323362 0 -0.080126966370801134 0.32928782491308278 0 -0.085623850229837428 0.32261807213323362 0 -0.080126966370801134 0.32928782491308278 0 -0.09198483486657566 0.33226288407205667 0 -0.083189603277821447 0.34095728328990788 0 -0.09198483486657566 0.33226288407205667 0 -0.10093124895733829 0.34330881031635108 0 -0.083189603277821447 0.34095728328990788 0 -0.080126966370801134 0.32928782491308278 0 -0.09198483486657566 0.33226288407205667 0 -0.09198483486657566 0.33226288407205667 0 -0.10093124895733829 0.34330881031635108 0 -0.10444281199864081 0.33590898395471508 0 -0.10093124895733829 0.34330881031635108 0 -0.10444281199864081 0.33590898395471508 0 -0.12273676033142369 0.34296785535702928 0 -0.09198483486657566 0.33226288407205667 0 -0.10444281199864081 0.33590898395471508 0 -0.10211840383922551 0.32509638607342362 0 -0.095826473657911485 0.30154712993624239 0 -0.10211840383922551 0.32509638607342362 0 -0.1093889856449056 0.32553786335103602 0 -0.095826473657911485 0.30154712993624239 0 -0.10757383936134531 0.31432314309718629 0 -0.1093889856449056 0.32553786335103602 0 -0.095826473657911485 0.30154712993624239 0 -0.1093889856449056 0.32553786335103602 0 -0.10211840383922551 0.32509638607342362 0 -0.1093889856449056 0.32553786335103602 0 -0.1163317987956564 0.33084283613559279 0 -0.10757383936134531 0.31432314309718629 0 -0.119321205064779 0.32709915625813007 0 -0.1204582426008957 0.31405081811486402 0 -0.10757383936134531 0.31432314309718629 0 -0.1093889856449056 0.32553786335103602 0 -0.119321205064779 0.32709915625813007 0 -0.10757383936134531 0.31432314309718629 0 -0.119321205064779 0.32709915625813007 0 -0.1093889856449056 0.32553786335103602 0 -0.119321205064779 0.32709915625813007 0 -0.1163317987956564 0.33084283613559279 0 -0.1311274610351692 0.32031545001377659 0 -0.119321205064779 0.32709915625813007 0 -0.1204582426008957 0.31405081811486402 0 -0.10211840383922551 0.32509638607342362 0 -0.1163317987956564 0.33084283613559279 0 -0.12273676033142369 0.34296785535702928 0 -0.10444281199864081 0.33590898395471508 0 -0.10211840383922551 0.32509638607342362 0 -0.12273676033142369 0.34296785535702928 0 -0.10211840383922551 0.32509638607342362 0 -0.12273676033142369 0.34296785535702928 0 -0.12809363909794799 0.33351291963834501 0 -0.119321205064779 0.32709915625813007 0 -0.1163317987956564 0.33084283613559279 0 -0.12809363909794799 0.33351291963834501 0 -0.1163317987956564 0.33084283613559279 0 -0.12273676033142369 0.34296785535702928 0 -0.1349775419262422 0.35710604701876991 0 -0.11364647783324749 0.34887437037816538 0 -0.1214095853587191 0.36413711033090462 0 -0.1349775419262422 0.35710604701876991 0 -0.11364647783324749 0.34887437037816538 0 -0.1349775419262422 0.35710604701876991 0 -0.12273676033142369 0.34296785535702928 0 -0.11364647783324749 0.34887437037816538 0 -0.10093124895733829 0.34330881031635108 0 -0.12273676033142369 0.34296785535702928 0 -0.11364647783324749 0.34887437037816538 0 -0.11364647783324749 0.34887437037816538 0 -0.1214095853587191 0.36413711033090462 0 -0.1082585717649054 0.36514673062224817 0 -0.1328083900415602 0.3711206349635861 0 -0.1214095853587191 0.36413711033090462 0 -0.11735694522763999 0.37843776867175322 0 -0.1214095853587191 0.36413711033090462 0 -0.1082585717649054 0.36514673062224817 0 -0.11735694522763999 0.37843776867175322 0 -0.1082585717649054 0.36514673062224817 0 -0.096077085514692032 0.36785809746646181 0 -0.1029394954926169 0.35454134127968079 0 -0.1082585717649054 0.36514673062224817 0 -0.098688790589999298 0.3795499731601899 0 -0.11735694522763999 0.37843776867175322 0 -0.1082585717649054 0.36514673062224817 0 -0.096077085514692032 0.36785809746646181 0 -0.098688790589999298 0.3795499731601899 0 -0.11364647783324749 0.34887437037816538 0 -0.1082585717649054 0.36514673062224817 0 -0.1029394954926169 0.35454134127968079 0 -0.091431616753984812 0.35075679943447141 0 -0.096077085514692032 0.36785809746646181 0 -0.1029394954926169 0.35454134127968079 0 -0.091431616753984812 0.35075679943447141 0 -0.10093124895733829 0.34330881031635108 0 -0.1029394954926169 0.35454134127968079 0 -0.10093124895733829 0.34330881031635108 0 -0.11364647783324749 0.34887437037816538 0 -0.1029394954926169 0.35454134127968079 0 -0.10979671251488719 0.41164005624700728 0 -0.093623009684545372 0.39899708254883071 0 -0.1063284969272895 0.39192806999109919 0 -0.093623009684545372 0.39899708254883071 0 -0.089172670795036518 0.38776849011111392 0 -0.1063284969272895 0.39192806999109919 0 -0.10979671251488719 0.41164005624700728 0 -0.093623009684545372 0.39899708254883071 0 -0.1063284969272895 0.39192806999109919 0 -0.098688790589999298 0.3795499731601899 0 -0.089172670795036518 0.38776849011111392 0 -0.1063284969272895 0.39192806999109919 0 -0.098688790589999298 0.3795499731601899 0 -0.11735694522763999 0.37843776867175322 0 -0.096077085514692032 0.36785809746646181 0 -0.098688790589999298 0.3795499731601899 0 -0.086632967906845618 0.37958111179560527 0 -0.1063284969272895 0.39192806999109919 0 -0.11735694522763999 0.37843776867175322 0 -0.1214923807050364 0.39452588651853709 0 -0.13303612468219811 0.38530026937690071 0 -0.11735694522763999 0.37843776867175322 0 -0.1214923807050364 0.39452588651853709 0 -0.1214923807050364 0.39452588651853709 0 -0.10979671251488719 0.41164005624700728 0 -0.12383595548414859 0.40779885420034301 0 -0.1063284969272895 0.39192806999109919 0 -0.1214923807050364 0.39452588651853709 0 -0.10979671251488719 0.41164005624700728 0 -0.1259704153452291 0.42428302994518391 0 -0.10979671251488719 0.41164005624700728 0 -0.1112126406713691 0.42608869376496022 0 -0.1259704153452291 0.42428302994518391 0 -0.10979671251488719 0.41164005624700728 0 -0.1259704153452291 0.42428302994518391 0 -0.10979671251488719 0.41164005624700728 0 -0.12383595548414859 0.40779885420034301 0 -0.1259704153452291 0.42428302994518391 0 -0.1244297334730869 0.4272764835040414 0 -0.1112126406713691 0.42608869376496022 0 -0.1244297334730869 0.4272764835040414 0 -0.1112126406713691 0.42608869376496022 0 -0.11523573852528859 0.43769027782701359 0 -0.1112126406713691 0.42608869376496022 0 -0.098359403805852508 0.43636700177652582 0 -0.092059515790145277 0.41658699873088512 0 -0.1112126406713691 0.42608869376496022 0 -0.098359403805852508 0.43636700177652582 0 -0.11523573852528859 0.43769027782701359 0 -0.10979671251488719 0.41164005624700728 0 -0.1112126406713691 0.42608869376496022 0 -0.092059515790145277 0.41658699873088512 0 -0.10979671251488719 0.41164005624700728 0 -0.092059515790145277 0.41658699873088512 0 -0.093623009684545372 0.39899708254883071 0 -0.092059515790145277 0.41658699873088512 0 -0.07037860674125726 0.41008946054005829 0 -0.082362398410455978 0.40214278949546878 0 -0.092059515790145277 0.41658699873088512 0 -0.080455004977953465 0.43226162754143188 0 -0.07037860674125726 0.41008946054005829 0 -0.098359403805852508 0.43636700177652582 0 -0.092059515790145277 0.41658699873088512 0 -0.080455004977953465 0.43226162754143188 0 -0.080455004977953465 0.43226162754143188 0 -0.063307906628310998 0.43382481222946251 0 -0.07037860674125726 0.41008946054005829 0 -0.063307906628310998 0.43382481222946251 0 -0.07037860674125726 0.41008946054005829 0 -0.063307906628310998 0.43382481222946251 0 -0.07037860674125726 0.41008946054005829 0 -0.058687525430113609 0.41928478070503938 0 -0.07037860674125726 0.41008946054005829 0 -0.069844019095377852 0.3877401080448511 0 -0.051006434948720293 0.40755172643713761 0 -0.07037860674125726 0.41008946054005829 0 -0.082362398410455978 0.40214278949546878 0 -0.077449306854203523 0.38635410885065402 0 -0.07037860674125726 0.41008946054005829 0 -0.077449306854203523 0.38635410885065402 0 -0.07037860674125726 0.41008946054005829 0 -0.077449306854203523 0.38635410885065402 0 -0.069844019095377852 0.3877401080448511 0 -0.092059515790145277 0.41658699873088512 0 -0.082362398410455978 0.40214278949546878 0 -0.093623009684545372 0.39899708254883071 0 -0.093623009684545372 0.39899708254883071 0 -0.077449306854203523 0.38635410885065402 0 -0.093623009684545372 0.39899708254883071 0 -0.089172670795036518 0.38776849011111392 0 -0.077449306854203523 0.38635410885065402 0 -0.082362398410455978 0.40214278949546878 0 -0.093623009684545372 0.39899708254883071 0 -0.077449306854203523 0.38635410885065402 0 -0.098688790589999298 0.3795499731601899 0 -0.086632967906845618 0.37958111179560527 0 -0.089172670795036518 0.38776849011111392 0 -0.086632967906845618 0.37958111179560527 0 -0.089172670795036518 0.38776849011111392 0 -0.078586443088277863 0.38253690150154018 0 -0.089172670795036518 0.38776849011111392 0 -0.078586443088277863 0.38253690150154018 0 -0.077449306854203523 0.38635410885065402 0 -0.086632967906845618 0.37958111179560527 0 -0.078586443088277863 0.38253690150154018 0 -0.078118068880294489 0.37804568649981579 0 -0.079622100299710563 0.3728284361101975 0 -0.086632967906845618 0.37958111179560527 0 -0.078118068880294489 0.37804568649981579 0 -0.074296989381219092 0.37382552593362889 0 -0.078118068880294489 0.37804568649981579 0 -0.072909538184918715 0.37881335299140328 0 -0.078586443088277863 0.38253690150154018 0 -0.078118068880294489 0.37804568649981579 0 -0.07533034421307605 0.38153030697086382 0 -0.078118068880294489 0.37804568649981579 0 -0.07533034421307605 0.38153030697086382 0 -0.072909538184918715 0.37881335299140328 0 -0.07533034421307605 0.38153030697086382 0 -0.072909538184918715 0.37881335299140328 0 -0.071324856361867764 0.38325889999244439 0 -0.072909538184918715 0.37881335299140328 0 -0.071324856361867764 0.38325889999244439 0 -0.066816216070952755 0.37922864632172387 0 -0.068207334565341643 0.37256525745018682 0 -0.074296989381219092 0.37382552593362889 0 -0.072909538184918715 0.37881335299140328 0 -0.075712814550021462 0.38499669386911539 0 -0.077449306854203523 0.38635410885065402 0 -0.069844019095377852 0.3877401080448511 0 -0.075712814550021462 0.38499669386911539 0 -0.077449306854203523 0.38635410885065402 0 -0.078586443088277863 0.38253690150154018 0 -0.07533034421307605 0.38153030697086382 0 -0.075712814550021462 0.38499669386911539 0 -0.078586443088277863 0.38253690150154018 0 -0.077449306854203523 0.38635410885065402 0 -0.078586443088277863 0.38253690150154018 0 -0.075712814550021462 0.38499669386911539 0 -0.077449306854203523 0.38635410885065402 0 -0.07533034421307605 0.38153030697086382 0 -0.075712814550021462 0.38499669386911539 0 -0.071324856361867764 0.38325889999244439 0 -0.075712814550021462 0.38499669386911539 0 -0.071324856361867764 0.38325889999244439 0 -0.069844019095377852 0.3877401080448511 0 -0.069844019095377852 0.3877401080448511 0 -0.065147433613186242 0.38523072207045389 0 -0.057109863342006448 0.39396786567846831 0 -0.071324856361867764 0.38325889999244439 0 -0.069844019095377852 0.3877401080448511 0 -0.065147433613186242 0.38523072207045389 0 -0.068207334565341643 0.37256525745018682 0 -0.072909538184918715 0.37881335299140328 0 -0.066816216070952755 0.37922864632172387 0 -0.071324856361867764 0.38325889999244439 0 -0.065147433613186242 0.38523072207045389 0 -0.066816216070952755 0.37922864632172387 0 -0.065147433613186242 0.38523072207045389 0 -0.066816216070952755 0.37922864632172387 0 -0.060642213195726449 0.38195809031478201 0 -0.061330546677696128 0.37463217708822222 0 -0.066816216070952755 0.37922864632172387 0 -0.060642213195726449 0.38195809031478201 0 -0.061330546677696128 0.37463217708822222 0 -0.068207334565341643 0.37256525745018682 0 -0.066816216070952755 0.37922864632172387 0 -0.061330546677696128 0.37463217708822222 0 -0.057839250183329707 0.37800355178598671 0 -0.060642213195726449 0.38195809031478201 0 -0.055051533442412232 0.37362620421166209 0 -0.057839250183329707 0.37800355178598671 0 -0.053492469876355822 0.38174850791083398 0 -0.055051533442412232 0.37362620421166209 0 -0.061330546677696128 0.37463217708822222 0 -0.057839250183329707 0.37800355178598671 0 -0.057839250183329707 0.37800355178598671 0 -0.060642213195726449 0.38195809031478201 0 -0.053492469876355822 0.38174850791083398 0 -0.060642213195726449 0.38195809031478201 0 -0.053492469876355822 0.38174850791083398 0 -0.057109863342006448 0.39396786567846831 0 -0.065147433613186242 0.38523072207045389 0 -0.060642213195726449 0.38195809031478201 0 -0.057109863342006448 0.39396786567846831 0 -0.053492469876355822 0.38174850791083398 0 -0.057109863342006448 0.39396786567846831 0 -0.046189971643804 0.38563129249772071 0 -0.055051533442412232 0.37362620421166209 0 -0.048575628078135653 0.3794824683704815 0 -0.053492469876355822 0.38174850791083398 0 -0.04713920426734327 0.37434655365944491 0 -0.055051533442412232 0.37362620421166209 0 -0.048575628078135653 0.3794824683704815 0 -0.048575628078135653 0.3794824683704815 0 -0.053492469876355822 0.38174850791083398 0 -0.046189971643804 0.38563129249772071 0 -0.069844019095377852 0.3877401080448511 0 -0.057109863342006448 0.39396786567846831 0 -0.051006434948720293 0.40755172643713761 0 -0.069844019095377852 0.3877401080448511 0 -0.051006434948720293 0.40755172643713761 0 -0.057109863342006448 0.39396786567846831 0 -0.043643013881266998 0.39527459794301578 0 -0.051006434948720293 0.40755172643713761 0 -0.057109863342006448 0.39396786567846831 0 -0.043643013881266998 0.39527459794301578 0 -0.032577727341914393 0.38748851950702318 0 -0.057109863342006448 0.39396786567846831 0 -0.032577727341914393 0.38748851950702318 0 -0.040936155916544079 0.40284032338139569 0 -0.043643013881266998 0.39527459794301578 0 -0.051006434948720293 0.40755172643713761 0 -0.040936155916544079 0.40284032338139569 0 -0.043643013881266998 0.39527459794301578 0 -0.034370346801040112 0.40109168266258488 0 -0.043643013881266998 0.39527459794301578 0 -0.035103164328632523 0.39359312146863279 0 -0.034370346801040112 0.40109168266258488 0 -0.035103164328632523 0.39359312146863279 0 -0.034370346801040112 0.40109168266258488 0 -0.03042403338509329 0.39238978629384452 0 -0.043643013881266998 0.39527459794301578 0 -0.035103164328632523 0.39359312146863279 0 -0.032577727341914393 0.38748851950702318 0 -0.035103164328632523 0.39359312146863279 0 -0.032577727341914393 0.38748851950702318 0 -0.03042403338509329 0.39238978629384452 0 -0.040936155916544079 0.40284032338139569 0 -0.034370346801040112 0.40109168266258488 0 -0.035665839611380673 0.40990454061120413 0 -0.057109863342006448 0.39396786567846831 0 -0.046189971643804 0.38563129249772071 0 -0.032577727341914393 0.38748851950702318 0 -0.042830873347280467 0.3789885947930452 0 -0.046189971643804 0.38563129249772071 0 -0.037633117652702892 0.38218678707983261 0 -0.042830873347280467 0.3789885947930452 0 -0.037633117652702892 0.38218678707983261 0 -0.038295824535547182 0.37803051746238509 0 -0.039531892278341009 0.37361411869263561 0 -0.042830873347280467 0.3789885947930452 0 -0.038295824535547182 0.37803051746238509 0 -0.04713920426734327 0.37434655365944491 0 -0.048575628078135653 0.3794824683704815 0 -0.042830873347280467 0.3789885947930452 0 -0.039531892278341009 0.37361411869263561 0 -0.04713920426734327 0.37434655365944491 0 -0.042830873347280467 0.3789885947930452 0 -0.048575628078135653 0.3794824683704815 0 -0.042830873347280467 0.3789885947930452 0 -0.046189971643804 0.38563129249772071 0 -0.046189971643804 0.38563129249772071 0 -0.032577727341914393 0.38748851950702318 0 -0.037633117652702892 0.38218678707983261 0 -0.032577727341914393 0.38748851950702318 0 -0.03293603471786119 0.38286744889382379 0 -0.02899774776526198 0.38163099628876079 0 -0.032577727341914393 0.38748851950702318 0 -0.03293603471786119 0.38286744889382379 0 -0.037633117652702892 0.38218678707983261 0 -0.03293603471786119 0.38286744889382379 0 -0.033950330498272528 0.37949650625164111 0 -0.037633117652702892 0.38218678707983261 0 -0.03293603471786119 0.38286744889382379 0 -0.033950330498272528 0.37949650625164111 0 -0.02899774776526198 0.38163099628876079 0 -0.033950330498272528 0.37949650625164111 0 -0.037633117652702892 0.38218678707983261 0 -0.038295824535547182 0.37803051746238509 0 -0.033254674850131373 0.37318605779764707 0 -0.033950330498272528 0.37949650625164111 0 -0.038295824535547182 0.37803051746238509 0 -0.033254674850131373 0.37318605779764707 0 -0.033950330498272528 0.37949650625164111 0 -0.026700945513074972 0.37586294977960671 0 -0.032577727341914393 0.38748851950702318 0 -0.0080455913418213676 0.38100917333558221 0 -0.032577727341914393 0.38748851950702318 0 -0.023884054020430531 0.37978208630275351 0 -0.014281344412804689 0.37979282823332128 0 -0.032577727341914393 0.38748851950702318 0 -0.01718364103011082 0.39073283188216751 0 -0.0080455913418213676 0.38100917333558221 0 -0.032577727341914393 0.38748851950702318 0 -0.0080455913418213676 0.38100917333558221 0 -0.014281344412804689 0.37979282823332128 0 -0.033950330498272528 0.37949650625164111 0 -0.02899774776526198 0.38163099628876079 0 -0.026700945513074972 0.37586294977960671 0 -0.02899774776526198 0.38163099628876079 0 -0.023884054020430531 0.37978208630275351 0 -0.026700945513074972 0.37586294977960671 0 -0.02072758592548482 0.37339846111204489 0 -0.023884054020430531 0.37978208630275351 0 -0.026700945513074972 0.37586294977960671 0 -0.02072758592548482 0.37339846111204489 0 -0.023884054020430531 0.37978208630275351 0 -0.014281344412804689 0.37979282823332128 0 -0.032577727341914393 0.38748851950702318 0 -0.02899774776526198 0.38163099628876079 0 -0.023884054020430531 0.37978208630275351 0 -0.032577727341914393 0.38748851950702318 0 -0.025290582983321999 0.39225950924495068 0 -0.01718364103011082 0.39073283188216751 0 -0.03042403338509329 0.39238978629384452 0 -0.025290582983321999 0.39225950924495068 0 -0.0209769301761695 0.39842689929676778 0 -0.032577727341914393 0.38748851950702318 0 -0.03042403338509329 0.39238978629384452 0 -0.025290582983321999 0.39225950924495068 0 -0.03042403338509329 0.39238978629384452 0 -0.020532662567774449 0.41276426397874372 0 -0.034370346801040112 0.40109168266258488 0 -0.03042403338509329 0.39238978629384452 0 -0.020532662567774449 0.41276426397874372 0 -0.03042403338509329 0.39238978629384452 0 -0.0209769301761695 0.39842689929676778 0 -0.020532662567774449 0.41276426397874372 0 -0.0209769301761695 0.39842689929676778 0 -0.013097030378423269 0.40343531593127452 0 -0.020532662567774449 0.41276426397874372 0 -0.0209769301761695 0.39842689929676778 0 -0.01718364103011082 0.39073283188216751 0 -0.013097030378423269 0.40343531593127452 0 -0.025290582983321999 0.39225950924495068 0 -0.0209769301761695 0.39842689929676778 0 -0.01718364103011082 0.39073283188216751 0 -0.01718364103011082 0.39073283188216751 0 -0.013097030378423269 0.40343531593127452 0 -0.0080455913418213676 0.38100917333558221 0 -0.013097030378423269 0.40343531593127452 0 -0.0080455913418213676 0.38100917333558221 0 -0.013097030378423269 0.40343531593127452 0 -0.0024500114761617699 0.39007727404992448 0 -0.0080455913418213676 0.38100917333558221 0 -0.013097030378423269 0.40343531593127452 0 -0.0024500114761617699 0.39007727404992448 0 -0.0041407497796918259 0.4126946011504517 0 -0.013097030378423269 0.40343531593127452 0 -0.0024500114761617699 0.39007727404992448 0 -0.0024500114761617699 0.39007727404992448 0 -0.0080455913418213676 0.38100917333558221 0 0.0081970074261016289 0.37671923216857628 0 -0.011545606085483001 0.37035237353726019 0 -0.0080455913418213676 0.38100917333558221 0 -0.014281344412804689 0.37979282823332128 0 -0.0090473534328034469 0.43642197320796999 0 -0.016888937090431742 0.4202696952075492 0 0.001140924859785797 0.42442078218371693 0 -0.0090473534328034469 0.43642197320796999 0 -0.016888937090431742 0.4202696952075492 0 -0.0090473534328034469 0.43642197320796999 0 0.0052292096928386721 0.43797530083799202 0 0.001140924859785797 0.42442078218371693 0 -0.013097030378423269 0.40343531593127452 0 -0.016888937090431742 0.4202696952075492 0 -0.013097030378423269 0.40343531593127452 0 -0.0041407497796918259 0.4126946011504517 0 -0.016888937090431742 0.4202696952075492 0 -0.0041407497796918259 0.4126946011504517 0 -0.016888937090431742 0.4202696952075492 0 0.001140924859785797 0.42442078218371693 0 -0.013097030378423269 0.40343531593127452 0 -0.016888937090431742 0.4202696952075492 0 -0.020532662567774449 0.41276426397874372 0 -0.016888937090431742 0.4202696952075492 0 -0.020532662567774449 0.41276426397874372 0 -0.032168850802060771 0.42736334482942218 0 -0.020532662567774449 0.41276426397874372 0 -0.032168850802060771 0.42736334482942218 0 -0.035665839611380673 0.40990454061120413 0 -0.016888937090431742 0.4202696952075492 0 -0.020532662567774449 0.41276426397874372 0 -0.013097030378423269 0.40343531593127452 0 -0.020532662567774449 0.41276426397874372 0 -0.034370346801040112 0.40109168266258488 0 -0.020532662567774449 0.41276426397874372 0 -0.035665839611380673 0.40990454061120413 0 -0.020532662567774449 0.41276426397874372 0 -0.032168850802060771 0.42736334482942218 0 -0.016888937090431742 0.4202696952075492 0 -0.032168850802060771 0.42736334482942218 0 -0.021107209764115412 0.43899694971898778 0 -0.016888937090431742 0.4202696952075492 0 -0.021107209764115412 0.43899694971898778 0 -0.0090473534328034469 0.43642197320796999 0 -0.016888937090431742 0.4202696952075492 0 -0.021107209764115412 0.43899694971898778 0 -0.032168850802060771 0.42736334482942218 0 -0.032699126294609582 0.44573887461471262 0 -0.021107209764115412 0.43899694971898778 0 -0.032168850802060771 0.42736334482942218 0 -0.021107209764115412 0.43899694971898778 0 -0.032168850802060771 0.42736334482942218 0 -0.044203028658713027 0.44246175437414448 0 -0.032168850802060771 0.42736334482942218 0 -0.050057153402165898 0.42567312361349963 0 -0.044203028658713027 0.44246175437414448 0 -0.032168850802060771 0.42736334482942218 0 -0.051006434948720293 0.40755172643713761 0 -0.032168850802060771 0.42736334482942218 0 -0.035665839611380673 0.40990454061120413 0 -0.051006434948720293 0.40755172643713761 0 -0.032168850802060771 0.42736334482942218 0 -0.051006434948720293 0.40755172643713761 0 -0.050057153402165898 0.42567312361349963 0 -0.040936155916544079 0.40284032338139569 0 -0.035665839611380673 0.40990454061120413 0 -0.051006434948720293 0.40755172643713761 0 -0.051006434948720293 0.40755172643713761 0 -0.058687525430113609 0.41928478070503938 0 -0.050057153402165898 0.42567312361349963 0 -0.07037860674125726 0.41008946054005829 0 -0.051006434948720293 0.40755172643713761 0 -0.058687525430113609 0.41928478070503938 0 -0.063307906628310998 0.43382481222946251 0 -0.050057153402165898 0.42567312361349963 0 -0.044203028658713027 0.44246175437414448 0 -0.063307906628310998 0.43382481222946251 0 -0.058687525430113609 0.41928478070503938 0 -0.050057153402165898 0.42567312361349963 0 -0.063307906628310998 0.43382481222946251 0 -0.056237206515365332 0.45756016391886689 0 -0.063307906628310998 0.43382481222946251 0 -0.056237206515365332 0.45756016391886689 0 -0.044203028658713027 0.44246175437414448 0 -0.056237206515365332 0.45756016391886689 0 -0.042152133627481818 0.45554876784326098 0 -0.044203028658713027 0.44246175437414448 0 -0.056237206515365332 0.45756016391886689 0 -0.044203028658713027 0.44246175437414448 0 -0.056237206515365332 0.45756016391886689 0 -0.052690226777929519 0.46946687897655498 0 -0.069809382383106605 0.47508386593104618 0 -0.056237206515365332 0.45756016391886689 0 -0.042152133627481818 0.45554876784326098 0 -0.052690226777929519 0.46946687897655498 0 -0.056237206515365332 0.45756016391886689 0 -0.052690226777929519 0.46946687897655498 0 -0.025997751160904751 0.46070877835630603 0 -0.052690226777929519 0.46946687897655498 0 -0.042152133627481818 0.45554876784326098 0 -0.032699126294609582 0.44573887461471262 0 -0.025997751160904751 0.46070877835630603 0 -0.042152133627481818 0.45554876784326098 0 -0.025997751160904751 0.46070877835630603 0 -0.052690226777929519 0.46946687897655498 0 -0.025997751160904751 0.46070877835630603 0 -0.043186784380489729 0.4745471358312699 0 -0.052690226777929519 0.46946687897655498 0 -0.032168850802060771 0.42736334482942218 0 -0.044203028658713027 0.44246175437414448 0 -0.032699126294609582 0.44573887461471262 0 -0.042152133627481818 0.45554876784326098 0 -0.044203028658713027 0.44246175437414448 0 -0.032699126294609582 0.44573887461471262 0 -0.021107209764115412 0.43899694971898778 0 -0.025997751160904751 0.46070877835630603 0 -0.021107209764115412 0.43899694971898778 0 -0.015987582525798801 0.44438129732783038 0 -0.025997751160904751 0.46070877835630603 0 -0.032699126294609582 0.44573887461471262 0 -0.021107209764115412 0.43899694971898778 0 -0.025997751160904751 0.46070877835630603 0 -0.021107209764115412 0.43899694971898778 0 -0.015987582525798801 0.44438129732783038 0 -0.025997751160904751 0.46070877835630603 0 -0.0012057697751756359 0.45257425120839118 0 -0.025997751160904751 0.46070877835630603 0 -0.0068168678449093151 0.46757638146000302 0 -0.0012057697751756359 0.45257425120839118 0 -0.0068168678449093151 0.46757638146000302 0 0.003537016766246162 0.47294299582239979 0 0.0032794996504289901 0.46181311440647571 0 -0.0068168678449093151 0.46757638146000302 0 -0.0012057697751756359 0.45257425120839118 0 0.0032794996504289901 0.46181311440647571 0 -0.0090473534328034469 0.43642197320796999 0 -0.015987582525798801 0.44438129732783038 0 -0.0012057697751756359 0.45257425120839118 0 -0.0090473534328034469 0.43642197320796999 0 -0.0012057697751756359 0.45257425120839118 0 0.0052292096928386721 0.43797530083799202 0 -0.015987582525798801 0.44438129732783038 0 -0.025997751160904751 0.46070877835630603 0 -0.0012057697751756359 0.45257425120839118 0 -0.0090473534328034469 0.43642197320796999 0 -0.0012057697751756359 0.45257425120839118 0 -0.0090473534328034469 0.43642197320796999 0 -0.021107209764115412 0.43899694971898778 0 -0.015987582525798801 0.44438129732783038 0 -0.012175621420050461 0.5 0 -0.0036930259881434641 0.48121213739285151 0 -0.0158212295954137 0.47797033727746302 0 -0.012175621420050461 0.5 0 -0.0036930259881434641 0.48121213739285151 0 0.010496769125121539 0.5 0 -0.0068168678449093151 0.46757638146000302 0 -0.0036930259881434641 0.48121213739285151 0 0.003537016766246162 0.47294299582239979 0 -0.0068168678449093151 0.46757638146000302 0 -0.0036930259881434641 0.48121213739285151 0 -0.0158212295954137 0.47797033727746302 0 -0.025997751160904751 0.46070877835630603 0 -0.03042288156306247 0.4803543891781541 0 -0.025997751160904751 0.46070877835630603 0 -0.03042288156306247 0.4803543891781541 0 -0.0158212295954137 0.47797033727746302 0 -0.025997751160904751 0.46070877835630603 0 -0.0068168678449093151 0.46757638146000302 0 -0.0158212295954137 0.47797033727746302 0 -0.012175621420050461 0.5 0 -0.03042288156306247 0.4803543891781541 0 -0.0158212295954137 0.47797033727746302 0 -0.012175621420050461 0.5 0 -0.03042288156306247 0.4803543891781541 0 -0.034848011965222567 0.50000000000000189 0 -0.03042288156306247 0.4803543891781541 0 -0.034848011965222567 0.50000000000000189 0 -0.047552153902896493 0.4882146319696109 0 -0.03042288156306247 0.4803543891781541 0 -0.034848011965222567 0.50000000000000189 0 -0.025997751160904751 0.46070877835630603 0 -0.03042288156306247 0.4803543891781541 0 -0.043186784380489729 0.4745471358312699 0 -0.03042288156306247 0.4803543891781541 0 -0.043186784380489729 0.4745471358312699 0 -0.047552153902896493 0.4882146319696109 0 -0.052690226777929519 0.46946687897655498 0 -0.069809382383106605 0.47508386593104618 0 -0.052690226777929519 0.46946687897655498 0 -0.057131913950100532 0.47652667375143232 0 -0.069809382383106605 0.47508386593104618 0 -0.043186784380489729 0.4745471358312699 0 -0.052087602265145999 0.47148980521003842 0 -0.052690226777929519 0.46946687897655498 0 -0.043186784380489729 0.4745471358312699 0 -0.052087602265145999 0.47148980521003842 0 -0.05089159663797025 0.47900035936305119 0 -0.052087602265145999 0.47148980521003842 0 -0.052690226777929519 0.46946687897655498 0 -0.057131913950100532 0.47652667375143232 0 -0.052087602265145999 0.47148980521003842 0 -0.052690226777929519 0.46946687897655498 0 -0.052087602265145999 0.47148980521003842 0 -0.05089159663797025 0.47900035936305119 0 -0.057131913950100532 0.47652667375143232 0 -0.043186784380489729 0.4745471358312699 0 -0.05089159663797025 0.47900035936305119 0 -0.047552153902896493 0.4882146319696109 0 -0.05089159663797025 0.47900035936305119 0 -0.047552153902896493 0.4882146319696109 0 -0.055837240648395743 0.48507052056643618 0 -0.05089159663797025 0.47900035936305119 0 -0.057131913950100532 0.47652667375143232 0 -0.055837240648395743 0.48507052056643618 0 -0.057131913950100532 0.47652667375143232 0 -0.055837240648395743 0.48507052056643618 0 -0.064801945675512049 0.48440993632771451 0 -0.034848011965222567 0.50000000000000189 0 -0.047552153902896493 0.4882146319696109 0 -0.060667811057645737 0.5 0 -0.047552153902896493 0.4882146319696109 0 -0.055837240648395743 0.48507052056643618 0 -0.060667811057645737 0.5 0 -0.055837240648395743 0.48507052056643618 0 -0.060667811057645737 0.5 0 -0.064801945675512049 0.48440993632771451 0 -0.064801945675512049 0.48440993632771451 0 -0.073109514124694797 0.49074879446152769 0 -0.080480689615552492 0.47858524151839638 0 -0.060667811057645737 0.5 0 -0.073109514124694797 0.49074879446152769 0 -0.086487610150068894 0.5 0 -0.060667811057645737 0.5 0 -0.064801945675512049 0.48440993632771451 0 -0.073109514124694797 0.49074879446152769 0 -0.073109514124694797 0.49074879446152769 0 -0.086487610150068894 0.5 0 -0.080480689615552492 0.47858524151839638 0 -0.086487610150068894 0.5 0 -0.080480689615552492 0.47858524151839638 0 -0.097282347084511778 0.48351931274560622 0 -0.091892009439824188 0.47080085639346281 0 -0.080480689615552492 0.47858524151839638 0 -0.097282347084511778 0.48351931274560622 0 -0.091892009439824188 0.47080085639346281 0 -0.080480689615552492 0.47858524151839638 0 -0.07880245006367799 0.46855860761380819 0 -0.057131913950100532 0.47652667375143232 0 -0.064801945675512049 0.48440993632771451 0 -0.080480689615552492 0.47858524151839638 0 -0.080480689615552492 0.47858524151839638 0 -0.069809382383106605 0.47508386593104618 0 -0.07880245006367799 0.46855860761380819 0 -0.057131913950100532 0.47652667375143232 0 -0.080480689615552492 0.47858524151839638 0 -0.069809382383106605 0.47508386593104618 0 -0.080480689615552492 0.47858524151839638 0 -0.069809382383106605 0.47508386593104618 0 -0.056237206515365332 0.45756016391886689 0 -0.069809382383106605 0.47508386593104618 0 -0.070435863530345574 0.4611014091045279 0 -0.056237206515365332 0.45756016391886689 0 -0.070435863530345574 0.4611014091045279 0 -0.073258815974014763 0.44790547569480171 0 -0.056237206515365332 0.45756016391886689 0 -0.069809382383106605 0.47508386593104618 0 -0.070435863530345574 0.4611014091045279 0 -0.073258815974014763 0.44790547569480171 0 -0.081279095019410316 0.45757279706924348 0 -0.069809382383106605 0.47508386593104618 0 -0.070435863530345574 0.4611014091045279 0 -0.07880245006367799 0.46855860761380819 0 -0.070435863530345574 0.4611014091045279 0 -0.07880245006367799 0.46855860761380819 0 -0.081279095019410316 0.45757279706924348 0 -0.063307906628310998 0.43382481222946251 0 -0.056237206515365332 0.45756016391886689 0 -0.073258815974014763 0.44790547569480171 0 -0.080455004977953465 0.43226162754143188 0 -0.063307906628310998 0.43382481222946251 0 -0.073258815974014763 0.44790547569480171 0 -0.080455004977953465 0.43226162754143188 0 -0.073258815974014763 0.44790547569480171 0 -0.087837819172702641 0.44511204430527768 0 -0.087837819172702641 0.44511204430527768 0 -0.081279095019410316 0.45757279706924348 0 -0.1013019871340065 0.45050783700113939 0 -0.098359403805852508 0.43636700177652582 0 -0.080455004977953465 0.43226162754143188 0 -0.087837819172702641 0.44511204430527768 0 -0.073258815974014763 0.44790547569480171 0 -0.087837819172702641 0.44511204430527768 0 -0.081279095019410316 0.45757279706924348 0 -0.091892009439824188 0.47080085639346281 0 -0.07880245006367799 0.46855860761380819 0 -0.081279095019410316 0.45757279706924348 0 -0.081279095019410316 0.45757279706924348 0 -0.10930659836665479 0.46771669089506163 0 -0.1013019871340065 0.45050783700113939 0 -0.081279095019410316 0.45757279706924348 0 -0.10930659836665479 0.46771669089506163 0 -0.091892009439824188 0.47080085639346281 0 -0.081279095019410316 0.45757279706924348 0 -0.10930659836665479 0.46771669089506163 0 -0.098359403805852508 0.43636700177652582 0 -0.1013019871340065 0.45050783700113939 0 -0.11523573852528859 0.43769027782701359 0 -0.098359403805852508 0.43636700177652582 0 -0.087837819172702641 0.44511204430527768 0 -0.1013019871340065 0.45050783700113939 0 -0.13624442315839061 0.43231421562475381 0 -0.11523573852528859 0.43769027782701359 0 -0.1227755107625234 0.45001545325990822 0 -0.1013019871340065 0.45050783700113939 0 -0.11523573852528859 0.43769027782701359 0 -0.1227755107625234 0.45001545325990822 0 -0.1294134865506549 0.46171504414127501 0 -0.10930659836665479 0.46771669089506163 0 -0.1227755107625234 0.45001545325990822 0 -0.10930659836665479 0.46771669089506163 0 -0.1013019871340065 0.45050783700113939 0 -0.1227755107625234 0.45001545325990822 0 -0.10930659836665479 0.46771669089506163 0 -0.1227755107625234 0.45001545325990822 0 -0.13762824545901681 0.47796704311223098 0 -0.10930659836665479 0.46771669089506163 0 -0.1193475938167666 0.48446108402926802 0 -0.13762824545901681 0.47796704311223098 0 -0.10930659836665479 0.46771669089506163 0 -0.1193475938167666 0.48446108402926802 0 -0.1123074092424919 0.5 0 -0.097282347084511778 0.48351931274560622 0 -0.1381272083349151 0.5 0 -0.1193475938167666 0.48446108402926802 0 -0.1123074092424919 0.5 0 -0.086487610150068894 0.5 0 -0.1123074092424919 0.5 0 -0.097282347084511778 0.48351931274560622 0 -0.10930659836665479 0.46771669089506163 0 -0.1193475938167666 0.48446108402926802 0 -0.097282347084511778 0.48351931274560622 0 -0.10930659836665479 0.46771669089506163 0 -0.097282347084511778 0.48351931274560622 0 -0.091892009439824188 0.47080085639346281 0 -0.10930659836665479 0.46771669089506163 0 -0.097282347084511778 0.48351931274560622 0 -0.1664795783883187 0.087933616683675359 0 -0.1616816085775587 0.066836450223585087 0 -0.14732188859761641 0.084102191700312703 0 -0.1664795783883187 0.087933616683675359 0 -0.1616816085775587 0.066836450223585087 0 -0.17792028218336031 0.076045587858175168 0 -0.1616816085775587 0.066836450223585087 0 -0.17792028218336031 0.076045587858175168 0 -0.1778967441180816 0.059200252415486349 0 -0.17792028218336031 0.076045587858175168 0 -0.1778967441180816 0.059200252415486349 0 -0.19497975667281039 0.075296381703145926 0 -0.1664795783883187 0.087933616683675359 0 -0.17792028218336031 0.076045587858175168 0 -0.1822385647073175 0.09153261707041517 0 -0.17792028218336031 0.076045587858175168 0 -0.1822385647073175 0.09153261707041517 0 -0.19497975667281039 0.075296381703145926 0 -0.1822385647073175 0.09153261707041517 0 -0.18657352622541151 0.1062610852075284 0 -0.16917214231507299 0.10892462840946041 0 -0.1664795783883187 0.087933616683675359 0 -0.1822385647073175 0.09153261707041517 0 -0.16917214231507299 0.10892462840946041 0 -0.18657352622541151 0.1062610852075284 0 -0.1848176702866047 0.1219066283579336 0 -0.16917214231507299 0.10892462840946041 0 -0.1848176702866047 0.1219066283579336 0 -0.16917214231507299 0.10892462840946041 0 -0.1677540350350113 0.1322782621298946 0 -0.16917214231507299 0.10892462840946041 0 -0.14876203513099809 0.1208033907365498 0 -0.1677540350350113 0.1322782621298946 0 -0.1664795783883187 0.087933616683675359 0 -0.16917214231507299 0.10892462840946041 0 -0.1485771681973829 0.10031378251288239 0 -0.1664795783883187 0.087933616683675359 0 -0.1485771681973829 0.10031378251288239 0 -0.1485771681973829 0.10031378251288239 0 -0.14876203513099809 0.1208033907365498 0 -0.13067475800644701 0.1126939483420895 0 -0.16917214231507299 0.10892462840946041 0 -0.1485771681973829 0.10031378251288239 0 -0.14876203513099809 0.1208033907365498 0 -0.14876203513099809 0.1208033907365498 0 -0.13067475800644701 0.1126939483420895 0 -0.13459882766559439 0.12897230796523529 0 -0.13067475800644701 0.1126939483420895 0 -0.13459882766559439 0.12897230796523529 0 -0.1127466942094318 0.12503701762628699 0 -0.1485771681973829 0.10031378251288239 0 -0.13067475800644701 0.1126939483420895 0 -0.13582427398330771 0.095985719679065981 0 -0.13067475800644701 0.1126939483420895 0 -0.13582427398330771 0.095985719679065981 0 -0.12143729396583169 0.099971290508659591 0 -0.1485771681973829 0.10031378251288239 0 -0.13067475800644701 0.1126939483420895 0 -0.13582427398330771 0.095985719679065981 0 -0.13111026114926039 0.082847385331385665 0 -0.12143729396583169 0.099971290508659591 0 -0.13582427398330771 0.095985719679065981 0 -0.13111026114926039 0.082847385331385665 0 -0.14732188859761641 0.084102191700312703 0 -0.1485771681973829 0.10031378251288239 0 -0.13582427398330771 0.095985719679065981 0 -0.14732188859761641 0.084102191700312703 0 -0.1664795783883187 0.087933616683675359 0 -0.1485771681973829 0.10031378251288239 0 -0.14732188859761641 0.084102191700312703 0 -0.13111026114926039 0.082847385331385665 0 -0.14732188859761641 0.084102191700312703 0 -0.14417747662490171 0.068149007789455388 0 -0.1616816085775587 0.066836450223585087 0 -0.14732188859761641 0.084102191700312703 0 -0.14417747662490171 0.068149007789455388 0 -0.13111026114926039 0.082847385331385665 0 -0.14417747662490171 0.068149007789455388 0 -0.12780311571555611 0.06156812789504388 0 -0.12780311571555611 0.06156812789504388 0 -0.14774160736025721 0.047102116524373183 0 -0.1212523547240404 0.040639067568820852 0 -0.14417747662490171 0.068149007789455388 0 -0.12780311571555611 0.06156812789504388 0 -0.14774160736025721 0.047102116524373183 0 -0.14774160736025721 0.047102116524373183 0 -0.14149261918275319 0.025188296707684028 0 -0.1212523547240404 0.040639067568820852 0 -0.14774160736025721 0.047102116524373183 0 -0.14149261918275319 0.025188296707684028 0 -0.16247717735220599 0.026627257640726921 0 -0.1616816085775587 0.066836450223585087 0 -0.14417747662490171 0.068149007789455388 0 -0.14774160736025721 0.047102116524373183 0 -0.14149261918275319 0.025188296707684028 0 -0.12243433634289071 0.021276196369224291 0 -0.1212523547240404 0.040639067568820852 0 -0.13296179499841851 0.0059486398834025503 0 -0.14149261918275319 0.025188296707684028 0 -0.12243433634289071 0.021276196369224291 0 -0.14149261918275319 0.025188296707684028 0 -0.15622160541765129 0.0041525486497314794 0 -0.16247717735220599 0.026627257640726921 0 -0.13296179499841851 0.0059486398834025503 0 -0.14149261918275319 0.025188296707684028 0 -0.15622160541765129 0.0041525486497314794 0 -0.1770288573712796 -0.0063974746012641984 0 -0.15622160541765129 0.0041525486497314794 0 -0.17773071912050931 0.01287994147793927 0 -0.15622160541765129 0.0041525486497314794 0 -0.16247717735220599 0.026627257640726921 0 -0.17773071912050931 0.01287994147793927 0 -0.17961255323068959 0.028912445190011151 0 -0.17773071912050931 0.01287994147793927 0 -0.190236140128798 0.023908378478395911 0 -0.17961255323068959 0.028912445190011151 0 -0.1910166286273384 0.04031230668716132 0 -0.190236140128798 0.023908378478395911 0 -0.16247717735220599 0.026627257640726921 0 -0.17961255323068959 0.028912445190011151 0 -0.17773071912050931 0.01287994147793927 0 -0.1770288573712796 -0.0063974746012641984 0 -0.17773071912050931 0.01287994147793927 0 -0.19555622000339959 0.0123255107151128 0 -0.1770288573712796 -0.0063974746012641984 0 -0.19555622000339959 0.0123255107151128 0 -0.1616816085775587 0.066836450223585087 0 -0.17023368277037479 0.045322378593617547 0 -0.1778967441180816 0.059200252415486349 0 -0.1616816085775587 0.066836450223585087 0 -0.14774160736025721 0.047102116524373183 0 -0.17023368277037479 0.045322378593617547 0 -0.16247717735220599 0.026627257640726921 0 -0.17961255323068959 0.028912445190011151 0 -0.17023368277037479 0.045322378593617547 0 -0.14774160736025721 0.047102116524373183 0 -0.16247717735220599 0.026627257640726921 0 -0.17023368277037479 0.045322378593617547 0 -0.17961255323068959 0.028912445190011151 0 -0.17023368277037479 0.045322378593617547 0 -0.1910166286273384 0.04031230668716132 0 -0.17023368277037479 0.045322378593617547 0 -0.1778967441180816 0.059200252415486349 0 -0.1910166286273384 0.04031230668716132 0 -0.1778967441180816 0.059200252415486349 0 -0.20235564288590041 0.056930836279947029 0 -0.1778967441180816 0.059200252415486349 0 -0.20235564288590041 0.056930836279947029 0 -0.1910166286273384 0.04031230668716132 0 -0.1910166286273384 0.04031230668716132 0 -0.21023897743172981 0.042764005860694003 0 -0.20272011818391139 0.027083112398103879 0 -0.20235564288590041 0.056930836279947029 0 -0.1910166286273384 0.04031230668716132 0 -0.21023897743172981 0.042764005860694003 0 -0.21023897743172981 0.042764005860694003 0 -0.20272011818391139 0.027083112398103879 0 -0.21408358263552271 0.031048496031486711 0 -0.21023897743172981 0.042764005860694003 0 -0.21408358263552271 0.031048496031486711 0 -0.22425062904326851 0.041322892036088493 0 -0.20235564288590041 0.056930836279947029 0 -0.21023897743172981 0.042764005860694003 0 -0.22681454165371909 0.054661420144407717 0 -0.20235564288590041 0.056930836279947029 0 -0.22681454165371909 0.054661420144407717 0 -0.20235564288590041 0.056930836279947029 0 -0.22681454165371909 0.054661420144407717 0 -0.2155027414683143 0.066890197485726055 0 -0.17773071912050931 0.01287994147793927 0 -0.19555622000339959 0.0123255107151128 0 -0.190236140128798 0.023908378478395911 0 -0.1910166286273384 0.04031230668716132 0 -0.190236140128798 0.023908378478395911 0 -0.20272011818391139 0.027083112398103879 0 -0.19555622000339959 0.0123255107151128 0 -0.190236140128798 0.023908378478395911 0 -0.20272011818391139 0.027083112398103879 0 -0.19555622000339959 0.0123255107151128 0 -0.21408358263552271 0.031048496031486711 0 -0.19555622000339959 0.0123255107151128 0 -0.20272011818391139 0.027083112398103879 0 -0.21408358263552271 0.031048496031486711 0 -0.19555622000339959 0.0123255107151128 0 -0.21408358263552271 0.031048496031486711 0 -0.21139825154011679 0.015177385489202741 0 -0.21408358263552271 0.031048496031486711 0 -0.21139825154011679 0.015177385489202741 0 -0.22721623136891009 0.018159778332764099 0 -0.20272011818391139 0.027083112398103879 0 -0.21408358263552271 0.031048496031486711 0 -0.2109484402515481 -0.0049884885989098376 0 -0.19555622000339959 0.0123255107151128 0 -0.21139825154011679 0.015177385489202741 0 -0.2109484402515481 -0.0049884885989098376 0 -0.21139825154011679 0.015177385489202741 0 -0.22721623136891009 0.018159778332764099 0 -0.2109484402515481 -0.0049884885989098376 0 -0.22721623136891009 0.018159778332764099 0 -0.22665409530462069 -0.0070961945995017114 0 -0.22721623136891009 0.018159778332764099 0 -0.24108948540814429 0.0001228137568196347 0 -0.2109484402515481 -0.0049884885989098376 0 -0.22665409530462069 -0.0070961945995017114 0 -0.22721623136891009 0.018159778332764099 0 -0.21408358263552271 0.031048496031486711 0 -0.22721623136891009 0.018159778332764099 0 -0.22878380256089781 0.036178270647960427 0 -0.22721623136891009 0.018159778332764099 0 -0.24747936783635979 0.019387135744552111 0 -0.2434840224862716 0.04130804526443832 0 -0.22721623136891009 0.018159778332764099 0 -0.2434840224862716 0.04130804526443832 0 -0.22721623136891009 0.018159778332764099 0 -0.24747936783635979 0.019387135744552111 0 -0.24108948540814429 0.0001228137568196347 0 -0.22681454165371909 0.054661420144407717 0 -0.22425062904326851 0.041322892036088493 0 -0.23492128723313871 0.045172526420353062 0 -0.22681454165371909 0.054661420144407717 0 -0.2407316523979047 0.063464573191519102 0 -0.22957810185211699 0.066214796633450354 0 -0.21023897743172981 0.042764005860694003 0 -0.22681454165371909 0.054661420144407717 0 -0.22425062904326851 0.041322892036088493 0 -0.22721623136891009 0.018159778332764099 0 -0.22878380256089781 0.036178270647960427 0 -0.2434840224862716 0.04130804526443832 0 -0.21408358263552271 0.031048496031486711 0 -0.22425062904326851 0.041322892036088493 0 -0.21408358263552271 0.031048496031486711 0 -0.22425062904326851 0.041322892036088493 0 -0.22878380256089781 0.036178270647960427 0 -0.21408358263552271 0.031048496031486711 0 -0.22878380256089781 0.036178270647960427 0 -0.22425062904326851 0.041322892036088493 0 -0.22878380256089781 0.036178270647960427 0 -0.23492128723313871 0.045172526420353062 0 -0.22878380256089781 0.036178270647960427 0 -0.23492128723313871 0.045172526420353062 0 -0.2434840224862716 0.04130804526443832 0 -0.25127344042153787 0.052392004008869092 0 -0.23492128723313871 0.045172526420353062 0 -0.2434840224862716 0.04130804526443832 0 -0.22878380256089781 0.036178270647960427 0 -0.2434840224862716 0.04130804526443832 0 -0.25127344042153787 0.052392004008869092 0 -0.2434840224862716 0.04130804526443832 0 -0.25127344042153787 0.052392004008869092 0 -0.22681454165371909 0.054661420144407717 0 -0.25127344042153787 0.052392004008869092 0 -0.22681454165371909 0.054661420144407717 0 -0.23492128723313871 0.045172526420353062 0 -0.25127344042153787 0.052392004008869092 0 -0.22681454165371909 0.054661420144407717 0 -0.2407316523979047 0.063464573191519102 0 -0.25033167758740738 0.063270345931912539 0 -0.25127344042153787 0.052392004008869092 0 -0.2407316523979047 0.063464573191519102 0 -0.24941040641799569 0.072543547962933969 0 -0.2393679778748285 0.074466428417145514 0 -0.2407316523979047 0.063464573191519102 0 -0.25033167758740738 0.063270345931912539 0 -0.24941040641799569 0.072543547962933969 0 -0.2407316523979047 0.063464573191519102 0 -0.24941040641799569 0.072543547962933969 0 -0.2393679778748285 0.074466428417145514 0 -0.24976180809408241 0.081585985454475179 0 -0.2393679778748285 0.074466428417145514 0 -0.2407316523979047 0.063464573191519102 0 -0.22957810185211699 0.066214796633450354 0 -0.24976180809408241 0.081585985454475179 0 -0.2396481207525161 0.086154176299995402 0 -0.2490249111450448 0.096245607722758475 0 -0.2393679778748285 0.074466428417145514 0 -0.24976180809408241 0.081585985454475179 0 -0.2396481207525161 0.086154176299995402 0 -0.2393679778748285 0.074466428417145514 0 -0.2396481207525161 0.086154176299995402 0 -0.22728557331318089 0.07751478202682624 0 -0.2396481207525161 0.086154176299995402 0 -0.2262765804278378 0.091664437671628934 0 -0.238884370792454 0.099642339051752862 0 -0.2396481207525161 0.086154176299995402 0 -0.2262765804278378 0.091664437671628934 0 -0.22728557331318089 0.07751478202682624 0 -0.2262765804278378 0.091664437671628934 0 -0.22728557331318089 0.07751478202682624 0 -0.21275905177513871 0.084653394097040952 0 -0.2393679778748285 0.074466428417145514 0 -0.22957810185211699 0.066214796633450354 0 -0.22728557331318089 0.07751478202682624 0 -0.22681454165371909 0.054661420144407717 0 -0.22957810185211699 0.066214796633450354 0 -0.2155027414683143 0.066890197485726055 0 -0.22957810185211699 0.066214796633450354 0 -0.22728557331318089 0.07751478202682624 0 -0.2155027414683143 0.066890197485726055 0 -0.22728557331318089 0.07751478202682624 0 -0.2155027414683143 0.066890197485726055 0 -0.21275905177513871 0.084653394097040952 0 -0.20235564288590041 0.056930836279947029 0 -0.2155027414683143 0.066890197485726055 0 -0.19497975667281039 0.075296381703145926 0 -0.2155027414683143 0.066890197485726055 0 -0.21275905177513871 0.084653394097040952 0 -0.19497975667281039 0.075296381703145926 0 -0.21275905177513871 0.084653394097040952 0 -0.19830610245893149 0.094734402560505776 0 -0.21393330423941381 0.1001261885360161 0 -0.2262765804278378 0.091664437671628934 0 -0.21275905177513871 0.084653394097040952 0 -0.21393330423941381 0.1001261885360161 0 -0.21275905177513871 0.084653394097040952 0 -0.19497975667281039 0.075296381703145926 0 -0.19830610245893149 0.094734402560505776 0 -0.1822385647073175 0.09153261707041517 0 -0.19497975667281039 0.075296381703145926 0 -0.19830610245893149 0.094734402560505776 0 -0.1778967441180816 0.059200252415486349 0 -0.20235564288590041 0.056930836279947029 0 -0.19497975667281039 0.075296381703145926 0 -0.18657352622541151 0.1062610852075284 0 -0.1848176702866047 0.1219066283579336 0 -0.20027571785948989 0.1113074291530334 0 -0.1848176702866047 0.1219066283579336 0 -0.20027571785948989 0.1113074291530334 0 -0.20226483046954469 0.12802644696184079 0 -0.1822385647073175 0.09153261707041517 0 -0.18657352622541151 0.1062610852075284 0 -0.19830610245893149 0.094734402560505776 0 -0.18657352622541151 0.1062610852075284 0 -0.20027571785948989 0.1113074291530334 0 -0.19830610245893149 0.094734402560505776 0 -0.20027571785948989 0.1113074291530334 0 -0.19830610245893149 0.094734402560505776 0 -0.21393330423941381 0.1001261885360161 0 -0.20027571785948989 0.1113074291530334 0 -0.21393330423941381 0.1001261885360161 0 -0.21548862140668959 0.1150958486959789 0 -0.21393330423941381 0.1001261885360161 0 -0.21548862140668959 0.1150958486959789 0 -0.22667412200582079 0.1051450230659053 0 -0.20027571785948989 0.1113074291530334 0 -0.21548862140668959 0.1150958486959789 0 -0.20226483046954469 0.12802644696184079 0 -0.21548862140668959 0.1150958486959789 0 -0.20226483046954469 0.12802644696184079 0 -0.21737237040742899 0.12784640014443441 0 -0.22953498972507111 0.1208105602763981 0 -0.22667412200582079 0.1051450230659053 0 -0.23606646726954081 0.1107736111715026 0 -0.21548862140668959 0.1150958486959789 0 -0.22953498972507111 0.1208105602763981 0 -0.21737237040742899 0.12784640014443441 0 -0.21548862140668959 0.1150958486959789 0 -0.22953498972507111 0.1208105602763981 0 -0.22667412200582079 0.1051450230659053 0 -0.2262765804278378 0.091664437671628934 0 -0.21393330423941381 0.1001261885360161 0 -0.22667412200582079 0.1051450230659053 0 -0.22667412200582079 0.1051450230659053 0 -0.238884370792454 0.099642339051752862 0 -0.23606646726954081 0.1107736111715026 0 -0.2262765804278378 0.091664437671628934 0 -0.22667412200582079 0.1051450230659053 0 -0.238884370792454 0.099642339051752862 0 -0.238884370792454 0.099642339051752862 0 -0.24421462225753701 0.10878683071647639 0 -0.23606646726954081 0.1107736111715026 0 -0.25478591689589342 0.1088736405992687 0 -0.24421462225753701 0.10878683071647639 0 -0.2490249111450448 0.096245607722758475 0 -0.2396481207525161 0.086154176299995402 0 -0.238884370792454 0.099642339051752862 0 -0.2490249111450448 0.096245607722758475 0 -0.238884370792454 0.099642339051752862 0 -0.24421462225753701 0.10878683071647639 0 -0.2490249111450448 0.096245607722758475 0 -0.22953498972507111 0.1208105602763981 0 -0.2410242315668209 0.1194833027469801 0 -0.2405776929585374 0.13204504285148461 0 -0.24421462225753701 0.10878683071647639 0 -0.2410242315668209 0.1194833027469801 0 -0.23606646726954081 0.1107736111715026 0 -0.22953498972507111 0.1208105602763981 0 -0.2410242315668209 0.1194833027469801 0 -0.23606646726954081 0.1107736111715026 0 -0.24421462225753701 0.10878683071647639 0 -0.2410242315668209 0.1194833027469801 0 -0.24957446628960209 0.1172886197127147 0 -0.25478591689589342 0.1088736405992687 0 -0.24421462225753701 0.10878683071647639 0 -0.24957446628960209 0.1172886197127147 0 -0.2410242315668209 0.1194833027469801 0 -0.24957446628960209 0.1172886197127147 0 -0.24824707843623489 0.12578158396356739 0 -0.24824707843623489 0.12578158396356739 0 -0.24964446852777181 0.13261493155280701 0 -0.2405776929585374 0.13204504285148461 0 -0.2410242315668209 0.1194833027469801 0 -0.24824707843623489 0.12578158396356739 0 -0.2405776929585374 0.13204504285148461 0 -0.2405776929585374 0.13204504285148461 0 -0.22751358369540389 0.136771520212459 0 -0.23734310092666031 0.14916278266904159 0 -0.25100710053238262 0.14256546618606861 0 -0.24964446852777181 0.13261493155280701 0 -0.2405776929585374 0.13204504285148461 0 -0.22953498972507111 0.1208105602763981 0 -0.22751358369540389 0.136771520212459 0 -0.21737237040742899 0.12784640014443441 0 -0.22953498972507111 0.1208105602763981 0 -0.2405776929585374 0.13204504285148461 0 -0.22751358369540389 0.136771520212459 0 -0.22751358369540389 0.136771520212459 0 -0.21737237040742899 0.12784640014443441 0 -0.21205982674043591 0.1385276245754952 0 -0.22115019706761271 0.1511477542844912 0 -0.23734310092666031 0.14916278266904159 0 -0.22654321381995601 0.16403276728423291 0 -0.22751358369540389 0.136771520212459 0 -0.22115019706761271 0.1511477542844912 0 -0.23734310092666031 0.14916278266904159 0 -0.22751358369540389 0.136771520212459 0 -0.22115019706761271 0.1511477542844912 0 -0.21205982674043591 0.1385276245754952 0 -0.25393692785613931 0.1550256105710959 0 -0.25100710053238262 0.14256546618606861 0 -0.23734310092666031 0.14916278266904159 0 -0.25393692785613931 0.1550256105710959 0 -0.23734310092666031 0.14916278266904159 0 -0.24067299055659039 0.16255131729345901 0 -0.25100710053238262 0.14256546618606861 0 -0.2405776929585374 0.13204504285148461 0 -0.23734310092666031 0.14916278266904159 0 -0.25393692785613931 0.1550256105710959 0 -0.24995263048411609 0.1704783397427152 0 -0.24067299055659039 0.16255131729345901 0 -0.24995263048411609 0.1704783397427152 0 -0.24067299055659039 0.16255131729345901 0 -0.23754377473723071 0.17528440678741339 0 -0.24067299055659039 0.16255131729345901 0 -0.23754377473723071 0.17528440678741339 0 -0.22654321381995601 0.16403276728423291 0 -0.23734310092666031 0.14916278266904159 0 -0.24067299055659039 0.16255131729345901 0 -0.22654321381995601 0.16403276728423291 0 -0.2478771691703221 0.18597643835916239 0 -0.23754377473723071 0.17528440678741339 0 -0.23669456186070459 0.1909973272892436 0 -0.24995263048411609 0.1704783397427152 0 -0.2478771691703221 0.18597643835916239 0 -0.23754377473723071 0.17528440678741339 0 -0.23754377473723071 0.17528440678741339 0 -0.223522082531695 0.1776702507556677 0 -0.23669456186070459 0.1909973272892436 0 -0.23754377473723071 0.17528440678741339 0 -0.223522082531695 0.1776702507556677 0 -0.22654321381995601 0.16403276728423291 0 -0.223522082531695 0.1776702507556677 0 -0.22654321381995601 0.16403276728423291 0 -0.2088311118841164 0.16577623519438339 0 -0.22115019706761271 0.1511477542844912 0 -0.22654321381995601 0.16403276728423291 0 -0.2088311118841164 0.16577623519438339 0 -0.223522082531695 0.1776702507556677 0 -0.20855064549566649 0.1810226193051685 0 -0.2237220308011349 0.19916854776086881 0 -0.223522082531695 0.1776702507556677 0 -0.2088311118841164 0.16577623519438339 0 -0.20855064549566649 0.1810226193051685 0 -0.1897340361666561 0.17275318921760141 0 -0.203863132296845 0.19563116207391609 0 -0.2088311118841164 0.16577623519438339 0 -0.20855064549566649 0.1810226193051685 0 -0.1897340361666561 0.17275318921760141 0 -0.20855064549566649 0.1810226193051685 0 -0.1897340361666561 0.17275318921760141 0 -0.203863132296845 0.19563116207391609 0 -0.1897340361666561 0.17275318921760141 0 -0.203863132296845 0.19563116207391609 0 -0.18695996649000801 0.19026835978734849 0 -0.2088311118841164 0.16577623519438339 0 -0.1897340361666561 0.17275318921760141 0 -0.1974222514419923 0.1495037892985922 0 -0.1848176702866047 0.1219066283579336 0 -0.20226483046954469 0.12802644696184079 0 -0.1821371307280332 0.14035958823087721 0 -0.1974222514419923 0.1495037892985922 0 -0.20226483046954469 0.12802644696184079 0 -0.1821371307280332 0.14035958823087721 0 -0.1974222514419923 0.1495037892985922 0 -0.20226483046954469 0.12802644696184079 0 -0.21205982674043591 0.1385276245754952 0 -0.20226483046954469 0.12802644696184079 0 -0.21737237040742899 0.12784640014443441 0 -0.21205982674043591 0.1385276245754952 0 -0.22115019706761271 0.1511477542844912 0 -0.2088311118841164 0.16577623519438339 0 -0.1974222514419923 0.1495037892985922 0 -0.22115019706761271 0.1511477542844912 0 -0.1974222514419923 0.1495037892985922 0 -0.21205982674043591 0.1385276245754952 0 -0.2250928350229453 0.25292163524428368 0 -0.21984875732301029 0.2470374397753618 0 -0.23212132455722281 0.24138710778654551 0 -0.21984875732301029 0.2470374397753618 0 -0.23212132455722281 0.24138710778654551 0 -0.2185019126673759 0.2400929063296087 0 -0.2250928350229453 0.25292163524428368 0 -0.21984875732301029 0.2470374397753618 0 -0.2121038094894917 0.24921620618706919 0 -0.23212132455722281 0.24138710778654551 0 -0.21753807989650309 0.2320319393903009 0 -0.2185019126673759 0.2400929063296087 0 -0.23212132455722281 0.24138710778654551 0 -0.24646631454805509 0.24550208357914341 0 -0.24581436977621191 0.2304073522679074 0 -0.26270716451023202 0.22074957303227941 0 -0.24581436977621191 0.2304073522679074 0 -0.24084024831293541 0.20983886062041651 0 -0.23212132455722281 0.24138710778654551 0 -0.24581436977621191 0.2304073522679074 0 -0.23226069855506129 0.22166975633508729 0 -0.24581436977621191 0.2304073522679074 0 -0.23226069855506129 0.22166975633508729 0 -0.24084024831293541 0.20983886062041651 0 -0.23212132455722281 0.24138710778654551 0 -0.21799222842703389 0.21850913493023069 0 -0.21753807989650309 0.2320319393903009 0 -0.23212132455722281 0.24138710778654551 0 -0.23226069855506129 0.22166975633508729 0 -0.21799222842703389 0.21850913493023069 0 -0.23212132455722281 0.24138710778654551 0 -0.21799222842703389 0.21850913493023069 0 -0.23226069855506129 0.22166975633508729 0 -0.24084024831293541 0.20983886062041651 0 -0.2237220308011349 0.19916854776086881 0 -0.23226069855506129 0.22166975633508729 0 -0.2237220308011349 0.19916854776086881 0 -0.21799222842703389 0.21850913493023069 0 -0.26049401854676302 0.20169757637690361 0 -0.24084024831293541 0.20983886062041651 0 -0.2472271737918712 0.19821686000465291 0 -0.24084024831293541 0.20983886062041651 0 -0.2472271737918712 0.19821686000465291 0 -0.23669456186070459 0.1909973272892436 0 -0.2478771691703221 0.18597643835916239 0 -0.2472271737918712 0.19821686000465291 0 -0.23669456186070459 0.1909973272892436 0 -0.223522082531695 0.1776702507556677 0 -0.23669456186070459 0.1909973272892436 0 -0.2237220308011349 0.19916854776086881 0 -0.24084024831293541 0.20983886062041651 0 -0.23669456186070459 0.1909973272892436 0 -0.2237220308011349 0.19916854776086881 0 -0.20855064549566649 0.1810226193051685 0 -0.2237220308011349 0.19916854776086881 0 -0.203863132296845 0.19563116207391609 0 -0.203863132296845 0.19563116207391609 0 -0.18642101722582649 0.20799365798932171 0 -0.18695996649000801 0.19026835978734849 0 -0.20483959797992529 0.2287328180800805 0 -0.18642101722582649 0.20799365798932171 0 -0.203863132296845 0.19563116207391609 0 -0.20256522035517929 0.21223467955831879 0 -0.18642101722582649 0.20799365798932171 0 -0.20256522035517929 0.21223467955831879 0 -0.20483959797992529 0.2287328180800805 0 -0.18642101722582649 0.20799365798932171 0 -0.203863132296845 0.19563116207391609 0 -0.21799222842703389 0.21850913493023069 0 -0.2237220308011349 0.19916854776086881 0 -0.203863132296845 0.19563116207391609 0 -0.21799222842703389 0.21850913493023069 0 -0.203863132296845 0.19563116207391609 0 -0.20256522035517929 0.21223467955831879 0 -0.21799222842703389 0.21850913493023069 0 -0.20256522035517929 0.21223467955831879 0 -0.21799222842703389 0.21850913493023069 0 -0.20483959797992529 0.2287328180800805 0 -0.21799222842703389 0.21850913493023069 0 -0.21753807989650309 0.2320319393903009 0 -0.20483959797992529 0.2287328180800805 0 -0.21753807989650309 0.2320319393903009 0 -0.20483959797992529 0.2287328180800805 0 -0.20998790927246491 0.23684360615496511 0 -0.20483959797992529 0.2287328180800805 0 -0.19390979965137981 0.2268610642449933 0 -0.18642101722582649 0.20799365798932171 0 -0.20483959797992529 0.2287328180800805 0 -0.19390979965137981 0.2268610642449933 0 -0.20998790927246491 0.23684360615496511 0 -0.19390979965137981 0.2268610642449933 0 -0.2121038094894917 0.24921620618706919 0 -0.19390979965137981 0.2268610642449933 0 -0.19648852076111289 0.24343219406896049 0 -0.2121038094894917 0.24921620618706919 0 -0.19390979965137981 0.2268610642449933 0 -0.18842402659882079 0.23619914936446909 0 -0.19648852076111289 0.24343219406896049 0 -0.18464767838559679 0.25049223878500199 0 -0.18842402659882079 0.23619914936446909 0 -0.19648852076111289 0.24343219406896049 0 -0.19390979965137981 0.2268610642449933 0 -0.20998790927246491 0.23684360615496511 0 -0.2121038094894917 0.24921620618706919 0 -0.21753807989650309 0.2320319393903009 0 -0.20998790927246491 0.23684360615496511 0 -0.2185019126673759 0.2400929063296087 0 -0.20998790927246491 0.23684360615496511 0 -0.2185019126673759 0.2400929063296087 0 -0.2130342559501141 0.24412670269773801 0 -0.20998790927246491 0.23684360615496511 0 -0.2121038094894917 0.24921620618706919 0 -0.2130342559501141 0.24412670269773801 0 -0.21984875732301029 0.2470374397753618 0 -0.2185019126673759 0.2400929063296087 0 -0.2130342559501141 0.24412670269773801 0 -0.21984875732301029 0.2470374397753618 0 -0.2121038094894917 0.24921620618706919 0 -0.2130342559501141 0.24412670269773801 0 -0.2121038094894917 0.24921620618706919 0 -0.2130342559501141 0.24412670269773801 0 -0.1539614220325887 0.2535618054154064 0 -0.16958305356179451 0.2481989936065177 0 -0.16147647970129089 0.2302064646001801 0 -0.16958305356179451 0.2481989936065177 0 -0.1780642127327082 0.23735273336032339 0 -0.16147647970129089 0.2302064646001801 0 -0.18464767838559679 0.25049223878500199 0 -0.16958305356179451 0.2481989936065177 0 -0.1780642127327082 0.23735273336032339 0 -0.18464767838559679 0.25049223878500199 0 -0.18842402659882079 0.23619914936446909 0 -0.1780642127327082 0.23735273336032339 0 -0.19390979965137981 0.2268610642449933 0 -0.18007082475319169 0.22442766321271029 0 -0.18642101722582649 0.20799365798932171 0 -0.1780642127327082 0.23735273336032339 0 -0.18007082475319169 0.22442766321271029 0 -0.16147647970129089 0.2302064646001801 0 -0.19390979965137981 0.2268610642449933 0 -0.18842402659882079 0.23619914936446909 0 -0.18007082475319169 0.22442766321271029 0 -0.18842402659882079 0.23619914936446909 0 -0.1780642127327082 0.23735273336032339 0 -0.18007082475319169 0.22442766321271029 0 -0.18007082475319169 0.22442766321271029 0 -0.16147647970129089 0.2302064646001801 0 -0.16991991860828501 0.21175266678664861 0 -0.16147647970129089 0.2302064646001801 0 -0.16991991860828501 0.21175266678664861 0 -0.15362883488938819 0.208881050232468 0 -0.18007082475319169 0.22442766321271029 0 -0.16991991860828501 0.21175266678664861 0 -0.18642101722582649 0.20799365798932171 0 -0.18642101722582649 0.20799365798932171 0 -0.18695996649000801 0.19026835978734849 0 -0.16800243647172791 0.18725449789856299 0 -0.16991991860828501 0.21175266678664861 0 -0.18642101722582649 0.20799365798932171 0 -0.16800243647172791 0.18725449789856299 0 -0.18642101722582649 0.20799365798932171 0 -0.16800243647172791 0.18725449789856299 0 -0.16991991860828501 0.21175266678664861 0 -0.15362883488938819 0.208881050232468 0 -0.16800243647172791 0.18725449789856299 0 -0.1403261028421422 0.1928834496610255 0 -0.15362883488938819 0.208881050232468 0 -0.16800243647172791 0.18725449789856299 0 -0.1403261028421422 0.1928834496610255 0 -0.12603053573215481 0.20706124654130539 0 -0.112514298263345 0.1928525597888103 0 -0.1403261028421422 0.1928834496610255 0 -0.12603053573215481 0.20706124654130539 0 -0.1403261028421422 0.1928834496610255 0 -0.1391439733203168 0.21008686042493599 0 -0.12603053573215481 0.20706124654130539 0 -0.1391439733203168 0.21008686042493599 0 -0.12603053573215481 0.20706124654130539 0 -0.1252654393686892 0.22285244179319519 0 -0.1403261028421422 0.1928834496610255 0 -0.1391439733203168 0.21008686042493599 0 -0.15362883488938819 0.208881050232468 0 -0.1391439733203168 0.21008686042493599 0 -0.15362883488938819 0.208881050232468 0 -0.13885390223096999 0.22386751320372919 0 -0.16147647970129089 0.2302064646001801 0 -0.13885390223096999 0.22386751320372919 0 -0.14356617491254811 0.23961239808686491 0 -0.16147647970129089 0.2302064646001801 0 -0.15362883488938819 0.208881050232468 0 -0.13885390223096999 0.22386751320372919 0 -0.13885390223096999 0.22386751320372919 0 -0.1252654393686892 0.22285244179319519 0 -0.121507598013374 0.2359503546527445 0 -0.1391439733203168 0.21008686042493599 0 -0.13885390223096999 0.22386751320372919 0 -0.1252654393686892 0.22285244179319519 0 -0.13885390223096999 0.22386751320372919 0 -0.14356617491254811 0.23961239808686491 0 -0.121507598013374 0.2359503546527445 0 -0.1312802274045832 0.25066166588390548 0 -0.14356617491254811 0.23961239808686491 0 -0.121507598013374 0.2359503546527445 0 -0.1312802274045832 0.25066166588390548 0 -0.121507598013374 0.2359503546527445 0 -0.1312802274045832 0.25066166588390548 0 -0.1539614220325887 0.2535618054154064 0 -0.14356617491254811 0.23961239808686491 0 -0.1539614220325887 0.2535618054154064 0 -0.16147647970129089 0.2302064646001801 0 -0.14356617491254811 0.23961239808686491 0 -0.1677540350350113 0.1322782621298946 0 -0.17260002771101191 0.1555766876158878 0 -0.15074400937062921 0.1416536939954029 0 -0.17260002771101191 0.1555766876158878 0 -0.14958385571762919 0.16651533780780439 0 -0.15074400937062921 0.1416536939954029 0 -0.1848176702866047 0.1219066283579336 0 -0.1677540350350113 0.1322782621298946 0 -0.1821371307280332 0.14035958823087721 0 -0.1974222514419923 0.1495037892985922 0 -0.1821371307280332 0.14035958823087721 0 -0.17260002771101191 0.1555766876158878 0 -0.1677540350350113 0.1322782621298946 0 -0.1821371307280332 0.14035958823087721 0 -0.17260002771101191 0.1555766876158878 0 -0.1897340361666561 0.17275318921760141 0 -0.1974222514419923 0.1495037892985922 0 -0.17260002771101191 0.1555766876158878 0 -0.1897340361666561 0.17275318921760141 0 -0.17260002771101191 0.1555766876158878 0 -0.16800243647172791 0.18725449789856299 0 -0.17260002771101191 0.1555766876158878 0 -0.16800243647172791 0.18725449789856299 0 -0.14958385571762919 0.16651533780780439 0 -0.1897340361666561 0.17275318921760141 0 -0.18695996649000801 0.19026835978734849 0 -0.16800243647172791 0.18725449789856299 0 -0.16800243647172791 0.18725449789856299 0 -0.14958385571762919 0.16651533780780439 0 -0.1403261028421422 0.1928834496610255 0 -0.16800243647172791 0.18725449789856299 0 -0.14958385571762919 0.16651533780780439 0 -0.1403261028421422 0.1928834496610255 0 -0.1237313962823423 0.17254665445463019 0 -0.112514298263345 0.1928525597888103 0 -0.1403261028421422 0.1928834496610255 0 -0.14958385571762919 0.16651533780780439 0 -0.1237313962823423 0.17254665445463019 0 -0.14958385571762919 0.16651533780780439 0 -0.1311652749635305 0.14577617771704571 0 -0.1237313962823423 0.17254665445463019 0 -0.14958385571762919 0.16651533780780439 0 -0.1311652749635305 0.14577617771704571 0 -0.14958385571762919 0.16651533780780439 0 -0.1311652749635305 0.14577617771704571 0 -0.15074400937062921 0.1416536939954029 0 -0.14876203513099809 0.1208033907365498 0 -0.1677540350350113 0.1322782621298946 0 -0.15074400937062921 0.1416536939954029 0 -0.14876203513099809 0.1208033907365498 0 -0.15074400937062921 0.1416536939954029 0 -0.13459882766559439 0.12897230796523529 0 -0.1311652749635305 0.14577617771704571 0 -0.15074400937062921 0.1416536939954029 0 -0.13459882766559439 0.12897230796523529 0 -0.1311652749635305 0.14577617771704571 0 -0.13459882766559439 0.12897230796523529 0 -0.1127466942094318 0.12503701762628699 0 -0.1311652749635305 0.14577617771704571 0 -0.1127466942094318 0.12503701762628699 0 -0.1127466942094318 0.12503701762628699 0 -0.1090973993691368 0.1343759221783373 0 -0.1158612886124573 0.14081933615663811 0 -0.1311652749635305 0.14577617771704571 0 -0.1127466942094318 0.12503701762628699 0 -0.1158612886124573 0.14081933615663811 0 -0.1090973993691368 0.1343759221783373 0 -0.1054471852062424 0.13898844818827641 0 -0.1158612886124573 0.14081933615663811 0 -0.1127466942094318 0.12503701762628699 0 -0.10213537182402641 0.1324299687903886 0 -0.1127466942094318 0.12503701762628699 0 -0.10213537182402641 0.1324299687903886 0 -0.1090973993691368 0.1343759221783373 0 -0.1127466942094318 0.12503701762628699 0 -0.10113937503303259 0.13047748543396051 0 -0.1023796639526607 0.1240336021244187 0 -0.1127466942094318 0.12503701762628699 0 -0.10213537182402641 0.1324299687903886 0 -0.10113937503303259 0.13047748543396051 0 -0.10213537182402641 0.1324299687903886 0 -0.1090973993691368 0.1343759221783373 0 -0.1054471852062424 0.13898844818827641 0 -0.10213537182402641 0.1324299687903886 0 -0.1054471852062424 0.13898844818827641 0 -0.096160251660829935 0.13982239957949921 0 -0.10213537182402641 0.1324299687903886 0 -0.096160251660829935 0.13982239957949921 0 -0.10113937503303259 0.13047748543396051 0 -0.10113937503303259 0.13047748543396051 0 -0.08737841333221516 0.1290234842381934 0 -0.095427030793117817 0.1236036844967717 0 -0.10113937503303259 0.13047748543396051 0 -0.1023796639526607 0.1240336021244187 0 -0.095427030793117817 0.1236036844967717 0 -0.1030261379676924 0.14639580806807409 0 -0.1158612886124573 0.14081933615663811 0 -0.10589900683250859 0.1592950821076701 0 -0.1030261379676924 0.14639580806807409 0 -0.10589900683250859 0.1592950821076701 0 -0.089079890656826657 0.1520902156031457 0 -0.1054471852062424 0.13898844818827641 0 -0.096160251660829935 0.13982239957949921 0 -0.1030261379676924 0.14639580806807409 0 -0.096160251660829935 0.13982239957949921 0 -0.1030261379676924 0.14639580806807409 0 -0.089079890656826657 0.1520902156031457 0 -0.1054471852062424 0.13898844818827641 0 -0.1030261379676924 0.14639580806807409 0 -0.1158612886124573 0.14081933615663811 0 -0.1311652749635305 0.14577617771704571 0 -0.1158612886124573 0.14081933615663811 0 -0.10589900683250859 0.1592950821076701 0 -0.1237313962823423 0.17254665445463019 0 -0.1028998390748985 0.17795731964542541 0 -0.10589900683250859 0.1592950821076701 0 -0.1311652749635305 0.14577617771704571 0 -0.1237313962823423 0.17254665445463019 0 -0.10589900683250859 0.1592950821076701 0 -0.1237313962823423 0.17254665445463019 0 -0.1028998390748985 0.17795731964542541 0 -0.112514298263345 0.1928525597888103 0 -0.1028998390748985 0.17795731964542541 0 -0.10589900683250859 0.1592950821076701 0 -0.079408744935615422 0.17257648613595261 0 -0.10589900683250859 0.1592950821076701 0 -0.079408744935615422 0.17257648613595261 0 -0.089079890656826657 0.1520902156031457 0 -0.079408744935615422 0.17257648613595261 0 -0.066277010018531618 0.15280851667379869 0 -0.089079890656826657 0.1520902156031457 0 -0.079408744935615422 0.17257648613595261 0 -0.09254047985270146 0.19234445559810509 0 -0.071024932235475263 0.19322268420350541 0 -0.079408744935615422 0.17257648613595261 0 -0.09254047985270146 0.19234445559810509 0 -0.1028998390748985 0.17795731964542541 0 -0.079408744935615422 0.17257648613595261 0 -0.09254047985270146 0.19234445559810509 0 -0.079408744935615422 0.17257648613595261 0 -0.064163702614885562 0.18145482274776231 0 -0.071024932235475263 0.19322268420350541 0 -0.079408744935615422 0.17257648613595261 0 -0.064163702614885562 0.18145482274776231 0 -0.060219575744610163 0.17003764626346141 0 -0.079408744935615422 0.17257648613595261 0 -0.066277010018531618 0.15280851667379869 0 -0.079408744935615422 0.17257648613595261 0 -0.066277010018531618 0.15280851667379869 0 -0.060219575744610163 0.17003764626346141 0 -0.066277010018531618 0.15280851667379869 0 -0.070556094710029757 0.13569919473943151 0 -0.083708192525782057 0.14164300105387961 0 -0.066277010018531618 0.15280851667379869 0 -0.083708192525782057 0.14164300105387961 0 -0.066277010018531618 0.15280851667379869 0 -0.070556094710029757 0.13569919473943151 0 -0.056268606933574779 0.13774228149638479 0 -0.070556094710029757 0.13569919473943151 0 -0.058826861041099632 0.124124508740449 0 -0.075545555435008571 0.12106306554187871 0 -0.070556094710029757 0.13569919473943151 0 -0.08737841333221516 0.1290234842381934 0 -0.075545555435008571 0.12106306554187871 0 -0.10113937503303259 0.13047748543396051 0 -0.083708192525782057 0.14164300105387961 0 -0.070556094710029757 0.13569919473943151 0 -0.08737841333221516 0.1290234842381934 0 -0.083708192525782057 0.14164300105387961 0 -0.10113937503303259 0.13047748543396051 0 -0.08737841333221516 0.1290234842381934 0 -0.083708192525782057 0.14164300105387961 0 -0.096160251660829935 0.13982239957949921 0 -0.10113937503303259 0.13047748543396051 0 -0.083708192525782057 0.14164300105387961 0 -0.066277010018531618 0.15280851667379869 0 -0.089079890656826657 0.1520902156031457 0 -0.083708192525782057 0.14164300105387961 0 -0.096160251660829935 0.13982239957949921 0 -0.089079890656826657 0.1520902156031457 0 -0.083708192525782057 0.14164300105387961 0 -0.089864983184404265 0.25660839634379939 0 -0.097368223851613256 0.2354874315841973 0 -0.11095354651722571 0.24912079121846531 0 -0.097368223851613256 0.2354874315841973 0 -0.11095354651722571 0.24912079121846531 0 -0.1103910842510942 0.2354494052192474 0 -0.1312802274045832 0.25066166588390548 0 -0.11095354651722571 0.24912079121846531 0 -0.121507598013374 0.2359503546527445 0 -0.11095354651722571 0.24912079121846531 0 -0.121507598013374 0.2359503546527445 0 -0.1103910842510942 0.2354494052192474 0 -0.121507598013374 0.2359503546527445 0 -0.1103910842510942 0.2354494052192474 0 -0.11173496862216541 0.22123904342158329 0 -0.121507598013374 0.2359503546527445 0 -0.11173496862216541 0.22123904342158329 0 -0.1252654393686892 0.22285244179319519 0 -0.121507598013374 0.2359503546527445 0 -0.11173496862216541 0.22123904342158329 0 -0.097368223851613256 0.2354874315841973 0 -0.1056722147697869 0.2121124250602579 0 -0.097368223851613256 0.2354874315841973 0 -0.1056722147697869 0.2121124250602579 0 -0.092167025546007517 0.22048441227480761 0 -0.097368223851613256 0.2354874315841973 0 -0.11173496862216541 0.22123904342158329 0 -0.1056722147697869 0.2121124250602579 0 -0.097368223851613256 0.2354874315841973 0 -0.11173496862216541 0.22123904342158329 0 -0.097368223851613256 0.2354874315841973 0 -0.1103910842510942 0.2354494052192474 0 -0.11173496862216541 0.22123904342158329 0 -0.1056722147697869 0.2121124250602579 0 -0.09254047985270146 0.19234445559810509 0 -0.09014056632124326 0.20890416696971759 0 -0.1056722147697869 0.2121124250602579 0 -0.09014056632124326 0.20890416696971759 0 -0.092167025546007517 0.22048441227480761 0 -0.11173496862216541 0.22123904342158329 0 -0.1056722147697869 0.2121124250602579 0 -0.12603053573215481 0.20706124654130539 0 -0.11173496862216541 0.22123904342158329 0 -0.1056722147697869 0.2121124250602579 0 -0.12603053573215481 0.20706124654130539 0 -0.1056722147697869 0.2121124250602579 0 -0.112514298263345 0.1928525597888103 0 -0.12603053573215481 0.20706124654130539 0 -0.1252654393686892 0.22285244179319519 0 -0.11173496862216541 0.22123904342158329 0 -0.12603053573215481 0.20706124654130539 0 -0.11173496862216541 0.22123904342158329 0 -0.1056722147697869 0.2121124250602579 0 -0.112514298263345 0.1928525597888103 0 -0.1028998390748985 0.17795731964542541 0 -0.112514298263345 0.1928525597888103 0 -0.09254047985270146 0.19234445559810509 0 -0.1056722147697869 0.2121124250602579 0 -0.112514298263345 0.1928525597888103 0 -0.09254047985270146 0.19234445559810509 0 -0.1056722147697869 0.2121124250602579 0 -0.09254047985270146 0.19234445559810509 0 -0.09254047985270146 0.19234445559810509 0 -0.071024932235475263 0.19322268420350541 0 -0.079935716686101083 0.20367017543580559 0 -0.09254047985270146 0.19234445559810509 0 -0.079935716686101083 0.20367017543580559 0 -0.09014056632124326 0.20890416696971759 0 -0.071024932235475263 0.19322268420350541 0 -0.065858600914113732 0.2124172435229878 0 -0.079935716686101083 0.20367017543580559 0 -0.064163702614885562 0.18145482274776231 0 -0.071024932235475263 0.19322268420350541 0 -0.055724894900784701 0.19801673919575349 0 -0.071024932235475263 0.19322268420350541 0 -0.065858600914113732 0.2124172435229878 0 -0.055724894900784701 0.19801673919575349 0 -0.065858600914113732 0.2124172435229878 0 -0.080459339658104825 0.21707964005721769 0 -0.079935716686101083 0.20367017543580559 0 -0.080459339658104825 0.21707964005721769 0 -0.079935716686101083 0.20367017543580559 0 -0.09014056632124326 0.20890416696971759 0 -0.080459339658104825 0.21707964005721769 0 -0.09014056632124326 0.20890416696971759 0 -0.092167025546007517 0.22048441227480761 0 -0.080459339658104825 0.21707964005721769 0 -0.092167025546007517 0.22048441227480761 0 -0.083232336739226531 0.2329194990656113 0 -0.080459339658104825 0.21707964005721769 0 -0.083232336739226531 0.2329194990656113 0 -0.071574192693697525 0.23023090824112619 0 -0.097368223851613256 0.2354874315841973 0 -0.092167025546007517 0.22048441227480761 0 -0.083232336739226531 0.2329194990656113 0 -0.065858600914113732 0.2124172435229878 0 -0.080459339658104825 0.21707964005721769 0 -0.071574192693697525 0.23023090824112619 0 -0.065858600914113732 0.2124172435229878 0 -0.071574192693697525 0.23023090824112619 0 -0.056197361487002967 0.2297506690832484 0 -0.071574192693697525 0.23023090824112619 0 -0.065761447612287638 0.23821247976315571 0 -0.056197361487002967 0.2297506690832484 0 -0.083232336739226531 0.2329194990656113 0 -0.071574192693697525 0.23023090824112619 0 -0.072915420794760738 0.24639139995760401 0 -0.071574192693697525 0.23023090824112619 0 -0.065761447612287638 0.23821247976315571 0 -0.072915420794760738 0.24639139995760401 0 -0.065761447612287638 0.23821247976315571 0 -0.072915420794760738 0.24639139995760401 0 -0.059665981296547051 0.24568162203931529 0 -0.064712478575736129 0.25282925044640969 0 -0.072915420794760738 0.24639139995760401 0 -0.059665981296547051 0.24568162203931529 0 -0.083232336739226531 0.2329194990656113 0 -0.072915420794760738 0.24639139995760401 0 -0.084909817891176437 0.24784320227871631 0 -0.089864983184404265 0.25660839634379939 0 -0.097368223851613256 0.2354874315841973 0 -0.084909817891176437 0.24784320227871631 0 -0.089864983184404265 0.25660839634379939 0 -0.097368223851613256 0.2354874315841973 0 -0.097368223851613256 0.2354874315841973 0 -0.084909817891176437 0.24784320227871631 0 -0.097368223851613256 0.2354874315841973 0 -0.083232336739226531 0.2329194990656113 0 -0.084909817891176437 0.24784320227871631 0 -0.045000336895098761 0.24141590799535989 0 -0.037240889066990732 0.2249407195497049 0 -0.030676298589787959 0.2380925482842414 0 -0.033074366645123962 0.25046226796462451 0 -0.045000336895098761 0.24141590799535989 0 -0.030676298589787959 0.2380925482842414 0 -0.042933441299488867 0.25132212986177549 0 -0.033074366645123962 0.25046226796462451 0 -0.045000336895098761 0.24141590799535989 0 -0.051164090418747747 0.25312880362289952 0 -0.042933441299488867 0.25132212986177549 0 -0.045000336895098761 0.24141590799535989 0 -0.065761447612287638 0.23821247976315571 0 -0.059665981296547051 0.24568162203931529 0 -0.056197361487002967 0.2297506690832484 0 -0.045000336895098761 0.24141590799535989 0 -0.059665981296547051 0.24568162203931529 0 -0.056197361487002967 0.2297506690832484 0 -0.051164090418747747 0.25312880362289952 0 -0.045000336895098761 0.24141590799535989 0 -0.059665981296547051 0.24568162203931529 0 -0.056197361487002967 0.2297506690832484 0 -0.037240889066990732 0.2249407195497049 0 -0.049875474694418803 0.21365997845401091 0 -0.045000336895098761 0.24141590799535989 0 -0.056197361487002967 0.2297506690832484 0 -0.037240889066990732 0.2249407195497049 0 -0.034355627103201843 0.20317452091835969 0 -0.049875474694418803 0.21365997845401091 0 -0.055724894900784701 0.19801673919575349 0 -0.037240889066990732 0.2249407195497049 0 -0.034355627103201843 0.20317452091835969 0 -0.049875474694418803 0.21365997845401091 0 -0.065858600914113732 0.2124172435229878 0 -0.056197361487002967 0.2297506690832484 0 -0.049875474694418803 0.21365997845401091 0 -0.065858600914113732 0.2124172435229878 0 -0.049875474694418803 0.21365997845401091 0 -0.055724894900784701 0.19801673919575349 0 -0.034355627103201843 0.20317452091835969 0 -0.050093715640789037 0.18109307546952749 0 -0.035063826529984861 0.1870300557605673 0 -0.034355627103201843 0.20317452091835969 0 -0.050093715640789037 0.18109307546952749 0 -0.034355627103201843 0.20317452091835969 0 -0.055724894900784701 0.19801673919575349 0 -0.050093715640789037 0.18109307546952749 0 -0.034355627103201843 0.20317452091835969 0 -0.035063826529984861 0.1870300557605673 0 -0.019469786797647132 0.18279080742088019 0 -0.034355627103201843 0.20317452091835969 0 -0.01323639455950436 0.19731225798906599 0 -0.019469786797647132 0.18279080742088019 0 -0.01323639455950436 0.19731225798906599 0 -0.001046458677358735 0.1737636258738017 0 0.0073074383463005476 0.2015763693650964 0 -0.01323639455950436 0.19731225798906599 0 -0.018617538565614648 0.225255966367192 0 0.0073074383463005476 0.2015763693650964 0 -0.034355627103201843 0.20317452091835969 0 -0.018617538565614648 0.225255966367192 0 -0.034355627103201843 0.20317452091835969 0 -0.01323639455950436 0.19731225798906599 0 -0.018617538565614648 0.225255966367192 0 -0.037240889066990732 0.2249407195497049 0 -0.034355627103201843 0.20317452091835969 0 -0.018617538565614648 0.225255966367192 0 -0.018617538565614648 0.225255966367192 0 -0.0028794500280274371 0.2473374118160242 0 0.015661335369959829 0.2293891128563911 0 -0.037240889066990732 0.2249407195497049 0 -0.018617538565614648 0.225255966367192 0 -0.030676298589787959 0.2380925482842414 0 -0.018617538565614648 0.225255966367192 0 -0.0028794500280274371 0.2473374118160242 0 -0.01944836177611171 0.24838787954432581 0 -0.018617538565614648 0.225255966367192 0 -0.0028794500280274371 0.2473374118160242 0 -0.018617538565614648 0.225255966367192 0 -0.01944836177611171 0.24838787954432581 0 -0.030676298589787959 0.2380925482842414 0 -0.033074366645123962 0.25046226796462451 0 -0.01944836177611171 0.24838787954432581 0 -0.030676298589787959 0.2380925482842414 0 -0.036961730286256197 0.1471515921103608 0 -0.05059518641161298 0.15137551308197089 0 -0.042873398408089361 0.1677996620473394 0 -0.036961730286256197 0.1471515921103608 0 -0.036344115716729103 0.12580555564980481 0 -0.056268606933574779 0.13774228149638479 0 -0.036344115716729103 0.12580555564980481 0 -0.056268606933574779 0.13774228149638479 0 -0.058826861041099632 0.124124508740449 0 -0.070556094710029757 0.13569919473943151 0 -0.056268606933574779 0.13774228149638479 0 -0.058826861041099632 0.124124508740449 0 -0.036961730286256197 0.1471515921103608 0 -0.056268606933574779 0.13774228149638479 0 -0.05059518641161298 0.15137551308197089 0 -0.066277010018531618 0.15280851667379869 0 -0.056268606933574779 0.13774228149638479 0 -0.066277010018531618 0.15280851667379869 0 -0.056268606933574779 0.13774228149638479 0 -0.05059518641161298 0.15137551308197089 0 -0.066277010018531618 0.15280851667379869 0 -0.060219575744610163 0.17003764626346141 0 -0.042873398408089361 0.1677996620473394 0 -0.066277010018531618 0.15280851667379869 0 -0.05059518641161298 0.15137551308197089 0 -0.042873398408089361 0.1677996620473394 0 -0.066277010018531618 0.15280851667379869 0 -0.042873398408089361 0.1677996620473394 0 -0.064163702614885562 0.18145482274776231 0 -0.055724894900784701 0.19801673919575349 0 -0.050093715640789037 0.18109307546952749 0 -0.060219575744610163 0.17003764626346141 0 -0.050093715640789037 0.18109307546952749 0 -0.042873398408089361 0.1677996620473394 0 -0.064163702614885562 0.18145482274776231 0 -0.060219575744610163 0.17003764626346141 0 -0.050093715640789037 0.18109307546952749 0 -0.035063826529984861 0.1870300557605673 0 -0.042873398408089361 0.1677996620473394 0 -0.019469786797647132 0.18279080742088019 0 -0.050093715640789037 0.18109307546952749 0 -0.035063826529984861 0.1870300557605673 0 -0.042873398408089361 0.1677996620473394 0 -0.036961730286256197 0.1471515921103608 0 -0.042873398408089361 0.1677996620473394 0 -0.020003126987626779 0.16091737905394429 0 -0.042873398408089361 0.1677996620473394 0 -0.020003126987626779 0.16091737905394429 0 -0.019469786797647132 0.18279080742088019 0 -0.042873398408089361 0.1677996620473394 0 -0.019469786797647132 0.18279080742088019 0 -0.020003126987626779 0.16091737905394429 0 -0.019469786797647132 0.18279080742088019 0 -0.001046458677358735 0.1737636258738017 0 -0.01323639455950436 0.19731225798906599 0 -0.019469786797647132 0.18279080742088019 0 -0.001046458677358735 0.1737636258738017 0 -0.020003126987626779 0.16091737905394429 0 -0.001046458677358735 0.1737636258738017 0 -0.0013507412108303789 0.15247015714670559 0 -0.0013507412108303789 0.15247015714670559 0 -0.018316646545578869 0.1415284297245781 0 -0.00185731836924047 0.13695493251495711 0 -0.020003126987626779 0.16091737905394429 0 -0.0013507412108303789 0.15247015714670559 0 -0.018316646545578869 0.1415284297245781 0 -0.036961730286256197 0.1471515921103608 0 -0.020003126987626779 0.16091737905394429 0 -0.018316646545578869 0.1415284297245781 0 -0.036961730286256197 0.1471515921103608 0 -0.036344115716729103 0.12580555564980481 0 -0.018316646545578869 0.1415284297245781 0 -0.036344115716729103 0.12580555564980481 0 -0.018316646545578869 0.1415284297245781 0 -0.010933874401311839 0.12495824086183741 0 -0.018316646545578869 0.1415284297245781 0 -0.00185731836924047 0.13695493251495711 0 -0.010933874401311839 0.12495824086183741 0 -0.00185731836924047 0.13695493251495711 0 -0.010933874401311839 0.12495824086183741 0 0.0046593032027631414 0.1215934861258583 0 -0.010933874401311839 0.12495824086183741 0 -0.0062303060205972831 0.1111993339902959 0 0.0046593032027631414 0.1215934861258583 0 -0.010933874401311839 0.12495824086183741 0 -0.0062303060205972831 0.1111993339902959 0 -0.022276551778751111 0.1141080556036467 0 -0.0062303060205972831 0.1111993339902959 0 -0.022937621312122861 0.099783046718943058 0 0.00035173356732976288 0.096266868917212797 0 -0.0062303060205972831 0.1111993339902959 0 -0.022937621312122861 0.099783046718943058 0 -0.022276551778751111 0.1141080556036467 0 -0.022937621312122861 0.099783046718943058 0 -0.022276551778751111 0.1141080556036467 0 -0.034332906596188727 0.11011619063739379 0 -0.036344115716729103 0.12580555564980481 0 -0.010933874401311839 0.12495824086183741 0 -0.022276551778751111 0.1141080556036467 0 -0.036344115716729103 0.12580555564980481 0 -0.022276551778751111 0.1141080556036467 0 -0.034332906596188727 0.11011619063739379 0 -0.0022410518547087981 0.068156360643837788 0 -0.018987175398168368 0.065824946381668151 0 -0.0085739263170159907 0.060216399942791862 0 -0.0022410518547087981 0.068156360643837788 0 -0.0067334820512719674 0.078448756345131973 0 -0.018987175398168368 0.065824946381668151 0 -0.0067334820512719674 0.078448756345131973 0 -0.019256378169934221 0.083900604452358543 0 -0.018987175398168368 0.065824946381668151 0 -0.0022410518547087981 0.068156360643837788 0 -0.0067334820512719674 0.078448756345131973 0 0.0064654615991214361 0.078095001330582489 0 -0.0067334820512719674 0.078448756345131973 0 -0.019256378169934221 0.083900604452358543 0 0.00035173356732976288 0.096266868917212797 0 -0.022937621312122861 0.099783046718943058 0 -0.019256378169934221 0.083900604452358543 0 0.00035173356732976288 0.096266868917212797 0 -0.022937621312122861 0.099783046718943058 0 -0.019256378169934221 0.083900604452358543 0 -0.039712373920159041 0.084414438159458247 0 -0.019256378169934221 0.083900604452358543 0 -0.018987175398168368 0.065824946381668151 0 -0.035795300470429559 0.067656633513763359 0 -0.039712373920159041 0.084414438159458247 0 -0.05981513411356839 0.084862456954788903 0 -0.040785394421601708 0.098292561538220205 0 -0.035795300470429559 0.067656633513763359 0 -0.039712373920159041 0.084414438159458247 0 -0.05981513411356839 0.084862456954788903 0 -0.019256378169934221 0.083900604452358543 0 -0.035795300470429559 0.067656633513763359 0 -0.039712373920159041 0.084414438159458247 0 -0.05981513411356839 0.084862456954788903 0 -0.06123497201044846 0.098718209272813467 0 -0.05981513411356839 0.084862456954788903 0 -0.06123497201044846 0.098718209272813467 0 -0.065088631264566363 0.085115943741165073 0 -0.05981513411356839 0.084862456954788903 0 -0.058556774421057778 0.072759648150182862 0 -0.065088631264566363 0.085115943741165073 0 -0.05981513411356839 0.084862456954788903 0 -0.058556774421057778 0.072759648150182862 0 -0.035795300470429559 0.067656633513763359 0 -0.05981513411356839 0.084862456954788903 0 -0.035795300470429559 0.067656633513763359 0 -0.05981513411356839 0.084862456954788903 0 -0.058556774421057778 0.072759648150182862 0 -0.035795300470429559 0.067656633513763359 0 -0.058556774421057778 0.072759648150182862 0 -0.046739152868112303 0.0596507053821939 0 -0.036344115716729103 0.12580555564980481 0 -0.034332906596188727 0.11011619063739379 0 -0.0493208497517389 0.11259173367635419 0 -0.022937621312122861 0.099783046718943058 0 -0.039712373920159041 0.084414438159458247 0 -0.040785394421601708 0.098292561538220205 0 -0.022937621312122861 0.099783046718943058 0 -0.034332906596188727 0.11011619063739379 0 -0.040785394421601708 0.098292561538220205 0 -0.034332906596188727 0.11011619063739379 0 -0.040785394421601708 0.098292561538220205 0 -0.0493208497517389 0.11259173367635419 0 -0.05981513411356839 0.084862456954788903 0 -0.040785394421601708 0.098292561538220205 0 -0.06123497201044846 0.098718209272813467 0 -0.040785394421601708 0.098292561538220205 0 -0.055675387202300572 0.1053954136037786 0 -0.0493208497517389 0.11259173367635419 0 -0.040785394421601708 0.098292561538220205 0 -0.06123497201044846 0.098718209272813467 0 -0.040785394421601708 0.098292561538220205 0 -0.06123497201044846 0.098718209272813467 0 -0.055675387202300572 0.1053954136037786 0 -0.06123497201044846 0.098718209272813467 0 -0.055675387202300572 0.1053954136037786 0 -0.067669360936345013 0.098852137861699996 0 -0.0493208497517389 0.11259173367635419 0 -0.058826861041099632 0.124124508740449 0 -0.064925943699516694 0.1118452213388401 0 -0.036344115716729103 0.12580555564980481 0 -0.0493208497517389 0.11259173367635419 0 -0.058826861041099632 0.124124508740449 0 -0.055675387202300572 0.1053954136037786 0 -0.0493208497517389 0.11259173367635419 0 -0.064925943699516694 0.1118452213388401 0 -0.058826861041099632 0.124124508740449 0 -0.064925943699516694 0.1118452213388401 0 -0.075545555435008571 0.12106306554187871 0 -0.064925943699516694 0.1118452213388401 0 -0.075545555435008571 0.12106306554187871 0 -0.078637200351906023 0.1093852981671474 0 -0.08737841333221516 0.1290234842381934 0 -0.075545555435008571 0.12106306554187871 0 -0.089057236258070133 0.11664702919847281 0 -0.075545555435008571 0.12106306554187871 0 -0.078637200351906023 0.1093852981671474 0 -0.089057236258070133 0.11664702919847281 0 -0.08737841333221516 0.1290234842381934 0 -0.089057236258070133 0.11664702919847281 0 -0.095427030793117817 0.1236036844967717 0 -0.067669360936345013 0.098852137861699996 0 -0.077875742308756102 0.086362399391570421 0 -0.094553327451088326 0.0994117141851798 0 -0.078637200351906023 0.1093852981671474 0 -0.089057236258070133 0.11664702919847281 0 -0.094553327451088326 0.0994117141851798 0 -0.078637200351906023 0.1093852981671474 0 -0.067669360936345013 0.098852137861699996 0 -0.094553327451088326 0.0994117141851798 0 -0.067669360936345013 0.098852137861699996 0 -0.094553327451088326 0.0994117141851798 0 -0.064925943699516694 0.1118452213388401 0 -0.078637200351906023 0.1093852981671474 0 -0.067669360936345013 0.098852137861699996 0 -0.055675387202300572 0.1053954136037786 0 -0.064925943699516694 0.1118452213388401 0 -0.067669360936345013 0.098852137861699996 0 -0.06123497201044846 0.098718209272813467 0 -0.067669360936345013 0.098852137861699996 0 -0.06123497201044846 0.098718209272813467 0 -0.067669360936345013 0.098852137861699996 0 -0.06639356720313086 0.092254287081646263 0 -0.06123497201044846 0.098718209272813467 0 -0.06639356720313086 0.092254287081646263 0 -0.065088631264566363 0.085115943741165073 0 -0.06639356720313086 0.092254287081646263 0 -0.065088631264566363 0.085115943741165073 0 -0.077875742308756102 0.086362399391570421 0 -0.065088631264566363 0.085115943741165073 0 -0.077875742308756102 0.086362399391570421 0 -0.06853679401401222 0.075388554019432716 0 -0.067669360936345013 0.098852137861699996 0 -0.06639356720313086 0.092254287081646263 0 -0.077875742308756102 0.086362399391570421 0 -0.077875742308756102 0.086362399391570421 0 -0.06853679401401222 0.075388554019432716 0 -0.078965832989995516 0.068955733394964663 0 -0.058556774421057778 0.072759648150182862 0 -0.065088631264566363 0.085115943741165073 0 -0.06853679401401222 0.075388554019432716 0 -0.058556774421057778 0.072759648150182862 0 -0.06699398228735208 0.063471639669900742 0 -0.06853679401401222 0.075388554019432716 0 -0.06699398228735208 0.063471639669900742 0 -0.06853679401401222 0.075388554019432716 0 -0.078965832989995516 0.068955733394964663 0 -0.077875742308756102 0.086362399391570421 0 -0.078965832989995516 0.068955733394964663 0 -0.096007785258128156 0.075546368237404238 0 -0.078965832989995516 0.068955733394964663 0 -0.096007785258128156 0.075546368237404238 0 -0.0886319303390736 0.055805642772606079 0 -0.077875742308756102 0.086362399391570421 0 -0.096007785258128156 0.075546368237404238 0 -0.094553327451088326 0.0994117141851798 0 -0.096007785258128156 0.075546368237404238 0 -0.11154602087619769 0.086018463320188768 0 -0.094553327451088326 0.0994117141851798 0 -0.096007785258128156 0.075546368237404238 0 -0.11462143655668 0.072315558338314559 0 -0.1079155578781968 0.0583556318179137 0 -0.096007785258128156 0.075546368237404238 0 -0.1079155578781968 0.0583556318179137 0 -0.0886319303390736 0.055805642772606079 0 -0.096007785258128156 0.075546368237404238 0 -0.11462143655668 0.072315558338314559 0 -0.11154602087619769 0.086018463320188768 0 -0.12780311571555611 0.06156812789504388 0 -0.11462143655668 0.072315558338314559 0 -0.1079155578781968 0.0583556318179137 0 -0.13111026114926039 0.082847385331385665 0 -0.12780311571555611 0.06156812789504388 0 -0.11462143655668 0.072315558338314559 0 -0.13111026114926039 0.082847385331385665 0 -0.11154602087619769 0.086018463320188768 0 -0.12143729396583169 0.099971290508659591 0 -0.13111026114926039 0.082847385331385665 0 -0.11462143655668 0.072315558338314559 0 -0.11154602087619769 0.086018463320188768 0 -0.13067475800644701 0.1126939483420895 0 -0.12143729396583169 0.099971290508659591 0 -0.1121425957035742 0.11077112196348921 0 -0.12143729396583169 0.099971290508659591 0 -0.1121425957035742 0.11077112196348921 0 -0.094553327451088326 0.0994117141851798 0 -0.13067475800644701 0.1126939483420895 0 -0.1127466942094318 0.12503701762628699 0 -0.13067475800644701 0.1126939483420895 0 -0.1127466942094318 0.12503701762628699 0 -0.1121425957035742 0.11077112196348921 0 -0.089057236258070133 0.11664702919847281 0 -0.1013009048850721 0.11674163915523041 0 -0.094553327451088326 0.0994117141851798 0 -0.1127466942094318 0.12503701762628699 0 -0.1023796639526607 0.1240336021244187 0 -0.1013009048850721 0.11674163915523041 0 -0.1127466942094318 0.12503701762628699 0 -0.1121425957035742 0.11077112196348921 0 -0.1013009048850721 0.11674163915523041 0 -0.089057236258070133 0.11664702919847281 0 -0.095427030793117817 0.1236036844967717 0 -0.1013009048850721 0.11674163915523041 0 -0.1023796639526607 0.1240336021244187 0 -0.095427030793117817 0.1236036844967717 0 -0.1013009048850721 0.11674163915523041 0 -0.12143729396583169 0.099971290508659591 0 -0.094553327451088326 0.0994117141851798 0 -0.11154602087619769 0.086018463320188768 0 -0.12143729396583169 0.099971290508659591 0 -0.094553327451088326 0.0994117141851798 0 -0.1121425957035742 0.11077112196348921 0 -0.1013009048850721 0.11674163915523041 0 -0.094553327451088326 0.0994117141851798 0 -0.1032872892092138 0.028011297063112121 0 -0.1108539494081503 0.008041496653659528 0 -0.089378410504706268 0.016987312430054691 0 -0.1108539494081503 0.008041496653659528 0 -0.089378410504706268 0.016987312430054691 0 -0.09306177644197873 0.00089356871771194279 0 -0.115216914923293 -0.01398412961978371 0 -0.13296179499841851 0.0059486398834025503 0 -0.1108539494081503 0.008041496653659528 0 -0.13296179499841851 0.0059486398834025503 0 -0.1108539494081503 0.008041496653659528 0 -0.12243433634289071 0.021276196369224291 0 -0.1032872892092138 0.028011297063112121 0 -0.1108539494081503 0.008041496653659528 0 -0.12243433634289071 0.021276196369224291 0 -0.1032872892092138 0.028011297063112121 0 -0.12243433634289071 0.021276196369224291 0 -0.1212523547240404 0.040639067568820852 0 -0.12780311571555611 0.06156812789504388 0 -0.1212523547240404 0.040639067568820852 0 -0.1079155578781968 0.0583556318179137 0 -0.1212523547240404 0.040639067568820852 0 -0.1079155578781968 0.0583556318179137 0 -0.098664158228307708 0.043799001872534972 0 -0.1079155578781968 0.0583556318179137 0 -0.098664158228307708 0.043799001872534972 0 -0.0886319303390736 0.055805642772606079 0 -0.1032872892092138 0.028011297063112121 0 -0.1212523547240404 0.040639067568820852 0 -0.098664158228307708 0.043799001872534972 0 -0.1032872892092138 0.028011297063112121 0 -0.098664158228307708 0.043799001872534972 0 -0.07914939891846412 0.03453193046697689 0 -0.098664158228307708 0.043799001872534972 0 -0.07914939891846412 0.03453193046697689 0 -0.0886319303390736 0.055805642772606079 0 -0.07914939891846412 0.03453193046697689 0 -0.0886319303390736 0.055805642772606079 0 -0.073035399250079569 0.053286653859819989 0 -0.078965832989995516 0.068955733394964663 0 -0.0886319303390736 0.055805642772606079 0 -0.073035399250079569 0.053286653859819989 0 -0.06699398228735208 0.063471639669900742 0 -0.073035399250079569 0.053286653859819989 0 -0.055875110761615311 0.046967608925103488 0 -0.06699398228735208 0.063471639669900742 0 -0.078965832989995516 0.068955733394964663 0 -0.073035399250079569 0.053286653859819989 0 -0.07914939891846412 0.03453193046697689 0 -0.073035399250079569 0.053286653859819989 0 -0.055875110761615311 0.046967608925103488 0 -0.07914939891846412 0.03453193046697689 0 -0.053193447102172838 0.02117556970002412 0 -0.055875110761615311 0.046967608925103488 0 -0.07914939891846412 0.03453193046697689 0 -0.072501182663271851 0.009803197509418049 0 -0.053193447102172838 0.02117556970002412 0 -0.07914939891846412 0.03453193046697689 0 -0.089378410504706268 0.016987312430054691 0 -0.072501182663271851 0.009803197509418049 0 -0.1032872892092138 0.028011297063112121 0 -0.07914939891846412 0.03453193046697689 0 -0.089378410504706268 0.016987312430054691 0 -0.089378410504706268 0.016987312430054691 0 -0.09306177644197873 0.00089356871771194279 0 -0.072501182663271851 0.009803197509418049 0 -0.055515530224721277 -0.0051438872638667667 0 -0.053193447102172838 0.02117556970002412 0 -0.038793910950651059 0.0036386104169880821 0 -0.055515530224721277 -0.0051438872638667667 0 -0.072501182663271851 0.009803197509418049 0 -0.053193447102172838 0.02117556970002412 0 -0.053193447102172838 0.02117556970002412 0 -0.036249988819079017 0.02027817932682844 0 -0.036469661084654943 0.035018133135028308 0 -0.036249988819079017 0.02027817932682844 0 -0.036469661084654943 0.035018133135028308 0 -0.025822002630184641 0.029752897110764742 0 -0.036249988819079017 0.02027817932682844 0 -0.038793910950651059 0.0036386104169880821 0 -0.02179108638921648 0.017373934726512691 0 -0.053193447102172838 0.02117556970002412 0 -0.036249988819079017 0.02027817932682844 0 -0.038793910950651059 0.0036386104169880821 0 -0.058556774421057778 0.072759648150182862 0 -0.055875110761615311 0.046967608925103488 0 -0.058556774421057778 0.072759648150182862 0 -0.055875110761615311 0.046967608925103488 0 -0.046739152868112303 0.0596507053821939 0 -0.058556774421057778 0.072759648150182862 0 -0.06699398228735208 0.063471639669900742 0 -0.055875110761615311 0.046967608925103488 0 -0.053193447102172838 0.02117556970002412 0 -0.055875110761615311 0.046967608925103488 0 -0.053193447102172838 0.02117556970002412 0 -0.055875110761615311 0.046967608925103488 0 -0.036469661084654943 0.035018133135028308 0 -0.036469661084654943 0.035018133135028308 0 -0.036729425819346559 0.051218930939725918 0 -0.02485629112304432 0.041162885299047068 0 -0.055875110761615311 0.046967608925103488 0 -0.036469661084654943 0.035018133135028308 0 -0.036729425819346559 0.051218930939725918 0 -0.035795300470429559 0.067656633513763359 0 -0.036729425819346559 0.051218930939725918 0 -0.046739152868112303 0.0596507053821939 0 -0.055875110761615311 0.046967608925103488 0 -0.036729425819346559 0.051218930939725918 0 -0.046739152868112303 0.0596507053821939 0 -0.018987175398168368 0.065824946381668151 0 -0.035795300470429559 0.067656633513763359 0 -0.01200324193781566 0.050427127717453897 0 -0.035795300470429559 0.067656633513763359 0 -0.036729425819346559 0.051218930939725918 0 -0.02074980688715574 0.055184083504505148 0 -0.035795300470429559 0.067656633513763359 0 -0.01200324193781566 0.050427127717453897 0 -0.035795300470429559 0.067656633513763359 0 -0.02074980688715574 0.055184083504505148 0 -0.01200324193781566 0.050427127717453897 0 -0.036729425819346559 0.051218930939725918 0 -0.02074980688715574 0.055184083504505148 0 -0.02485629112304432 0.041162885299047068 0 -0.02074980688715574 0.055184083504505148 0 -0.02485629112304432 0.041162885299047068 0 -0.0097429857349284436 0.034931353066407198 0 -0.02485629112304432 0.041162885299047068 0 -0.0097429857349284436 0.034931353066407198 0 -0.025822002630184641 0.029752897110764742 0 -0.036469661084654943 0.035018133135028308 0 -0.02485629112304432 0.041162885299047068 0 -0.025822002630184641 0.029752897110764742 0 -0.02074980688715574 0.055184083504505148 0 -0.0097429857349284436 0.034931353066407198 0 -0.01200324193781566 0.050427127717453897 0 -0.02074980688715574 0.055184083504505148 0 -0.0097429857349284436 0.034931353066407198 0 -0.0097429857349284436 0.034931353066407198 0 -0.01200324193781566 0.050427127717453897 0 0.011788816594798249 0.033197621921144449 0 -0.01200324193781566 0.050427127717453897 0 0.011788816594798249 0.033197621921144449 0 -0.01200324193781566 0.050427127717453897 0 -0.001064236077371141 0.056457165028207613 0 0.0064051376942792504 0.046586188833112233 0 -0.0022410518547087981 0.068156360643837788 0 -0.001064236077371141 0.056457165028207613 0 -0.0085739263170159907 0.060216399942791862 0 -0.01200324193781566 0.050427127717453897 0 -0.001064236077371141 0.056457165028207613 0 -0.0085739263170159907 0.060216399942791862 0 -0.018987175398168368 0.065824946381668151 0 -0.01200324193781566 0.050427127717453897 0 -0.0085739263170159907 0.060216399942791862 0 -0.026266818702171939 -0.0053158858329299206 0 -0.038793910950651059 0.0036386104169880821 0 -0.02179108638921648 0.017373934726512691 0 -0.026266818702171939 -0.0053158858329299206 0 -0.011908967505614459 -0.0014877564624628109 0 -0.02179108638921648 0.017373934726512691 0 -0.0097429857349284436 0.034931353066407198 0 -0.025822002630184641 0.029752897110764742 0 -0.02179108638921648 0.017373934726512691 0 -0.036249988819079017 0.02027817932682844 0 -0.025822002630184641 0.029752897110764742 0 -0.02179108638921648 0.017373934726512691 0 -0.0097429857349284436 0.034931353066407198 0 0.0012638354172988949 0.014678622628309171 0 -0.0097429857349284436 0.034931353066407198 0 -0.02179108638921648 0.017373934726512691 0 0.0012638354172988949 0.014678622628309171 0 -0.011908967505614459 -0.0014877564624628109 0 -0.02179108638921648 0.017373934726512691 0 0.0012638354172988949 0.014678622628309171 0 -0.011908967505614459 -0.0014877564624628109 0 0.0012638354172988949 0.014678622628309171 0 0.0122706565695259 -0.0055741078097889859 0 0.0012638354172988949 0.014678622628309171 0 0.0122706565695259 -0.0055741078097889859 0 0.0012638354172988949 0.014678622628309171 0 0.01451278792726993 0.01939914259950265 0 0.0122706565695259 -0.0055741078097889859 0 0.0012638354172988949 0.014678622628309171 0 0.01451278792726993 0.01939914259950265 0 0.011788816594798249 0.033197621921144449 0 -0.0097429857349284436 0.034931353066407198 0 0.0012638354172988949 0.014678622628309171 0 0.011788816594798249 0.033197621921144449 0 0.02890639255910514 0.016208074266757969 0 0.020676471304725899 0.035855538714699847 0 0.033901241799089078 0.02194150886235045 0 0.027781976157525749 0.01473580740675773 0 0.020676471304725899 0.035855538714699847 0 0.01451278792726993 0.01939914259950265 0 0.011788816594798249 0.033197621921144449 0 0.020676471304725899 0.035855538714699847 0 0.02890639255910514 0.016208074266757969 0 0.027781976157525749 0.01473580740675773 0 0.020676471304725899 0.035855538714699847 0 0.01451278792726993 0.01939914259950265 0 0.027781976157525749 0.01473580740675773 0 0.020676471304725899 0.035855538714699847 0 0.02890639255910514 0.016208074266757969 0 0.027781976157525749 0.01473580740675773 0 0.033422415920780532 0.014852156381363699 0 0.027781976157525749 0.01473580740675773 0 0.0122706565695259 -0.0055741078097889859 0 0.034304151136240253 -0.0046500892954977006 0 0.01451278792726993 0.01939914259950265 0 0.027781976157525749 0.01473580740675773 0 0.0122706565695259 -0.0055741078097889859 0 0.027781976157525749 0.01473580740675773 0 0.0122706565695259 -0.0055741078097889859 0 0.027781976157525749 0.01473580740675773 0 0.034304151136240253 -0.0046500892954977006 0 0.02890639255910514 0.016208074266757969 0 0.027781976157525749 0.01473580740675773 0 -0.0022410518547087981 0.068156360643837788 0 -0.001064236077371141 0.056457165028207613 0 0.01357096645192386 0.056975270022641189 0 -0.001064236077371141 0.056457165028207613 0 0.01357096645192386 0.056975270022641189 0 0.0064051376942792504 0.046586188833112233 0 0.01357096645192386 0.056975270022641189 0 0.0064051376942792504 0.046586188833112233 0 0.020676471304725899 0.035855538714699847 0 -0.01200324193781566 0.050427127717453897 0 0.0064051376942792504 0.046586188833112233 0 0.011788816594798249 0.033197621921144449 0 0.0064051376942792504 0.046586188833112233 0 0.011788816594798249 0.033197621921144449 0 0.020676471304725899 0.035855538714699847 0 0.020676471304725899 0.035855538714699847 0 0.034165344199427211 0.052050526916910637 0 0.035953936076907271 0.039343502500954933 0 0.01357096645192386 0.056975270022641189 0 0.020676471304725899 0.035855538714699847 0 0.01357096645192386 0.056975270022641189 0 0.020676471304725899 0.035855538714699847 0 0.034165344199427211 0.052050526916910637 0 0.01357096645192386 0.056975270022641189 0 0.034165344199427211 0.052050526916910637 0 0.026832190993199709 0.073439728100557614 0 0.034165344199427211 0.052050526916910637 0 0.058018448332621778 0.051998566383021687 0 0.04599757656974722 0.069866698912443709 0 0.020676471304725899 0.035855538714699847 0 0.035953936076907271 0.039343502500954933 0 0.040663472916660608 0.028492741754720972 0 0.034165344199427211 0.052050526916910637 0 0.035953936076907271 0.039343502500954933 0 0.048701024858034479 0.037836279225313491 0 0.035953936076907271 0.039343502500954933 0 0.048701024858034479 0.037836279225313491 0 0.040663472916660608 0.028492741754720972 0 0.048701024858034479 0.037836279225313491 0 0.062131383987576297 0.031711478250425272 0 0.058018448332621778 0.051998566383021687 0 0.048701024858034479 0.037836279225313491 0 0.062131383987576297 0.031711478250425272 0 0.051003121718104109 0.0269088935894073 0 0.034165344199427211 0.052050526916910637 0 0.048701024858034479 0.037836279225313491 0 0.058018448332621778 0.051998566383021687 0 0.027781976157525749 0.01473580740675773 0 0.035474173144296017 0.0074916157421433026 0 0.034304151136240253 -0.0046500892954977006 0 0.042446081822082142 0.01056434679855058 0 0.040398944813901522 0.0086580091691112124 0 0.043943249532487801 0.0078677277703904768 0 0.042446081822082142 0.01056434679855058 0 0.040398944813901522 0.0086580091691112124 0 0.039663704005358333 0.011498151208592759 0 0.039663704005358333 0.011498151208592759 0 0.042382815416645611 0.01389756097076373 0 0.038033548449078039 0.01559088280832052 0 0.042446081822082142 0.01056434679855058 0 0.039663704005358333 0.011498151208592759 0 0.042382815416645611 0.01389756097076373 0 0.042446081822082142 0.01056434679855058 0 0.042382815416645611 0.01389756097076373 0 0.045841695342017437 0.010900284873894691 0 0.042382815416645611 0.01389756097076373 0 0.046128491266940991 0.015424885367366451 0 0.045841695342017437 0.010900284873894691 0 0.045841695342017437 0.010900284873894691 0 0.043943249532487801 0.0078677277703904768 0 0.048555957173215293 0.0072165335890248773 0 0.042446081822082142 0.01056434679855058 0 0.045841695342017437 0.010900284873894691 0 0.043943249532487801 0.0078677277703904768 0 0.043943249532487801 0.0078677277703904768 0 0.04471362878999266 0.0041462553546406794 0 0.048555957173215293 0.0072165335890248773 0 0.043943249532487801 0.0078677277703904768 0 0.04471362878999266 0.0041462553546406794 0 0.041697148069810418 0.0055805200300870043 0 0.04471362878999266 0.0041462553546406794 0 0.045577883269561643 0.001356711203132103 0 0.048765601285633182 0.002775182978581152 0 0.04471362878999266 0.0041462553546406794 0 0.045577883269561643 0.001356711203132103 0 0.042884969485449703 0.00071947726916594989 0 0.04471362878999266 0.0041462553546406794 0 0.042884969485449703 0.00071947726916594989 0 0.04141526426905822 0.002947207726523154 0 0.045577883269561643 0.001356711203132103 0 0.042884969485449703 0.00071947726916594989 0 0.044398023908916742 -0.00047599892084176752 0 0.042884969485449703 0.00071947726916594989 0 0.04141526426905822 0.002947207726523154 0 0.039943424991382682 0.00017342641415403869 0 0.04141526426905822 0.002947207726523154 0 0.039943424991382682 0.00017342641415403869 0 0.038895406690316187 0.0037621371394685231 0 0.040398944813901522 0.0086580091691112124 0 0.043943249532487801 0.0078677277703904768 0 0.041697148069810418 0.0055805200300870043 0 0.04471362878999266 0.0041462553546406794 0 0.04141526426905822 0.002947207726523154 0 0.041697148069810418 0.0055805200300870043 0 0.041697148069810418 0.0055805200300870043 0 0.039116418179581038 0.0063730705202025102 0 0.038895406690316187 0.0037621371394685231 0 0.04141526426905822 0.002947207726523154 0 0.041697148069810418 0.0055805200300870043 0 0.038895406690316187 0.0037621371394685231 0 0.040398944813901522 0.0086580091691112124 0 0.041697148069810418 0.0055805200300870043 0 0.039116418179581038 0.0063730705202025102 0 0.035474173144296017 0.0074916157421433026 0 0.034304151136240253 -0.0046500892954977006 0 0.036760601409293207 -0.00017021607206089449 0 0.039116418179581038 0.0063730705202025102 0 0.035474173144296017 0.0074916157421433026 0 0.038895406690316187 0.0037621371394685231 0 0.040398944813901522 0.0086580091691112124 0 0.039116418179581038 0.0063730705202025102 0 0.035474173144296017 0.0074916157421433026 0 0.035474173144296017 0.0074916157421433026 0 0.038895406690316187 0.0037621371394685231 0 0.036760601409293207 -0.00017021607206089449 0 0.039943424991382682 0.00017342641415403869 0 0.038895406690316187 0.0037621371394685231 0 0.036760601409293207 -0.00017021607206089449 0 0.035474173144296017 0.0074916157421433026 0 0.036859207615438767 0.0123594211139684 0 0.033422415920780532 0.014852156381363699 0 0.040398944813901522 0.0086580091691112124 0 0.039663704005358333 0.011498151208592759 0 0.035474173144296017 0.0074916157421433026 0 0.039663704005358333 0.011498151208592759 0 0.035474173144296017 0.0074916157421433026 0 0.036859207615438767 0.0123594211139684 0 0.039663704005358333 0.011498151208592759 0 0.036859207615438767 0.0123594211139684 0 0.038033548449078039 0.01559088280832052 0 0.036859207615438767 0.0123594211139684 0 0.038033548449078039 0.01559088280832052 0 0.033422415920780532 0.014852156381363699 0 0.027781976157525749 0.01473580740675773 0 0.035474173144296017 0.0074916157421433026 0 0.033422415920780532 0.014852156381363699 0 0.038033548449078039 0.01559088280832052 0 0.033422415920780532 0.014852156381363699 0 0.033901241799089078 0.02194150886235045 0 0.033901241799089078 0.02194150886235045 0 0.040663472916660608 0.028492741754720972 0 0.04197190593715594 0.018996498312884101 0 0.038033548449078039 0.01559088280832052 0 0.033901241799089078 0.02194150886235045 0 0.04197190593715594 0.018996498312884101 0 0.02890639255910514 0.016208074266757969 0 0.033422415920780532 0.014852156381363699 0 0.033901241799089078 0.02194150886235045 0 0.020676471304725899 0.035855538714699847 0 0.033901241799089078 0.02194150886235045 0 0.040663472916660608 0.028492741754720972 0 0.048701024858034479 0.037836279225313491 0 0.040663472916660608 0.028492741754720972 0 0.051003121718104109 0.0269088935894073 0 0.040663472916660608 0.028492741754720972 0 0.048560086334725423 0.020333870033735411 0 0.051003121718104109 0.0269088935894073 0 0.040663472916660608 0.028492741754720972 0 0.04197190593715594 0.018996498312884101 0 0.048560086334725423 0.020333870033735411 0 0.042382815416645611 0.01389756097076373 0 0.038033548449078039 0.01559088280832052 0 0.04197190593715594 0.018996498312884101 0 0.046128491266940991 0.015424885367366451 0 0.04197190593715594 0.018996498312884101 0 0.048560086334725423 0.020333870033735411 0 0.042382815416645611 0.01389756097076373 0 0.046128491266940991 0.015424885367366451 0 0.04197190593715594 0.018996498312884101 0 0.046128491266940991 0.015424885367366451 0 0.048560086334725423 0.020333870033735411 0 0.051053177328672143 0.01260274135136511 0 0.048560086334725423 0.020333870033735411 0 0.051003121718104109 0.0269088935894073 0 0.055743559222005509 0.017311065172138571 0 0.048560086334725423 0.020333870033735411 0 0.055743559222005509 0.017311065172138571 0 0.051053177328672143 0.01260274135136511 0 0.062131383987576297 0.031711478250425272 0 0.051003121718104109 0.0269088935894073 0 0.062135697449689532 0.022262570088767381 0 0.062135697449689532 0.022262570088767381 0 0.055743559222005509 0.017311065172138571 0 0.062929324731183206 0.013628913015440371 0 0.051003121718104109 0.0269088935894073 0 0.062135697449689532 0.022262570088767381 0 0.055743559222005509 0.017311065172138571 0 0.055743559222005509 0.017311065172138571 0 0.056715139945376462 0.0094850993889856444 0 0.062929324731183206 0.013628913015440371 0 0.056715139945376462 0.0094850993889856444 0 0.063713407752740994 0.0067003402479781553 0 0.062929324731183206 0.013628913015440371 0 0.055743559222005509 0.017311065172138571 0 0.056715139945376462 0.0094850993889856444 0 0.051053177328672143 0.01260274135136511 0 0.056715139945376462 0.0094850993889856444 0 0.051053177328672143 0.01260274135136511 0 0.052226760942877662 0.0084892275653211391 0 0.051053177328672143 0.01260274135136511 0 0.052226760942877662 0.0084892275653211391 0 0.048555957173215293 0.0072165335890248773 0 0.045841695342017437 0.010900284873894691 0 0.051053177328672143 0.01260274135136511 0 0.048555957173215293 0.0072165335890248773 0 0.046128491266940991 0.015424885367366451 0 0.045841695342017437 0.010900284873894691 0 0.051053177328672143 0.01260274135136511 0 0.048765601285633182 0.002775182978581152 0 0.051440149982638711 0.00071573179540184361 0 0.049084708219886461 -0.0010591366939475409 0 0.045577883269561643 0.001356711203132103 0 0.048765601285633182 0.002775182978581152 0 0.049084708219886461 -0.0010591366939475409 0 0.048765601285633182 0.002775182978581152 0 0.048555957173215293 0.0072165335890248773 0 0.053047384214486709 0.0045264499505002394 0 0.04471362878999266 0.0041462553546406794 0 0.048765601285633182 0.002775182978581152 0 0.048555957173215293 0.0072165335890248773 0 0.052226760942877662 0.0084892275653211391 0 0.048555957173215293 0.0072165335890248773 0 0.053047384214486709 0.0045264499505002394 0 0.056715139945376462 0.0094850993889856444 0 0.052226760942877662 0.0084892275653211391 0 0.053047384214486709 0.0045264499505002394 0 0.048765601285633182 0.002775182978581152 0 0.053047384214486709 0.0045264499505002394 0 0.051440149982638711 0.00071573179540184361 0 0.053047384214486709 0.0045264499505002394 0 0.051440149982638711 0.00071573179540184361 0 0.054570243933502537 0.00025638892382715879 0 0.054570243933502537 0.00025638892382715879 0 0.059064100454841291 0.0019859127964279031 0 0.057621307896374631 -0.0022194826214428308 0 0.053047384214486709 0.0045264499505002394 0 0.054570243933502537 0.00025638892382715879 0 0.059064100454841291 0.0019859127964279031 0 0.056715139945376462 0.0094850993889856444 0 0.053047384214486709 0.0045264499505002394 0 0.059064100454841291 0.0019859127964279031 0 0.056715139945376462 0.0094850993889856444 0 0.059064100454841291 0.0019859127964279031 0 0.063713407752740994 0.0067003402479781553 0 0.063713407752740994 0.0067003402479781553 0 0.073284976120953346 0.0031879796578754439 0 0.066051670772587168 -0.0013996614558420869 0 0.059064100454841291 0.0019859127964279031 0 0.063713407752740994 0.0067003402479781553 0 0.066051670772587168 -0.0013996614558420869 0 0.063713407752740994 0.0067003402479781553 0 0.071567329575969521 0.011121095967741079 0 0.073284976120953346 0.0031879796578754439 0 0.063713407752740994 0.0067003402479781553 0 0.062929324731183206 0.013628913015440371 0 0.071567329575969521 0.011121095967741079 0 0.062929324731183206 0.013628913015440371 0 0.071567329575969521 0.011121095967741079 0 0.069429508155262026 0.01782341356397641 0 0.071567329575969521 0.011121095967741079 0 0.077483434711505345 0.017574431780351889 0 0.069429508155262026 0.01782341356397641 0 0.071567329575969521 0.011121095967741079 0 0.082563325984172334 0.0078114975408241846 0 0.077483434711505345 0.017574431780351889 0 0.071567329575969521 0.011121095967741079 0 0.073284976120953346 0.0031879796578754439 0 0.082563325984172334 0.0078114975408241846 0 0.073284976120953346 0.0031879796578754439 0 0.082563325984172334 0.0078114975408241846 0 0.080983079341953854 -0.0049042304712999746 0 0.082563325984172334 0.0078114975408241846 0 0.08725024036741795 0.017743440030699571 0 0.077483434711505345 0.017574431780351889 0 0.082563325984172334 0.0078114975408241846 0 0.08725024036741795 0.017743440030699571 0 0.097124770672335062 0.01102829468143763 0 0.082563325984172334 0.0078114975408241846 0 0.097124770672335062 0.01102829468143763 0 0.095293300726640384 -0.0026303323679718791 0 0.082563325984172334 0.0078114975408241846 0 0.080983079341953854 -0.0049042304712999746 0 0.095293300726640384 -0.0026303323679718791 0 0.083223810021370914 0.027991415510345102 0 0.090246243108845117 0.038077924000348408 0 0.095855860447706054 0.024311560640539048 0 0.08725024036741795 0.017743440030699571 0 0.083223810021370914 0.027991415510345102 0 0.095855860447706054 0.024311560640539048 0 0.08725024036741795 0.017743440030699571 0 0.097124770672335062 0.01102829468143763 0 0.095855860447706054 0.024311560640539048 0 0.08725024036741795 0.017743440030699571 0 0.083223810021370914 0.027991415510345102 0 0.077483434711505345 0.017574431780351889 0 0.083223810021370914 0.027991415510345102 0 0.071577286884006108 0.026191656941216421 0 0.077483434711505345 0.017574431780351889 0 0.071577286884006108 0.026191656941216421 0 0.077483434711505345 0.017574431780351889 0 0.069429508155262026 0.01782341356397641 0 0.062135697449689532 0.022262570088767381 0 0.071577286884006108 0.026191656941216421 0 0.069429508155262026 0.01782341356397641 0 0.062135697449689532 0.022262570088767381 0 0.062929324731183206 0.013628913015440371 0 0.069429508155262026 0.01782341356397641 0 0.062131383987576297 0.031711478250425272 0 0.062135697449689532 0.022262570088767381 0 0.071577286884006108 0.026191656941216421 0 0.062131383987576297 0.031711478250425272 0 0.071577286884006108 0.026191656941216421 0 0.073333255740034686 0.041299663185849232 0 0.062131383987576297 0.031711478250425272 0 0.058018448332621778 0.051998566383021687 0 0.073333255740034686 0.041299663185849232 0 0.083223810021370914 0.027991415510345102 0 0.071577286884006108 0.026191656941216421 0 0.073333255740034686 0.041299663185849232 0 0.058018448332621778 0.051998566383021687 0 0.073333255740034686 0.041299663185849232 0 0.072539126032095808 0.066094258457378929 0 0.073333255740034686 0.041299663185849232 0 0.094445483211815395 0.054453205593202832 0 0.072539126032095808 0.066094258457378929 0 0.073333255740034686 0.041299663185849232 0 0.090246243108845117 0.038077924000348408 0 0.094445483211815395 0.054453205593202832 0 0.083223810021370914 0.027991415510345102 0 0.073333255740034686 0.041299663185849232 0 0.090246243108845117 0.038077924000348408 0 0.090246243108845117 0.038077924000348408 0 0.1070602778565556 0.035755694254086007 0 0.094445483211815395 0.054453205593202832 0 0.090246243108845117 0.038077924000348408 0 0.1070602778565556 0.035755694254086007 0 0.095855860447706054 0.024311560640539048 0 0.094445483211815395 0.054453205593202832 0 0.1145025214138863 0.052650644276098509 0 0.10078485425422019 0.076986589652265902 0 0.1070602778565556 0.035755694254086007 0 0.094445483211815395 0.054453205593202832 0 0.1145025214138863 0.052650644276098509 0 0.1070602778565556 0.035755694254086007 0 0.1145025214138863 0.052650644276098509 0 0.1219569800619074 0.03737599779737627 0 0.1070602778565556 0.035755694254086007 0 0.1219569800619074 0.03737599779737627 0 0.12251008271650859 0.023139438711283121 0 0.12251008271650859 0.023139438711283121 0 0.12169987808444491 0.0072513285582684502 0 0.1089680143517609 0.017501156125842739 0 0.1070602778565556 0.035755694254086007 0 0.12251008271650859 0.023139438711283121 0 0.1089680143517609 0.017501156125842739 0 0.12169987808444491 0.0072513285582684502 0 0.1085702234887449 0.0020309669460380048 0 0.1206640635614146 -0.0053745055608071489 0 0.12169987808444491 0.0072513285582684502 0 0.1085702234887449 0.0020309669460380048 0 0.1089680143517609 0.017501156125842739 0 0.1085702234887449 0.0020309669460380048 0 0.097124770672335062 0.01102829468143763 0 0.1089680143517609 0.017501156125842739 0 0.1085702234887449 0.0020309669460380048 0 0.097124770672335062 0.01102829468143763 0 0.095293300726640384 -0.0026303323679718791 0 0.097124770672335062 0.01102829468143763 0 0.095855860447706054 0.024311560640539048 0 0.1089680143517609 0.017501156125842739 0 0.1070602778565556 0.035755694254086007 0 0.095855860447706054 0.024311560640539048 0 0.1089680143517609 0.017501156125842739 0 0.10712422529662489 0.099519973711329021 0 0.096249759850915911 0.11453754881994301 0 0.090272478882294907 0.098763330007940783 0 0.10712422529662489 0.099519973711329021 0 0.096249759850915911 0.11453754881994301 0 0.11346359633902969 0.1220533577703921 0 0.096249759850915911 0.11453754881994301 0 0.099990139697526931 0.1245068611999077 0 0.11346359633902969 0.1220533577703921 0 0.096249759850915911 0.11453754881994301 0 0.099990139697526931 0.1245068611999077 0 0.0892939365473219 0.1235022745672149 0 0.11346359633902969 0.1220533577703921 0 0.12008056923662259 0.10449181260521689 0 0.13059818477956889 0.1110944223505837 0 0.10712422529662489 0.099519973711329021 0 0.11346359633902969 0.1220533577703921 0 0.10712422529662489 0.099519973711329021 0 0.11346359633902969 0.1220533577703921 0 0.12008056923662259 0.10449181260521689 0 0.10712422529662489 0.099519973711329021 0 0.12008056923662259 0.10449181260521689 0 0.1182790366903594 0.092998163504833142 0 0.12008056923662259 0.10449181260521689 0 0.1182790366903594 0.092998163504833142 0 0.12988486795911119 0.098065313119334113 0 0.1182790366903594 0.092998163504833142 0 0.12908420556154929 0.066539794579808562 0 0.1182790366903594 0.092998163504833142 0 0.10078485425422019 0.076986589652265902 0 0.12908420556154929 0.066539794579808562 0 0.1145025214138863 0.052650644276098509 0 0.10078485425422019 0.076986589652265902 0 0.12908420556154929 0.066539794579808562 0 0.094445483211815395 0.054453205593202832 0 0.10078485425422019 0.076986589652265902 0 0.10712422529662489 0.099519973711329021 0 0.10078485425422019 0.076986589652265902 0 0.10712422529662489 0.099519973711329021 0 0.10078485425422019 0.076986589652265902 0 0.090272478882294907 0.098763330007940783 0 0.10712422529662489 0.099519973711329021 0 0.1182790366903594 0.092998163504833142 0 0.10078485425422019 0.076986589652265902 0 0.10078485425422019 0.076986589652265902 0 0.079314502594709152 0.085467058283127784 0 0.090272478882294907 0.098763330007940783 0 0.10078485425422019 0.076986589652265902 0 0.079314502594709152 0.085467058283127784 0 0.072539126032095808 0.066094258457378929 0 0.094445483211815395 0.054453205593202832 0 0.10078485425422019 0.076986589652265902 0 0.072539126032095808 0.066094258457378929 0 0.079314502594709152 0.085467058283127784 0 0.074861816554797025 0.1056237493489578 0 0.060429696562272123 0.087745224130700752 0 0.079314502594709152 0.085467058283127784 0 0.072539126032095808 0.066094258457378929 0 0.060429696562272123 0.087745224130700752 0 0.074861816554797025 0.1056237493489578 0 0.060429696562272123 0.087745224130700752 0 0.074861816554797025 0.1056237493489578 0 0.05630800653115562 0.108285199619733 0 0.060429696562272123 0.087745224130700752 0 0.079314502594709152 0.085467058283127784 0 0.074861816554797025 0.1056237493489578 0 0.090272478882294907 0.098763330007940783 0 0.096249759850915911 0.11453754881994301 0 0.074861816554797025 0.1056237493489578 0 0.090272478882294907 0.098763330007940783 0 0.074861816554797025 0.1056237493489578 0 0.0892939365473219 0.1235022745672149 0 0.070715600839139775 0.12186985645099339 0 0.074861816554797025 0.1056237493489578 0 0.0892939365473219 0.1235022745672149 0 0.096249759850915911 0.11453754881994301 0 0.074861816554797025 0.1056237493489578 0 0.0892939365473219 0.1235022745672149 0 0.096249759850915911 0.11453754881994301 0 0.0892939365473219 0.1235022745672149 0 0.074861816554797025 0.1056237493489578 0 0.070715600839139775 0.12186985645099339 0 0.05630800653115562 0.108285199619733 0 0.070715600839139775 0.12186985645099339 0 0.05630800653115562 0.108285199619733 0 0.053421290932777019 0.13169591958220131 0 0.05630800653115562 0.108285199619733 0 0.037769347821558337 0.11382894683166191 0 0.053421290932777019 0.13169591958220131 0 0.05630800653115562 0.108285199619733 0 0.060429696562272123 0.087745224130700752 0 0.041575703864712099 0.091521295279369877 0 0.05630800653115562 0.108285199619733 0 0.037769347821558337 0.11382894683166191 0 0.041575703864712099 0.091521295279369877 0 0.037769347821558337 0.11382894683166191 0 0.041575703864712099 0.091521295279369877 0 0.0221174047103396 0.095961974081122448 0 0.037769347821558337 0.11382894683166191 0 0.022465271779825258 0.12508840800373641 0 0.03578689829058166 0.13443701120474849 0 0.037769347821558337 0.11382894683166191 0 0.053421290932777019 0.13169591958220131 0 0.058018448332621778 0.051998566383021687 0 0.072539126032095808 0.066094258457378929 0 0.04599757656974722 0.069866698912443709 0 0.072539126032095808 0.066094258457378929 0 0.060429696562272123 0.087745224130700752 0 0.04599757656974722 0.069866698912443709 0 0.060429696562272123 0.087745224130700752 0 0.041575703864712099 0.091521295279369877 0 0.04599757656974722 0.069866698912443709 0 0.060429696562272123 0.087745224130700752 0 0.04599757656974722 0.069866698912443709 0 0.041575703864712099 0.091521295279369877 0 0.04599757656974722 0.069866698912443709 0 0.026832190993199709 0.073439728100557614 0 0.034165344199427211 0.052050526916910637 0 0.04599757656974722 0.069866698912443709 0 0.026832190993199709 0.073439728100557614 0 0.041575703864712099 0.091521295279369877 0 0.026832190993199709 0.073439728100557614 0 0.0221174047103396 0.095961974081122448 0 0.026832190993199709 0.073439728100557614 0 0.0064654615991214361 0.078095001330582489 0 0.0221174047103396 0.095961974081122448 0 0.0064654615991214361 0.078095001330582489 0 0.00035173356732976288 0.096266868917212797 0 -0.0067334820512719674 0.078448756345131973 0 0.0064654615991214361 0.078095001330582489 0 0.00035173356732976288 0.096266868917212797 0 0.0064654615991214361 0.078095001330582489 0 0.0221174047103396 0.095961974081122448 0 0.00035173356732976288 0.096266868917212797 0 0.0064654615991214361 0.078095001330582489 0 0.0221174047103396 0.095961974081122448 0 0.01357096645192386 0.056975270022641189 0 0.026832190993199709 0.073439728100557614 0 0.0064654615991214361 0.078095001330582489 0 0.01357096645192386 0.056975270022641189 0 0.0064654615991214361 0.078095001330582489 0 -0.0022410518547087981 0.068156360643837788 0 0.01357096645192386 0.056975270022641189 0 0.0064654615991214361 0.078095001330582489 0 -0.0022410518547087981 0.068156360643837788 0 0.0064654615991214361 0.078095001330582489 0 0.037769347821558337 0.11382894683166191 0 0.013755174598509209 0.11048630571427701 0 0.022465271779825258 0.12508840800373641 0 0.037769347821558337 0.11382894683166191 0 0.0221174047103396 0.095961974081122448 0 0.037769347821558337 0.11382894683166191 0 0.0221174047103396 0.095961974081122448 0 0.013755174598509209 0.11048630571427701 0 -0.0062303060205972831 0.1111993339902959 0 0.00035173356732976288 0.096266868917212797 0 0.013755174598509209 0.11048630571427701 0 0.0221174047103396 0.095961974081122448 0 0.00035173356732976288 0.096266868917212797 0 0.013755174598509209 0.11048630571427701 0 0.013755174598509209 0.11048630571427701 0 0.0046593032027631414 0.1215934861258583 0 0.022465271779825258 0.12508840800373641 0 -0.0062303060205972831 0.1111993339902959 0 0.013755174598509209 0.11048630571427701 0 0.0046593032027631414 0.1215934861258583 0 0.0046593032027631414 0.1215934861258583 0 0.022465271779825258 0.12508840800373641 0 0.016655367108755599 0.14422434871580581 0 -0.00185731836924047 0.13695493251495711 0 0.0046593032027631414 0.1215934861258583 0 0.016655367108755599 0.14422434871580581 0 0.022465271779825258 0.12508840800373641 0 0.016655367108755599 0.14422434871580581 0 0.03578689829058166 0.13443701120474849 0 0.016655367108755599 0.14422434871580581 0 0.03578689829058166 0.13443701120474849 0 0.038943016119023649 0.15181274176811041 0 0.016655367108755599 0.14422434871580581 0 0.023261928699867249 0.1679794655808392 0 0.038943016119023649 0.15181274176811041 0 -0.0013507412108303789 0.15247015714670559 0 -0.00185731836924047 0.13695493251495711 0 0.016655367108755599 0.14422434871580581 0 -0.0013507412108303789 0.15247015714670559 0 0.016655367108755599 0.14422434871580581 0 0.009227071364995126 0.16296790922278651 0 -0.001046458677358735 0.1737636258738017 0 -0.0013507412108303789 0.15247015714670559 0 0.009227071364995126 0.16296790922278651 0 -0.001046458677358735 0.1737636258738017 0 0.009227071364995126 0.16296790922278651 0 0.015432253548423831 0.18372818991826889 0 -0.001046458677358735 0.1737636258738017 0 0.015432253548423831 0.18372818991826889 0 0.0073074383463005476 0.2015763693650964 0 0.015432253548423831 0.18372818991826889 0 0.023261928699867249 0.1679794655808392 0 0.041691691274440362 0.184852463495283 0 0.009227071364995126 0.16296790922278651 0 0.015432253548423831 0.18372818991826889 0 0.023261928699867249 0.1679794655808392 0 0.016655367108755599 0.14422434871580581 0 0.009227071364995126 0.16296790922278651 0 0.023261928699867249 0.1679794655808392 0 0.039819774688137147 0.16796308718956121 0 0.055382462659217327 0.1672076779140122 0 0.038943016119023649 0.15181274176811041 0 0.023261928699867249 0.1679794655808392 0 0.039819774688137147 0.16796308718956121 0 0.038943016119023649 0.15181274176811041 0 0.039819774688137147 0.16796308718956121 0 0.041691691274440362 0.184852463495283 0 0.055382462659217327 0.1672076779140122 0 0.023261928699867249 0.1679794655808392 0 0.039819774688137147 0.16796308718956121 0 0.041691691274440362 0.184852463495283 0 0.055382462659217327 0.1672076779140122 0 0.054188275209430967 0.19142127751609311 0 0.069948930627538458 0.17603217624048051 0 0.041691691274440362 0.184852463495283 0 0.055382462659217327 0.1672076779140122 0 0.054188275209430967 0.19142127751609311 0 0.041691691274440362 0.184852463495283 0 0.055382462659217327 0.1672076779140122 0 0.055382462659217327 0.1672076779140122 0 0.069073234043994486 0.1495628923327417 0 0.055382462659217327 0.1672076779140122 0 0.038943016119023649 0.15181274176811041 0 0.069073234043994486 0.1495628923327417 0 0.053421290932777019 0.13169591958220131 0 0.038943016119023649 0.15181274176811041 0 0.069073234043994486 0.1495628923327417 0 0.053421290932777019 0.13169591958220131 0 0.069073234043994486 0.1495628923327417 0 0.053421290932777019 0.13169591958220131 0 0.03578689829058166 0.13443701120474849 0 0.038943016119023649 0.15181274176811041 0 0.037769347821558337 0.11382894683166191 0 0.053421290932777019 0.13169591958220131 0 0.03578689829058166 0.13443701120474849 0 0.015661335369959829 0.2293891128563911 0 0.024015232393619051 0.25720185634768572 0 0.015661335369959829 0.2293891128563911 0 0.037593928203030078 0.23128583625169091 0 0.035459897723150093 0.24485459026570069 0 0.015661335369959829 0.2293891128563911 0 0.035459897723150093 0.24485459026570069 0 0.024015232393619051 0.25720185634768572 0 -0.0028794500280274371 0.2473374118160242 0 0.015661335369959829 0.2293891128563911 0 0.024015232393619051 0.25720185634768572 0 0.015661335369959829 0.2293891128563911 0 0.040188800049195762 0.21598577096342189 0 0.037593928203030078 0.23128583625169091 0 -0.018617538565614648 0.225255966367192 0 0.015661335369959829 0.2293891128563911 0 0.0073074383463005476 0.2015763693650964 0 0.015661335369959829 0.2293891128563911 0 0.031351025962285069 0.2012543691862472 0 0.040188800049195762 0.21598577096342189 0 0.015661335369959829 0.2293891128563911 0 0.0073074383463005476 0.2015763693650964 0 0.031351025962285069 0.2012543691862472 0 0.015661335369959829 0.2293891128563911 0 0.0073074383463005476 0.2015763693650964 0 -0.001046458677358735 0.1737636258738017 0 0.0073074383463005476 0.2015763693650964 0 0.015432253548423831 0.18372818991826889 0 0.0073074383463005476 0.2015763693650964 0 0.031351025962285069 0.2012543691862472 0 0.015432253548423831 0.18372818991826889 0 0.041691691274440362 0.184852463495283 0 0.031351025962285069 0.2012543691862472 0 0.041691691274440362 0.184852463495283 0 0.031351025962285069 0.2012543691862472 0 0.054188275209430967 0.19142127751609311 0 0.031351025962285069 0.2012543691862472 0 0.054188275209430967 0.19142127751609311 0 0.056356586443939261 0.2053716307042586 0 0.054188275209430967 0.19142127751609311 0 0.056356586443939261 0.2053716307042586 0 0.06841510275986866 0.19293966026545131 0 0.056356586443939261 0.2053716307042586 0 0.040188800049195762 0.21598577096342189 0 0.057576127358997448 0.21878696392962241 0 0.056356586443939261 0.2053716307042586 0 0.057576127358997448 0.21878696392962241 0 0.072484445530397915 0.21604634154973701 0 0.031351025962285069 0.2012543691862472 0 0.056356586443939261 0.2053716307042586 0 0.040188800049195762 0.21598577096342189 0 0.037593928203030078 0.23128583625169091 0 0.049909374910837717 0.2289570589123025 0 0.044215464997249931 0.2384605323897106 0 0.040188800049195762 0.21598577096342189 0 0.037593928203030078 0.23128583625169091 0 0.049909374910837717 0.2289570589123025 0 0.040188800049195762 0.21598577096342189 0 0.057576127358997448 0.21878696392962241 0 0.049909374910837717 0.2289570589123025 0 0.057576127358997448 0.21878696392962241 0 0.049909374910837717 0.2289570589123025 0 0.064571771409344059 0.22965020674179121 0 0.049909374910837717 0.2289570589123025 0 0.052440772345314232 0.24110817674682841 0 0.064571771409344059 0.22965020674179121 0 0.052440772345314232 0.24110817674682841 0 0.045673351803917531 0.24609699977203059 0 0.044215464997249931 0.2384605323897106 0 0.049909374910837717 0.2289570589123025 0 0.052440772345314232 0.24110817674682841 0 0.044215464997249931 0.2384605323897106 0 0.053837557411990172 0.2481050044408544 0 0.064571771409344059 0.22965020674179121 0 0.052440772345314232 0.24110817674682841 0 0.053837557411990172 0.2481050044408544 0 0.064571771409344059 0.22965020674179121 0 0.052440772345314232 0.24110817674682841 0 0.064571771409344059 0.22965020674179121 0 0.052440772345314232 0.24110817674682841 0 0.053837557411990172 0.2481050044408544 0 0.045673351803917531 0.24609699977203059 0 0.045673351803917531 0.24609699977203059 0 0.044215464997249931 0.2384605323897106 0 0.035459897723150093 0.24485459026570069 0 0.037593928203030078 0.23128583625169091 0 0.044215464997249931 0.2384605323897106 0 0.035459897723150093 0.24485459026570069 0 0.088923633061702478 0.2364528338219436 0 0.085079947058005589 0.25627215186680341 0 0.103248861140551 0.25211860845286549 0 0.088923633061702478 0.2364528338219436 0 0.072144815499069495 0.2466482677422229 0 0.085079947058005589 0.25627215186680341 0 0.053837557411990172 0.2481050044408544 0 0.072144815499069495 0.2466482677422229 0 0.064571771409344059 0.22965020674179121 0 0.088923633061702478 0.2364528338219436 0 0.072144815499069495 0.2466482677422229 0 0.064571771409344059 0.22965020674179121 0 0.064571771409344059 0.22965020674179121 0 0.08499944912429104 0.21035585865924561 0 0.064571771409344059 0.22965020674179121 0 0.072484445530397915 0.21604634154973701 0 0.057576127358997448 0.21878696392962241 0 0.064571771409344059 0.22965020674179121 0 0.072484445530397915 0.21604634154973701 0 0.088923633061702478 0.2364528338219436 0 0.08499944912429104 0.21035585865924561 0 0.100538060887576 0.22158622332930319 0 0.088923633061702478 0.2364528338219436 0 0.064571771409344059 0.22965020674179121 0 0.08499944912429104 0.21035585865924561 0 0.064571771409344059 0.22965020674179121 0 0.08499944912429104 0.21035585865924561 0 0.072484445530397915 0.21604634154973701 0 0.056356586443939261 0.2053716307042586 0 0.072484445530397915 0.21604634154973701 0 0.073097550475318282 0.20306423331718859 0 0.08499944912429104 0.21035585865924561 0 0.072484445530397915 0.21604634154973701 0 0.073097550475318282 0.20306423331718859 0 0.073097550475318282 0.20306423331718859 0 0.06841510275986866 0.19293966026545131 0 0.083232168518094563 0.19060767540725071 0 0.056356586443939261 0.2053716307042586 0 0.073097550475318282 0.20306423331718859 0 0.06841510275986866 0.19293966026545131 0 0.08499944912429104 0.21035585865924561 0 0.083232168518094563 0.19060767540725071 0 0.10542712683924139 0.19106151057670359 0 0.08499944912429104 0.21035585865924561 0 0.073097550475318282 0.20306423331718859 0 0.083232168518094563 0.19060767540725071 0 0.08499944912429104 0.21035585865924561 0 0.10542712683924139 0.19106151057670359 0 0.10212407059221799 0.20778972874223961 0 0.08499944912429104 0.21035585865924561 0 0.10542712683924139 0.19106151057670359 0 0.10542712683924139 0.19106151057670359 0 0.118107340491344 0.2055362010469714 0 0.10212407059221799 0.20778972874223961 0 0.10542712683924139 0.19106151057670359 0 0.11167569966496629 0.18515960920537949 0 0.10542712683924139 0.19106151057670359 0 0.118107340491344 0.2055362010469714 0 0.11167569966496629 0.18515960920537949 0 0.118107340491344 0.2055362010469714 0 0.11167569966496629 0.18515960920537949 0 0.12557719920219659 0.20145594579606199 0 0.11167569966496629 0.18515960920537949 0 0.1339797561772873 0.1853990228988425 0 0.12557719920219659 0.20145594579606199 0 0.11167569966496629 0.18515960920537949 0 0.12557719920219659 0.20145594579606199 0 0.10542712683924139 0.19106151057670359 0 0.118107340491344 0.2055362010469714 0 0.118107340491344 0.2055362010469714 0 0.13078755414344659 0.2200108915172394 0 0.12557719920219659 0.20145594579606199 0 0.118107340491344 0.2055362010469714 0 0.11100380430239989 0.2139836212460236 0 0.10212407059221799 0.20778972874223961 0 0.118107340491344 0.2055362010469714 0 0.13078755414344659 0.2200108915172394 0 0.118107340491344 0.2055362010469714 0 0.1192888232843156 0.2171176417814287 0 0.13078755414344659 0.2200108915172394 0 0.118107340491344 0.2055362010469714 0 0.1192888232843156 0.2171176417814287 0 0.11100380430239989 0.2139836212460236 0 0.1192888232843156 0.2171176417814287 0 0.11100380430239989 0.2139836212460236 0 0.112975465183504 0.22282330760651101 0 0.08499944912429104 0.21035585865924561 0 0.10212407059221799 0.20778972874223961 0 0.100538060887576 0.22158622332930319 0 0.11100380430239989 0.2139836212460236 0 0.10212407059221799 0.20778972874223961 0 0.100538060887576 0.22158622332930319 0 0.088923633061702478 0.2364528338219436 0 0.100538060887576 0.22158622332930319 0 0.1126406387696909 0.23553825518433441 0 0.100538060887576 0.22158622332930319 0 0.112975465183504 0.22282330760651101 0 0.1126406387696909 0.23553825518433441 0 0.11100380430239989 0.2139836212460236 0 0.100538060887576 0.22158622332930319 0 0.112975465183504 0.22282330760651101 0 0.1210005625402623 0.22519045488046111 0 0.1126406387696909 0.23553825518433441 0 0.12931033132035441 0.23046217831279189 0 0.1192888232843156 0.2171176417814287 0 0.112975465183504 0.22282330760651101 0 0.1210005625402623 0.22519045488046111 0 0.1192888232843156 0.2171176417814287 0 0.1210005625402623 0.22519045488046111 0 0.13078755414344659 0.2200108915172394 0 0.112975465183504 0.22282330760651101 0 0.1210005625402623 0.22519045488046111 0 0.1126406387696909 0.23553825518433441 0 0.1126406387696909 0.23553825518433441 0 0.1221119816913266 0.2551626490999917 0 0.103248861140551 0.25211860845286549 0 0.1126406387696909 0.23553825518433441 0 0.12660129804580561 0.24230139474235751 0 0.12931033132035441 0.23046217831279189 0 0.1126406387696909 0.23553825518433441 0 0.12660129804580561 0.24230139474235751 0 0.1221119816913266 0.2551626490999917 0 0.088923633061702478 0.2364528338219436 0 0.1126406387696909 0.23553825518433441 0 0.103248861140551 0.25211860845286549 0 0.090279237071298077 0.14999227712911631 0 0.079183585295658082 0.13653258344997821 0 0.069073234043994486 0.1495628923327417 0 0.090279237071298077 0.14999227712911631 0 0.089383439970827788 0.13569531128426601 0 0.079183585295658082 0.13653258344997821 0 0.090279237071298077 0.14999227712911631 0 0.089383439970827788 0.13569531128426601 0 0.099213219791608812 0.13579029294025169 0 0.0892939365473219 0.1235022745672149 0 0.070715600839139775 0.12186985645099339 0 0.079183585295658082 0.13653258344997821 0 0.0892939365473219 0.1235022745672149 0 0.089383439970827788 0.13569531128426601 0 0.099213219791608812 0.13579029294025169 0 0.0892939365473219 0.1235022745672149 0 0.089383439970827788 0.13569531128426601 0 0.079183585295658082 0.13653258344997821 0 0.0892939365473219 0.1235022745672149 0 0.079183585295658082 0.13653258344997821 0 0.053421290932777019 0.13169591958220131 0 0.079183585295658082 0.13653258344997821 0 0.069073234043994486 0.1495628923327417 0 0.070715600839139775 0.12186985645099339 0 0.053421290932777019 0.13169591958220131 0 0.079183585295658082 0.13653258344997821 0 0.079183585295658082 0.13653258344997821 0 0.069073234043994486 0.1495628923327417 0 0.055382462659217327 0.1672076779140122 0 0.069073234043994486 0.1495628923327417 0 0.069948930627538458 0.17603217624048051 0 0.069073234043994486 0.1495628923327417 0 0.069948930627538458 0.17603217624048051 0 0.087250180441618558 0.17031220145472201 0 0.054188275209430967 0.19142127751609311 0 0.06841510275986866 0.19293966026545131 0 0.069948930627538458 0.17603217624048051 0 0.06841510275986866 0.19293966026545131 0 0.083232168518094563 0.19060767540725071 0 0.069948930627538458 0.17603217624048051 0 0.083232168518094563 0.19060767540725071 0 0.069948930627538458 0.17603217624048051 0 0.087250180441618558 0.17031220145472201 0 0.083232168518094563 0.19060767540725071 0 0.10542712683924139 0.19106151057670359 0 0.087250180441618558 0.17031220145472201 0 0.090279237071298077 0.14999227712911631 0 0.069073234043994486 0.1495628923327417 0 0.087250180441618558 0.17031220145472201 0 0.069073234043994486 0.1495628923327417 0 0.087250180441618558 0.17031220145472201 0 0.090279237071298077 0.14999227712911631 0 0.087250180441618558 0.17031220145472201 0 0.10799397955862181 0.1623316374719781 0 0.087250180441618558 0.17031220145472201 0 0.10799397955862181 0.1623316374719781 0 0.10443280898948321 0.1741493134162764 0 0.10799397955862181 0.1623316374719781 0 0.10443280898948321 0.1741493134162764 0 0.11568358803637151 0.17222144894367061 0 0.10542712683924139 0.19106151057670359 0 0.087250180441618558 0.17031220145472201 0 0.10542712683924139 0.19106151057670359 0 0.10443280898948321 0.1741493134162764 0 0.1102802556110849 0.18352376942172069 0 0.10542712683924139 0.19106151057670359 0 0.087250180441618558 0.17031220145472201 0 0.10443280898948321 0.1741493134162764 0 0.10443280898948321 0.1741493134162764 0 0.1102802556110849 0.18352376942172069 0 0.1105180880754765 0.17876353524676181 0 0.10542712683924139 0.19106151057670359 0 0.11167569966496629 0.18515960920537949 0 0.1102802556110849 0.18352376942172069 0 0.11167569966496629 0.18515960920537949 0 0.12796895852860121 0.16977030199675969 0 0.1339797561772873 0.1853990228988425 0 0.11167569966496629 0.18515960920537949 0 0.12796895852860121 0.16977030199675969 0 0.11167569966496629 0.18515960920537949 0 0.11568358803637151 0.17222144894367061 0 0.12796895852860121 0.16977030199675969 0 0.11167569966496629 0.18515960920537949 0 0.1102802556110849 0.18352376942172069 0 0.11167569966496629 0.18515960920537949 0 0.1102802556110849 0.18352376942172069 0 0.1105180880754765 0.17876353524676181 0 0.10443280898948321 0.1741493134162764 0 0.11568358803637151 0.17222144894367061 0 0.1105180880754765 0.17876353524676181 0 0.11167569966496629 0.18515960920537949 0 0.11568358803637151 0.17222144894367061 0 0.1105180880754765 0.17876353524676181 0 0.10799397955862181 0.1623316374719781 0 0.11980296738143439 0.14458674182945519 0 0.12796895852860121 0.16977030199675969 0 0.10799397955862181 0.1623316374719781 0 0.11568358803637151 0.17222144894367061 0 0.12796895852860121 0.16977030199675969 0 0.10799397955862181 0.1623316374719781 0 0.11980296738143439 0.14458674182945519 0 0.10378984087940391 0.1487632203069354 0 0.090279237071298077 0.14999227712911631 0 0.10799397955862181 0.1623316374719781 0 0.10378984087940391 0.1487632203069354 0 0.11980296738143439 0.14458674182945519 0 0.10378984087940391 0.1487632203069354 0 0.099213219791608812 0.13579029294025169 0 0.090279237071298077 0.14999227712911631 0 0.10378984087940391 0.1487632203069354 0 0.099213219791608812 0.13579029294025169 0 0.099990139697526931 0.1245068611999077 0 0.0892939365473219 0.1235022745672149 0 0.099213219791608812 0.13579029294025169 0 0.0892939365473219 0.1235022745672149 0 0.099213219791608812 0.13579029294025169 0 0.099990139697526931 0.1245068611999077 0 0.11346359633902969 0.1220533577703921 0 0.099213219791608812 0.13579029294025169 0 0.11346359633902969 0.1220533577703921 0 0.11980296738143439 0.14458674182945519 0 0.11346359633902969 0.1220533577703921 0 0.11980296738143439 0.14458674182945519 0 0.099213219791608812 0.13579029294025169 0 0.11346359633902969 0.1220533577703921 0 0.11980296738143439 0.14458674182945519 0 0.1343092628838379 0.1256369390366581 0 0.11980296738143439 0.14458674182945519 0 0.1343092628838379 0.1256369390366581 0 0.1458655826462924 0.13754260468433471 0 0.1343092628838379 0.1256369390366581 0 0.1458655826462924 0.13754260468433471 0 0.15248278972958529 0.1243477046879467 0 0.1458655826462924 0.13754260468433471 0 0.1605554762558711 0.13899168757951999 0 0.15248278972958529 0.1243477046879467 0 0.14426221739223621 0.15438099478813991 0 0.1601646727073405 0.16115881086186579 0 0.1605554762558711 0.13899168757951999 0 0.1458655826462924 0.13754260468433471 0 0.14426221739223621 0.15438099478813991 0 0.1605554762558711 0.13899168757951999 0 0.14426221739223621 0.15438099478813991 0 0.1605554762558711 0.13899168757951999 0 0.11980296738143439 0.14458674182945519 0 0.14426221739223621 0.15438099478813991 0 0.12796895852860121 0.16977030199675969 0 0.11980296738143439 0.14458674182945519 0 0.1458655826462924 0.13754260468433471 0 0.14426221739223621 0.15438099478813991 0 0.14426221739223621 0.15438099478813991 0 0.12796895852860121 0.16977030199675969 0 0.14426221739223621 0.15438099478813991 0 0.12796895852860121 0.16977030199675969 0 0.14828760854236939 0.17399430848856939 0 0.12796895852860121 0.16977030199675969 0 0.1339797561772873 0.1853990228988425 0 0.14828760854236939 0.17399430848856939 0 0.1339797561772873 0.1853990228988425 0 0.14828760854236939 0.17399430848856939 0 0.1563893149483028 0.19661494900744189 0 0.14426221739223621 0.15438099478813991 0 0.14828760854236939 0.17399430848856939 0 0.1601646727073405 0.16115881086186579 0 0.1601646727073405 0.16115881086186579 0 0.17329993115718029 0.17547761562813841 0 0.17349603651462861 0.15031181619720951 0 0.14828760854236939 0.17399430848856939 0 0.1601646727073405 0.16115881086186579 0 0.17329993115718029 0.17547761562813841 0 0.14828760854236939 0.17399430848856939 0 0.17329993115718029 0.17547761562813841 0 0.1563893149483028 0.19661494900744189 0 0.17329993115718029 0.17547761562813841 0 0.1563893149483028 0.19661494900744189 0 0.17329993115718029 0.17547761562813841 0 0.1820902406581166 0.17554195483050661 0 0.17396993395017751 0.1967436274121796 0 0.1820902406581166 0.17554195483050661 0 0.17396993395017751 0.1967436274121796 0 0.1820902406581166 0.17554195483050661 0 0.17396993395017751 0.1967436274121796 0 0.19033163536845879 0.18585953427701471 0 0.17329993115718029 0.17547761562813841 0 0.17349603651462861 0.15031181619720951 0 0.19021054736605689 0.154340282248834 0 0.17329993115718029 0.17547761562813841 0 0.19021054736605689 0.154340282248834 0 0.17329993115718029 0.17547761562813841 0 0.1820902406581166 0.17554195483050661 0 0.19021054736605689 0.154340282248834 0 0.1820902406581166 0.17554195483050661 0 0.19021054736605689 0.154340282248834 0 0.17349603651462861 0.15031181619720951 0 0.18666884074498091 0.13926280536182831 0 0.19021054736605689 0.154340282248834 0 0.17349603651462861 0.15031181619720951 0 0.18666884074498091 0.13926280536182831 0 0.17801742534052889 0.1264165215969586 0 0.17801742534052889 0.1264165215969586 0 0.1605554762558711 0.13899168757951999 0 0.15248278972958529 0.1243477046879467 0 0.17349603651462861 0.15031181619720951 0 0.17801742534052889 0.1264165215969586 0 0.1605554762558711 0.13899168757951999 0 0.17801742534052889 0.1264165215969586 0 0.15248278972958529 0.1243477046879467 0 0.1601646727073405 0.16115881086186579 0 0.17349603651462861 0.15031181619720951 0 0.1605554762558711 0.13899168757951999 0 0.15772932053429989 0.239146972575526 0 0.14961833383695999 0.26032431112397758 0 0.13748104572539949 0.24722792428689669 0 0.15772932053429989 0.239146972575526 0 0.14961833383695999 0.26032431112397758 0 0.13748104572539949 0.24722792428689669 0 0.12931033132035441 0.23046217831279189 0 0.15772932053429989 0.239146972575526 0 0.13748104572539949 0.24722792428689669 0 0.12660129804580561 0.24230139474235751 0 0.12931033132035441 0.23046217831279189 0 0.13748104572539949 0.24722792428689669 0 0.12660129804580561 0.24230139474235751 0 0.1221119816913266 0.2551626490999917 0 0.1210005625402623 0.22519045488046111 0 0.12931033132035441 0.23046217831279189 0 0.13078755414344659 0.2200108915172394 0 0.12931033132035441 0.23046217831279189 0 0.13078755414344659 0.2200108915172394 0 0.13947869873942539 0.21775228238674579 0 0.12931033132035441 0.23046217831279189 0 0.13947869873942539 0.21775228238674579 0 0.12931033132035441 0.23046217831279189 0 0.13947869873942539 0.21775228238674579 0 0.15772932053429989 0.239146972575526 0 0.13947869873942539 0.21775228238674579 0 0.15772932053429989 0.239146972575526 0 0.13947869873942539 0.21775228238674579 0 0.16584962724223831 0.2179452999938527 0 0.15772932053429989 0.239146972575526 0 0.13947869873942539 0.21775228238674579 0 0.1563893149483028 0.19661494900744189 0 0.13947869873942539 0.21775228238674579 0 0.1563893149483028 0.19661494900744189 0 0.16584962724223831 0.2179452999938527 0 0.13947869873942539 0.21775228238674579 0 0.12557719920219659 0.20145594579606199 0 0.1563893149483028 0.19661494900744189 0 0.13947869873942539 0.21775228238674579 0 0.12557719920219659 0.20145594579606199 0 0.13078755414344659 0.2200108915172394 0 0.13947869873942539 0.21775228238674579 0 0.12557719920219659 0.20145594579606199 0 0.1339797561772873 0.1853990228988425 0 0.12557719920219659 0.20145594579606199 0 0.1563893149483028 0.19661494900744189 0 0.17329993115718029 0.17547761562813841 0 0.1563893149483028 0.19661494900744189 0 0.17396993395017751 0.1967436274121796 0 0.17396993395017751 0.1967436274121796 0 0.185206726318663 0.20810068932042999 0 0.19033163536845879 0.18585953427701471 0 0.17396993395017751 0.1967436274121796 0 0.185206726318663 0.20810068932042999 0 0.16584962724223831 0.2179452999938527 0 0.17396993395017751 0.1967436274121796 0 0.16584962724223831 0.2179452999938527 0 0.1563893149483028 0.19661494900744189 0 0.17396993395017751 0.1967436274121796 0 0.16584962724223831 0.2179452999938527 0 0.16584962724223831 0.2179452999938527 0 0.15772932053429989 0.239146972575526 0 0.16584962724223831 0.2179452999938527 0 0.16934062958307541 0.23257074201987091 0 0.15772932053429989 0.239146972575526 0 0.16584962724223831 0.2179452999938527 0 0.16934062958307541 0.23257074201987091 0 0.18008181726886729 0.23034184436384519 0 0.185206726318663 0.20810068932042999 0 0.16584962724223831 0.2179452999938527 0 0.18008181726886729 0.23034184436384519 0 0.185206726318663 0.20810068932042999 0 0.18008181726886729 0.23034184436384519 0 0.19361646855619699 0.22554890094364299 0 0.185206726318663 0.20810068932042999 0 0.18008181726886729 0.23034184436384519 0 0.18008181726886729 0.23034184436384519 0 0.1871663574167011 0.23647478809403 0 0.19361646855619699 0.22554890094364299 0 0.1871663574167011 0.23647478809403 0 0.18566333894108941 0.25330303893799921 0 0.1871663574167011 0.23647478809403 0 0.17550954459995691 0.2421931063090319 0 0.18566333894108941 0.25330303893799921 0 0.16934062958307541 0.23257074201987091 0 0.18008181726886729 0.23034184436384519 0 0.17550954459995691 0.2421931063090319 0 0.18008181726886729 0.23034184436384519 0 0.1871663574167011 0.23647478809403 0 0.17550954459995691 0.2421931063090319 0 0.16934062958307541 0.23257074201987091 0 0.17550954459995691 0.2421931063090319 0 0.15772932053429989 0.239146972575526 0 0.15772932053429989 0.239146972575526 0 0.17094482049988949 0.25463913117874659 0 0.17550954459995691 0.2421931063090319 0 0.15772932053429989 0.239146972575526 0 0.17094482049988949 0.25463913117874659 0 0.2115886322074518 0.2440686120775438 0 0.20302277267128169 0.23386405549491701 0 0.21406214966336079 0.2275101732728097 0 0.2115886322074518 0.2440686120775438 0 0.21936527508003201 0.2471371668772295 0 0.21158346732840491 0.25019259991414 0 0.2115886322074518 0.2440686120775438 0 0.19697560011369089 0.24465421681374119 0 0.20302277267128169 0.23386405549491701 0 0.2115886322074518 0.2440686120775438 0 0.19697560011369089 0.24465421681374119 0 0.1972433992714368 0.25158855458142282 0 0.1871663574167011 0.23647478809403 0 0.19697560011369089 0.24465421681374119 0 0.18566333894108941 0.25330303893799921 0 0.19697560011369089 0.24465421681374119 0 0.18566333894108941 0.25330303893799921 0 0.1972433992714368 0.25158855458142282 0 0.1871663574167011 0.23647478809403 0 0.19697560011369089 0.24465421681374119 0 0.19528410731017079 0.23587648900771399 0 0.19697560011369089 0.24465421681374119 0 0.19528410731017079 0.23587648900771399 0 0.20302277267128169 0.23386405549491701 0 0.19528410731017079 0.23587648900771399 0 0.20302277267128169 0.23386405549491701 0 0.19361646855619699 0.22554890094364299 0 0.20302277267128169 0.23386405549491701 0 0.19361646855619699 0.22554890094364299 0 0.2055715607215495 0.22199088457891991 0 0.1871663574167011 0.23647478809403 0 0.19528410731017079 0.23587648900771399 0 0.19361646855619699 0.22554890094364299 0 0.19361646855619699 0.22554890094364299 0 0.2055715607215495 0.22199088457891991 0 0.20067664525499879 0.2105484536232714 0 0.2115886322074518 0.2440686120775438 0 0.21406214966336079 0.2275101732728097 0 0.22843123859138861 0.2238088736586808 0 0.2055715607215495 0.22199088457891991 0 0.21406214966336079 0.2275101732728097 0 0.21755168925327109 0.2092263706596168 0 0.20302277267128169 0.23386405549491701 0 0.2055715607215495 0.22199088457891991 0 0.21406214966336079 0.2275101732728097 0 0.21755168925327109 0.2092263706596168 0 0.20067664525499879 0.2105484536232714 0 0.20548816876455669 0.19986117929982891 0 0.2055715607215495 0.22199088457891991 0 0.21755168925327109 0.2092263706596168 0 0.20067664525499879 0.2105484536232714 0 0.185206726318663 0.20810068932042999 0 0.19361646855619699 0.22554890094364299 0 0.20067664525499879 0.2105484536232714 0 0.185206726318663 0.20810068932042999 0 0.20067664525499879 0.2105484536232714 0 0.19662525791575569 0.19856269693719009 0 0.19662525791575569 0.19856269693719009 0 0.20333983999271191 0.18865102272086021 0 0.20548816876455669 0.19986117929982891 0 0.20067664525499879 0.2105484536232714 0 0.19662525791575569 0.19856269693719009 0 0.20548816876455669 0.19986117929982891 0 0.185206726318663 0.20810068932042999 0 0.19033163536845879 0.18585953427701471 0 0.185206726318663 0.20810068932042999 0 0.19662525791575569 0.19856269693719009 0 0.19033163536845879 0.18585953427701471 0 0.19662525791575569 0.19856269693719009 0 0.20333983999271191 0.18865102272086021 0 0.19033163536845879 0.18585953427701471 0 0.21755168925327109 0.2092263706596168 0 0.20548816876455669 0.19986117929982891 0 0.21390888719840881 0.19220158209759139 0 0.20333983999271191 0.18865102272086021 0 0.20548816876455669 0.19986117929982891 0 0.21390888719840881 0.19220158209759139 0 0.21390888719840881 0.19220158209759139 0 0.22655593700578061 0.19342682080040899 0 0.2140854027063375 0.18008657843025269 0 0.21755168925327109 0.2092263706596168 0 0.22655593700578061 0.19342682080040899 0 0.24527384497532531 0.20354913523981791 0 0.21755168925327109 0.2092263706596168 0 0.21390888719840881 0.19220158209759139 0 0.22655593700578061 0.19342682080040899 0 0.24527384497532531 0.20354913523981791 0 0.24204190526368929 0.18587577523225851 0 0.26211645135926198 0.18328939682095491 0 0.22655593700578061 0.19342682080040899 0 0.24527384497532531 0.20354913523981791 0 0.24204190526368929 0.18587577523225851 0 0.24527384497532531 0.20354913523981791 0 0.22843123859138861 0.2238088736586808 0 0.2472705718667278 0.22718583865061909 0 0.24527384497532531 0.20354913523981791 0 0.22843123859138861 0.2238088736586808 0 0.21755168925327109 0.2092263706596168 0 0.24527384497532531 0.20354913523981791 0 0.22843123859138861 0.2238088736586808 0 0.2115886322074518 0.2440686120775438 0 0.22843123859138861 0.2238088736586808 0 0.21406214966336079 0.2275101732728097 0 0.21755168925327109 0.2092263706596168 0 0.22843123859138861 0.2238088736586808 0 0.22843123859138861 0.2238088736586808 0 0.2472705718667278 0.22718583865061909 0 0.2276675102135253 0.24811955921968529 0 0.2472705718667278 0.22718583865061909 0 0.2421054402074703 0.2485807057870347 0 0.2276675102135253 0.24811955921968529 0 0.2472705718667278 0.22718583865061909 0 0.2276675102135253 0.24811955921968529 0 0.2472705718667278 0.22718583865061909 0 0.2421054402074703 0.2485807057870347 0 0.25707991656272239 0.24440423681808779 0 0.22843123859138861 0.2238088736586808 0 0.2276675102135253 0.24811955921968529 0 0.21936527508003201 0.2471371668772295 0 0.2115886322074518 0.2440686120775438 0 0.22843123859138861 0.2238088736586808 0 0.21936527508003201 0.2471371668772295 0 0.2096336632062781 0.1458212055744027 0 0.20537954243666509 0.15433248080880019 0 0.20058145346804979 0.14137722419018381 0 0.2096336632062781 0.1458212055744027 0 0.20918820610758559 0.13814940384330759 0 0.20058145346804979 0.14137722419018381 0 0.2096336632062781 0.1458212055744027 0 0.20537954243666509 0.15433248080880019 0 0.21600195169310171 0.15368747906870589 0 0.2096336632062781 0.1458212055744027 0 0.21600195169310171 0.15368747906870589 0 0.2173316213003498 0.1421735565185662 0 0.2096336632062781 0.1458212055744027 0 0.2173316213003498 0.1421735565185662 0 0.20918820610758559 0.13814940384330759 0 0.2173316213003498 0.1421735565185662 0 0.21044840569540929 0.12904408055477271 0 0.20918820610758559 0.13814940384330759 0 0.21044840569540929 0.12904408055477271 0 0.21433658354942009 0.124184073650052 0 0.20891196331668679 0.1235090376777295 0 0.21044840569540929 0.12904408055477271 0 0.21433658354942009 0.124184073650052 0 0.21044840569540929 0.12904408055477271 0 0.20355206095147271 0.12848533850597069 0 0.20891196331668679 0.1235090376777295 0 0.21044840569540929 0.12904408055477271 0 0.20355206095147271 0.12848533850597069 0 0.21044840569540929 0.12904408055477271 0 0.20058145346804979 0.14137722419018381 0 0.21044840569540929 0.12904408055477271 0 0.20355206095147271 0.12848533850597069 0 0.20058145346804979 0.14137722419018381 0 0.21044840569540929 0.12904408055477271 0 0.20918820610758559 0.13814940384330759 0 0.20058145346804979 0.14137722419018381 0 0.17801742534052889 0.1264165215969586 0 0.20355206095147271 0.12848533850597069 0 0.1993763662636315 0.13040883505123951 0 0.20355206095147271 0.12848533850597069 0 0.20058145346804979 0.14137722419018381 0 0.18666884074498091 0.13926280536182831 0 0.17801742534052889 0.1264165215969586 0 0.1993763662636315 0.13040883505123951 0 0.20355206095147271 0.12848533850597069 0 0.1993763662636315 0.13040883505123951 0 0.20058145346804979 0.14137722419018381 0 0.17801742534052889 0.1264165215969586 0 0.20355206095147271 0.12848533850597069 0 0.18666884074498091 0.13926280536182831 0 0.1993763662636315 0.13040883505123951 0 0.19021054736605689 0.154340282248834 0 0.20058145346804979 0.14137722419018381 0 0.19021054736605689 0.154340282248834 0 0.19545654441825461 0.16361837923359929 0 0.20537954243666509 0.15433248080880019 0 0.20058145346804979 0.14137722419018381 0 0.19545654441825461 0.16361837923359929 0 0.1993763662636315 0.13040883505123951 0 0.20058145346804979 0.14137722419018381 0 0.19021054736605689 0.154340282248834 0 0.20058145346804979 0.14137722419018381 0 0.19545654441825461 0.16361837923359929 0 0.1993763662636315 0.13040883505123951 0 0.19021054736605689 0.154340282248834 0 0.20058145346804979 0.14137722419018381 0 0.19021054736605689 0.154340282248834 0 0.1820902406581166 0.17554195483050661 0 0.19021054736605689 0.154340282248834 0 0.19545654441825461 0.16361837923359929 0 0.19545654441825461 0.16361837923359929 0 0.20215489436803311 0.17670673294502559 0 0.20805157527436091 0.16603381606542689 0 0.20537954243666509 0.15433248080880019 0 0.19545654441825461 0.16361837923359929 0 0.20805157527436091 0.16603381606542689 0 0.19545654441825461 0.16361837923359929 0 0.19033163536845879 0.18585953427701471 0 0.19545654441825461 0.16361837923359929 0 0.19033163536845879 0.18585953427701471 0 0.20215489436803311 0.17670673294502559 0 0.1820902406581166 0.17554195483050661 0 0.19545654441825461 0.16361837923359929 0 0.19033163536845879 0.18585953427701471 0 0.20333983999271191 0.18865102272086021 0 0.19033163536845879 0.18585953427701471 0 0.20215489436803311 0.17670673294502559 0 0.20333983999271191 0.18865102272086021 0 0.21390888719840881 0.19220158209759139 0 0.2140854027063375 0.18008657843025269 0 0.20333983999271191 0.18865102272086021 0 0.20215489436803311 0.17670673294502559 0 0.2140854027063375 0.18008657843025269 0 0.20215489436803311 0.17670673294502559 0 0.2140854027063375 0.18008657843025269 0 0.20805157527436091 0.16603381606542689 0 0.20537954243666509 0.15433248080880019 0 0.21600195169310171 0.15368747906870589 0 0.20805157527436091 0.16603381606542689 0 0.2140854027063375 0.18008657843025269 0 0.20805157527436091 0.16603381606542689 0 0.21901195728773751 0.1682501718822309 0 0.21600195169310171 0.15368747906870589 0 0.20805157527436091 0.16603381606542689 0 0.21901195728773751 0.1682501718822309 0 0.21600195169310171 0.15368747906870589 0 0.22572623378765641 0.1601052838662175 0 0.21901195728773751 0.1682501718822309 0 0.22572623378765641 0.1601052838662175 0 0.21901195728773751 0.1682501718822309 0 0.22964201042375451 0.17482647568750759 0 0.22572623378765641 0.1601052838662175 0 0.22964201042375451 0.17482647568750759 0 0.23815303799476051 0.16027892766000909 0 0.22655593700578061 0.19342682080040899 0 0.22964201042375451 0.17482647568750759 0 0.24204190526368929 0.18587577523225851 0 0.22655593700578061 0.19342682080040899 0 0.2140854027063375 0.18008657843025269 0 0.22964201042375451 0.17482647568750759 0 0.2140854027063375 0.18008657843025269 0 0.21901195728773751 0.1682501718822309 0 0.22964201042375451 0.17482647568750759 0 0.22964201042375451 0.17482647568750759 0 0.24204190526368929 0.18587577523225851 0 0.24662128255432419 0.17428704761260311 0 0.24662128255432419 0.17428704761260311 0 0.2523303419621033 0.15440227316217531 0 0.22964201042375451 0.17482647568750759 0 0.24662128255432419 0.17428704761260311 0 0.23815303799476051 0.16027892766000909 0 0.24662128255432419 0.17428704761260311 0 0.23815303799476051 0.16027892766000909 0 0.2523303419621033 0.15440227316217531 0 0.23815303799476051 0.16027892766000909 0 0.24445650326616589 0.14307299743987489 0 0.23071798371766589 0.14659297369986901 0 0.23815303799476051 0.16027892766000909 0 0.24445650326616589 0.14307299743987489 0 0.2523303419621033 0.15440227316217531 0 0.22572623378765641 0.1601052838662175 0 0.23815303799476051 0.16027892766000909 0 0.23071798371766589 0.14659297369986901 0 0.21600195169310171 0.15368747906870589 0 0.2173316213003498 0.1421735565185662 0 0.23071798371766589 0.14659297369986901 0 0.21600195169310171 0.15368747906870589 0 0.22572623378765641 0.1601052838662175 0 0.23071798371766589 0.14659297369986901 0 0.21044840569540929 0.12904408055477271 0 0.2355558330827649 0.13107828504126409 0 0.2173316213003498 0.1421735565185662 0 0.21044840569540929 0.12904408055477271 0 0.2355558330827649 0.13107828504126409 0 0.2173316213003498 0.1421735565185662 0 0.23071798371766589 0.14659297369986901 0 0.2355558330827649 0.13107828504126409 0 0.21044840569540929 0.12904408055477271 0 0.2355558330827649 0.13107828504126409 0 0.21433658354942009 0.124184073650052 0 0.2355558330827649 0.13107828504126409 0 0.24091524765871231 0.1111468173940373 0 0.25803940136988229 0.1345174987117474 0 0.24445650326616589 0.14307299743987489 0 0.2355558330827649 0.13107828504126409 0 0.25803940136988229 0.1345174987117474 0 0.24445650326616589 0.14307299743987489 0 0.23071798371766589 0.14659297369986901 0 0.2355558330827649 0.13107828504126409 0 0.2355558330827649 0.13107828504126409 0 0.24091524765871231 0.1111468173940373 0 0.22702541134735599 0.1183948042537422 0 0.23388942962746059 0.096747119190211728 0 0.24640086058121119 0.085938776428289107 0 0.25342826027611698 0.10039197176467771 0 0.24091524765871231 0.1111468173940373 0 0.23388942962746059 0.096747119190211728 0 0.25342826027611698 0.10039197176467771 0 0.24091524765871231 0.1111468173940373 0 0.23388942962746059 0.096747119190211728 0 0.21808203453976119 0.10766091052675419 0 0.23388942962746059 0.096747119190211728 0 0.21808203453976119 0.10766091052675419 0 0.22112245491865751 0.088509763776345701 0 0.24091524765871231 0.1111468173940373 0 0.22702541134735599 0.1183948042537422 0 0.21808203453976119 0.10766091052675419 0 0.2355558330827649 0.13107828504126409 0 0.22702541134735599 0.1183948042537422 0 0.21433658354942009 0.124184073650052 0 0.24091524765871231 0.1111468173940373 0 0.21808203453976119 0.10766091052675419 0 0.22702541134735599 0.1183948042537422 0 0.21395149739231659 0.1154106940249264 0 0.21808203453976119 0.10766091052675419 0 0.21433658354942009 0.124184073650052 0 0.20891196331668679 0.1235090376777295 0 0.21395149739231659 0.1154106940249264 0 0.22702541134735599 0.1183948042537422 0 0.21433658354942009 0.124184073650052 0 0.21395149739231659 0.1154106940249264 0 0.20580761187138799 0.1186966657254999 0 0.21395149739231659 0.1154106940249264 0 0.1952488214208101 0.1041750036594712 0 0.20355206095147271 0.12848533850597069 0 0.20891196331668679 0.1235090376777295 0 0.20580761187138799 0.1186966657254999 0 0.20355206095147271 0.12848533850597069 0 0.20580761187138799 0.1186966657254999 0 0.20891196331668679 0.1235090376777295 0 0.20580761187138799 0.1186966657254999 0 0.21395149739231659 0.1154106940249264 0 0.21808203453976119 0.10766091052675419 0 0.2056048239527534 0.091577519547269462 0 0.22112245491865751 0.088509763776345701 0 0.21395149739231659 0.1154106940249264 0 0.21808203453976119 0.10766091052675419 0 0.1952488214208101 0.1041750036594712 0 0.21808203453976119 0.10766091052675419 0 0.1952488214208101 0.1041750036594712 0 0.2056048239527534 0.091577519547269462 0 0.21808203453976119 0.10766091052675419 0 0.1952488214208101 0.1041750036594712 0 0.1952488214208101 0.1041750036594712 0 0.2056048239527534 0.091577519547269462 0 0.184008787459121 0.089253620026350122 0 0.17801742534052889 0.1264165215969586 0 0.20355206095147271 0.12848533850597069 0 0.1930437876423827 0.1175128773667187 0 0.1952488214208101 0.1041750036594712 0 0.1930437876423827 0.1175128773667187 0 0.1825930186277139 0.1097908573456933 0 0.20355206095147271 0.12848533850597069 0 0.20580761187138799 0.1186966657254999 0 0.1930437876423827 0.1175128773667187 0 0.20580761187138799 0.1186966657254999 0 0.1952488214208101 0.1041750036594712 0 0.1930437876423827 0.1175128773667187 0 0.20082228774116079 0.076376442575105452 0 0.20235677372923089 0.062818682080573715 0 0.18640687820989599 0.066475441516618716 0 0.20082228774116079 0.076376442575105452 0 0.184008787459121 0.089253620026350122 0 0.18640687820989599 0.066475441516618716 0 0.20082228774116079 0.076376442575105452 0 0.2056048239527534 0.091577519547269462 0 0.184008787459121 0.089253620026350122 0 0.20082228774116079 0.076376442575105452 0 0.2056048239527534 0.091577519547269462 0 0.21247152319835511 0.079984608357575787 0 0.2056048239527534 0.091577519547269462 0 0.21247152319835511 0.079984608357575787 0 0.22112245491865751 0.088509763776345701 0 0.21247152319835511 0.079984608357575787 0 0.2220702463829953 0.074589176037617347 0 0.22112245491865751 0.088509763776345701 0 0.21247152319835511 0.079984608357575787 0 0.2127378029962087 0.068870139851540946 0 0.2220702463829953 0.074589176037617347 0 0.20082228774116079 0.076376442575105452 0 0.21247152319835511 0.079984608357575787 0 0.2127378029962087 0.068870139851540946 0 0.20082228774116079 0.076376442575105452 0 0.20235677372923089 0.062818682080573715 0 0.2127378029962087 0.068870139851540946 0 0.2127378029962087 0.068870139851540946 0 0.2214572506252421 0.063474008000766469 0 0.2220702463829953 0.074589176037617347 0 0.2214572506252421 0.063474008000766469 0 0.2220702463829953 0.074589176037617347 0 0.23157280071387859 0.065731698105127009 0 0.2220702463829953 0.074589176037617347 0 0.23157280071387859 0.065731698105127009 0 0.2328664337310557 0.080688243788453046 0 0.23388942962746059 0.096747119190211728 0 0.22112245491865751 0.088509763776345701 0 0.2328664337310557 0.080688243788453046 0 0.2220702463829953 0.074589176037617347 0 0.22112245491865751 0.088509763776345701 0 0.2328664337310557 0.080688243788453046 0 0.23388942962746059 0.096747119190211728 0 0.2328664337310557 0.080688243788453046 0 0.24640086058121119 0.085938776428289107 0 0.2328664337310557 0.080688243788453046 0 0.24640086058121119 0.085938776428289107 0 0.24088681061742201 0.071877660420780976 0 0.23157280071387859 0.065731698105127009 0 0.24088681061742201 0.071877660420780976 0 0.2421789250816295 0.060313810287290742 0 0.23157280071387859 0.065731698105127009 0 0.2328664337310557 0.080688243788453046 0 0.24088681061742201 0.071877660420780976 0 0.24640086058121119 0.085938776428289107 0 0.24088681061742201 0.071877660420780976 0 0.25347601198481851 0.070846851749968923 0 0.2421789250816295 0.060313810287290742 0 0.25421258692591608 0.056622967000013923 0 0.25347601198481851 0.070846851749968923 0 0.24088681061742201 0.071877660420780976 0 0.2421789250816295 0.060313810287290742 0 0.25347601198481851 0.070846851749968923 0 0.2421789250816295 0.060313810287290742 0 0.2414358262802774 0.05029233879449032 0 0.25421258692591608 0.056622967000013923 0 0.23508117249540711 0.055636814288508363 0 0.2421789250816295 0.060313810287290742 0 0.2414358262802774 0.05029233879449032 0 0.23157280071387859 0.065731698105127009 0 0.23508117249540711 0.055636814288508363 0 0.2421789250816295 0.060313810287290742 0 0.23508117249540711 0.055636814288508363 0 0.2414358262802774 0.05029233879449032 0 0.23348760542823191 0.046352129394750807 0 0.2414358262802774 0.05029233879449032 0 0.23937583930307069 0.044927301984980551 0 0.23348760542823191 0.046352129394750807 0 0.2414358262802774 0.05029233879449032 0 0.24424729673423809 0.041878356460708567 0 0.25523297909370862 0.045178265150677369 0 0.24424729673423809 0.041878356460708567 0 0.24506930095093701 0.037569968015384432 0 0.23911617233903121 0.039636021664758013 0 0.2430967106918169 0.034911472302389113 0 0.23618525097325391 0.033464735396403857 0 0.24917736808063759 0.030930597742944401 0 0.24683302380758651 0.034294417443512512 0 0.24917736808063759 0.030930597742944401 0 0.25136097441666611 0.037606820702287568 0 0.24683302380758651 0.034294417443512512 0 0.2430967106918169 0.034911472302389113 0 0.24917736808063759 0.030930597742944401 0 0.24683302380758651 0.034294417443512512 0 0.24506930095093701 0.037569968015384432 0 0.25136097441666611 0.037606820702287568 0 0.24424729673423809 0.041878356460708567 0 0.24506930095093701 0.037569968015384432 0 0.25136097441666611 0.037606820702287568 0 0.24506930095093701 0.037569968015384432 0 0.2430967106918169 0.034911472302389113 0 0.23911617233903121 0.039636021664758013 0 0.24683302380758651 0.034294417443512512 0 0.24506930095093701 0.037569968015384432 0 0.2430967106918169 0.034911472302389113 0 0.23618525097325391 0.033464735396403857 0 0.23911617233903121 0.039636021664758013 0 0.23086675722992911 0.039444394217629138 0 0.2430967106918169 0.034911472302389113 0 0.23618525097325391 0.033464735396403857 0 0.23911617233903121 0.039636021664758013 0 0.23911617233903121 0.039636021664758013 0 0.23348760542823191 0.046352129394750807 0 0.23086675722992911 0.039444394217629138 0 0.2414358262802774 0.05029233879449032 0 0.24424729673423809 0.041878356460708567 0 0.23937583930307069 0.044927301984980551 0 0.24424729673423809 0.041878356460708567 0 0.23937583930307069 0.044927301984980551 0 0.23911617233903121 0.039636021664758013 0 0.23937583930307069 0.044927301984980551 0 0.23911617233903121 0.039636021664758013 0 0.23348760542823191 0.046352129394750807 0 0.23348760542823191 0.046352129394750807 0 0.23086675722992911 0.039444394217629138 0 0.2240204860124545 0.046854391345194583 0 0.23618525097325391 0.033464735396403857 0 0.23086675722992911 0.039444394217629138 0 0.22652285428967769 0.033946709394167468 0 0.23086675722992911 0.039444394217629138 0 0.22652285428967769 0.033946709394167468 0 0.223071302080495 0.038230611892813578 0 0.22652285428967769 0.033946709394167468 0 0.223071302080495 0.038230611892813578 0 0.2173453380105409 0.032304642042789738 0 0.223071302080495 0.038230611892813578 0 0.2240204860124545 0.046854391345194583 0 0.2125374283266333 0.040901992555598773 0 0.23086675722992911 0.039444394217629138 0 0.223071302080495 0.038230611892813578 0 0.2240204860124545 0.046854391345194583 0 0.2240204860124545 0.046854391345194583 0 0.22673070497301789 0.055494094860882907 0 0.21410008896290431 0.055137345893432582 0 0.2214572506252421 0.063474008000766469 0 0.22673070497301789 0.055494094860882907 0 0.21410008896290431 0.055137345893432582 0 0.23157280071387859 0.065731698105127009 0 0.23508117249540711 0.055636814288508363 0 0.22673070497301789 0.055494094860882907 0 0.2214572506252421 0.063474008000766469 0 0.23157280071387859 0.065731698105127009 0 0.22673070497301789 0.055494094860882907 0 0.23508117249540711 0.055636814288508363 0 0.23348760542823191 0.046352129394750807 0 0.22673070497301789 0.055494094860882907 0 0.23348760542823191 0.046352129394750807 0 0.2240204860124545 0.046854391345194583 0 0.22673070497301789 0.055494094860882907 0 0.24924375414218081 0.01218264724973479 0 0.24251777179765821 0.01627777550428082 0 0.23561320151629339 -0.0026335918461790988 0 0.24924375414218081 0.01218264724973479 0 0.24251777179765821 0.01627777550428082 0 0.23618525097325391 0.033464735396403857 0 0.24917736808063759 0.030930597742944401 0 0.22514562315417 0.026289163421201051 0 0.24917736808063759 0.030930597742944401 0 0.22514562315417 0.026289163421201051 0 0.24920391902540581 0.02343240028237412 0 0.2206664651149893 0.015810534249224011 0 0.24920391902540581 0.02343240028237412 0 0.24917736808063759 0.030930597742944401 0 0.22514562315417 0.026289163421201051 0 0.24251777179765821 0.01627777550428082 0 0.24920391902540581 0.02343240028237412 0 0.2206664651149893 0.015810534249224011 0 0.24924375414218081 0.01218264724973479 0 0.24920391902540581 0.02343240028237412 0 0.24924375414218081 0.01218264724973479 0 0.24251777179765821 0.01627777550428082 0 0.24920391902540581 0.02343240028237412 0 0.24920391902540581 0.02343240028237412 0 0.24917736808063759 0.030930597742944401 0 0.2206664651149893 0.015810534249224011 0 0.22514562315417 0.026289163421201051 0 0.2173453380105409 0.032304642042789738 0 0.24920391902540581 0.02343240028237412 0 0.2206664651149893 0.015810534249224011 0 0.22514562315417 0.026289163421201051 0 0.23618525097325391 0.033464735396403857 0 0.22652285428967769 0.033946709394167468 0 0.22514562315417 0.026289163421201051 0 0.22652285428967769 0.033946709394167468 0 0.22514562315417 0.026289163421201051 0 0.2173453380105409 0.032304642042789738 0 0.24251777179765821 0.01627777550428082 0 0.2206664651149893 0.015810534249224011 0 0.23561320151629339 -0.0026335918461790988 0 0.2206664651149893 0.015810534249224011 0 0.20864284802578281 -0.0065324788891540156 0 0.23561320151629339 -0.0026335918461790988 0 0.2206664651149893 0.015810534249224011 0 0.19212901120457321 0.0081886682160713375 0 0.2206664651149893 0.015810534249224011 0 0.19212901120457321 0.0081886682160713375 0 0.20864284802578281 -0.0065324788891540156 0 0.2206664651149893 0.015810534249224011 0 0.20386030021217241 0.02905844332011662 0 0.2173453380105409 0.032304642042789738 0 0.2206664651149893 0.015810534249224011 0 0.20386030021217241 0.02905844332011662 0 0.19212901120457321 0.0081886682160713375 0 0.20386030021217241 0.02905844332011662 0 0.19212901120457321 0.0081886682160713375 0 0.1854028037201754 0.029242539763707661 0 0.21410008896290431 0.055137345893432582 0 0.2125374283266333 0.040901992555598773 0 0.19771681073598471 0.047234040566170817 0 0.20235677372923089 0.062818682080573715 0 0.21410008896290431 0.055137345893432582 0 0.19771681073598471 0.047234040566170817 0 0.20235677372923089 0.062818682080573715 0 0.2127378029962087 0.068870139851540946 0 0.21410008896290431 0.055137345893432582 0 0.2127378029962087 0.068870139851540946 0 0.2214572506252421 0.063474008000766469 0 0.21410008896290431 0.055137345893432582 0 0.2240204860124545 0.046854391345194583 0 0.21410008896290431 0.055137345893432582 0 0.2125374283266333 0.040901992555598773 0 0.20386030021217241 0.02905844332011662 0 0.2125374283266333 0.040901992555598773 0 0.19771681073598471 0.047234040566170817 0 0.223071302080495 0.038230611892813578 0 0.2125374283266333 0.040901992555598773 0 0.2173453380105409 0.032304642042789738 0 0.20386030021217241 0.02905844332011662 0 0.2125374283266333 0.040901992555598773 0 0.2173453380105409 0.032304642042789738 0 0.20386030021217241 0.02905844332011662 0 0.19771681073598471 0.047234040566170817 0 0.1854028037201754 0.029242539763707661 0 0.20235677372923089 0.062818682080573715 0 0.19771681073598471 0.047234040566170817 0 0.18640687820989599 0.066475441516618716 0 0.19771681073598471 0.047234040566170817 0 0.17825772092985129 0.050688551372655558 0 0.18640687820989599 0.066475441516618716 0 0.19771681073598471 0.047234040566170817 0 0.17825772092985129 0.050688551372655558 0 0.1854028037201754 0.029242539763707661 0 0.17825772092985129 0.050688551372655558 0 0.1697772083831442 0.036851620088621702 0 0.1854028037201754 0.029242539763707661 0 0.1697772083831442 0.036851620088621702 0 0.1564548144955405 0.053310447061785032 0 0.15681333553000709 0.03056145311779462 0 0.17825772092985129 0.050688551372655558 0 0.1697772083831442 0.036851620088621702 0 0.1564548144955405 0.053310447061785032 0 0.17825772092985129 0.050688551372655558 0 0.1564548144955405 0.053310447061785032 0 0.16977127450334309 0.071526608964501873 0 0.19212901120457321 0.0081886682160713375 0 0.16963372756194131 0.019042754814251741 0 0.163591557294157 0.00056680218291868187 0 0.19212901120457321 0.0081886682160713375 0 0.163591557294157 0.00056680218291868187 0 0.1697772083831442 0.036851620088621702 0 0.1854028037201754 0.029242539763707661 0 0.16963372756194131 0.019042754814251741 0 0.19212901120457321 0.0081886682160713375 0 0.1854028037201754 0.029242539763707661 0 0.16963372756194131 0.019042754814251741 0 0.1697772083831442 0.036851620088621702 0 0.16963372756194131 0.019042754814251741 0 0.15681333553000709 0.03056145311779462 0 0.16963372756194131 0.019042754814251741 0 0.15681333553000709 0.03056145311779462 0 0.15069454330392909 0.01362305672975905 0 0.16963372756194131 0.019042754814251741 0 0.163591557294157 0.00056680218291868187 0 0.15069454330392909 0.01362305672975905 0 0.163591557294157 0.00056680218291868187 0 0.15069454330392909 0.01362305672975905 0 0.13505410338374099 -0.0070550638502339322 0 0.15069454330392909 0.01362305672975905 0 0.13988937443273919 0.040081425654783738 0 0.15681333553000709 0.03056145311779462 0 0.15069454330392909 0.01362305672975905 0 0.13988937443273919 0.040081425654783738 0 0.15069454330392909 0.01362305672975905 0 0.1341633860335168 0.01370217472334927 0 0.13988937443273919 0.040081425654783738 0 0.12251008271650859 0.023139438711283121 0 0.1341633860335168 0.01370217472334927 0 0.13988937443273919 0.040081425654783738 0 0.12251008271650859 0.023139438711283121 0 0.12169987808444491 0.0072513285582684502 0 0.1341633860335168 0.01370217472334927 0 0.15069454330392909 0.01362305672975905 0 0.1341633860335168 0.01370217472334927 0 0.13505410338374099 -0.0070550638502339322 0 0.12169987808444491 0.0072513285582684502 0 0.1341633860335168 0.01370217472334927 0 0.13505410338374099 -0.0070550638502339322 0 0.1564548144955405 0.053310447061785032 0 0.13988937443273919 0.040081425654783738 0 0.12908420556154929 0.066539794579808562 0 0.1564548144955405 0.053310447061785032 0 0.15681333553000709 0.03056145311779462 0 0.13988937443273919 0.040081425654783738 0 0.1145025214138863 0.052650644276098509 0 0.1219569800619074 0.03737599779737627 0 0.13988937443273919 0.040081425654783738 0 0.1219569800619074 0.03737599779737627 0 0.12251008271650859 0.023139438711283121 0 0.13988937443273919 0.040081425654783738 0 0.1145025214138863 0.052650644276098509 0 0.13988937443273919 0.040081425654783738 0 0.12908420556154929 0.066539794579808562 0 0.13988937443273919 0.040081425654783738 0 0.12908420556154929 0.066539794579808562 0 0.12908420556154929 0.066539794579808562 0 0.14995697986024811 0.078671199829219246 0 0.13451253436639021 0.086643019758676151 0 0.1564548144955405 0.053310447061785032 0 0.12908420556154929 0.066539794579808562 0 0.14995697986024811 0.078671199829219246 0 0.14995697986024811 0.078671199829219246 0 0.13451253436639021 0.086643019758676151 0 0.14384814448577679 0.097643482238135459 0 0.14995697986024811 0.078671199829219246 0 0.14384814448577679 0.097643482238135459 0 0.16129406718340919 0.090406555638100877 0 0.1182790366903594 0.092998163504833142 0 0.12908420556154929 0.066539794579808562 0 0.13451253436639021 0.086643019758676151 0 0.1182790366903594 0.092998163504833142 0 0.13451253436639021 0.086643019758676151 0 0.12988486795911119 0.098065313119334113 0 0.13059818477956889 0.1110944223505837 0 0.14364245642711679 0.11419680289723599 0 0.14384814448577679 0.097643482238135459 0 0.12008056923662259 0.10449181260521689 0 0.12988486795911119 0.098065313119334113 0 0.13059818477956889 0.1110944223505837 0 0.12988486795911119 0.098065313119334113 0 0.13059818477956889 0.1110944223505837 0 0.14384814448577679 0.097643482238135459 0 0.13451253436639021 0.086643019758676151 0 0.12988486795911119 0.098065313119334113 0 0.14384814448577679 0.097643482238135459 0 0.11346359633902969 0.1220533577703921 0 0.1343092628838379 0.1256369390366581 0 0.13059818477956889 0.1110944223505837 0 0.1343092628838379 0.1256369390366581 0 0.13059818477956889 0.1110944223505837 0 0.14364245642711679 0.11419680289723599 0 0.1343092628838379 0.1256369390366581 0 0.14364245642711679 0.11419680289723599 0 0.15248278972958529 0.1243477046879467 0 0.14364245642711679 0.11419680289723599 0 0.15248278972958529 0.1243477046879467 0 0.1563322996448879 0.1082923467898696 0 0.14384814448577679 0.097643482238135459 0 0.1563322996448879 0.1082923467898696 0 0.16129406718340919 0.090406555638100877 0 0.14364245642711679 0.11419680289723599 0 0.14384814448577679 0.097643482238135459 0 0.1563322996448879 0.1082923467898696 0 0.1563322996448879 0.1082923467898696 0 0.1705083771703553 0.1025209937525394 0 0.16129406718340919 0.090406555638100877 0 0.1563322996448879 0.1082923467898696 0 0.1705083771703553 0.1025209937525394 0 0.16798678210261431 0.1142736848346015 0 0.15248278972958529 0.1243477046879467 0 0.1563322996448879 0.1082923467898696 0 0.16798678210261431 0.1142736848346015 0 0.17801742534052889 0.1264165215969586 0 0.15248278972958529 0.1243477046879467 0 0.16798678210261431 0.1142736848346015 0 0.17801742534052889 0.1264165215969586 0 0.1930437876423827 0.1175128773667187 0 0.1825930186277139 0.1097908573456933 0 0.17801742534052889 0.1264165215969586 0 0.16798678210261431 0.1142736848346015 0 0.1825930186277139 0.1097908573456933 0 0.1952488214208101 0.1041750036594712 0 0.1825930186277139 0.1097908573456933 0 0.184008787459121 0.089253620026350122 0 0.1705083771703553 0.1025209937525394 0 0.184008787459121 0.089253620026350122 0 0.16129406718340919 0.090406555638100877 0 0.1705083771703553 0.1025209937525394 0 0.1825930186277139 0.1097908573456933 0 0.184008787459121 0.089253620026350122 0 0.1705083771703553 0.1025209937525394 0 0.16798678210261431 0.1142736848346015 0 0.1825930186277139 0.1097908573456933 0 0.184008787459121 0.089253620026350122 0 0.18640687820989599 0.066475441516618716 0 0.16977127450334309 0.071526608964501873 0 0.17825772092985129 0.050688551372655558 0 0.18640687820989599 0.066475441516618716 0 0.16977127450334309 0.071526608964501873 0 0.1564548144955405 0.053310447061785032 0 0.14995697986024811 0.078671199829219246 0 0.16977127450334309 0.071526608964501873 0 0.184008787459121 0.089253620026350122 0 0.16977127450334309 0.071526608964501873 0 0.16129406718340919 0.090406555638100877 0 0.14995697986024811 0.078671199829219246 0 0.16977127450334309 0.071526608964501873 0 0.16129406718340919 0.090406555638100877 0 0.1031953483076815 0.48023696119994141 0 0.1232879693058704 0.473389639060316 0 0.09994661840422267 0.4640086682203981 0 0.1031953483076815 0.48023696119994141 0 0.09994661840422267 0.4640086682203981 0 0.090568085505315185 0.47903758809540381 0 0.1031953483076815 0.48023696119994141 0 0.10563875346611069 0.48686499323936661 0 0.11031908342195169 0.4809135936921648 0 0.1031953483076815 0.48023696119994141 0 0.11031908342195169 0.4809135936921648 0 0.1031953483076815 0.48023696119994141 0 0.093946697682764799 0.4833887894353584 0 0.1031953483076815 0.48023696119994141 0 0.093946697682764799 0.4833887894353584 0 0.090568085505315185 0.47903758809540381 0 0.1031953483076815 0.48023696119994141 0 0.090568085505315185 0.47903758809540381 0 0.1031953483076815 0.48023696119994141 0 0.093946697682764799 0.4833887894353584 0 0.10563875346611069 0.48686499323936661 0 0.093946697682764799 0.4833887894353584 0 0.10684493748162351 0.499999999999997 0 0.093946697682764799 0.4833887894353584 0 0.10684493748162351 0.499999999999997 0 0.086297675718717493 0.5 0 0.093946697682764799 0.4833887894353584 0 0.10684493748162351 0.499999999999997 0 0.10563875346611069 0.48686499323936661 0 0.10684493748162351 0.499999999999997 0 0.10563875346611069 0.48686499323936661 0 0.1130061987220547 0.48809486229380611 0 0.10563875346611069 0.48686499323936661 0 0.1130061987220547 0.48809486229380611 0 0.11031908342195169 0.4809135936921648 0 0.10684493748162351 0.499999999999997 0 0.1130061987220547 0.48809486229380611 0 0.12247105767917139 0.49036732130857652 0 0.10684493748162351 0.499999999999997 0 0.12247105767917139 0.49036732130857652 0 0.13558549972938361 0.5 0 0.1130061987220547 0.48809486229380611 0 0.12247105767917139 0.49036732130857652 0 0.1193164107041766 0.48148302344114258 0 0.1193164107041766 0.48148302344114258 0 0.11031908342195169 0.4809135936921648 0 0.1232879693058704 0.473389639060316 0 0.1031953483076815 0.48023696119994141 0 0.1232879693058704 0.473389639060316 0 0.1031953483076815 0.48023696119994141 0 0.11031908342195169 0.4809135936921648 0 0.1232879693058704 0.473389639060316 0 0.1130061987220547 0.48809486229380611 0 0.1193164107041766 0.48148302344114258 0 0.11031908342195169 0.4809135936921648 0 0.1232879693058704 0.473389639060316 0 0.09994661840422267 0.4640086682203981 0 0.12312185087955289 0.45437156075947838 0 0.1120917503819881 0.45746275463209191 0 0.13172151909199531 0.46115818626391619 0 0.1232879693058704 0.473389639060316 0 0.1120917503819881 0.45746275463209191 0 0.09994661840422267 0.4640086682203981 0 0.1120917503819881 0.45746275463209191 0 0.13172151909199531 0.46115818626391619 0 0.1232879693058704 0.473389639060316 0 0.1120917503819881 0.45746275463209191 0 0.13172151909199531 0.46115818626391619 0 0.12312185087955289 0.45437156075947838 0 0.1120917503819881 0.45746275463209191 0 0.1152379283162684 0.45295320210215517 0 0.1120917503819881 0.45746275463209191 0 0.1152379283162684 0.45295320210215517 0 0.1096021344583296 0.45240688733390788 0 0.11568429419972651 0.44781505138255417 0 0.1142314768810946 0.43234930405825012 0 0.12518469736031901 0.44246471678543681 0 0.12312185087955289 0.45437156075947838 0 0.11568429419972651 0.44781505138255417 0 0.12518469736031901 0.44246471678543681 0 0.12312185087955289 0.45437156075947838 0 0.1152379283162684 0.45295320210215517 0 0.11568429419972651 0.44781505138255417 0 0.1096021344583296 0.45240688733390788 0 0.11568429419972651 0.44781505138255417 0 0.104015706426832 0.44394390277634338 0 0.1152379283162684 0.45295320210215517 0 0.1096021344583296 0.45240688733390788 0 0.11568429419972651 0.44781505138255417 0 0.11568429419972651 0.44781505138255417 0 0.104015706426832 0.44394390277634338 0 0.1142314768810946 0.43234930405825012 0 0.1096021344583296 0.45240688733390788 0 0.104015706426832 0.44394390277634338 0 0.096047298802967501 0.45444228226910638 0 0.104015706426832 0.44394390277634338 0 0.096047298802967501 0.45444228226910638 0 0.092858291128361803 0.44253558830491779 0 0.104015706426832 0.44394390277634338 0 0.092858291128361803 0.44253558830491779 0 0.098728564394928636 0.43041207657744007 0 0.1120917503819881 0.45746275463209191 0 0.096047298802967501 0.45444228226910638 0 0.09994661840422267 0.4640086682203981 0 0.1120917503819881 0.45746275463209191 0 0.096047298802967501 0.45444228226910638 0 0.1120917503819881 0.45746275463209191 0 0.1096021344583296 0.45240688733390788 0 0.096047298802967501 0.45444228226910638 0 0.1120917503819881 0.45746275463209191 0 0.09994661840422267 0.4640086682203981 0 0.096047298802967501 0.45444228226910638 0 0.078816564138522532 0.45551642525864622 0 0.08000284722394696 0.45142180990612069 0 0.078816564138522532 0.45551642525864622 0 0.077047016468904966 0.46162425663891687 0 0.0851083145484514 0.47200613214377768 0 0.096047298802967501 0.45444228226910638 0 0.09994661840422267 0.4640086682203981 0 0.078816564138522532 0.45551642525864622 0 0.09994661840422267 0.4640086682203981 0 0.078816564138522532 0.45551642525864622 0 0.09994661840422267 0.4640086682203981 0 0.078816564138522532 0.45551642525864622 0 0.0851083145484514 0.47200613214377768 0 0.09994661840422267 0.4640086682203981 0 0.0851083145484514 0.47200613214377768 0 0.078816564138522532 0.45551642525864622 0 0.08000284722394696 0.45142180990612069 0 0.077047016468904966 0.46162425663891687 0 0.0851083145484514 0.47200613214377768 0 0.096047298802967501 0.45444228226910638 0 0.092858291128361803 0.44253558830491779 0 0.08000284722394696 0.45142180990612069 0 0.08000284722394696 0.45142180990612069 0 0.075394802978600489 0.44212701557641643 0 0.085497038793133834 0.43245786999557878 0 0.092858291128361803 0.44253558830491779 0 0.08000284722394696 0.45142180990612069 0 0.085497038793133834 0.43245786999557878 0 0.096047298802967501 0.45444228226910638 0 0.08000284722394696 0.45142180990612069 0 0.08000284722394696 0.45142180990612069 0 0.085497038793133834 0.43245786999557878 0 0.069350285230721287 0.45171189454528349 0 0.067970799088848441 0.44105222878097688 0 0.055558092119714728 0.43394939148378597 0 0.075394802978600489 0.44212701557641643 0 0.067970799088848441 0.44105222878097688 0 0.073889920267886627 0.43161375918981398 0 0.075394802978600489 0.44212701557641643 0 0.071417673811936269 0.44600177446788758 0 0.067970799088848441 0.44105222878097688 0 0.08000284722394696 0.45142180990612069 0 0.075394802978600489 0.44212701557641643 0 0.073590538685850762 0.45021465111812048 0 0.075394802978600489 0.44212701557641643 0 0.071417673811936269 0.44600177446788758 0 0.073590538685850762 0.45021465111812048 0 0.078816564138522532 0.45551642525864622 0 0.073590538685850762 0.45021465111812048 0 0.069350285230721287 0.45171189454528349 0 0.078816564138522532 0.45551642525864622 0 0.08000284722394696 0.45142180990612069 0 0.073590538685850762 0.45021465111812048 0 0.08000284722394696 0.45142180990612069 0 0.073590538685850762 0.45021465111812048 0 0.071417673811936269 0.44600177446788758 0 0.073590538685850762 0.45021465111812048 0 0.069350285230721287 0.45171189454528349 0 0.071417673811936269 0.44600177446788758 0 0.069350285230721287 0.45171189454528349 0 0.067970799088848441 0.44105222878097688 0 0.069350285230721287 0.45171189454528349 0 0.070536008776366052 0.46824523391414369 0 0.061616751290779322 0.46566116596666618 0 0.069350285230721287 0.45171189454528349 0 0.070536008776366052 0.46824523391414369 0 0.077047016468904966 0.46162425663891687 0 0.078816564138522532 0.45551642525864622 0 0.077047016468904966 0.46162425663891687 0 0.069350285230721287 0.45171189454528349 0 0.077047016468904966 0.46162425663891687 0 0.078816564138522532 0.45551642525864622 0 0.069350285230721287 0.45171189454528349 0 0.077047016468904966 0.46162425663891687 0 0.078816564138522532 0.45551642525864622 0 0.069350285230721287 0.45171189454528349 0 0.069350285230721287 0.45171189454528349 0 0.058106685204382377 0.45562432045764911 0 0.061616751290779322 0.46566116596666618 0 0.077047016468904966 0.46162425663891687 0 0.07249928501941566 0.4773213623643614 0 0.070536008776366052 0.46824523391414369 0 0.077047016468904966 0.46162425663891687 0 0.07249928501941566 0.4773213623643614 0 0.070536008776366052 0.46824523391414369 0 0.07249928501941566 0.4773213623643614 0 0.061616751290779322 0.46566116596666618 0 0.071990913906040482 0.47907607352157361 0 0.07249928501941566 0.4773213623643614 0 0.04358015139562512 0.4745745413297639 0 0.077047016468904966 0.46162425663891687 0 0.07249928501941566 0.4773213623643614 0 0.074834951312214293 0.47754321054924659 0 0.071990913906040482 0.47907607352157361 0 0.074834951312214293 0.47754321054924659 0 0.068894944836468811 0.48976222646344669 0 0.071990913906040482 0.47907607352157361 0 0.07249928501941566 0.4773213623643614 0 0.07249928501941566 0.4773213623643614 0 0.074834951312214293 0.47754321054924659 0 0.071990913906040482 0.47907607352157361 0 0.074834951312214293 0.47754321054924659 0 0.071990913906040482 0.47907607352157361 0 0.07249928501941566 0.4773213623643614 0 0.074834951312214293 0.47754321054924659 0 0.077047016468904966 0.46162425663891687 0 0.074834951312214293 0.47754321054924659 0 0.0851083145484514 0.47200613214377768 0 0.074834951312214293 0.47754321054924659 0 0.0851083145484514 0.47200613214377768 0 0.090568085505315185 0.47903758809540381 0 0.074834951312214293 0.47754321054924659 0 0.090568085505315185 0.47903758809540381 0 0.074834951312214293 0.47754321054924659 0 0.090568085505315185 0.47903758809540381 0 0.069574924937835292 0.49169439471768062 0 0.074834951312214293 0.47754321054924659 0 0.0851083145484514 0.47200613214377768 0 0.093946697682764799 0.4833887894353584 0 0.090568085505315185 0.47903758809540381 0 0.09994661840422267 0.4640086682203981 0 0.0851083145484514 0.47200613214377768 0 0.090568085505315185 0.47903758809540381 0 0.0851083145484514 0.47200613214377768 0 0.090568085505315185 0.47903758809540381 0 0.093946697682764799 0.4833887894353584 0 0.069574924937835292 0.49169439471768062 0 0.093946697682764799 0.4833887894353584 0 0.090568085505315185 0.47903758809540381 0 0.069574924937835292 0.49169439471768062 0 0.093946697682764799 0.4833887894353584 0 0.086297675718717493 0.5 0 0.069574924937835292 0.49169439471768062 0 0.086297675718717493 0.5 0 0.065750413955811493 0.5 0 0.069574924937835292 0.49169439471768062 0 0.069574924937835292 0.49169439471768062 0 0.068894944836468811 0.48976222646344669 0 0.052580036788167257 0.489538036760788 0 0.071990913906040482 0.47907607352157361 0 0.068894944836468811 0.48976222646344669 0 0.052580036788167257 0.489538036760788 0 0.071990913906040482 0.47907607352157361 0 0.068894944836468811 0.48976222646344669 0 0.074834951312214293 0.47754321054924659 0 0.069574924937835292 0.49169439471768062 0 0.068894944836468811 0.48976222646344669 0 0.069574924937835292 0.49169439471768062 0 0.052580036788167257 0.489538036760788 0 0.045203152192905487 0.50000000000000144 0 0.069574924937835292 0.49169439471768062 0 0.045203152192905487 0.50000000000000144 0 0.065750413955811493 0.5 0 0.069574924937835292 0.49169439471768062 0 0.045203152192905487 0.50000000000000144 0 0.071990913906040482 0.47907607352157361 0 0.052580036788167257 0.489538036760788 0 0.04358015139562512 0.4745745413297639 0 0.07249928501941566 0.4773213623643614 0 0.04358015139562512 0.4745745413297639 0 0.071990913906040482 0.47907607352157361 0 0.052580036788167257 0.489538036760788 0 0.07249928501941566 0.4773213623643614 0 0.04358015139562512 0.4745745413297639 0 0.061616751290779322 0.46566116596666618 0 0.04358015139562512 0.4745745413297639 0 0.038877070129264307 0.48740242196263017 0 0.026178932662970548 0.48549710975996591 0 0.052580036788167257 0.489538036760788 0 0.04358015139562512 0.4745745413297639 0 0.038877070129264307 0.48740242196263017 0 0.052580036788167257 0.489538036760788 0 0.038877070129264307 0.48740242196263017 0 0.033169159670293602 0.50000000000000155 0 0.052580036788167257 0.489538036760788 0 0.045203152192905487 0.50000000000000144 0 0.033169159670293602 0.50000000000000155 0 0.052580036788167257 0.489538036760788 0 0.033169159670293602 0.50000000000000155 0 0.038877070129264307 0.48740242196263017 0 0.033169159670293602 0.50000000000000155 0 0.026178932662970548 0.48549710975996591 0 0.033169159670293602 0.50000000000000155 0 0.026178932662970548 0.48549710975996591 0 0.010496769125121539 0.5 0 0.026178932662970548 0.48549710975996591 0 0.01025446024202022 0.4822856255575026 0 0.010496769125121539 0.5 0 0.04358015139562512 0.4745745413297639 0 0.026178932662970548 0.48549710975996591 0 0.01466101777183439 0.47182772029516651 0 0.026178932662970548 0.48549710975996591 0 0.01025446024202022 0.4822856255575026 0 0.01466101777183439 0.47182772029516651 0 0.04358015139562512 0.4745745413297639 0 0.01466101777183439 0.47182772029516651 0 0.01025446024202022 0.4822856255575026 0 0.01466101777183439 0.47182772029516651 0 0.003537016766246162 0.47294299582239979 0 0.01466101777183439 0.47182772029516651 0 0.003537016766246162 0.47294299582239979 0 0.0032794996504289901 0.46181311440647571 0 -0.0036930259881434641 0.48121213739285151 0 0.01025446024202022 0.4822856255575026 0 0.003537016766246162 0.47294299582239979 0 -0.0036930259881434641 0.48121213739285151 0 0.01025446024202022 0.4822856255575026 0 0.010496769125121539 0.5 0 -0.0012057697751756359 0.45257425120839118 0 0.018806896941951631 0.44600787080580262 0 -0.0012057697751756359 0.45257425120839118 0 0.0052292096928386721 0.43797530083799202 0 0.018806896941951631 0.44600787080580262 0 -0.0012057697751756359 0.45257425120839118 0 0.0131223816540415 0.45838488762513191 0 0.018806896941951631 0.44600787080580262 0 0.0052292096928386721 0.43797530083799202 0 0.018806896941951631 0.44600787080580262 0 0.01645134987043512 0.43045162678407878 0 -0.0012057697751756359 0.45257425120839118 0 0.0032794996504289901 0.46181311440647571 0 0.0131223816540415 0.45838488762513191 0 -0.0012057697751756359 0.45257425120839118 0 0.0032794996504289901 0.46181311440647571 0 0.01466101777183439 0.47182772029516651 0 0.0032794996504289901 0.46181311440647571 0 0.0131223816540415 0.45838488762513191 0 0.0131223816540415 0.45838488762513191 0 0.030070263681168351 0.4597014814098237 0 0.018806896941951631 0.44600787080580262 0 0.04358015139562512 0.4745745413297639 0 0.01466101777183439 0.47182772029516651 0 0.030070263681168351 0.4597014814098237 0 0.01466101777183439 0.47182772029516651 0 0.0131223816540415 0.45838488762513191 0 0.030070263681168351 0.4597014814098237 0 0.030070263681168351 0.4597014814098237 0 0.018806896941951631 0.44600787080580262 0 0.038819563659079452 0.43944149040321578 0 0.018806896941951631 0.44600787080580262 0 0.038819563659079452 0.43944149040321578 0 0.018806896941951631 0.44600787080580262 0 0.038819563659079452 0.43944149040321578 0 0.01645134987043512 0.43045162678407878 0 0.038819563659079452 0.43944149040321578 0 0.047374779851126238 0.45954752884439681 0 0.054084924444899249 0.44557669247425252 0 0.030070263681168351 0.4597014814098237 0 0.038819563659079452 0.43944149040321578 0 0.047374779851126238 0.45954752884439681 0 0.038819563659079452 0.43944149040321578 0 0.054084924444899249 0.44557669247425252 0 0.04358015139562512 0.4745745413297639 0 0.030070263681168351 0.4597014814098237 0 0.047374779851126238 0.45954752884439681 0 0.04358015139562512 0.4745745413297639 0 0.047374779851126238 0.45954752884439681 0 0.061616751290779322 0.46566116596666618 0 0.047374779851126238 0.45954752884439681 0 0.058106685204382377 0.45562432045764911 0 0.054084924444899249 0.44557669247425252 0 0.047374779851126238 0.45954752884439681 0 0.058106685204382377 0.45562432045764911 0 0.061616751290779322 0.46566116596666618 0 0.069350285230721287 0.45171189454528349 0 0.055558092119714728 0.43394939148378597 0 0.038819563659079452 0.43944149040321578 0 0.054084924444899249 0.44557669247425252 0 0.055558092119714728 0.43394939148378597 0 0.069350285230721287 0.45171189454528349 0 0.054084924444899249 0.44557669247425252 0 0.055558092119714728 0.43394939148378597 0 0.069350285230721287 0.45171189454528349 0 0.054084924444899249 0.44557669247425252 0 0.069350285230721287 0.45171189454528349 0 0.058106685204382377 0.45562432045764911 0 0.054084924444899249 0.44557669247425252 0 0.038819563659079452 0.43944149040321578 0 0.055558092119714728 0.43394939148378597 0 0.067970799088848441 0.44105222878097688 0 0.055558092119714728 0.43394939148378597 0 0.063077093108728499 0.43148232292969357 0 0.055558092119714728 0.43394939148378597 0 0.040579619419181791 0.41465911871438099 0 0.055558092119714728 0.43394939148378597 0 0.057016986587795061 0.41907182240794377 0 0.040579619419181791 0.41465911871438099 0 0.055558092119714728 0.43394939148378597 0 0.063077093108728499 0.43148232292969357 0 0.055558092119714728 0.43394939148378597 0 0.057016986587795061 0.41907182240794377 0 0.063077093108728499 0.43148232292969357 0 0.057016986587795061 0.41907182240794377 0 0.055404429734974767 0.40274510428338062 0 0.071112978067834842 0.40970887750993268 0 0.057016986587795061 0.41907182240794377 0 0.040579619419181791 0.41465911871438099 0 0.055404429734974767 0.40274510428338062 0 0.040579619419181791 0.41465911871438099 0 0.029947539908185921 0.42502911875481619 0 0.023939626684047709 0.41556423911759022 0 0.038819563659079452 0.43944149040321578 0 0.040579619419181791 0.41465911871438099 0 0.029947539908185921 0.42502911875481619 0 0.038819563659079452 0.43944149040321578 0 0.055558092119714728 0.43394939148378597 0 0.040579619419181791 0.41465911871438099 0 0.038819563659079452 0.43944149040321578 0 0.01645134987043512 0.43045162678407878 0 0.038819563659079452 0.43944149040321578 0 0.01645134987043512 0.43045162678407878 0 0.029947539908185921 0.42502911875481619 0 0.01645134987043512 0.43045162678407878 0 0.029947539908185921 0.42502911875481619 0 0.023939626684047709 0.41556423911759022 0 0.023939626684047709 0.41556423911759022 0 0.01041712445811117 0.40843629584861152 0 0.025601146718649478 0.39536884594497551 0 0.040579619419181791 0.41465911871438099 0 0.023939626684047709 0.41556423911759022 0 0.025601146718649478 0.39536884594497551 0 0.01645134987043512 0.43045162678407878 0 0.023939626684047709 0.41556423911759022 0 0.01041712445811117 0.40843629584861152 0 -0.0041407497796918259 0.4126946011504517 0 0.01041712445811117 0.40843629584861152 0 0.001140924859785797 0.42442078218371693 0 0.01645134987043512 0.43045162678407878 0 0.01041712445811117 0.40843629584861152 0 0.001140924859785797 0.42442078218371693 0 0.0052292096928386721 0.43797530083799202 0 0.01645134987043512 0.43045162678407878 0 0.001140924859785797 0.42442078218371693 0 -0.0080455913418213676 0.38100917333558221 0 0.0081970074261016289 0.37671923216857628 0 -0.0080455913418213676 0.38100917333558221 0 0.0081970074261016289 0.37671923216857628 0 0.001150257802333904 0.37218443526046402 0 0.010477588228963461 0.38933604423753149 0 0.025601146718649478 0.39536884594497551 0 0.0096776771244486415 0.37486154336154642 0 0.010477588228963461 0.38933604423753149 0 0.0081970074261016289 0.37671923216857628 0 0.0096776771244486415 0.37486154336154642 0 0.0081970074261016289 0.37671923216857628 0 0.0096776771244486415 0.37486154336154642 0 -0.0024500114761617699 0.39007727404992448 0 0.0081970074261016289 0.37671923216857628 0 -0.0024500114761617699 0.39007727404992448 0 0.010477588228963461 0.38933604423753149 0 0.0081970074261016289 0.37671923216857628 0 0.01041712445811117 0.40843629584861152 0 0.010477588228963461 0.38933604423753149 0 0.025601146718649478 0.39536884594497551 0 -0.0024500114761617699 0.39007727404992448 0 0.01041712445811117 0.40843629584861152 0 0.010477588228963461 0.38933604423753149 0 -0.0024500114761617699 0.39007727404992448 0 -0.0041407497796918259 0.4126946011504517 0 0.01041712445811117 0.40843629584861152 0 0.025601146718649478 0.39536884594497551 0 0.031501901959488023 0.38263238065207861 0 0.0096776771244486415 0.37486154336154642 0 0.025601146718649478 0.39536884594497551 0 0.0096776771244486415 0.37486154336154642 0 0.031501901959488023 0.38263238065207861 0 0.02466266828166468 0.37237037658484778 0 0.0096776771244486415 0.37486154336154642 0 0.031501901959488023 0.38263238065207861 0 0.034111267037862762 0.37326304462290028 0 0.02466266828166468 0.37237037658484778 0 0.025601146718649478 0.39536884594497551 0 0.031501901959488023 0.38263238065207861 0 0.045544568349375987 0.38248716046536679 0 0.031501901959488023 0.38263238065207861 0 0.045544568349375987 0.38248716046536679 0 0.034111267037862762 0.37326304462290028 0 0.025601146718649478 0.39536884594497551 0 0.045544568349375987 0.38248716046536679 0 0.055404429734974767 0.40274510428338062 0 0.040579619419181791 0.41465911871438099 0 0.025601146718649478 0.39536884594497551 0 0.055404429734974767 0.40274510428338062 0 0.040579619419181791 0.41465911871438099 0 0.025601146718649478 0.39536884594497551 0 0.045544568349375987 0.38248716046536679 0 0.055404429734974767 0.40274510428338062 0 0.065222309233402498 0.38971345843827448 0 0.045544568349375987 0.38248716046536679 0 0.065222309233402498 0.38971345843827448 0 0.063840994710960414 0.37286946891921408 0 0.065222309233402498 0.38971345843827448 0 0.078319864300061853 0.38377520714381569 0 0.063840994710960414 0.37286946891921408 0 0.065222309233402498 0.38971345843827448 0 0.078319864300061853 0.38377520714381569 0 0.082424604006060304 0.39828832542690878 0 0.078319864300061853 0.38377520714381569 0 0.084303701224117483 0.36864045843951998 0 0.063840994710960414 0.37286946891921408 0 0.092681254128483007 0.38578931204927752 0 0.1026933544424244 0.3750749388289078 0 0.084303701224117483 0.36864045843951998 0 0.078319864300061853 0.38377520714381569 0 0.092681254128483007 0.38578931204927752 0 0.084303701224117483 0.36864045843951998 0 0.078319864300061853 0.38377520714381569 0 0.092681254128483007 0.38578931204927752 0 0.082424604006060304 0.39828832542690878 0 0.092681254128483007 0.38578931204927752 0 0.082424604006060304 0.39828832542690878 0 0.1007109901425797 0.40007955799776979 0 0.082424604006060304 0.39828832542690878 0 0.090991230362319528 0.41349393008503671 0 0.1007109901425797 0.40007955799776979 0 0.055404429734974767 0.40274510428338062 0 0.065222309233402498 0.38971345843827448 0 0.071112978067834842 0.40970887750993268 0 0.065222309233402498 0.38971345843827448 0 0.082424604006060304 0.39828832542690878 0 0.071112978067834842 0.40970887750993268 0 0.057016986587795061 0.41907182240794377 0 0.071112978067834842 0.40970887750993268 0 0.069007843954758535 0.42228776826322878 0 0.071112978067834842 0.40970887750993268 0 0.069007843954758535 0.42228776826322878 0 0.078099802289186671 0.42191244100871822 0 0.067970799088848441 0.44105222878097688 0 0.063077093108728499 0.43148232292969357 0 0.073889920267886627 0.43161375918981398 0 0.063077093108728499 0.43148232292969357 0 0.069007843954758535 0.42228776826322878 0 0.073889920267886627 0.43161375918981398 0 0.057016986587795061 0.41907182240794377 0 0.063077093108728499 0.43148232292969357 0 0.069007843954758535 0.42228776826322878 0 0.069007843954758535 0.42228776826322878 0 0.078099802289186671 0.42191244100871822 0 0.073889920267886627 0.43161375918981398 0 0.085497038793133834 0.43245786999557878 0 0.090991230362319528 0.41349393008503671 0 0.098728564394928636 0.43041207657744007 0 0.078099802289186671 0.42191244100871822 0 0.085497038793133834 0.43245786999557878 0 0.090991230362319528 0.41349393008503671 0 0.085497038793133834 0.43245786999557878 0 0.090991230362319528 0.41349393008503671 0 0.075394802978600489 0.44212701557641643 0 0.073889920267886627 0.43161375918981398 0 0.085497038793133834 0.43245786999557878 0 0.078099802289186671 0.42191244100871822 0 0.073889920267886627 0.43161375918981398 0 0.085497038793133834 0.43245786999557878 0 0.092858291128361803 0.44253558830491779 0 0.085497038793133834 0.43245786999557878 0 0.098728564394928636 0.43041207657744007 0 0.071112978067834842 0.40970887750993268 0 0.078099802289186671 0.42191244100871822 0 0.090991230362319528 0.41349393008503671 0 0.082424604006060304 0.39828832542690878 0 0.071112978067834842 0.40970887750993268 0 0.090991230362319528 0.41349393008503671 0 0.090991230362319528 0.41349393008503671 0 0.1079213660525994 0.41626983658332711 0 0.1007109901425797 0.40007955799776979 0 0.090991230362319528 0.41349393008503671 0 0.1079213660525994 0.41626983658332711 0 0.098728564394928636 0.43041207657744007 0 0.1079213660525994 0.41626983658332711 0 0.098728564394928636 0.43041207657744007 0 0.1142314768810946 0.43234930405825012 0 0.104015706426832 0.44394390277634338 0 0.098728564394928636 0.43041207657744007 0 0.1142314768810946 0.43234930405825012 0 0.1079213660525994 0.41626983658332711 0 0.1142314768810946 0.43234930405825012 0 0.125108322632452 0.41722738291888239 0 0.1142314768810946 0.43234930405825012 0 0.125108322632452 0.41722738291888239 0 0.1267073735430653 0.43082469044774729 0 0.1142314768810946 0.43234930405825012 0 0.1267073735430653 0.43082469044774729 0 0.12518469736031901 0.44246471678543681 0 0.1079213660525994 0.41626983658332711 0 0.1173041842016815 0.40059907994408889 0 0.125108322632452 0.41722738291888239 0 0.1173041842016815 0.40059907994408889 0 0.1317337317892727 0.39937894015077352 0 0.125108322632452 0.41722738291888239 0 0.1173041842016815 0.40059907994408889 0 0.1103704233394103 0.38735819563793261 0 0.12689104246206889 0.38606268173667008 0 0.1173041842016815 0.40059907994408889 0 0.1103704233394103 0.38735819563793261 0 0.1007109901425797 0.40007955799776979 0 0.1103704233394103 0.38735819563793261 0 0.1168729182572414 0.37211592637420698 0 0.12689104246206889 0.38606268173667008 0 0.1103704233394103 0.38735819563793261 0 0.1026933544424244 0.3750749388289078 0 0.1168729182572414 0.37211592637420698 0 0.092681254128483007 0.38578931204927752 0 0.1103704233394103 0.38735819563793261 0 0.1026933544424244 0.3750749388289078 0 0.092681254128483007 0.38578931204927752 0 0.1103704233394103 0.38735819563793261 0 0.1007109901425797 0.40007955799776979 0 0.1079213660525994 0.41626983658332711 0 0.1173041842016815 0.40059907994408889 0 0.1007109901425797 0.40007955799776979 0 0.1092082577046954 0.34065798401453451 0 0.085655750127774682 0.34813922440253081 0 0.1012643341925076 0.36012757538836943 0 0.1092082577046954 0.34065798401453451 0 0.085655750127774682 0.34813922440253081 0 0.1026933544424244 0.3750749388289078 0 0.1012643341925076 0.36012757538836943 0 0.084303701224117483 0.36864045843951998 0 0.1026933544424244 0.3750749388289078 0 0.1012643341925076 0.36012757538836943 0 0.1168729182572414 0.37211592637420698 0 0.1012643341925076 0.36012757538836943 0 0.1168729182572414 0.37211592637420698 0 0.1012643341925076 0.36012757538836943 0 0.1168729182572414 0.37211592637420698 0 0.12508481468616511 0.35435445602658411 0 0.1012643341925076 0.36012757538836943 0 0.1092082577046954 0.34065798401453451 0 0.12508481468616511 0.35435445602658411 0 0.1092082577046954 0.34065798401453451 0 0.1327607652816164 0.33317674362653898 0 0.12508481468616511 0.35435445602658411 0 0.1092082577046954 0.34065798401453451 0 0.1327607652816164 0.33317674362653898 0 0.11873453295395869 0.31665512565759157 0 0.1092082577046954 0.34065798401453451 0 0.1327607652816164 0.33317674362653898 0 0.11873453295395869 0.31665512565759157 0 0.10291551022871 0.3142619401636102 0 0.1092082577046954 0.34065798401453451 0 0.10291551022871 0.3142619401636102 0 0.1092082577046954 0.34065798401453451 0 0.091744795534714513 0.32308541393693868 0 0.1092082577046954 0.34065798401453451 0 0.089759259922955137 0.33588801874776242 0 0.091744795534714513 0.32308541393693868 0 0.1092082577046954 0.34065798401453451 0 0.089759259922955137 0.33588801874776242 0 0.085655750127774682 0.34813922440253081 0 0.089759259922955137 0.33588801874776242 0 0.079591272606286748 0.32855380797597961 0 0.072773673201690231 0.33824499831668342 0 0.089759259922955137 0.33588801874776242 0 0.072773673201690231 0.33824499831668342 0 0.085655750127774682 0.34813922440253081 0 0.089759259922955137 0.33588801874776242 0 0.079591272606286748 0.32855380797597961 0 0.091744795534714513 0.32308541393693868 0 0.072773673201690231 0.33824499831668342 0 0.085655750127774682 0.34813922440253081 0 0.10291551022871 0.3142619401636102 0 0.091744795534714513 0.32308541393693868 0 0.086216171823904023 0.30580104984310369 0 0.091744795534714513 0.32308541393693868 0 0.078802618813841596 0.31886396129976979 0 0.086216171823904023 0.30580104984310369 0 0.079591272606286748 0.32855380797597961 0 0.091744795534714513 0.32308541393693868 0 0.078802618813841596 0.31886396129976979 0 0.067637487400770024 0.32653419629994318 0 0.057619264681819007 0.31794218868110302 0 0.068823366703532757 0.31034533844288359 0 0.078802618813841596 0.31886396129976979 0 0.067637487400770024 0.32653419629994318 0 0.068823366703532757 0.31034533844288359 0 0.079591272606286748 0.32855380797597961 0 0.078802618813841596 0.31886396129976979 0 0.067637487400770024 0.32653419629994318 0 0.067637487400770024 0.32653419629994318 0 0.059891596275606779 0.32835077223083459 0 0.079591272606286748 0.32855380797597961 0 0.067637487400770024 0.32653419629994318 0 0.072773673201690231 0.33824499831668342 0 0.072773673201690231 0.33824499831668342 0 0.059891596275606779 0.32835077223083459 0 0.067637487400770024 0.32653419629994318 0 0.072773673201690231 0.33824499831668342 0 0.059891596275606779 0.32835077223083459 0 0.072773673201690231 0.33824499831668342 0 0.065162889396421675 0.35464859572395963 0 0.085655750127774682 0.34813922440253081 0 0.065162889396421675 0.35464859572395963 0 0.085655750127774682 0.34813922440253081 0 0.072773673201690231 0.33824499831668342 0 0.065162889396421675 0.35464859572395963 0 0.052448007120468272 0.34421670084642481 0 0.065162889396421675 0.35464859572395963 0 0.085655750127774682 0.34813922440253081 0 0.084303701224117483 0.36864045843951998 0 0.1012643341925076 0.36012757538836943 0 0.085655750127774682 0.34813922440253081 0 0.084303701224117483 0.36864045843951998 0 0.1012643341925076 0.36012757538836943 0 0.085655750127774682 0.34813922440253081 0 0.065162889396421675 0.35464859572395963 0 0.084303701224117483 0.36864045843951998 0 0.063840994710960414 0.37286946891921408 0 0.045544568349375987 0.38248716046536679 0 0.063840994710960414 0.37286946891921408 0 0.044670028665068973 0.36115796704538922 0 0.065162889396421675 0.35464859572395963 0 0.063840994710960414 0.37286946891921408 0 0.044670028665068973 0.36115796704538922 0 0.065162889396421675 0.35464859572395963 0 0.044670028665068973 0.36115796704538922 0 0.065162889396421675 0.35464859572395963 0 0.052448007120468272 0.34421670084642481 0 0.044670028665068973 0.36115796704538922 0 0.052448007120468272 0.34421670084642481 0 0.032032740296266522 0.34991894463962708 0 0.044670028665068973 0.36115796704538922 0 0.032032740296266522 0.34991894463962708 0 0.044670028665068973 0.36115796704538922 0 0.025630634945122219 0.35901817533591712 0 0.044670028665068973 0.36115796704538922 0 0.034111267037862762 0.37326304462290028 0 0.024177167933716191 0.36766733836681881 0 0.045544568349375987 0.38248716046536679 0 0.044670028665068973 0.36115796704538922 0 0.034111267037862762 0.37326304462290028 0 0.044670028665068973 0.36115796704538922 0 0.024177167933716191 0.36766733836681881 0 0.044670028665068973 0.36115796704538922 0 0.024177167933716191 0.36766733836681881 0 0.025630634945122219 0.35901817533591712 0 0.034111267037862762 0.37326304462290028 0 0.024177167933716191 0.36766733836681881 0 0.02466266828166468 0.37237037658484778 0 0.02466266828166468 0.37237037658484778 0 0.017503357618016639 0.37098509334939178 0 0.0096776771244486415 0.37486154336154642 0 0.02466266828166468 0.37237037658484778 0 0.0096776771244486415 0.37486154336154642 0 0.024177167933716191 0.36766733836681881 0 0.017503357618016639 0.37098509334939178 0 0.018376600732135689 0.36394763525817653 0 0.024177167933716191 0.36766733836681881 0 0.02466266828166468 0.37237037658484778 0 0.017503357618016639 0.37098509334939178 0 0.024177167933716191 0.36766733836681881 0 0.018376600732135689 0.36394763525817653 0 0.025630634945122219 0.35901817533591712 0 0.032032740296266522 0.34991894463962708 0 0.01967335550647753 0.35355214388643391 0 0.020422633499904589 0.337607082013275 0 0.032032740296266522 0.34991894463962708 0 0.025630634945122219 0.35901817533591712 0 0.01967335550647753 0.35355214388643391 0 0.01967335550647753 0.35355214388643391 0 0.0096018226217892549 0.35077879839631931 0 0.020422633499904589 0.337607082013275 0 0.018376600732135689 0.36394763525817653 0 0.025630634945122219 0.35901817533591712 0 0.01967335550647753 0.35355214388643391 0 0.018376600732135689 0.36394763525817653 0 0.01967335550647753 0.35355214388643391 0 0.01086849634245614 0.36033825687399712 0 -0.002986974272574112 0.35855116346750959 0 0.0096018226217892549 0.35077879839631931 0 0.00068815211205307844 0.34223523690449309 0 0.01967335550647753 0.35355214388643391 0 0.0096018226217892549 0.35077879839631931 0 0.01086849634245614 0.36033825687399712 0 -0.002986974272574112 0.35855116346750959 0 0.0096018226217892549 0.35077879839631931 0 0.01086849634245614 0.36033825687399712 0 -0.002986974272574112 0.35855116346750959 0 0.0001016014555435055 0.36448719899905768 0 0.0096776771244486415 0.37486154336154642 0 -0.002986974272574112 0.35855116346750959 0 0.0096776771244486415 0.37486154336154642 0 -0.002986974272574112 0.35855116346750959 0 0.0096776771244486415 0.37486154336154642 0 0.01086849634245614 0.36033825687399712 0 0.0001016014555435055 0.36448719899905768 0 0.001150257802333904 0.37218443526046402 0 0.0096776771244486415 0.37486154336154642 0 0.0081970074261016289 0.37671923216857628 0 0.001150257802333904 0.37218443526046402 0 0.0096776771244486415 0.37486154336154642 0 0.017503357618016639 0.37098509334939178 0 0.018376600732135689 0.36394763525817653 0 0.0096776771244486415 0.37486154336154642 0 0.018376600732135689 0.36394763525817653 0 0.0096776771244486415 0.37486154336154642 0 0.018376600732135689 0.36394763525817653 0 0.0096776771244486415 0.37486154336154642 0 0.01086849634245614 0.36033825687399712 0 0.0084954355930501515 0.3241817940343617 0 0.01300268931665044 0.33124644083820481 0 0.01589290937740637 0.32328152151040401 0 0.0084954355930501515 0.3241817940343617 0 0.0072698207036737718 0.32856118662224493 0 0.01300268931665044 0.33124644083820481 0 0.0084954355930501515 0.3241817940343617 0 0.0115881517502126 0.31914211768259731 0 0.01589290937740637 0.32328152151040401 0 0.01278971356030092 0.31402611294281202 0 0.0115881517502126 0.31914211768259731 0 0.017339083073712059 0.31702449098039542 0 0.0115881517502126 0.31914211768259731 0 0.01589290937740637 0.32328152151040401 0 0.017339083073712059 0.31702449098039542 0 0.01278971356030092 0.31402611294281202 0 0.0115881517502126 0.31914211768259731 0 0.0030152519430094241 0.31453119646573691 0 0.0084954355930501515 0.3241817940343617 0 0.0115881517502126 0.31914211768259731 0 0.0030152519430094241 0.31453119646573691 0 0.0084954355930501515 0.3241817940343617 0 0.00063675055893517793 0.32328312616982818 0 0.0072698207036737718 0.32856118662224493 0 0.0084954355930501515 0.3241817940343617 0 0.0030152519430094241 0.31453119646573691 0 0.00063675055893517793 0.32328312616982818 0 0.00063675055893517793 0.32328312616982818 0 0.0032776194458498981 0.33073915365893419 0 0.0072698207036737718 0.32856118662224493 0 0.00068815211205307844 0.34223523690449309 0 0.020422633499904589 0.337607082013275 0 0.00068815211205307844 0.34223523690449309 0 0.0058532923350839011 0.33785858474726882 0 0.020422633499904589 0.337607082013275 0 0.0096018226217892549 0.35077879839631931 0 0.00068815211205307844 0.34223523690449309 0 0.020422633499904589 0.337607082013275 0 0.0032776194458498981 0.33073915365893419 0 0.0024371276832097252 0.33447056325982411 0 0.0032776194458498981 0.33073915365893419 0 0.0024371276832097252 0.33447056325982411 0 0.0063681098968934452 0.33257518582529538 0 0.0024371276832097252 0.33447056325982411 0 0.0063681098968934452 0.33257518582529538 0 0.0058532923350839011 0.33785858474726882 0 0.0032776194458498981 0.33073915365893419 0 0.0063681098968934452 0.33257518582529538 0 0.0072698207036737718 0.32856118662224493 0 0.0024371276832097252 0.33447056325982411 0 0.00068815211205307844 0.34223523690449309 0 0.0024371276832097252 0.33447056325982411 0 0.00068815211205307844 0.34223523690449309 0 0.0058532923350839011 0.33785858474726882 0 0.0024371276832097252 0.33447056325982411 0 0.0058532923350839011 0.33785858474726882 0 0.0058532923350839011 0.33785858474726882 0 0.01300268931665044 0.33124644083820481 0 0.020422633499904589 0.337607082013275 0 0.0063681098968934452 0.33257518582529538 0 0.0072698207036737718 0.32856118662224493 0 0.01300268931665044 0.33124644083820481 0 0.0063681098968934452 0.33257518582529538 0 0.0058532923350839011 0.33785858474726882 0 0.01300268931665044 0.33124644083820481 0 0.020422633499904589 0.337607082013275 0 0.02681238340422086 0.32787597448753319 0 0.040157114887755599 0.33297892712205462 0 0.01969561243429193 0.32869289916030903 0 0.020422633499904589 0.337607082013275 0 0.02681238340422086 0.32787597448753319 0 0.032032740296266522 0.34991894463962708 0 0.020422633499904589 0.337607082013275 0 0.040157114887755599 0.33297892712205462 0 0.01300268931665044 0.33124644083820481 0 0.01969561243429193 0.32869289916030903 0 0.020422633499904589 0.337607082013275 0 0.020422633499904589 0.337607082013275 0 0.040157114887755599 0.33297892712205462 0 0.023987544036434369 0.32175103315493631 0 0.02681238340422086 0.32787597448753319 0 0.034185455076535698 0.32450084529873768 0 0.023987544036434369 0.32175103315493631 0 0.030626768781883602 0.31643605951931192 0 0.034185455076535698 0.32450084529873768 0 0.01969561243429193 0.32869289916030903 0 0.023987544036434369 0.32175103315493631 0 0.02681238340422086 0.32787597448753319 0 0.023987544036434369 0.32175103315493631 0 0.01589290937740637 0.32328152151040401 0 0.017339083073712059 0.31702449098039542 0 0.01300268931665044 0.33124644083820481 0 0.01969561243429193 0.32869289916030903 0 0.01589290937740637 0.32328152151040401 0 0.01969561243429193 0.32869289916030903 0 0.023987544036434369 0.32175103315493631 0 0.01589290937740637 0.32328152151040401 0 0.01278971356030092 0.31402611294281202 0 0.017339083073712059 0.31702449098039542 0 0.018308116667695901 0.31171164525736089 0 0.023987544036434369 0.32175103315493631 0 0.017339083073712059 0.31702449098039542 0 0.02336059610699007 0.31444544112786321 0 0.017339083073712059 0.31702449098039542 0 0.02336059610699007 0.31444544112786321 0 0.018308116667695901 0.31171164525736089 0 0.030626768781883602 0.31643605951931192 0 0.035627790106672573 0.31153439004802108 0 0.027150398066144998 0.31087998087586538 0 0.02336059610699007 0.31444544112786321 0 0.030626768781883602 0.31643605951931192 0 0.027150398066144998 0.31087998087586538 0 0.023987544036434369 0.32175103315493631 0 0.02336059610699007 0.31444544112786321 0 0.030626768781883602 0.31643605951931192 0 0.030626768781883602 0.31643605951931192 0 0.037813237749700107 0.31908181166156852 0 0.034185455076535698 0.32450084529873768 0 0.030626768781883602 0.31643605951931192 0 0.037813237749700107 0.31908181166156852 0 0.035627790106672573 0.31153439004802108 0 0.037813237749700107 0.31908181166156852 0 0.034185455076535698 0.32450084529873768 0 0.043006724960455281 0.32478707828261699 0 0.034185455076535698 0.32450084529873768 0 0.043006724960455281 0.32478707828261699 0 0.040157114887755599 0.33297892712205462 0 0.037813237749700107 0.31908181166156852 0 0.043006724960455281 0.32478707828261699 0 0.04631240482565737 0.31792111938527717 0 0.037813237749700107 0.31908181166156852 0 0.04631240482565737 0.31792111938527717 0 0.035627790106672573 0.31153439004802108 0 0.052448007120468272 0.34421670084642481 0 0.032032740296266522 0.34991894463962708 0 0.040157114887755599 0.33297892712205462 0 0.02681238340422086 0.32787597448753319 0 0.034185455076535698 0.32450084529873768 0 0.040157114887755599 0.33297892712205462 0 0.052448007120468272 0.34421670084642481 0 0.040157114887755599 0.33297892712205462 0 0.059891596275606779 0.32835077223083459 0 0.040157114887755599 0.33297892712205462 0 0.059891596275606779 0.32835077223083459 0 0.043006724960455281 0.32478707828261699 0 0.040157114887755599 0.33297892712205462 0 0.059891596275606779 0.32835077223083459 0 0.072773673201690231 0.33824499831668342 0 0.052448007120468272 0.34421670084642481 0 0.059891596275606779 0.32835077223083459 0 0.043006724960455281 0.32478707828261699 0 0.04631240482565737 0.31792111938527717 0 0.059891596275606779 0.32835077223083459 0 0.04631240482565737 0.31792111938527717 0 0.057619264681819007 0.31794218868110302 0 0.045431468203528273 0.30655951704657608 0 0.04631240482565737 0.31792111938527717 0 0.059891596275606779 0.32835077223083459 0 0.04631240482565737 0.31792111938527717 0 0.059891596275606779 0.32835077223083459 0 0.057619264681819007 0.31794218868110302 0 0.067637487400770024 0.32653419629994318 0 0.059891596275606779 0.32835077223083459 0 0.057619264681819007 0.31794218868110302 0 0.057698322465429823 0.29917435481321197 0 0.045431468203528273 0.30655951704657608 0 0.068823366703532757 0.31034533844288359 0 0.045431468203528273 0.30655951704657608 0 0.068823366703532757 0.31034533844288359 0 0.057619264681819007 0.31794218868110302 0 0.045431468203528273 0.30655951704657608 0 0.068823366703532757 0.31034533844288359 0 0.057698322465429823 0.29917435481321197 0 0.047825804814531872 0.29645713616504299 0 0.045431468203528273 0.30655951704657608 0 0.057698322465429823 0.29917435481321197 0 0.055450831967238171 0.28575317576203918 0 0.070960140638318014 0.29675660664951808 0 0.057698322465429823 0.29917435481321197 0 0.055450831967238171 0.28575317576203918 0 0.047825804814531872 0.29645713616504299 0 0.055450831967238171 0.28575317576203918 0 0.047825804814531872 0.29645713616504299 0 0.043521835253129977 0.28922130699548793 0 0.047825804814531872 0.29645713616504299 0 0.043521835253129977 0.28922130699548793 0 0.036532894320899442 0.29887707921770551 0 0.032369129417280047 0.28501459983897959 0 0.036532894320899442 0.29887707921770551 0 0.032369129417280047 0.28501459983897959 0 0.036532894320899442 0.29887707921770551 0 0.02859672704714632 0.2915003027136891 0 0.043521835253129977 0.28922130699548793 0 0.032369129417280047 0.28501459983897959 0 0.036532894320899442 0.29887707921770551 0 0.036532894320899442 0.29887707921770551 0 0.033611361304086963 0.29853612364747029 0 0.02859672704714632 0.2915003027136891 0 0.045431468203528273 0.30655951704657608 0 0.022039569703523911 0.30277369565026763 0 0.045431468203528273 0.30655951704657608 0 0.033611361304086963 0.29853612364747029 0 0.022039569703523911 0.30277369565026763 0 0.045431468203528273 0.30655951704657608 0 0.035627790106672573 0.31153439004802108 0 0.022039569703523911 0.30277369565026763 0 0.04631240482565737 0.31792111938527717 0 0.045431468203528273 0.30655951704657608 0 0.035627790106672573 0.31153439004802108 0 0.047825804814531872 0.29645713616504299 0 0.045431468203528273 0.30655951704657608 0 0.036532894320899442 0.29887707921770551 0 0.045431468203528273 0.30655951704657608 0 0.036532894320899442 0.29887707921770551 0 0.033611361304086963 0.29853612364747029 0 0.027150398066144998 0.31087998087586538 0 0.022125933587402571 0.30929694375192429 0 0.022039569703523911 0.30277369565026763 0 0.035627790106672573 0.31153439004802108 0 0.027150398066144998 0.31087998087586538 0 0.022039569703523911 0.30277369565026763 0 0.02336059610699007 0.31444544112786321 0 0.027150398066144998 0.31087998087586538 0 0.022125933587402571 0.30929694375192429 0 0.022125933587402571 0.30929694375192429 0 0.019770987392658129 0.30667395584826329 0 0.018308116667695901 0.31171164525736089 0 0.02336059610699007 0.31444544112786321 0 0.022125933587402571 0.30929694375192429 0 0.018308116667695901 0.31171164525736089 0 0.019770987392658129 0.30667395584826329 0 0.022039569703523911 0.30277369565026763 0 0.013547661145366111 0.30772926163915038 0 0.022125933587402571 0.30929694375192429 0 0.019770987392658129 0.30667395584826329 0 0.022039569703523911 0.30277369565026763 0 0.019770987392658129 0.30667395584826329 0 0.022039569703523911 0.30277369565026763 0 0.019770987392658129 0.30667395584826329 0 0.018308116667695901 0.31171164525736089 0 0.013547661145366111 0.30772926163915038 0 0.033611361304086963 0.29853612364747029 0 0.022039569703523911 0.30277369565026763 0 0.02859672704714632 0.2915003027136891 0 0.022039569703523911 0.30277369565026763 0 0.02859672704714632 0.2915003027136891 0 0.033611361304086963 0.29853612364747029 0 0.02859672704714632 0.2915003027136891 0 0.022039569703523911 0.30277369565026763 0 0.02859672704714632 0.2915003027136891 0 0.01196676160685258 0.28937117887490887 0 0.02859672704714632 0.2915003027136891 0 0.01196676160685258 0.28937117887490887 0 0.012858638509559751 0.26941885726485643 0 0.032369129417280047 0.28501459983897959 0 0.02859672704714632 0.2915003027136891 0 0.012858638509559751 0.26941885726485643 0 0.032369129417280047 0.28501459983897959 0 0.02859672704714632 0.2915003027136891 0 -0.0018193191166929329 0.29891229501245009 0 0.01196676160685258 0.28937117887490887 0 0.00098394795991902555 0.28003402474780498 0 -0.0018193191166929329 0.29891229501245009 0 0.022039569703523911 0.30277369565026763 0 0.013547661145366111 0.30772926163915038 0 -0.0018193191166929329 0.29891229501245009 0 0.022039569703523911 0.30277369565026763 0 -0.0018193191166929329 0.29891229501245009 0 0.022039569703523911 0.30277369565026763 0 0.01196676160685258 0.28937117887490887 0 -0.0018193191166929329 0.29891229501245009 0 0.0030152519430094241 0.31453119646573691 0 0.013547661145366111 0.30772926163915038 0 0.01278971356030092 0.31402611294281202 0 0.0030152519430094241 0.31453119646573691 0 0.013547661145366111 0.30772926163915038 0 0.01278971356030092 0.31402611294281202 0 0.018308116667695901 0.31171164525736089 0 0.013547661145366111 0.30772926163915038 0 -0.0028794500280274371 0.2473374118160242 0 0.012858638509559751 0.26941885726485643 0 -0.0093065408195293787 0.26808480785676941 0 -0.0028794500280274371 0.2473374118160242 0 0.012858638509559751 0.26941885726485643 0 -0.0028794500280274371 0.2473374118160242 0 0.012858638509559751 0.26941885726485643 0 0.024015232393619051 0.25720185634768572 0 -0.0093065408195293787 0.26808480785676941 0 0.00098394795991902555 0.28003402474780498 0 0.012858638509559751 0.26941885726485643 0 0.01196676160685258 0.28937117887490887 0 0.00098394795991902555 0.28003402474780498 0 0.012858638509559751 0.26941885726485643 0 0.032369129417280047 0.28501459983897959 0 0.012858638509559751 0.26941885726485643 0 0.024015232393619051 0.25720185634768572 0 0.02859672704714632 0.2915003027136891 0 0.012858638509559751 0.26941885726485643 0 0.032369129417280047 0.28501459983897959 0 0.024015232393619051 0.25720185634768572 0 0.045673351803917531 0.24609699977203059 0 0.035459897723150093 0.24485459026570069 0 0.0431033434146363 0.2665598021399177 0 0.035459897723150093 0.24485459026570069 0 0.024015232393619051 0.25720185634768572 0 0.0431033434146363 0.2665598021399177 0 0.032369129417280047 0.28501459983897959 0 0.024015232393619051 0.25720185634768572 0 0.0431033434146363 0.2665598021399177 0 0.032369129417280047 0.28501459983897959 0 0.0431033434146363 0.2665598021399177 0 0.043521835253129977 0.28922130699548793 0 0.032369129417280047 0.28501459983897959 0 0.0431033434146363 0.2665598021399177 0 0.055450831967238171 0.28575317576203918 0 0.0431033434146363 0.2665598021399177 0 0.066374318536230201 0.2649629626761682 0 0.055450831967238171 0.28575317576203918 0 0.043521835253129977 0.28922130699548793 0 0.0431033434146363 0.2665598021399177 0 0.053837557411990172 0.2481050044408544 0 0.0431033434146363 0.2665598021399177 0 0.066374318536230201 0.2649629626761682 0 0.053837557411990172 0.2481050044408544 0 0.045673351803917531 0.24609699977203059 0 0.0431033434146363 0.2665598021399177 0 0.053837557411990172 0.2481050044408544 0 0.0431033434146363 0.2665598021399177 0 0.053837557411990172 0.2481050044408544 0 0.072144815499069495 0.2466482677422229 0 0.066374318536230201 0.2649629626761682 0 0.072144815499069495 0.2466482677422229 0 0.066374318536230201 0.2649629626761682 0 0.085079947058005589 0.25627215186680341 0 0.085079947058005589 0.25627215186680341 0 0.083184323974058783 0.27239030208228171 0 0.096603730136421567 0.26505993642533859 0 0.066374318536230201 0.2649629626761682 0 0.085079947058005589 0.25627215186680341 0 0.083184323974058783 0.27239030208228171 0 0.083184323974058783 0.27239030208228171 0 0.081154459825648895 0.2874288900731865 0 0.098525002618139776 0.28307766276963431 0 0.083184323974058783 0.27239030208228171 0 0.098525002618139776 0.28307766276963431 0 0.096603730136421567 0.26505993642533859 0 0.083184323974058783 0.27239030208228171 0 0.071424814988298821 0.28145838744863871 0 0.081154459825648895 0.2874288900731865 0 0.066374318536230201 0.2649629626761682 0 0.083184323974058783 0.27239030208228171 0 0.071424814988298821 0.28145838744863871 0 0.055450831967238171 0.28575317576203918 0 0.066374318536230201 0.2649629626761682 0 0.071424814988298821 0.28145838744863871 0 0.055450831967238171 0.28575317576203918 0 0.070960140638318014 0.29675660664951808 0 0.071424814988298821 0.28145838744863871 0 0.070960140638318014 0.29675660664951808 0 0.071424814988298821 0.28145838744863871 0 0.081154459825648895 0.2874288900731865 0 0.078802618813841596 0.31886396129976979 0 0.068823366703532757 0.31034533844288359 0 0.086216171823904023 0.30580104984310369 0 0.070960140638318014 0.29675660664951808 0 0.068823366703532757 0.31034533844288359 0 0.086216171823904023 0.30580104984310369 0 0.057698322465429823 0.29917435481321197 0 0.070960140638318014 0.29675660664951808 0 0.068823366703532757 0.31034533844288359 0 0.086216171823904023 0.30580104984310369 0 0.081154459825648895 0.2874288900731865 0 0.098525002618139776 0.28307766276963431 0 0.070960140638318014 0.29675660664951808 0 0.086216171823904023 0.30580104984310369 0 0.081154459825648895 0.2874288900731865 0 0.098525002618139776 0.28307766276963431 0 0.1072840122596951 0.30019600098923582 0 0.11690231115408869 0.28241215428809069 0 0.086216171823904023 0.30580104984310369 0 0.098525002618139776 0.28307766276963431 0 0.1072840122596951 0.30019600098923582 0 0.10291551022871 0.3142619401636102 0 0.086216171823904023 0.30580104984310369 0 0.1072840122596951 0.30019600098923582 0 0.11873453295395869 0.31665512565759157 0 0.1072840122596951 0.30019600098923582 0 0.1230088488897708 0.29902241172954369 0 0.11873453295395869 0.31665512565759157 0 0.10291551022871 0.3142619401636102 0 0.1072840122596951 0.30019600098923582 0 0.1072840122596951 0.30019600098923582 0 0.1230088488897708 0.29902241172954369 0 0.11690231115408869 0.28241215428809069 0 0.1230088488897708 0.29902241172954369 0 0.11690231115408869 0.28241215428809069 0 0.12976163582615169 0.28624376933876411 0 0.11690231115408869 0.28241215428809069 0 0.1112079308959785 0.2679242861540253 0 0.1298556986353433 0.26971470588823132 0 0.1112079308959785 0.2679242861540253 0 0.1221119816913266 0.2551626490999917 0 0.103248861140551 0.25211860845286549 0 0.1112079308959785 0.2679242861540253 0 0.1221119816913266 0.2551626490999917 0 0.1298556986353433 0.26971470588823132 0 0.085079947058005589 0.25627215186680341 0 0.096603730136421567 0.26505993642533859 0 0.103248861140551 0.25211860845286549 0 0.1112079308959785 0.2679242861540253 0 0.096603730136421567 0.26505993642533859 0 0.103248861140551 0.25211860845286549 0 0.098525002618139776 0.28307766276963431 0 0.1112079308959785 0.2679242861540253 0 0.096603730136421567 0.26505993642533859 0 0.098525002618139776 0.28307766276963431 0 0.11690231115408869 0.28241215428809069 0 0.1112079308959785 0.2679242861540253 0 0.14961833383695999 0.26032431112397758 0 0.14150734713962079 0.28150164967242952 0 0.1585087772683908 0.27716240067145731 0 0.14961833383695999 0.26032431112397758 0 0.14150734713962079 0.28150164967242952 0 0.13748104572539949 0.24722792428689669 0 0.1221119816913266 0.2551626490999917 0 0.1298556986353433 0.26971470588823132 0 0.13748104572539949 0.24722792428689669 0 0.14961833383695999 0.26032431112397758 0 0.1298556986353433 0.26971470588823132 0 0.1298556986353433 0.26971470588823132 0 0.12976163582615169 0.28624376933876411 0 0.14150734713962079 0.28150164967242952 0 0.14961833383695999 0.26032431112397758 0 0.1298556986353433 0.26971470588823132 0 0.14150734713962079 0.28150164967242952 0 0.11690231115408869 0.28241215428809069 0 0.1298556986353433 0.26971470588823132 0 0.12976163582615169 0.28624376933876411 0 0.1230088488897708 0.29902241172954369 0 0.12976163582615169 0.28624376933876411 0 0.13814869669859881 0.29645198175888338 0 0.12976163582615169 0.28624376933876411 0 0.13814869669859881 0.29645198175888338 0 0.14150734713962079 0.28150164967242952 0 0.1230088488897708 0.29902241172954369 0 0.13814869669859881 0.29645198175888338 0 0.1372298033592648 0.31261567342208629 0 0.11873453295395869 0.31665512565759157 0 0.1230088488897708 0.29902241172954369 0 0.1372298033592648 0.31261567342208629 0 0.15277404340191431 0.29956562064714581 0 0.15467304841960899 0.31156862358294868 0 0.1372298033592648 0.31261567342208629 0 0.13814869669859881 0.29645198175888338 0 0.15277404340191431 0.29956562064714581 0 0.1372298033592648 0.31261567342208629 0 0.15277404340191431 0.29956562064714581 0 0.1372298033592648 0.31261567342208629 0 0.15277404340191431 0.29956562064714581 0 0.15467304841960899 0.31156862358294868 0 0.1598453308688301 0.30630991405611863 0 0.14150734713962079 0.28150164967242952 0 0.154120494741214 0.28758514801299989 0 0.1585087772683908 0.27716240067145731 0 0.14150734713962079 0.28150164967242952 0 0.14637698341923569 0.29158695756335629 0 0.154120494741214 0.28758514801299989 0 0.13814869669859881 0.29645198175888338 0 0.15277404340191431 0.29956562064714581 0 0.14637698341923569 0.29158695756335629 0 0.13814869669859881 0.29645198175888338 0 0.14150734713962079 0.28150164967242952 0 0.14637698341923569 0.29158695756335629 0 0.15277404340191431 0.29956562064714581 0 0.14637698341923569 0.29158695756335629 0 0.154120494741214 0.28758514801299989 0 0.154120494741214 0.28758514801299989 0 0.16831828344456379 0.28651556787220522 0 0.1585087772683908 0.27716240067145731 0 0.15277404340191431 0.29956562064714581 0 0.16831828344456379 0.28651556787220522 0 0.15277404340191431 0.29956562064714581 0 0.154120494741214 0.28758514801299989 0 0.16831828344456379 0.28651556787220522 0 0.15277404340191431 0.29956562064714581 0 0.16314843303865359 0.29612350911001772 0 0.16831828344456379 0.28651556787220522 0 0.16314843303865359 0.29612350911001772 0 0.17165607443930619 0.29210293386460129 0 0.16831828344456379 0.28651556787220522 0 0.15467304841960899 0.31156862358294868 0 0.1598453308688301 0.30630991405611863 0 0.1672027916094985 0.31365640655084942 0 0.15277404340191431 0.29956562064714581 0 0.16314843303865359 0.29612350911001772 0 0.1598453308688301 0.30630991405611863 0 0.17165607443930619 0.29210293386460129 0 0.1598453308688301 0.30630991405611863 0 0.1713626755995809 0.30580208622688809 0 0.17165607443930619 0.29210293386460129 0 0.1598453308688301 0.30630991405611863 0 0.16314843303865359 0.29612350911001772 0 0.17165607443930619 0.29210293386460129 0 0.1598453308688301 0.30630991405611863 0 0.1713626755995809 0.30580208622688809 0 0.17696483007597119 0.30977083547791429 0 0.1672027916094985 0.31365640655084942 0 0.1598453308688301 0.30630991405611863 0 0.1713626755995809 0.30580208622688809 0 0.1672027916094985 0.31365640655084942 0 0.18067389758430669 0.30916633808277449 0 0.18246806481262479 0.28907829747377672 0 0.189532324264722 0.30000249564554388 0 0.18067389758430669 0.30916633808277449 0 0.18246806481262479 0.28907829747377672 0 0.17165607443930619 0.29210293386460129 0 0.1713626755995809 0.30580208622688809 0 0.18067389758430669 0.30916633808277449 0 0.1713626755995809 0.30580208622688809 0 0.17696483007597119 0.30977083547791429 0 0.18067389758430669 0.30916633808277449 0 0.17696483007597119 0.30977083547791429 0 0.18067389758430669 0.30916633808277449 0 0.1798657804354597 0.3182142628505521 0 0.17696483007597119 0.30977083547791429 0 0.18067389758430669 0.30916633808277449 0 0.17165607443930619 0.29210293386460129 0 0.18067389758430669 0.30916633808277449 0 0.18246806481262479 0.28907829747377672 0 0.17165607443930619 0.29210293386460129 0 0.16831828344456379 0.28651556787220522 0 0.1834668180097847 0.27789595367308612 0 0.17165607443930619 0.29210293386460129 0 0.17941493455560301 0.28793277118828542 0 0.1834668180097847 0.27789595367308612 0 0.17165607443930619 0.29210293386460129 0 0.1834668180097847 0.27789595367308612 0 0.17165607443930619 0.29210293386460129 0 0.17941493455560301 0.28793277118828542 0 0.18246806481262479 0.28907829747377672 0 0.18246806481262479 0.28907829747377672 0 0.18631712599939071 0.2837401822255069 0 0.1884613869071205 0.28998700035781733 0 0.18246806481262479 0.28907829747377672 0 0.18631712599939071 0.2837401822255069 0 0.1834668180097847 0.27789595367308612 0 0.18246806481262479 0.28907829747377672 0 0.1834668180097847 0.27789595367308612 0 0.17941493455560301 0.28793277118828542 0 0.18246806481262479 0.28907829747377672 0 0.1834668180097847 0.27789595367308612 0 0.17941493455560301 0.28793277118828542 0 0.18246806481262479 0.28907829747377672 0 0.18631712599939071 0.2837401822255069 0 0.1834668180097847 0.27789595367308612 0 0.19087223426802999 0.27799947739734732 0 0.1870782144705346 0.27355185478756872 0 0.1834668180097847 0.27789595367308612 0 0.19087223426802999 0.27799947739734732 0 0.1870782144705346 0.27355185478756872 0 0.1838625234872151 0.2734655150972668 0 0.1834668180097847 0.27789595367308612 0 0.1870782144705346 0.27355185478756872 0 0.1834668180097847 0.27789595367308612 0 0.1838625234872151 0.2734655150972668 0 0.1834668180097847 0.27789595367308612 0 0.1838625234872151 0.2734655150972668 0 0.18416032046547789 0.27013128978196832 0 0.17591626526657411 0.27056444403590318 0 0.18416032046547789 0.27013128978196832 0 0.18569337036388339 0.27192844102366098 0 0.1870782144705346 0.27355185478756872 0 0.18569337036388339 0.27192844102366098 0 0.1838625234872151 0.2734655150972668 0 0.18416032046547789 0.27013128978196832 0 0.18569337036388339 0.27192844102366098 0 0.1838625234872151 0.2734655150972668 0 0.18416032046547789 0.27013128978196832 0 0.1870782144705346 0.27355185478756872 0 0.1838625234872151 0.2734655150972668 0 0.18569337036388339 0.27192844102366098 0 0.1838625234872151 0.2734655150972668 0 0.18569337036388339 0.27192844102366098 0 0.1838625234872151 0.2734655150972668 0 0.17591626526657411 0.27056444403590318 0 0.1707983492600037 0.27616991416368969 0 0.16831828344456379 0.28651556787220522 0 0.1838625234872151 0.2734655150972668 0 0.1834668180097847 0.27789595367308612 0 0.16831828344456379 0.28651556787220522 0 0.1838625234872151 0.2734655150972668 0 0.1707983492600037 0.27616991416368969 0 0.16831828344456379 0.28651556787220522 0 0.1838625234872151 0.2734655150972668 0 0.14961833383695999 0.26032431112397758 0 0.16599381354269291 0.26861398322526753 0 0.1585087772683908 0.27716240067145731 0 0.16831828344456379 0.28651556787220522 0 0.1707983492600037 0.27616991416368969 0 0.1585087772683908 0.27716240067145731 0 0.1707983492600037 0.27616991416368969 0 0.16599381354269291 0.26861398322526753 0 0.1585087772683908 0.27716240067145731 0 0.17591626526657411 0.27056444403590318 0 0.1707983492600037 0.27616991416368969 0 0.16599381354269291 0.26861398322526753 0 0.17591626526657411 0.27056444403590318 0 0.16599381354269291 0.26861398322526753 0 0.17094482049988949 0.25463913117874659 0 0.15772932053429989 0.239146972575526 0 0.14961833383695999 0.26032431112397758 0 0.17094482049988949 0.25463913117874659 0 0.14961833383695999 0.26032431112397758 0 0.16599381354269291 0.26861398322526753 0 0.17094482049988949 0.25463913117874659 0 0.18416032046547789 0.27013128978196832 0 0.17094482049988949 0.25463913117874659 0 0.18566333894108941 0.25330303893799921 0 0.17550954459995691 0.2421931063090319 0 0.17094482049988949 0.25463913117874659 0 0.18566333894108941 0.25330303893799921 0 0.18416032046547789 0.27013128978196832 0 0.17591626526657411 0.27056444403590318 0 0.17094482049988949 0.25463913117874659 0 0.18416032046547789 0.27013128978196832 0 0.18566333894108941 0.25330303893799921 0 0.18416032046547789 0.27013128978196832 0 0.17094482049988949 0.25463913117874659 0 0.18416032046547789 0.27013128978196832 0 0.18566333894108941 0.25330303893799921 0 0.19474602582351519 0.26432835049640702 0 0.18566333894108941 0.25330303893799921 0 0.19474602582351519 0.26432835049640702 0 0.1972433992714368 0.25158855458142282 0 0.2115886322074518 0.2440686120775438 0 0.19474602582351519 0.26432835049640702 0 0.1972433992714368 0.25158855458142282 0 0.19087223426802999 0.27799947739734732 0 0.19519023078060049 0.27123324061751852 0 0.2080644485603228 0.26905327978875132 0 0.19087223426802999 0.27799947739734732 0 0.2080644485603228 0.26905327978875132 0 0.1884613869071205 0.28998700035781733 0 0.2080644485603228 0.26905327978875132 0 0.2110127535150137 0.28400135001518689 0 0.1884613869071205 0.28998700035781733 0 0.2080644485603228 0.26905327978875132 0 0.1884613869071205 0.28998700035781733 0 0.1870782144705346 0.27355185478756872 0 0.19087223426802999 0.27799947739734732 0 0.19519023078060049 0.27123324061751852 0 0.1870782144705346 0.27355185478756872 0 0.19087223426802999 0.27799947739734732 0 0.1870782144705346 0.27355185478756872 0 0.19474602582351519 0.26432835049640702 0 0.19519023078060049 0.27123324061751852 0 0.18416032046547789 0.27013128978196832 0 0.18569337036388339 0.27192844102366098 0 0.19474602582351519 0.26432835049640702 0 0.1870782144705346 0.27355185478756872 0 0.18569337036388339 0.27192844102366098 0 0.19474602582351519 0.26432835049640702 0 0.1870782144705346 0.27355185478756872 0 0.19474602582351519 0.26432835049640702 0 0.18569337036388339 0.27192844102366098 0 0.19474602582351519 0.26432835049640702 0 0.19474602582351519 0.26432835049640702 0 0.19519023078060049 0.27123324061751852 0 0.2080644485603228 0.26905327978875132 0 0.2080644485603228 0.26905327978875132 0 0.22165851530273739 0.26955091661094532 0 0.2110127535150137 0.28400135001518689 0 0.22165851530273739 0.26955091661094532 0 0.2214218603493262 0.27976846157642887 0 0.2110127535150137 0.28400135001518689 0 0.21936527508003201 0.2471371668772295 0 0.2080644485603228 0.26905327978875132 0 0.21158346732840491 0.25019259991414 0 0.2115886322074518 0.2440686120775438 0 0.19474602582351519 0.26432835049640702 0 0.21158346732840491 0.25019259991414 0 0.19474602582351519 0.26432835049640702 0 0.2080644485603228 0.26905327978875132 0 0.21158346732840491 0.25019259991414 0 0.19474602582351519 0.26432835049640702 0 0.21158346732840491 0.25019259991414 0 0.2276675102135253 0.24811955921968529 0 0.2080644485603228 0.26905327978875132 0 0.2115886322074518 0.2440686120775438 0 0.19474602582351519 0.26432835049640702 0 0.2276675102135253 0.24811955921968529 0 0.21936527508003201 0.2471371668772295 0 0.2080644485603228 0.26905327978875132 0 0.2276675102135253 0.24811955921968529 0 0.23346051776360369 0.26181030740094879 0 0.22165851530273739 0.26955091661094532 0 0.2276675102135253 0.24811955921968529 0 0.2080644485603228 0.26905327978875132 0 0.22165851530273739 0.26955091661094532 0 0.2214218603493262 0.27976846157642887 0 0.22832400141463299 0.27455254166467069 0 0.2274281538205877 0.28253482643991318 0 0.22165851530273739 0.26955091661094532 0 0.2214218603493262 0.27976846157642887 0 0.22832400141463299 0.27455254166467069 0 0.22832400141463299 0.27455254166467069 0 0.2348186851689085 0.2796894534060182 0 0.2274281538205877 0.28253482643991318 0 0.22832400141463299 0.27455254166467069 0 0.238559946384266 0.27131756226381099 0 0.2348186851689085 0.2796894534060182 0 0.23346051776360369 0.26181030740094879 0 0.22832400141463299 0.27455254166467069 0 0.238559946384266 0.27131756226381099 0 0.23346051776360369 0.26181030740094879 0 0.22165851530273739 0.26955091661094532 0 0.22832400141463299 0.27455254166467069 0 0.24328765074589251 0.27838022121393691 0 0.23953969753830859 0.28514456444238212 0 0.25637993889506672 0.28010054666964329 0 0.238559946384266 0.27131756226381099 0 0.2348186851689085 0.2796894534060182 0 0.24328765074589251 0.27838022121393691 0 0.2348186851689085 0.2796894534060182 0 0.24328765074589251 0.27838022121393691 0 0.23953969753830859 0.28514456444238212 0 0.24328765074589251 0.27838022121393691 0 0.2485760741131082 0.27105116205898022 0 0.25637993889506672 0.28010054666964329 0 0.238559946384266 0.27131756226381099 0 0.24328765074589251 0.27838022121393691 0 0.2485760741131082 0.27105116205898022 0 0.238559946384266 0.27131756226381099 0 0.2485760741131082 0.27105116205898022 0 0.24504868463077251 0.26138358684583268 0 0.2421054402074703 0.2485807057870347 0 0.24504868463077251 0.26138358684583268 0 0.25707991656272239 0.24440423681808779 0 0.2421054402074703 0.2485807057870347 0 0.23346051776360369 0.26181030740094879 0 0.24504868463077251 0.26138358684583268 0 0.2421054402074703 0.2485807057870347 0 0.2276675102135253 0.24811955921968529 0 0.23346051776360369 0.26181030740094879 0 0.23346051776360369 0.26181030740094879 0 0.238559946384266 0.27131756226381099 0 0.24504868463077251 0.26138358684583268 0 0.2375152423315067 0.29990243421513169 0 0.24381142030338651 0.3120941599622109 0 0.2233280684999015 0.30440886129148043 0 0.2375152423315067 0.29990243421513169 0 0.24643472746184411 0.30390485595252292 0 0.25364128886618398 0.29727423909542078 0 0.2375152423315067 0.29990243421513169 0 0.25364128886618398 0.29727423909542078 0 0.2375152423315067 0.29990243421513169 0 0.23722600002377711 0.29548874447024592 0 0.2321736612224323 0.29531482474621862 0 0.24381142030338651 0.3120941599622109 0 0.24643472746184411 0.30390485595252292 0 0.25142141051806582 0.30575776194584758 0 0.2375152423315067 0.29990243421513169 0 0.24381142030338651 0.3120941599622109 0 0.24643472746184411 0.30390485595252292 0 0.23953969753830859 0.28514456444238212 0 0.23722600002377711 0.29548874447024592 0 0.25637993889506672 0.28010054666964329 0 0.2375152423315067 0.29990243421513169 0 0.24878954573224371 0.29139866065287068 0 0.26213664328461622 0.29208166954207698 0 0.24878954573224371 0.29139866065287068 0 0.23722600002377711 0.29548874447024592 0 0.25637993889506672 0.28010054666964329 0 0.2375152423315067 0.29990243421513169 0 0.26213664328461622 0.29208166954207698 0 0.23722600002377711 0.29548874447024592 0 0.25637993889506672 0.28010054666964329 0 0.23953969753830859 0.28514456444238212 0 0.23306434014553001 0.29100521189529099 0 0.23219070291746799 0.28613491900284549 0 0.2348186851689085 0.2796894534060182 0 0.23953969753830859 0.28514456444238212 0 0.23219070291746799 0.28613491900284549 0 0.23953969753830859 0.28514456444238212 0 0.23722600002377711 0.29548874447024592 0 0.23306434014553001 0.29100521189529099 0 0.2375152423315067 0.29990243421513169 0 0.24878954573224371 0.29139866065287068 0 0.23722600002377711 0.29548874447024592 0 0.2321736612224323 0.29531482474621862 0 0.23306434014553001 0.29100521189529099 0 0.2283896826116569 0.29314863844752431 0 0.23722600002377711 0.29548874447024592 0 0.2321736612224323 0.29531482474621862 0 0.23306434014553001 0.29100521189529099 0 0.23306434014553001 0.29100521189529099 0 0.2283896826116569 0.29314863844752431 0 0.2275865876478354 0.28858566253451562 0 0.2321736612224323 0.29531482474621862 0 0.2283896826116569 0.29314863844752431 0 0.2261224495372644 0.29666384101805121 0 0.2348186851689085 0.2796894534060182 0 0.23219070291746799 0.28613491900284549 0 0.2274281538205877 0.28253482643991318 0 0.23306434014553001 0.29100521189529099 0 0.23219070291746799 0.28613491900284549 0 0.2275865876478354 0.28858566253451562 0 0.23219070291746799 0.28613491900284549 0 0.2275865876478354 0.28858566253451562 0 0.2274281538205877 0.28253482643991318 0 0.2214218603493262 0.27976846157642887 0 0.2274281538205877 0.28253482643991318 0 0.2212303857638469 0.28630491547448078 0 0.2275865876478354 0.28858566253451562 0 0.2212303857638469 0.28630491547448078 0 0.22309639815549179 0.29189699983000122 0 0.2275865876478354 0.28858566253451562 0 0.2274281538205877 0.28253482643991318 0 0.2212303857638469 0.28630491547448078 0 0.2283896826116569 0.29314863844752431 0 0.2261224495372644 0.29666384101805121 0 0.22309639815549179 0.29189699983000122 0 0.2261224495372644 0.29666384101805121 0 0.22309639815549179 0.29189699983000122 0 0.21994975492874369 0.29602533903554362 0 0.2283896826116569 0.29314863844752431 0 0.2275865876478354 0.28858566253451562 0 0.22309639815549179 0.29189699983000122 0 0.22309639815549179 0.29189699983000122 0 0.21994975492874369 0.29602533903554362 0 0.216748936981177 0.29028834878504312 0 0.2212303857638469 0.28630491547448078 0 0.22309639815549179 0.29189699983000122 0 0.216748936981177 0.29028834878504312 0 0.21994975492874369 0.29602533903554362 0 0.2191615466887612 0.30287046007499607 0 0.24381142030338651 0.3120941599622109 0 0.2233280684999015 0.30440886129148043 0 0.24381142030338651 0.3120941599622109 0 0.2233280684999015 0.30440886129148043 0 0.22891382450147371 0.31846942625544927 0 0.2375152423315067 0.29990243421513169 0 0.2191615466887612 0.30287046007499607 0 0.2233280684999015 0.30440886129148043 0 0.2375152423315067 0.29990243421513169 0 0.2261224495372644 0.29666384101805121 0 0.2191615466887612 0.30287046007499607 0 0.2261224495372644 0.29666384101805121 0 0.21994975492874369 0.29602533903554362 0 0.2191615466887612 0.30287046007499607 0 0.2375152423315067 0.29990243421513169 0 0.2191615466887612 0.30287046007499607 0 0.2191615466887612 0.30287046007499607 0 0.2233280684999015 0.30440886129148043 0 0.2191615466887612 0.30287046007499607 0 0.2233280684999015 0.30440886129148043 0 0.21868423992782551 0.30588393131342501 0 0.2191615466887612 0.30287046007499607 0 0.21868423992782551 0.30588393131342501 0 0.2375152423315067 0.29990243421513169 0 0.2233280684999015 0.30440886129148043 0 0.2375152423315067 0.29990243421513169 0 0.2321736612224323 0.29531482474621862 0 0.2261224495372644 0.29666384101805121 0 0.2233280684999015 0.30440886129148043 0 0.21868423992782551 0.30588393131342501 0 0.22891382450147371 0.31846942625544927 0 0.2233280684999015 0.30440886129148043 0 0.21868423992782551 0.30588393131342501 0 0.2191615466887612 0.30287046007499607 0 0.21198004909252791 0.29287821038227568 0 0.2007783016382779 0.29594824923201318 0 0.2191615466887612 0.30287046007499607 0 0.2007783016382779 0.29594824923201318 0 0.19987672711630869 0.30603669420185831 0 0.2191615466887612 0.30287046007499607 0 0.19987672711630869 0.30603669420185831 0 0.21868423992782551 0.30588393131342501 0 0.19927501018164179 0.31204909708198603 0 0.2191615466887612 0.30287046007499607 0 0.2007783016382779 0.29594824923201318 0 0.21868423992782551 0.30588393131342501 0 0.19927501018164179 0.31204909708198603 0 0.19987672711630869 0.30603669420185831 0 0.2191615466887612 0.30287046007499607 0 0.21868423992782551 0.30588393131342501 0 0.19987672711630869 0.30603669420185831 0 0.21994975492874369 0.29602533903554362 0 0.2191615466887612 0.30287046007499607 0 0.21198004909252791 0.29287821038227568 0 0.2110127535150137 0.28400135001518689 0 0.21198004909252791 0.29287821038227568 0 0.216748936981177 0.29028834878504312 0 0.2212303857638469 0.28630491547448078 0 0.2110127535150137 0.28400135001518689 0 0.216748936981177 0.29028834878504312 0 0.2214218603493262 0.27976846157642887 0 0.2212303857638469 0.28630491547448078 0 0.2110127535150137 0.28400135001518689 0 0.21994975492874369 0.29602533903554362 0 0.21198004909252791 0.29287821038227568 0 0.216748936981177 0.29028834878504312 0 0.2110127535150137 0.28400135001518689 0 0.21198004909252791 0.29287821038227568 0 0.2007783016382779 0.29594824923201318 0 0.2110127535150137 0.28400135001518689 0 0.2007783016382779 0.29594824923201318 0 0.1884613869071205 0.28998700035781733 0 0.18246806481262479 0.28907829747377672 0 0.2007783016382779 0.29594824923201318 0 0.18246806481262479 0.28907829747377672 0 0.2007783016382779 0.29594824923201318 0 0.1884613869071205 0.28998700035781733 0 0.18246806481262479 0.28907829747377672 0 0.2007783016382779 0.29594824923201318 0 0.189532324264722 0.30000249564554388 0 0.18631712599939071 0.2837401822255069 0 0.19087223426802999 0.27799947739734732 0 0.1884613869071205 0.28998700035781733 0 0.18067389758430669 0.30916633808277449 0 0.19927501018164179 0.31204909708198603 0 0.19987672711630869 0.30603669420185831 0 0.18067389758430669 0.30916633808277449 0 0.19987672711630869 0.30603669420185831 0 0.18067389758430669 0.30916633808277449 0 0.19987672711630869 0.30603669420185831 0 0.189532324264722 0.30000249564554388 0 0.2007783016382779 0.29594824923201318 0 0.19987672711630869 0.30603669420185831 0 0.189532324264722 0.30000249564554388 0 0.19927501018164179 0.31204909708198603 0 0.1798657804354597 0.3182142628505521 0 0.19927501018164179 0.31204909708198603 0 0.19231371221495841 0.33208525364948011 0 0.2062532537391604 0.33268549818650239 0 0.19927501018164179 0.31204909708198603 0 0.19231371221495841 0.33208525364948011 0 0.1798657804354597 0.3182142628505521 0 0.19231371221495841 0.33208525364948011 0 0.19268863020355889 0.34845898932595709 0 0.1775708068590541 0.34390948326925308 0 0.19231371221495841 0.33208525364948011 0 0.19912381254514519 0.33999909474292189 0 0.19268863020355889 0.34845898932595709 0 0.19231371221495841 0.33208525364948011 0 0.19912381254514519 0.33999909474292189 0 0.2062532537391604 0.33268549818650239 0 0.216135191584406 0.32574148203089459 0 0.21358614324098421 0.3455990327483639 0 0.2062532537391604 0.33268549818650239 0 0.216135191584406 0.32574148203089459 0 0.21358614324098421 0.3455990327483639 0 0.2062532537391604 0.33268549818650239 0 0.21358614324098421 0.3455990327483639 0 0.2066931312610738 0.3447552357028012 0 0.19912381254514519 0.33999909474292189 0 0.2062532537391604 0.33268549818650239 0 0.2066931312610738 0.3447552357028012 0 0.21868423992782551 0.30588393131342501 0 0.216135191584406 0.32574148203089459 0 0.21868423992782551 0.30588393131342501 0 0.19927501018164179 0.31204909708198603 0 0.216135191584406 0.32574148203089459 0 0.19927501018164179 0.31204909708198603 0 0.2062532537391604 0.33268549818650239 0 0.216135191584406 0.32574148203089459 0 0.21868423992782551 0.30588393131342501 0 0.216135191584406 0.32574148203089459 0 0.22891382450147371 0.31846942625544927 0 0.22891382450147371 0.31846942625544927 0 0.22857159424599269 0.33346525120738241 0 0.24366474358906451 0.32861555715077512 0 0.216135191584406 0.32574148203089459 0 0.22891382450147371 0.31846942625544927 0 0.22857159424599269 0.33346525120738241 0 0.22857159424599269 0.33346525120738241 0 0.24055806831403501 0.34890075785142888 0 0.21358614324098421 0.3455990327483639 0 0.216135191584406 0.32574148203089459 0 0.22857159424599269 0.33346525120738241 0 0.21358614324098421 0.3455990327483639 0 0.24366474358906451 0.32861555715077512 0 0.24055806831403501 0.34890075785142888 0 0.25612961372196341 0.33744338512413458 0 0.22857159424599269 0.33346525120738241 0 0.24366474358906451 0.32861555715077512 0 0.24055806831403501 0.34890075785142888 0 0.24381142030338651 0.3120941599622109 0 0.22891382450147371 0.31846942625544927 0 0.24366474358906451 0.32861555715077512 0 0.24381142030338651 0.3120941599622109 0 0.24366474358906451 0.32861555715077512 0 0.25270017776836018 0.31991462494295497 0 0.2344960115715711 0.37239890085466432 0 0.24055806831403501 0.34890075785142888 0 0.25032230139794032 0.37255488625652478 0 0.24055806831403501 0.34890075785142888 0 0.22543675602775221 0.36060913313521598 0 0.21358614324098421 0.3455990327483639 0 0.24055806831403501 0.34890075785142888 0 0.21358614324098421 0.3455990327483639 0 0.2344960115715711 0.37239890085466432 0 0.24055806831403501 0.34890075785142888 0 0.22543675602775221 0.36060913313521598 0 0.2344960115715711 0.37239890085466432 0 0.22543675602775221 0.36060913313521598 0 0.22350096898292421 0.3742031086850599 0 0.22543675602775221 0.36060913313521598 0 0.22350096898292421 0.3742031086850599 0 0.2101792370891131 0.37213945198953913 0 0.22543675602775221 0.36060913313521598 0 0.2101792370891131 0.37213945198953913 0 0.21358614324098421 0.3455990327483639 0 0.2101792370891131 0.37213945198953913 0 0.21358614324098421 0.3455990327483639 0 0.2101792370891131 0.37213945198953913 0 0.21358614324098421 0.3455990327483639 0 0.19979132325246579 0.35944237056408662 0 0.21358614324098421 0.3455990327483639 0 0.20122853181024211 0.34916360666284879 0 0.19979132325246579 0.35944237056408662 0 0.21358614324098421 0.3455990327483639 0 0.2066931312610738 0.3447552357028012 0 0.20122853181024211 0.34916360666284879 0 0.21358614324098421 0.3455990327483639 0 0.2066931312610738 0.3447552357028012 0 0.19912381254514519 0.33999909474292189 0 0.20122853181024211 0.34916360666284879 0 0.19268863020355889 0.34845898932595709 0 0.19912381254514519 0.33999909474292189 0 0.2066931312610738 0.3447552357028012 0 0.20122853181024211 0.34916360666284879 0 0.20122853181024211 0.34916360666284879 0 0.19268863020355889 0.34845898932595709 0 0.19979132325246579 0.35944237056408662 0 0.19268863020355889 0.34845898932595709 0 0.19979132325246579 0.35944237056408662 0 0.18727787305070351 0.36288469766294118 0 0.2101792370891131 0.37213945198953913 0 0.19979132325246579 0.35944237056408662 0 0.19531501511742819 0.37594190092978652 0 0.19979132325246579 0.35944237056408662 0 0.18727787305070351 0.36288469766294118 0 0.19531501511742819 0.37594190092978652 0 0.18727787305070351 0.36288469766294118 0 0.18399312023663861 0.37901680443529151 0 0.19531501511742819 0.37594190092978652 0 0.17527583328263749 0.36960470368795301 0 0.18727787305070351 0.36288469766294118 0 0.18399312023663861 0.37901680443529151 0 0.17527583328263749 0.36960470368795301 0 0.15199499566839211 0.37319371299467102 0 0.1490327780578255 0.35720932490514351 0 0.17527583328263749 0.36960470368795301 0 0.15982792352432831 0.3431053776102333 0 0.1490327780578255 0.35720932490514351 0 0.17527583328263749 0.36960470368795301 0 0.1775708068590541 0.34390948326925308 0 0.15982792352432831 0.3431053776102333 0 0.19268863020355889 0.34845898932595709 0 0.18727787305070351 0.36288469766294118 0 0.1775708068590541 0.34390948326925308 0 0.17527583328263749 0.36960470368795301 0 0.1775708068590541 0.34390948326925308 0 0.17527583328263749 0.36960470368795301 0 0.18727787305070351 0.36288469766294118 0 0.1775708068590541 0.34390948326925308 0 0.1775708068590541 0.34390948326925308 0 0.1798657804354597 0.3182142628505521 0 0.19231371221495841 0.33208525364948011 0 0.1775708068590541 0.34390948326925308 0 0.1798657804354597 0.3182142628505521 0 0.18067389758430669 0.30916633808277449 0 0.19927501018164179 0.31204909708198603 0 0.1798657804354597 0.3182142628505521 0 0.18067389758430669 0.30916633808277449 0 0.1798657804354597 0.3182142628505521 0 0.17696483007597119 0.30977083547791429 0 0.1798657804354597 0.3182142628505521 0 0.1672027916094985 0.31365640655084942 0 0.1798657804354597 0.3182142628505521 0 0.15631327285853741 0.32569550323854352 0 0.1798657804354597 0.3182142628505521 0 0.1672027916094985 0.31365640655084942 0 0.15631327285853741 0.32569550323854352 0 0.15467304841960899 0.31156862358294868 0 0.1672027916094985 0.31365640655084942 0 0.15631327285853741 0.32569550323854352 0 0.1775708068590541 0.34390948326925308 0 0.15631327285853741 0.32569550323854352 0 0.15982792352432831 0.3431053776102333 0 0.1775708068590541 0.34390948326925308 0 0.1798657804354597 0.3182142628505521 0 0.15631327285853741 0.32569550323854352 0 0.15631327285853741 0.32569550323854352 0 0.15982792352432831 0.3431053776102333 0 0.1327607652816164 0.33317674362653898 0 0.15631327285853741 0.32569550323854352 0 0.1327607652816164 0.33317674362653898 0 0.15467304841960899 0.31156862358294868 0 0.15631327285853741 0.32569550323854352 0 0.1372298033592648 0.31261567342208629 0 0.15631327285853741 0.32569550323854352 0 0.1372298033592648 0.31261567342208629 0 0.1327607652816164 0.33317674362653898 0 0.11873453295395869 0.31665512565759157 0 0.1372298033592648 0.31261567342208629 0 0.1327607652816164 0.33317674362653898 0 0.1327607652816164 0.33317674362653898 0 0.12508481468616511 0.35435445602658411 0 0.1490327780578255 0.35720932490514351 0 0.12508481468616511 0.35435445602658411 0 0.13528239407324211 0.37052356445964069 0 0.1490327780578255 0.35720932490514351 0 0.1168729182572414 0.37211592637420698 0 0.12508481468616511 0.35435445602658411 0 0.13528239407324211 0.37052356445964069 0 0.13528239407324211 0.37052356445964069 0 0.15199499566839211 0.37319371299467102 0 0.1490327780578255 0.35720932490514351 0 0.15982792352432831 0.3431053776102333 0 0.1327607652816164 0.33317674362653898 0 0.1490327780578255 0.35720932490514351 0 0.14501571790687001 0.40601656624402632 0 0.14434939174329131 0.38698898991019998 0 0.1575611830907423 0.39597145517823662 0 0.14501571790687001 0.40601656624402632 0 0.1651790785540555 0.40772531936545481 0 0.1575611830907423 0.39597145517823662 0 0.14434939174329131 0.38698898991019998 0 0.1575611830907423 0.39597145517823662 0 0.16028086754327381 0.38382647626484911 0 0.13528239407324211 0.37052356445964069 0 0.15199499566839211 0.37319371299467102 0 0.14434939174329131 0.38698898991019998 0 0.15199499566839211 0.37319371299467102 0 0.14434939174329131 0.38698898991019998 0 0.16028086754327381 0.38382647626484911 0 0.13528239407324211 0.37052356445964069 0 0.14434939174329131 0.38698898991019998 0 0.12689104246206889 0.38606268173667008 0 0.1168729182572414 0.37211592637420698 0 0.13528239407324211 0.37052356445964069 0 0.12689104246206889 0.38606268173667008 0 0.14434939174329131 0.38698898991019998 0 0.12689104246206889 0.38606268173667008 0 0.1317337317892727 0.39937894015077352 0 0.14501571790687001 0.40601656624402632 0 0.14434939174329131 0.38698898991019998 0 0.1317337317892727 0.39937894015077352 0 0.1173041842016815 0.40059907994408889 0 0.12689104246206889 0.38606268173667008 0 0.1317337317892727 0.39937894015077352 0 0.14501571790687001 0.40601656624402632 0 0.125108322632452 0.41722738291888239 0 0.1430226492769652 0.42615381102217148 0 0.14501571790687001 0.40601656624402632 0 0.1317337317892727 0.39937894015077352 0 0.125108322632452 0.41722738291888239 0 0.1267073735430653 0.43082469044774729 0 0.13613610836112461 0.43733186772332799 0 0.1430226492769652 0.42615381102217148 0 0.125108322632452 0.41722738291888239 0 0.1267073735430653 0.43082469044774729 0 0.1430226492769652 0.42615381102217148 0 0.1267073735430653 0.43082469044774729 0 0.13613610836112461 0.43733186772332799 0 0.12518469736031901 0.44246471678543681 0 0.13613610836112461 0.43733186772332799 0 0.1430226492769652 0.42615381102217148 0 0.14767810511395241 0.44326225225545213 0 0.1430226492769652 0.42615381102217148 0 0.170107393749268 0.43407965433620588 0 0.14767810511395241 0.44326225225545213 0 0.14501571790687001 0.40601656624402632 0 0.1430226492769652 0.42615381102217148 0 0.1651790785540555 0.40772531936545481 0 0.1651790785540555 0.40772531936545481 0 0.170107393749268 0.43407965433620588 0 0.1785852995393776 0.4178559757736876 0 0.1430226492769652 0.42615381102217148 0 0.170107393749268 0.43407965433620588 0 0.1430226492769652 0.42615381102217148 0 0.1651790785540555 0.40772531936545481 0 0.170107393749268 0.43407965433620588 0 0.170107393749268 0.43407965433620588 0 0.18875180948826301 0.42535586353764709 0 0.19719213822157081 0.44200549765024011 0 0.170107393749268 0.43407965433620588 0 0.1785852995393776 0.4178559757736876 0 0.18875180948826301 0.42535586353764709 0 0.1651790785540555 0.40772531936545481 0 0.1910859665821209 0.40784650765375191 0 0.1785852995393776 0.4178559757736876 0 0.1910859665821209 0.40784650765375191 0 0.18875180948826301 0.42535586353764709 0 0.1651790785540555 0.40772531936545481 0 0.1785852995393776 0.4178559757736876 0 0.1910859665821209 0.40784650765375191 0 0.17298085970622079 0.39529992410665288 0 0.18911602002620281 0.39135279578912358 0 0.1910859665821209 0.40784650765375191 0 0.1651790785540555 0.40772531936545481 0 0.17298085970622079 0.39529992410665288 0 0.1910859665821209 0.40784650765375191 0 0.1651790785540555 0.40772531936545481 0 0.17298085970622079 0.39529992410665288 0 0.1575611830907423 0.39597145517823662 0 0.17298085970622079 0.39529992410665288 0 0.1575611830907423 0.39597145517823662 0 0.16028086754327381 0.38382647626484911 0 0.17527583328263749 0.36960470368795301 0 0.15199499566839211 0.37319371299467102 0 0.16028086754327381 0.38382647626484911 0 0.17527583328263749 0.36960470368795301 0 0.17298085970622079 0.39529992410665288 0 0.16028086754327381 0.38382647626484911 0 0.17527583328263749 0.36960470368795301 0 0.17298085970622079 0.39529992410665288 0 0.17298085970622079 0.39529992410665288 0 0.18399312023663861 0.37901680443529151 0 0.18911602002620281 0.39135279578912358 0 0.17527583328263749 0.36960470368795301 0 0.17298085970622079 0.39529992410665288 0 0.18399312023663861 0.37901680443529151 0 0.19531501511742819 0.37594190092978652 0 0.2061539348638069 0.39195479843591902 0 0.18399312023663861 0.37901680443529151 0 0.19531501511742819 0.37594190092978652 0 0.18911602002620281 0.39135279578912358 0 0.19531501511742819 0.37594190092978652 0 0.18911602002620281 0.39135279578912358 0 0.2061539348638069 0.39195479843591902 0 0.18911602002620281 0.39135279578912358 0 0.2061539348638069 0.39195479843591902 0 0.1910859665821209 0.40784650765375191 0 0.2061539348638069 0.39195479843591902 0 0.2169928546101865 0.40796769594205079 0 0.2061539348638069 0.39195479843591902 0 0.2250118328585736 0.39522256204424527 0 0.2169928546101865 0.40796769594205079 0 0.2061539348638069 0.39195479843591902 0 0.2169928546101865 0.40796769594205079 0 0.1910859665821209 0.40784650765375191 0 0.2061539348638069 0.39195479843591902 0 0.21890176231244951 0.38342219973087538 0 0.2250118328585736 0.39522256204424527 0 0.2101792370891131 0.37213945198953913 0 0.19531501511742819 0.37594190092978652 0 0.2061539348638069 0.39195479843591902 0 0.2101792370891131 0.37213945198953913 0 0.2061539348638069 0.39195479843591902 0 0.21890176231244951 0.38342219973087538 0 0.22350096898292421 0.3742031086850599 0 0.2101792370891131 0.37213945198953913 0 0.21890176231244951 0.38342219973087538 0 0.22350096898292421 0.3742031086850599 0 0.23083459762192521 0.38473629728422259 0 0.21890176231244951 0.38342219973087538 0 0.2344960115715711 0.37239890085466432 0 0.22350096898292421 0.3742031086850599 0 0.23083459762192521 0.38473629728422259 0 0.23083459762192521 0.38473629728422259 0 0.21890176231244951 0.38342219973087538 0 0.2250118328585736 0.39522256204424527 0 0.2250118328585736 0.39522256204424527 0 0.24044707281929831 0.40807741103229961 0 0.2169928546101865 0.40796769594205079 0 0.23083459762192521 0.38473629728422259 0 0.2250118328585736 0.39522256204424527 0 0.23866726042284131 0.39435630008856559 0 0.2250118328585736 0.39522256204424527 0 0.23866726042284131 0.39435630008856559 0 0.24044707281929831 0.40807741103229961 0 0.23866726042284131 0.39435630008856559 0 0.24044707281929831 0.40807741103229961 0 0.25082305602154931 0.39681313212674851 0 0.23866726042284131 0.39435630008856559 0 0.2436919073221798 0.38446815433068082 0 0.25082305602154931 0.39681313212674851 0 0.2344960115715711 0.37239890085466432 0 0.2436919073221798 0.38446815433068082 0 0.25032230139794032 0.37255488625652478 0 0.2436919073221798 0.38446815433068082 0 0.25564396646738641 0.38653289803593183 0 0.25032230139794032 0.37255488625652478 0 0.2344960115715711 0.37239890085466432 0 0.23083459762192521 0.38473629728422259 0 0.2436919073221798 0.38446815433068082 0 0.23083459762192521 0.38473629728422259 0 0.23866726042284131 0.39435630008856559 0 0.2436919073221798 0.38446815433068082 0 0.24843011339429971 0.4304208809719049 0 0.2385065328847035 0.43975096708444178 0 0.26024227871645839 0.44081166974954272 0 0.24843011339429971 0.4304208809719049 0 0.22662696802648921 0.42220067065793748 0 0.2385065328847035 0.43975096708444178 0 0.24843011339429971 0.4304208809719049 0 0.2471772923768657 0.41685775461785007 0 0.22662696802648921 0.42220067065793748 0 0.2471772923768657 0.41685775461785007 0 0.22662696802648921 0.42220067065793748 0 0.2471772923768657 0.41685775461785007 0 0.24044707281929831 0.40807741103229961 0 0.22662696802648921 0.42220067065793748 0 0.24044707281929831 0.40807741103229961 0 0.22662696802648921 0.42220067065793748 0 0.2169928546101865 0.40796769594205079 0 0.24044707281929831 0.40807741103229961 0 0.2169928546101865 0.40796769594205079 0 0.22662696802648921 0.42220067065793748 0 0.2169928546101865 0.40796769594205079 0 0.21977820823008901 0.43558517648885919 0 0.22662696802648921 0.42220067065793748 0 0.2385065328847035 0.43975096708444178 0 0.22662696802648921 0.42220067065793748 0 0.2385065328847035 0.43975096708444178 0 0.21977820823008901 0.43558517648885919 0 0.2072776557341009 0.42723133339829339 0 0.19719213822157081 0.44200549765024011 0 0.21977820823008901 0.43558517648885919 0 0.22662696802648921 0.42220067065793748 0 0.2072776557341009 0.42723133339829339 0 0.22662696802648921 0.42220067065793748 0 0.2072776557341009 0.42723133339829339 0 0.22662696802648921 0.42220067065793748 0 0.2072776557341009 0.42723133339829339 0 0.2169928546101865 0.40796769594205079 0 0.2072776557341009 0.42723133339829339 0 0.2169928546101865 0.40796769594205079 0 0.1910859665821209 0.40784650765375191 0 0.2169928546101865 0.40796769594205079 0 0.1910859665821209 0.40784650765375191 0 0.2072776557341009 0.42723133339829339 0 0.1910859665821209 0.40784650765375191 0 0.18875180948826301 0.42535586353764709 0 0.2072776557341009 0.42723133339829339 0 0.18875180948826301 0.42535586353764709 0 0.19719213822157081 0.44200549765024011 0 0.19719213822157081 0.44200549765024011 0 0.20409357662219199 0.46347447067211922 0 0.18427568169085909 0.45314070563767722 0 0.20409357662219199 0.46347447067211922 0 0.18265614297154639 0.4689483951498582 0 0.18427568169085909 0.45314070563767722 0 0.20409357662219199 0.46347447067211922 0 0.22427688269387361 0.44993134096427428 0 0.21948748161084161 0.46575282494143289 0 0.21977820823008901 0.43558517648885919 0 0.19719213822157081 0.44200549765024011 0 0.22427688269387361 0.44993134096427428 0 0.19719213822157081 0.44200549765024011 0 0.20409357662219199 0.46347447067211922 0 0.22427688269387361 0.44993134096427428 0 0.19719213822157081 0.44200549765024011 0 0.22427688269387361 0.44993134096427428 0 0.21977820823008901 0.43558517648885919 0 0.22427688269387361 0.44993134096427428 0 0.2385065328847035 0.43975096708444178 0 0.22427688269387361 0.44993134096427428 0 0.2385065328847035 0.43975096708444178 0 0.23503676784827901 0.45218592975115329 0 0.22427688269387361 0.44993134096427428 0 0.21948748161084161 0.46575282494143289 0 0.23198031957437651 0.46180568445856979 0 0.23198031957437651 0.46180568445856979 0 0.24104387879964259 0.46557532312448202 0 0.22974320122043129 0.47684682362955982 0 0.21948748161084161 0.46575282494143289 0 0.23198031957437651 0.46180568445856979 0 0.22974320122043129 0.47684682362955982 0 0.22427688269387361 0.44993134096427428 0 0.23198031957437651 0.46180568445856979 0 0.23503676784827901 0.45218592975115329 0 0.24104387879964259 0.46557532312448202 0 0.24772643922032539 0.47466711752600682 0 0.25038609774291842 0.45730126351094569 0 0.23198031957437651 0.46180568445856979 0 0.24538333624016251 0.45725572649732771 0 0.23503676784827901 0.45218592975115329 0 0.23198031957437651 0.46180568445856979 0 0.24104387879964259 0.46557532312448202 0 0.24538333624016251 0.45725572649732771 0 0.24104387879964259 0.46557532312448202 0 0.24538333624016251 0.45725572649732771 0 0.25038609774291842 0.45730126351094569 0 0.24538333624016251 0.45725572649732771 0 0.25038609774291842 0.45730126351094569 0 0.2385065328847035 0.43975096708444178 0 0.25038609774291842 0.45730126351094569 0 0.2385065328847035 0.43975096708444178 0 0.26024227871645839 0.44081166974954272 0 0.25038609774291842 0.45730126351094569 0 0.24538333624016251 0.45725572649732771 0 0.2385065328847035 0.43975096708444178 0 0.25038609774291842 0.45730126351094569 0 0.24538333624016251 0.45725572649732771 0 0.2385065328847035 0.43975096708444178 0 0.23503676784827901 0.45218592975115329 0 0.23787543002877271 0.48858776422098749 0 0.24772643922032539 0.47466711752600682 0 0.25054774872042401 0.5 0 0.23787543002877271 0.48858776422098749 0 0.22180718647266379 0.5 0 0.25054774872042401 0.5 0 0.23787543002877271 0.48858776422098749 0 0.24772643922032539 0.47466711752600682 0 0.22974320122043129 0.47684682362955982 0 0.24104387879964259 0.46557532312448202 0 0.24772643922032539 0.47466711752600682 0 0.22974320122043129 0.47684682362955982 0 0.21948748161084161 0.46575282494143289 0 0.22974320122043129 0.47684682362955982 0 0.20908074412085051 0.48413556260473228 0 0.22974320122043129 0.47684682362955982 0 0.22180718647266379 0.5 0 0.20908074412085051 0.48413556260473228 0 0.23787543002877271 0.48858776422098749 0 0.22974320122043129 0.47684682362955982 0 0.22180718647266379 0.5 0 0.22180718647266379 0.5 0 0.20908074412085051 0.48413556260473228 0 0.1930666242249037 0.5 0 0.20409357662219199 0.46347447067211922 0 0.21948748161084161 0.46575282494143289 0 0.20908074412085051 0.48413556260473228 0 0.20409357662219199 0.46347447067211922 0 0.20908074412085051 0.48413556260473228 0 0.19410502858567369 0.47873572283664972 0 0.20409357662219199 0.46347447067211922 0 0.19410502858567369 0.47873572283664972 0 0.18265614297154639 0.4689483951498582 0 0.19410502858567369 0.47873572283664972 0 0.1930666242249037 0.5 0 0.1771149176736431 0.48234165310617533 0 0.20908074412085051 0.48413556260473228 0 0.19410502858567369 0.47873572283664972 0 0.1930666242249037 0.5 0 0.1930666242249037 0.5 0 0.16432606197714369 0.5 0 0.1771149176736431 0.48234165310617533 0 0.16432606197714369 0.5 0 0.1605770840419139 0.48142100180532832 0 0.1771149176736431 0.48234165310617533 0 0.16432606197714369 0.5 0 0.1605770840419139 0.48142100180532832 0 0.14810273244053301 0.48807303368852317 0 0.1605770840419139 0.48142100180532832 0 0.16725348378405791 0.46989817133820888 0 0.1771149176736431 0.48234165310617533 0 0.15672752135192369 0.47037067060940402 0 0.1605770840419139 0.48142100180532832 0 0.16725348378405791 0.46989817133820888 0 0.16725348378405791 0.46989817133820888 0 0.1771149176736431 0.48234165310617533 0 0.18265614297154639 0.4689483951498582 0 0.19410502858567369 0.47873572283664972 0 0.1771149176736431 0.48234165310617533 0 0.18265614297154639 0.4689483951498582 0 0.18265614297154639 0.4689483951498582 0 0.18427568169085909 0.45314070563767722 0 0.16904641777788271 0.4557546195776 0 0.16725348378405791 0.46989817133820888 0 0.18265614297154639 0.4689483951498582 0 0.16904641777788271 0.4557546195776 0 0.170107393749268 0.43407965433620588 0 0.19719213822157081 0.44200549765024011 0 0.170107393749268 0.43407965433620588 0 0.18427568169085909 0.45314070563767722 0 0.16904641777788271 0.4557546195776 0 0.170107393749268 0.43407965433620588 0 0.19719213822157081 0.44200549765024011 0 0.18427568169085909 0.45314070563767722 0 0.170107393749268 0.43407965433620588 0 0.15717082352779799 0.45258064002774828 0 0.14767810511395241 0.44326225225545213 0 0.170107393749268 0.43407965433620588 0 0.15717082352779799 0.45258064002774828 0 0.16904641777788271 0.4557546195776 0 0.16725348378405791 0.46989817133820888 0 0.16904641777788271 0.4557546195776 0 0.16030990684873289 0.46269154388974032 0 0.15717082352779799 0.45258064002774828 0 0.16904641777788271 0.4557546195776 0 0.16030990684873289 0.46269154388974032 0 0.15717082352779799 0.45258064002774828 0 0.16030990684873289 0.46269154388974032 0 0.1513512878020026 0.46485361789574031 0 0.15672752135192369 0.47037067060940402 0 0.16725348378405791 0.46989817133820888 0 0.16030990684873289 0.46269154388974032 0 0.15672752135192369 0.47037067060940402 0 0.16030990684873289 0.46269154388974032 0 0.1513512878020026 0.46485361789574031 0 0.1513512878020026 0.46485361789574031 0 0.1483154215322503 0.46486058614364878 0 0.13172151909199531 0.46115818626391619 0 0.1513512878020026 0.46485361789574031 0 0.13172151909199531 0.46115818626391619 0 0.1513512878020026 0.46485361789574031 0 0.14486247846012029 0.45482229791162521 0 0.13172151909199531 0.46115818626391619 0 0.15672752135192369 0.47037067060940402 0 0.1513512878020026 0.46485361789574031 0 0.14984750377078479 0.47102146171357878 0 0.1513512878020026 0.46485361789574031 0 0.1483154215322503 0.46486058614364878 0 0.14984750377078479 0.47102146171357878 0 0.15717082352779799 0.45258064002774828 0 0.1513512878020026 0.46485361789574031 0 0.14486247846012029 0.45482229791162521 0 0.15717082352779799 0.45258064002774828 0 0.14486247846012029 0.45482229791162521 0 0.14767810511395241 0.44326225225545213 0 0.14486247846012029 0.45482229791162521 0 0.14767810511395241 0.44326225225545213 0 0.13478412654451069 0.44890181361653952 0 0.13613610836112461 0.43733186772332799 0 0.14767810511395241 0.44326225225545213 0 0.13478412654451069 0.44890181361653952 0 0.12312185087955289 0.45437156075947838 0 0.13478412654451069 0.44890181361653952 0 0.12518469736031901 0.44246471678543681 0 0.13613610836112461 0.43733186772332799 0 0.13478412654451069 0.44890181361653952 0 0.12518469736031901 0.44246471678543681 0 0.1232879693058704 0.473389639060316 0 0.1483154215322503 0.46486058614364878 0 0.13172151909199531 0.46115818626391619 0 0.14486247846012029 0.45482229791162521 0 0.13478412654451069 0.44890181361653952 0 0.13172151909199531 0.46115818626391619 0 0.12312185087955289 0.45437156075947838 0 0.13478412654451069 0.44890181361653952 0 0.13172151909199531 0.46115818626391619 0 0.1193164107041766 0.48148302344114258 0 0.1232879693058704 0.473389639060316 0 0.13736980403923851 0.47904917785748607 0 0.1232879693058704 0.473389639060316 0 0.1483154215322503 0.46486058614364878 0 0.13736980403923851 0.47904917785748607 0 0.1232879693058704 0.473389639060316 0 0.1483154215322503 0.46486058614364878 0 0.1232879693058704 0.473389639060316 0 0.13736980403923851 0.47904917785748607 0 0.12247105767917139 0.49036732130857652 0 0.1193164107041766 0.48148302344114258 0 0.13736980403923851 0.47904917785748607 0 0.12247105767917139 0.49036732130857652 0 0.13736980403923851 0.47904917785748607 0 0.13558549972938361 0.5 0 0.13736980403923851 0.47904917785748607 0 0.13558549972938361 0.5 0 0.14810273244053301 0.48807303368852317 0 0.16432606197714369 0.5 0 0.13558549972938361 0.5 0 0.14810273244053301 0.48807303368852317 0 0.1605770840419139 0.48142100180532832 0 0.14810273244053301 0.48807303368852317 0 0.1499377870241822 0.47784248208965913 0 0.15672752135192369 0.47037067060940402 0 0.1605770840419139 0.48142100180532832 0 0.1499377870241822 0.47784248208965913 0 0.15672752135192369 0.47037067060940402 0 0.1499377870241822 0.47784248208965913 0 0.14984750377078479 0.47102146171357878 0 0.13736980403923851 0.47904917785748607 0 0.1499377870241822 0.47784248208965913 0 0.14984750377078479 0.47102146171357878 0 0.1483154215322503 0.46486058614364878 0 0.13736980403923851 0.47904917785748607 0 0.14984750377078479 0.47102146171357878 0 0.13736980403923851 0.47904917785748607 0 0.14810273244053301 0.48807303368852317 0 0.1499377870241822 0.47784248208965913 0 0.34838962851587779 0.47427482982791369 0 0.35607400661002631 0.5 0 0.3621071701637455 0.4779090042255203 0 0.34838962851587779 0.47427482982791369 0 0.3621071701637455 0.4779090042255203 0 0.36548787017156631 0.45834896306158168 0 0.34838962851587779 0.47427482982791369 0 0.35607400661002631 0.5 0 0.34131721828017308 0.48340545105079169 0 0.35607400661002631 0.5 0 0.3621071701637455 0.4779090042255203 0 0.37847717535751169 0.4790122240125857 0 0.3621071701637455 0.4779090042255203 0 0.36548787017156631 0.45834896306158168 0 0.37847717535751169 0.4790122240125857 0 0.36548787017156631 0.45834896306158168 0 0.36539094313265458 0.44039762298169322 0 0.38626560987210851 0.43899589033984521 0 0.36548787017156631 0.45834896306158168 0 0.36539094313265458 0.44039762298169322 0 0.35338681856140469 0.44707180339058622 0 0.35338681856140469 0.44707180339058622 0 0.34330132978596878 0.45814701284047099 0 0.3416540191542492 0.44233244957501677 0 0.36539094313265458 0.44039762298169322 0 0.35338681856140469 0.44707180339058622 0 0.35109993056258509 0.43613296849416822 0 0.35338681856140469 0.44707180339058622 0 0.3416540191542492 0.44233244957501677 0 0.35109993056258509 0.43613296849416822 0 0.36548787017156631 0.45834896306158168 0 0.35338681856140469 0.44707180339058622 0 0.34330132978596878 0.45814701284047099 0 0.34838962851587779 0.47427482982791369 0 0.36548787017156631 0.45834896306158168 0 0.34330132978596878 0.45814701284047099 0 0.34838962851587779 0.47427482982791369 0 0.36548787017156631 0.45834896306158168 0 0.36548787017156631 0.45834896306158168 0 0.34330132978596878 0.45814701284047099 0 0.34838962851587779 0.47427482982791369 0 0.34330132978596878 0.45814701284047099 0 0.33670859118162999 0.47150681676575118 0 0.34330132978596878 0.45814701284047099 0 0.3211147894003713 0.45794506261935908 0 0.33670859118162999 0.47150681676575118 0 0.34330132978596878 0.45814701284047099 0 0.3211147894003713 0.45794506261935908 0 0.3211147894003713 0.45794506261935908 0 0.33670859118162999 0.47150681676575118 0 0.34330132978596878 0.45814701284047099 0 0.3416540191542492 0.44233244957501677 0 0.32939187111423041 0.44288411194454941 0 0.34330132978596878 0.45814701284047099 0 0.32939187111423041 0.44288411194454941 0 0.3211147894003713 0.45794506261935908 0 0.3416540191542492 0.44233244957501677 0 0.32939187111423041 0.44288411194454941 0 0.3280326841218979 0.42882831107560992 0 0.31766381399879751 0.44121853087289697 0 0.3211147894003713 0.45794506261935908 0 0.30331906517599527 0.44246832127216018 0 0.32939187111423041 0.44288411194454941 0 0.31766381399879751 0.44121853087289697 0 0.3211147894003713 0.45794506261935908 0 0.32939187111423041 0.44288411194454941 0 0.31766381399879751 0.44121853087289697 0 0.31976114716451781 0.43380805023286317 0 0.3211147894003713 0.45794506261935908 0 0.31602546357681333 0.47300495123058162 0 0.30320881377664161 0.45778207570596191 0 0.3211147894003713 0.45794506261935908 0 0.31602546357681333 0.47300495123058162 0 0.33670859118162999 0.47150681676575118 0 0.31602546357681333 0.47300495123058162 0 0.32884211337698438 0.48822782675520182 0 0.3041384259342802 0.4851450764453229 0 0.31602546357681333 0.47300495123058162 0 0.33670859118162999 0.47150681676575118 0 0.32884211337698438 0.48822782675520182 0 0.35607400661002631 0.5 0 0.32884211337698438 0.48822782675520182 0 0.31170052508014717 0.5 0 0.31602546357681333 0.47300495123058162 0 0.32884211337698438 0.48822782675520182 0 0.34131721828017308 0.48340545105079169 0 0.33670859118162999 0.47150681676575118 0 0.32884211337698438 0.48822782675520182 0 0.34838962851587779 0.47427482982791369 0 0.34131721828017308 0.48340545105079169 0 0.33670859118162999 0.47150681676575118 0 0.35607400661002631 0.5 0 0.34131721828017308 0.48340545105079169 0 0.32884211337698438 0.48822782675520182 0 0.32884211337698438 0.48822782675520182 0 0.31170052508014717 0.5 0 0.3041384259342802 0.4851450764453229 0 0.31170052508014717 0.5 0 0.3041384259342802 0.4851450764453229 0 0.27928831096818418 0.49999999999999772 0 0.31602546357681333 0.47300495123058162 0 0.3041384259342802 0.4851450764453229 0 0.29726124149674699 0.47040208702475128 0 0.29726124149674699 0.47040208702475128 0 0.28613604843621998 0.47853666213343521 0 0.27679745575977999 0.45754166960845372 0 0.3041384259342802 0.4851450764453229 0 0.29726124149674699 0.47040208702475128 0 0.28613604843621998 0.47853666213343521 0 0.3041384259342802 0.4851450764453229 0 0.28613604843621998 0.47853666213343521 0 0.27928831096818418 0.49999999999999772 0 0.27928831096818418 0.49999999999999772 0 0.26483720435555153 0.47865063175547151 0 0.28613604843621998 0.47853666213343521 0 0.27928831096818418 0.49999999999999772 0 0.26483720435555153 0.47865063175547151 0 0.28613604843621998 0.47853666213343521 0 0.26483720435555153 0.47865063175547151 0 0.27679745575977999 0.45754166960845372 0 0.24772643922032539 0.47466711752600682 0 0.26483720435555153 0.47865063175547151 0 0.25038609774291842 0.45730126351094569 0 0.27928831096818418 0.49999999999999772 0 0.26483720435555153 0.47865063175547151 0 0.25054774872042401 0.5 0 0.24772643922032539 0.47466711752600682 0 0.26483720435555153 0.47865063175547151 0 0.25054774872042401 0.5 0 0.26024227871645839 0.44081166974954272 0 0.25038609774291842 0.45730126351094569 0 0.27679745575977999 0.45754166960845372 0 0.26483720435555153 0.47865063175547151 0 0.25038609774291842 0.45730126351094569 0 0.26483720435555153 0.47865063175547151 0 0.25038609774291842 0.45730126351094569 0 0.27679745575977999 0.45754166960845372 0 0.25038609774291842 0.45730126351094569 0 0.27679745575977999 0.45754166960845372 0 0.26024227871645839 0.44081166974954272 0 0.27679745575977999 0.45754166960845372 0 0.27479965397027228 0.44083840850636558 0 0.27679745575977999 0.45754166960845372 0 0.27479965397027228 0.44083840850636558 0 0.29027138739264841 0.44241574873884359 0 0.26024227871645839 0.44081166974954272 0 0.27479965397027228 0.44083840850636558 0 0.26873659938603911 0.4336260229582069 0 0.27679745575977999 0.45754166960845372 0 0.29027138739264841 0.44241574873884359 0 0.30320881377664161 0.45778207570596191 0 0.29027138739264841 0.44241574873884359 0 0.30320881377664161 0.45778207570596191 0 0.29726124149674699 0.47040208702475128 0 0.27679745575977999 0.45754166960845372 0 0.30320881377664161 0.45778207570596191 0 0.27679745575977999 0.45754166960845372 0 0.30320881377664161 0.45778207570596191 0 0.3211147894003713 0.45794506261935908 0 0.30320881377664161 0.45778207570596191 0 0.31602546357681333 0.47300495123058162 0 0.29726124149674699 0.47040208702475128 0 0.30320881377664161 0.45778207570596191 0 0.31602546357681333 0.47300495123058162 0 0.30320881377664161 0.45778207570596191 0 0.3211147894003713 0.45794506261935908 0 0.30331906517599527 0.44246832127216018 0 0.3211147894003713 0.45794506261935908 0 0.30320881377664161 0.45778207570596191 0 0.30331906517599527 0.44246832127216018 0 0.29027138739264841 0.44241574873884359 0 0.30320881377664161 0.45778207570596191 0 0.30331906517599527 0.44246832127216018 0 0.31766381399879751 0.44121853087289697 0 0.30331906517599527 0.44246832127216018 0 0.31182032683915212 0.43480073296080191 0 0.31182032683915212 0.43480073296080191 0 0.30637665334424269 0.43041747699040261 0 0.31227427250835788 0.42631646539587958 0 0.30331906517599527 0.44246832127216018 0 0.31182032683915212 0.43480073296080191 0 0.30637665334424269 0.43041747699040261 0 0.30968843038581212 0.42307283342678692 0 0.29894863390120402 0.42862838877081633 0 0.30551913637551548 0.41441145155115428 0 0.30637665334424269 0.43041747699040261 0 0.31227427250835788 0.42631646539587958 0 0.30968843038581212 0.42307283342678692 0 0.30637665334424269 0.43041747699040261 0 0.30968843038581212 0.42307283342678692 0 0.29894863390120402 0.42862838877081633 0 0.31227427250835788 0.42631646539587958 0 0.30968843038581212 0.42307283342678692 0 0.31436206145962758 0.42485960424783348 0 0.30331906517599527 0.44246832127216018 0 0.30637665334424269 0.43041747699040261 0 0.29894863390120402 0.42862838877081633 0 0.30551913637551548 0.41441145155115428 0 0.29663358898609521 0.40399952250766241 0 0.31675777388243032 0.4097970804816648 0 0.30551913637551548 0.41441145155115428 0 0.31675777388243032 0.4097970804816648 0 0.31396170531015949 0.41665084641017008 0 0.30968843038581212 0.42307283342678692 0 0.30551913637551548 0.41441145155115428 0 0.31396170531015949 0.41665084641017008 0 0.29894863390120402 0.42862838877081633 0 0.30551913637551548 0.41441145155115428 0 0.29253870231335949 0.41734566390292621 0 0.30551913637551548 0.41441145155115428 0 0.29253870231335949 0.41734566390292621 0 0.29663358898609521 0.40399952250766241 0 0.29253870231335949 0.41734566390292621 0 0.26772761672724238 0.41151483857776361 0 0.29663358898609521 0.40399952250766241 0 0.29253870231335949 0.41734566390292621 0 0.28552334095161869 0.42699157992496217 0 0.26772761672724238 0.41151483857776361 0 0.26772761672724238 0.41151483857776361 0 0.29663358898609521 0.40399952250766241 0 0.29027138739264841 0.44241574873884359 0 0.30331906517599527 0.44246832127216018 0 0.28552334095161869 0.42699157992496217 0 0.30331906517599527 0.44246832127216018 0 0.29894863390120402 0.42862838877081633 0 0.28552334095161869 0.42699157992496217 0 0.30331906517599527 0.44246832127216018 0 0.28552334095161869 0.42699157992496217 0 0.29894863390120402 0.42862838877081633 0 0.29253870231335949 0.41734566390292621 0 0.28552334095161869 0.42699157992496217 0 0.29027138739264841 0.44241574873884359 0 0.27733396100865471 0.42704942177172578 0 0.29027138739264841 0.44241574873884359 0 0.28552334095161869 0.42699157992496217 0 0.27733396100865471 0.42704942177172578 0 0.27479965397027228 0.44083840850636558 0 0.26873659938603911 0.4336260229582069 0 0.27733396100865471 0.42704942177172578 0 0.27479965397027228 0.44083840850636558 0 0.29027138739264841 0.44241574873884359 0 0.27733396100865471 0.42704942177172578 0 0.26873659938603911 0.4336260229582069 0 0.27733396100865471 0.42704942177172578 0 0.26257050384877112 0.42580459180519359 0 0.26772761672724238 0.41151483857776361 0 0.26906741145732699 0.40821129240957138 0 0.29663358898609521 0.40399952250766241 0 0.28552334095161869 0.42699157992496217 0 0.26772761672724238 0.41151483857776361 0 0.28552334095161869 0.42699157992496217 0 0.27733396100865471 0.42704942177172578 0 0.26772761672724238 0.41151483857776361 0 0.26906741145732699 0.40821129240957138 0 0.2639012910284102 0.4081871261225517 0 0.26772761672724238 0.41151483857776361 0 0.26906741145732699 0.40821129240957138 0 0.2639012910284102 0.4081871261225517 0 0.26772761672724238 0.41151483857776361 0 0.2639012910284102 0.4081871261225517 0 0.27733396100865471 0.42704942177172578 0 0.26772761672724238 0.41151483857776361 0 0.26257050384877112 0.42580459180519359 0 0.2471772923768657 0.41685775461785007 0 0.24044707281929831 0.40807741103229961 0 0.2639012910284102 0.4081871261225517 0 0.24044707281929831 0.40807741103229961 0 0.2639012910284102 0.4081871261225517 0 0.2471772923768657 0.41685775461785007 0 0.26772761672724238 0.41151483857776361 0 0.2639012910284102 0.4081871261225517 0 0.2471772923768657 0.41685775461785007 0 0.26772761672724238 0.41151483857776361 0 0.2471772923768657 0.41685775461785007 0 0.26772761672724238 0.41151483857776361 0 0.26257050384877112 0.42580459180519359 0 0.24843011339429971 0.4304208809719049 0 0.2471772923768657 0.41685775461785007 0 0.26257050384877112 0.42580459180519359 0 0.24843011339429971 0.4304208809719049 0 0.26024227871645839 0.44081166974954272 0 0.26257050384877112 0.42580459180519359 0 0.26024227871645839 0.44081166974954272 0 0.26873659938603911 0.4336260229582069 0 0.26257050384877112 0.42580459180519359 0 0.26447355538022849 0.39011524657438251 0 0.26533118443416442 0.37922214696953899 0 0.25564396646738641 0.38653289803593183 0 0.26533118443416442 0.37922214696953899 0 0.25564396646738641 0.38653289803593183 0 0.25032230139794032 0.37255488625652478 0 0.2436919073221798 0.38446815433068082 0 0.25564396646738641 0.38653289803593183 0 0.25082305602154931 0.39681313212674851 0 0.24044707281929831 0.40807741103229961 0 0.2639012910284102 0.4081871261225517 0 0.25082305602154931 0.39681313212674851 0 0.25564396646738641 0.38653289803593183 0 0.25082305602154931 0.39681313212674851 0 0.2604587975988199 0.39624292777893039 0 0.2639012910284102 0.4081871261225517 0 0.25082305602154931 0.39681313212674851 0 0.2639012910284102 0.4081871261225517 0 0.25082305602154931 0.39681313212674851 0 0.2604587975988199 0.39624292777893039 0 0.2639012910284102 0.4081871261225517 0 0.2604587975988199 0.39624292777893039 0 0.26745211909652578 0.39956623603503688 0 0.26447355538022849 0.39011524657438251 0 0.2604587975988199 0.39624292777893039 0 0.26745211909652578 0.39956623603503688 0 0.26447355538022849 0.39011524657438251 0 0.25564396646738641 0.38653289803593183 0 0.2604587975988199 0.39624292777893039 0 0.26447355538022849 0.39011524657438251 0 0.26745211909652578 0.39956623603503688 0 0.27508248349636022 0.38893986061582819 0 0.26906741145732699 0.40821129240957138 0 0.26745211909652578 0.39956623603503688 0 0.28160455932689332 0.39795068184520638 0 0.26906741145732699 0.40821129240957138 0 0.2639012910284102 0.4081871261225517 0 0.26745211909652578 0.39956623603503688 0 0.26745211909652578 0.39956623603503688 0 0.27508248349636022 0.38893986061582819 0 0.28160455932689332 0.39795068184520638 0 0.27508248349636022 0.38893986061582819 0 0.27810431770349792 0.38008174954624102 0 0.28719705428914999 0.38211949437026838 0 0.26447355538022849 0.39011524657438251 0 0.26533118443416442 0.37922214696953899 0 0.27508248349636022 0.38893986061582819 0 0.26533118443416442 0.37922214696953899 0 0.27508248349636022 0.38893986061582819 0 0.27810431770349792 0.38008174954624102 0 0.26533118443416442 0.37922214696953899 0 0.27810431770349792 0.38008174954624102 0 0.27254019520173922 0.37341925670894988 0 0.27810431770349792 0.38008174954624102 0 0.28093794648887982 0.3722492246794134 0 0.27254019520173922 0.37341925670894988 0 0.28719705428914999 0.38211949437026838 0 0.28963733013387549 0.37144658513855539 0 0.28093794648887982 0.3722492246794134 0 0.28719705428914999 0.38211949437026838 0 0.28160455932689332 0.39795068184520638 0 0.30405800183518789 0.38829273019971899 0 0.27810431770349792 0.38008174954624102 0 0.28719705428914999 0.38211949437026838 0 0.28093794648887982 0.3722492246794134 0 0.27508248349636022 0.38893986061582819 0 0.28719705428914999 0.38211949437026838 0 0.28160455932689332 0.39795068184520638 0 0.28719705428914999 0.38211949437026838 0 0.29972124458137622 0.37550813047636539 0 0.28963733013387549 0.37144658513855539 0 0.26906741145732699 0.40821129240957138 0 0.28160455932689332 0.39795068184520638 0 0.29663358898609521 0.40399952250766241 0 0.28160455932689332 0.39795068184520638 0 0.29663358898609521 0.40399952250766241 0 0.30405800183518789 0.38829273019971899 0 0.29663358898609521 0.40399952250766241 0 0.30405800183518789 0.38829273019971899 0 0.32553956124494843 0.39648420643756233 0 0.29663358898609521 0.40399952250766241 0 0.32553956124494843 0.39648420643756233 0 0.28719705428914999 0.38211949437026838 0 0.29972124458137622 0.37550813047636539 0 0.30405800183518789 0.38829273019971899 0 0.29972124458137622 0.37550813047636539 0 0.30405800183518789 0.38829273019971899 0 0.31496357018296728 0.37905743547334658 0 0.30405800183518789 0.38829273019971899 0 0.31496357018296728 0.37905743547334658 0 0.32332394111095902 0.38590625208010348 0 0.31496357018296728 0.37905743547334658 0 0.3314503847417693 0.37878143595041469 0 0.31626784915670098 0.36787240609010818 0 0.31496357018296728 0.37905743547334658 0 0.32332394111095902 0.38590625208010348 0 0.3314503847417693 0.37878143595041469 0 0.30405800183518789 0.38829273019971899 0 0.32332394111095902 0.38590625208010348 0 0.32553956124494843 0.39648420643756233 0 0.32332394111095902 0.38590625208010348 0 0.3314503847417693 0.37878143595041469 0 0.33751373325057482 0.39827791150967151 0 0.3314503847417693 0.37878143595041469 0 0.34268109255330098 0.3855466221564266 0 0.33751373325057482 0.39827791150967151 0 0.3314503847417693 0.37878143595041469 0 0.33751373325057482 0.39827791150967151 0 0.3314503847417693 0.37878143595041469 0 0.34268109255330098 0.3855466221564266 0 0.34304248713128438 0.37404776694303737 0 0.34053843780446719 0.40337282586899592 0 0.33751373325057482 0.39827791150967151 0 0.34793353204810029 0.39465126196828981 0 0.34268109255330098 0.3855466221564266 0 0.33751373325057482 0.39827791150967151 0 0.34793353204810029 0.39465126196828981 0 0.32332394111095902 0.38590625208010348 0 0.33751373325057482 0.39827791150967151 0 0.32553956124494843 0.39648420643756233 0 0.34053843780446719 0.40337282586899592 0 0.33751373325057482 0.39827791150967151 0 0.32855000506848819 0.40605756383923702 0 0.33751373325057482 0.39827791150967151 0 0.32855000506848819 0.40605756383923702 0 0.32553956124494843 0.39648420643756233 0 0.32855000506848819 0.40605756383923702 0 0.32553956124494843 0.39648420643756233 0 0.31675777388243032 0.4097970804816648 0 0.29663358898609521 0.40399952250766241 0 0.32553956124494843 0.39648420643756233 0 0.31675777388243032 0.4097970804816648 0 0.31436206145962758 0.42485960424783348 0 0.33435232670493342 0.41424566542520508 0 0.32074273647332008 0.41759150847707238 0 0.31436206145962758 0.42485960424783348 0 0.33435232670493342 0.41424566542520508 0 0.30968843038581212 0.42307283342678692 0 0.31396170531015949 0.41665084641017008 0 0.3146887334072298 0.42054369814046572 0 0.31396170531015949 0.41665084641017008 0 0.3146887334072298 0.42054369814046572 0 0.32074273647332008 0.41759150847707238 0 0.3146887334072298 0.42054369814046572 0 0.32074273647332008 0.41759150847707238 0 0.31436206145962758 0.42485960424783348 0 0.31675777388243032 0.4097970804816648 0 0.31396170531015949 0.41665084641017008 0 0.32074273647332008 0.41759150847707238 0 0.32074273647332008 0.41759150847707238 0 0.32510071053229289 0.41192295455579481 0 0.33435232670493342 0.41424566542520508 0 0.31675777388243032 0.4097970804816648 0 0.32074273647332008 0.41759150847707238 0 0.32510071053229289 0.41192295455579481 0 0.32855000506848819 0.40605756383923702 0 0.31675777388243032 0.4097970804816648 0 0.32510071053229289 0.41192295455579481 0 0.31227427250835788 0.42631646539587958 0 0.31976114716451781 0.43380805023286317 0 0.3280326841218979 0.42882831107560992 0 0.31227427250835788 0.42631646539587958 0 0.3280326841218979 0.42882831107560992 0 0.33831808567089861 0.42278355237587439 0 0.31227427250835788 0.42631646539587958 0 0.31436206145962758 0.42485960424783348 0 0.33831808567089861 0.42278355237587439 0 0.31227427250835788 0.42631646539587958 0 0.33831808567089861 0.42278355237587439 0 0.31182032683915212 0.43480073296080191 0 0.31227427250835788 0.42631646539587958 0 0.31976114716451781 0.43380805023286317 0 0.31766381399879751 0.44121853087289697 0 0.31182032683915212 0.43480073296080191 0 0.31976114716451781 0.43380805023286317 0 0.30968843038581212 0.42307283342678692 0 0.3146887334072298 0.42054369814046572 0 0.31436206145962758 0.42485960424783348 0 0.32939187111423041 0.44288411194454941 0 0.31976114716451781 0.43380805023286317 0 0.3280326841218979 0.42882831107560992 0 0.3280326841218979 0.42882831107560992 0 0.33831808567089861 0.42278355237587439 0 0.35745607209124719 0.42436372170841807 0 0.3280326841218979 0.42882831107560992 0 0.35745607209124719 0.42436372170841807 0 0.3416540191542492 0.44233244957501677 0 0.3280326841218979 0.42882831107560992 0 0.35109993056258509 0.43613296849416822 0 0.34053843780446719 0.40337282586899592 0 0.33435232670493342 0.41424566542520508 0 0.35434259195023932 0.40363172660257668 0 0.31436206145962758 0.42485960424783348 0 0.33831808567089861 0.42278355237587439 0 0.33435232670493342 0.41424566542520508 0 0.32855000506848819 0.40605756383923702 0 0.32510071053229289 0.41192295455579481 0 0.33435232670493342 0.41424566542520508 0 0.34053843780446719 0.40337282586899592 0 0.32855000506848819 0.40605756383923702 0 0.33435232670493342 0.41424566542520508 0 0.33831808567089861 0.42278355237587439 0 0.33435232670493342 0.41424566542520508 0 0.34465218049969759 0.41389452564528167 0 0.33831808567089861 0.42278355237587439 0 0.35159571767271908 0.41491715817747082 0 0.36436189883343961 0.41925063935586943 0 0.33831808567089861 0.42278355237587439 0 0.36436189883343961 0.41925063935586943 0 0.33435232670493342 0.41424566542520508 0 0.35434259195023932 0.40363172660257668 0 0.34465218049969759 0.41389452564528167 0 0.35159571767271908 0.41491715817747082 0 0.35434259195023932 0.40363172660257668 0 0.33435232670493342 0.41424566542520508 0 0.34465218049969759 0.41389452564528167 0 0.35434259195023932 0.40363172660257668 0 0.33831808567089861 0.42278355237587439 0 0.34465218049969759 0.41389452564528167 0 0.35159571767271908 0.41491715817747082 0 0.35159571767271908 0.41491715817747082 0 0.35916291107304099 0.41158721418696959 0 0.36436189883343961 0.41925063935586943 0 0.35159571767271908 0.41491715817747082 0 0.35916291107304099 0.41158721418696959 0 0.35434259195023932 0.40363172660257668 0 0.3280326841218979 0.42882831107560992 0 0.35109993056258509 0.43613296849416822 0 0.35745607209124719 0.42436372170841807 0 0.33831808567089861 0.42278355237587439 0 0.35745607209124719 0.42436372170841807 0 0.36436189883343961 0.41925063935586943 0 0.35109993056258509 0.43613296849416822 0 0.35745607209124719 0.42436372170841807 0 0.36173078160632638 0.43280512632306861 0 0.36539094313265458 0.44039762298169322 0 0.37297618063881871 0.43032619210799472 0 0.38626560987210851 0.43899589033984521 0 0.35745607209124719 0.42436372170841807 0 0.38687946006059659 0.41989913234122628 0 0.35745607209124719 0.42436372170841807 0 0.37297618063881871 0.43032619210799472 0 0.38687946006059659 0.41989913234122628 0 0.36539094313265458 0.44039762298169322 0 0.36173078160632638 0.43280512632306861 0 0.37297618063881871 0.43032619210799472 0 0.36539094313265458 0.44039762298169322 0 0.35109993056258509 0.43613296849416822 0 0.36173078160632638 0.43280512632306861 0 0.35745607209124719 0.42436372170841807 0 0.36173078160632638 0.43280512632306861 0 0.37297618063881871 0.43032619210799472 0 0.35745607209124719 0.42436372170841807 0 0.36436189883343961 0.41925063935586943 0 0.38687946006059659 0.41989913234122628 0 0.35916291107304099 0.41158721418696959 0 0.36635143583576579 0.40854933261196108 0 0.35434259195023932 0.40363172660257668 0 0.35916291107304099 0.41158721418696959 0 0.36635143583576579 0.40854933261196108 0 0.36436189883343961 0.41925063935586943 0 0.36635143583576579 0.40854933261196108 0 0.36436189883343961 0.41925063935586943 0 0.3744178602803922 0.41294804669527918 0 0.36635143583576579 0.40854933261196108 0 0.3744178602803922 0.41294804669527918 0 0.376552394456383 0.40827448847742231 0 0.37433285719554532 0.39301778777994822 0 0.35434259195023932 0.40363172660257668 0 0.35928834119040881 0.390692520113676 0 0.37433285719554532 0.39301778777994822 0 0.35434259195023932 0.40363172660257668 0 0.36635143583576579 0.40854933261196108 0 0.37433285719554532 0.39301778777994822 0 0.35434259195023932 0.40363172660257668 0 0.36635143583576579 0.40854933261196108 0 0.37433285719554532 0.39301778777994822 0 0.376552394456383 0.40827448847742231 0 0.36636739916338268 0.38018708980684562 0 0.35346532559477639 0.38197473441071972 0 0.36259708738483959 0.36383996933626389 0 0.37433285719554532 0.39301778777994822 0 0.36636739916338268 0.38018708980684562 0 0.38118905446808798 0.37728987283747489 0 0.37433285719554532 0.39301778777994822 0 0.36636739916338268 0.38018708980684562 0 0.35928834119040881 0.390692520113676 0 0.36636739916338268 0.38018708980684562 0 0.35346532559477639 0.38197473441071972 0 0.35928834119040881 0.390692520113676 0 0.35346532559477639 0.38197473441071972 0 0.34793353204810029 0.39465126196828981 0 0.35928834119040881 0.390692520113676 0 0.34268109255330098 0.3855466221564266 0 0.35346532559477639 0.38197473441071972 0 0.34304248713128438 0.37404776694303737 0 0.34268109255330098 0.3855466221564266 0 0.35346532559477639 0.38197473441071972 0 0.34793353204810029 0.39465126196828981 0 0.34053843780446719 0.40337282586899592 0 0.34793353204810029 0.39465126196828981 0 0.35434259195023932 0.40363172660257668 0 0.34793353204810029 0.39465126196828981 0 0.35434259195023932 0.40363172660257668 0 0.35928834119040881 0.390692520113676 0 0.34679116555848472 0.3524055620806863 0 0.36259708738483959 0.36383996933626389 0 0.34679116555848472 0.3524055620806863 0 0.34399206180890157 0.36156246486371119 0 0.36259708738483959 0.36383996933626389 0 0.34679116555848472 0.3524055620806863 0 0.37011115454736848 0.35223495399250432 0 0.35891251041867889 0.33814066774455248 0 0.35346532559477639 0.38197473441071972 0 0.36259708738483959 0.36383996933626389 0 0.34304248713128438 0.37404776694303737 0 0.34399206180890157 0.36156246486371119 0 0.36259708738483959 0.36383996933626389 0 0.34304248713128438 0.37404776694303737 0 0.34399206180890157 0.36156246486371119 0 0.36259708738483959 0.36383996933626389 0 0.36636739916338268 0.38018708980684562 0 0.36259708738483959 0.36383996933626389 0 0.38118905446808798 0.37728987283747489 0 0.36259708738483959 0.36383996933626389 0 0.38118905446808798 0.37728987283747489 0 0.36259708738483959 0.36383996933626389 0 0.38546378805106002 0.36663915995426533 0 0.36259708738483959 0.36383996933626389 0 0.37011115454736848 0.35223495399250432 0 0.38546378805106002 0.36663915995426533 0 0.34679116555848472 0.3524055620806863 0 0.36259708738483959 0.36383996933626389 0 0.37011115454736848 0.35223495399250432 0 0.36683919377500768 0.32451879558091762 0 0.35891251041867889 0.33814066774455248 0 0.37594421209185103 0.33764793621782763 0 0.37011115454736848 0.35223495399250432 0 0.35891251041867889 0.33814066774455248 0 0.37594421209185103 0.33764793621782763 0 0.36683919377500768 0.32451879558091762 0 0.34936252722920402 0.32259820970198971 0 0.36773981072628009 0.30422526457886739 0 0.36683919377500768 0.32451879558091762 0 0.36773981072628009 0.30422526457886739 0 0.38316815610072558 0.32262777247852259 0 0.34936252722920402 0.32259820970198971 0 0.36773981072628009 0.30422526457886739 0 0.34936252722920402 0.32259820970198971 0 0.35891251041867889 0.33814066774455248 0 0.34651286173462392 0.33852889858808499 0 0.36683919377500768 0.32451879558091762 0 0.34936252722920402 0.32259820970198971 0 0.35891251041867889 0.33814066774455248 0 0.34679116555848472 0.3524055620806863 0 0.35891251041867889 0.33814066774455248 0 0.34651286173462392 0.33852889858808499 0 0.34936252722920402 0.32259820970198971 0 0.33098524373212779 0.34097115482511148 0 0.33070390014376189 0.32671415386220692 0 0.34936252722920402 0.32259820970198971 0 0.33098524373212779 0.34097115482511148 0 0.34936252722920402 0.32259820970198971 0 0.34651286173462392 0.33852889858808499 0 0.33098524373212779 0.34097115482511148 0 0.34936252722920402 0.32259820970198971 0 0.33297757749691842 0.31585433336743879 0 0.34289138469250829 0.2998793561861135 0 0.34936252722920402 0.32259820970198971 0 0.33070390014376189 0.32671415386220692 0 0.33297757749691842 0.31585433336743879 0 0.33070390014376189 0.32671415386220692 0 0.33297757749691842 0.31585433336743879 0 0.32320987210858371 0.32002392844815908 0 0.33297757749691842 0.31585433336743879 0 0.32320987210858371 0.32002392844815908 0 0.32144453974698861 0.30725792182376888 0 0.33070390014376189 0.32671415386220692 0 0.32320987210858371 0.32002392844815908 0 0.31819761964914162 0.3317202611915393 0 0.31272572350610789 0.31857297199584139 0 0.31754792985131319 0.33407860028266251 0 0.31819761964914162 0.3317202611915393 0 0.31272572350610789 0.31857297199584139 0 0.31754792985131319 0.33407860028266251 0 0.31143107469945219 0.32950606436234642 0 0.32320987210858371 0.32002392844815908 0 0.31272572350610789 0.31857297199584139 0 0.31819761964914162 0.3317202611915393 0 0.31272572350610789 0.31857297199584139 0 0.31754792985131319 0.33407860028266251 0 0.32320987210858371 0.32002392844815908 0 0.31272572350610789 0.31857297199584139 0 0.32144453974698861 0.30725792182376888 0 0.33098524373212779 0.34097115482511148 0 0.31819761964914162 0.3317202611915393 0 0.33098524373212779 0.34097115482511148 0 0.31754792985131319 0.33407860028266251 0 0.32237013619651878 0.34958422856948351 0 0.33098524373212779 0.34097115482511148 0 0.31754792985131319 0.33407860028266251 0 0.31819761964914162 0.3317202611915393 0 0.33098524373212779 0.34097115482511148 0 0.33070390014376189 0.32671415386220692 0 0.31819761964914162 0.3317202611915393 0 0.31754792985131319 0.33407860028266251 0 0.31143107469945219 0.32950606436234642 0 0.30973717401503431 0.33659403913573638 0 0.31754792985131319 0.33407860028266251 0 0.31505885183976062 0.34132149713042181 0 0.30973717401503431 0.33659403913573638 0 0.31754792985131319 0.33407860028266251 0 0.31505885183976062 0.34132149713042181 0 0.32237013619651878 0.34958422856948351 0 0.31754792985131319 0.33407860028266251 0 0.32237013619651878 0.34958422856948351 0 0.31505885183976062 0.34132149713042181 0 0.32237013619651878 0.34958422856948351 0 0.31058016729617599 0.34502912053380502 0 0.31405467429744599 0.35789772741545711 0 0.32237013619651878 0.34958422856948351 0 0.31058016729617599 0.34502912053380502 0 0.31405467429744599 0.35789772741545711 0 0.32538703623296361 0.35928496039115809 0 0.31405467429744599 0.35789772741545711 0 0.32237013619651878 0.34958422856948351 0 0.31405467429744599 0.35789772741545711 0 0.32538703623296361 0.35928496039115809 0 0.32237013619651878 0.34958422856948351 0 0.32538703623296361 0.35928496039115809 0 0.32237013619651878 0.34958422856948351 0 0.32895521929072657 0.35002540930122072 0 0.32538703623296361 0.35928496039115809 0 0.32237013619651878 0.34958422856948351 0 0.33098524373212779 0.34097115482511148 0 0.32237013619651878 0.34958422856948351 0 0.32895521929072657 0.35002540930122072 0 0.33098524373212779 0.34097115482511148 0 0.32237013619651878 0.34958422856948351 0 0.34679116555848472 0.3524055620806863 0 0.34651286173462392 0.33852889858808499 0 0.33098524373212779 0.34097115482511148 0 0.34679116555848472 0.3524055620806863 0 0.33098524373212779 0.34097115482511148 0 0.34399206180890157 0.36156246486371119 0 0.32538703623296361 0.35928496039115809 0 0.33542840262204709 0.35256228619535013 0 0.34679116555848472 0.3524055620806863 0 0.33098524373212779 0.34097115482511148 0 0.33542840262204709 0.35256228619535013 0 0.33098524373212779 0.34097115482511148 0 0.32895521929072657 0.35002540930122072 0 0.33542840262204709 0.35256228619535013 0 0.32538703623296361 0.35928496039115809 0 0.32895521929072657 0.35002540930122072 0 0.33542840262204709 0.35256228619535013 0 0.34679116555848472 0.3524055620806863 0 0.34399206180890157 0.36156246486371119 0 0.33542840262204709 0.35256228619535013 0 0.34399206180890157 0.36156246486371119 0 0.32538703623296361 0.35928496039115809 0 0.34399206180890157 0.36156246486371119 0 0.32538703623296361 0.35928496039115809 0 0.33596799247872972 0.36841915703708039 0 0.3314503847417693 0.37878143595041469 0 0.32538703623296361 0.35928496039115809 0 0.33596799247872972 0.36841915703708039 0 0.3314503847417693 0.37878143595041469 0 0.32538703623296361 0.35928496039115809 0 0.34399206180890157 0.36156246486371119 0 0.33596799247872972 0.36841915703708039 0 0.34304248713128438 0.37404776694303737 0 0.3314503847417693 0.37878143595041469 0 0.33596799247872972 0.36841915703708039 0 0.34304248713128438 0.37404776694303737 0 0.3314503847417693 0.37878143595041469 0 0.32538703623296361 0.35928496039115809 0 0.31626784915670098 0.36787240609010818 0 0.31405467429744599 0.35789772741545711 0 0.32538703623296361 0.35928496039115809 0 0.31626784915670098 0.36787240609010818 0 0.29972124458137622 0.37550813047636539 0 0.31496357018296728 0.37905743547334658 0 0.30473274432155167 0.36728082176545268 0 0.31405467429744599 0.35789772741545711 0 0.30701868516350778 0.36493205554481928 0 0.29450191846013662 0.35550420805755861 0 0.31496357018296728 0.37905743547334658 0 0.30473274432155167 0.36728082176545268 0 0.31496357018296728 0.37905743547334658 0 0.31626784915670098 0.36787240609010818 0 0.30473274432155167 0.36728082176545268 0 0.31626784915670098 0.36787240609010818 0 0.30473274432155167 0.36728082176545268 0 0.30701868516350778 0.36493205554481928 0 0.31405467429744599 0.35789772741545711 0 0.31626784915670098 0.36787240609010818 0 0.30701868516350778 0.36493205554481928 0 0.31405467429744599 0.35789772741545711 0 0.30701868516350778 0.36493205554481928 0 0.30473274432155167 0.36728082176545268 0 0.29450191846013662 0.35550420805755861 0 0.29518476075007832 0.36680934634917622 0 0.30473274432155167 0.36728082176545268 0 0.29450191846013662 0.35550420805755861 0 0.30473274432155167 0.36728082176545268 0 0.30701868516350778 0.36493205554481928 0 0.29450191846013662 0.35550420805755861 0 0.29972124458137622 0.37550813047636539 0 0.30473274432155167 0.36728082176545268 0 0.29518476075007832 0.36680934634917622 0 0.31405467429744599 0.35789772741545711 0 0.29450191846013662 0.35550420805755861 0 0.31405467429744599 0.35789772741545711 0 0.30278382670870702 0.34805688440119747 0 0.29450191846013662 0.35550420805755861 0 0.31405467429744599 0.35789772741545711 0 0.31058016729617599 0.34502912053380502 0 0.30278382670870702 0.34805688440119747 0 0.30278382670870702 0.34805688440119747 0 0.29450191846013662 0.35550420805755861 0 0.2937099653372976 0.34287116179190269 0 0.29450191846013662 0.35550420805755861 0 0.2793559548019372 0.33806982244172079 0 0.2937099653372976 0.34287116179190269 0 0.29450191846013662 0.35550420805755861 0 0.28355341811785229 0.3639184495724655 0 0.26752999338708577 0.3522024829544933 0 0.29450191846013662 0.35550420805755861 0 0.2793559548019372 0.33806982244172079 0 0.28963733013387549 0.37144658513855539 0 0.29518476075007832 0.36680934634917622 0 0.28355341811785229 0.3639184495724655 0 0.29972124458137622 0.37550813047636539 0 0.28963733013387549 0.37144658513855539 0 0.29518476075007832 0.36680934634917622 0 0.29450191846013662 0.35550420805755861 0 0.29518476075007832 0.36680934634917622 0 0.28355341811785229 0.3639184495724655 0 0.28963733013387549 0.37144658513855539 0 0.28355341811785229 0.3639184495724655 0 0.28093794648887982 0.3722492246794134 0 0.28093794648887982 0.3722492246794134 0 0.27254019520173922 0.37341925670894988 0 0.27352855948705762 0.36529885025559578 0 0.28355341811785229 0.3639184495724655 0 0.27352855948705762 0.36529885025559578 0 0.26752999338708577 0.3522024829544933 0 0.27254019520173922 0.37341925670894988 0 0.27352855948705762 0.36529885025559578 0 0.26213368565727008 0.36535893198777969 0 0.26533118443416442 0.37922214696953899 0 0.27254019520173922 0.37341925670894988 0 0.26213368565727008 0.36535893198777969 0 0.27352855948705762 0.36529885025559578 0 0.26752999338708577 0.3522024829544933 0 0.26213368565727008 0.36535893198777969 0 0.28355341811785229 0.3639184495724655 0 0.28093794648887982 0.3722492246794134 0 0.27352855948705762 0.36529885025559578 0 0.29450191846013662 0.35550420805755861 0 0.26752999338708577 0.3522024829544933 0 0.2793559548019372 0.33806982244172079 0 0.29450191846013662 0.35550420805755861 0 0.26752999338708577 0.3522024829544933 0 0.24055806831403501 0.34890075785142888 0 0.26752999338708577 0.3522024829544933 0 0.24055806831403501 0.34890075785142888 0 0.26752999338708577 0.3522024829544933 0 0.25612961372196341 0.33744338512413458 0 0.24055806831403501 0.34890075785142888 0 0.26752999338708577 0.3522024829544933 0 0.26213368565727008 0.36535893198777969 0 0.24055806831403501 0.34890075785142888 0 0.25032230139794032 0.37255488625652478 0 0.26213368565727008 0.36535893198777969 0 0.26533118443416442 0.37922214696953899 0 0.25032230139794032 0.37255488625652478 0 0.26213368565727008 0.36535893198777969 0 0.24381142030338651 0.3120941599622109 0 0.26420999114373822 0.32063543682588269 0 0.25270017776836018 0.31991462494295497 0 0.24381142030338651 0.3120941599622109 0 0.26420999114373822 0.32063543682588269 0 0.25645095375317217 0.31086419684494349 0 0.24381142030338651 0.3120941599622109 0 0.26420999114373822 0.32063543682588269 0 0.2599469360804143 0.32226912351370191 0 0.26420999114373822 0.32063543682588269 0 0.25270017776836018 0.31991462494295497 0 0.26309276358084382 0.32767738670837498 0 0.26420999114373822 0.32063543682588269 0 0.26787794992287922 0.33274508282959281 0 0.26100468645183011 0.32442048465923029 0 0.26309276358084382 0.32767738670837498 0 0.25676905500232428 0.32709999158896169 0 0.2599469360804143 0.32226912351370191 0 0.26100468645183011 0.32442048465923029 0 0.25676905500232428 0.32709999158896169 0 0.26100468645183011 0.32442048465923029 0 0.26309276358084382 0.32767738670837498 0 0.26420999114373822 0.32063543682588269 0 0.2599469360804143 0.32226912351370191 0 0.26100468645183011 0.32442048465923029 0 0.26420999114373822 0.32063543682588269 0 0.26420999114373822 0.32063543682588269 0 0.25645095375317217 0.31086419684494349 0 0.26325425672306052 0.31216287829734279 0 0.24366474358906451 0.32861555715077512 0 0.25270017776836018 0.31991462494295497 0 0.25676905500232428 0.32709999158896169 0 0.2599469360804143 0.32226912351370191 0 0.25270017776836018 0.31991462494295497 0 0.25676905500232428 0.32709999158896169 0 0.26752999338708577 0.3522024829544933 0 0.25612961372196341 0.33744338512413458 0 0.26787794992287922 0.33274508282959281 0 0.24366474358906451 0.32861555715077512 0 0.25676905500232428 0.32709999158896169 0 0.25612961372196341 0.33744338512413458 0 0.26309276358084382 0.32767738670837498 0 0.25612961372196341 0.33744338512413458 0 0.26787794992287922 0.33274508282959281 0 0.26309276358084382 0.32767738670837498 0 0.25676905500232428 0.32709999158896169 0 0.25612961372196341 0.33744338512413458 0 0.26420999114373822 0.32063543682588269 0 0.26787794992287922 0.33274508282959281 0 0.2793559548019372 0.33806982244172079 0 0.26752999338708577 0.3522024829544933 0 0.26787794992287922 0.33274508282959281 0 0.2793559548019372 0.33806982244172079 0 0.26420999114373822 0.32063543682588269 0 0.2793559548019372 0.33806982244172079 0 0.26420999114373822 0.32063543682588269 0 0.2793559548019372 0.33806982244172079 0 0.28477812391035739 0.32746475730367008 0 0.26420999114373822 0.32063543682588269 0 0.27223352305966958 0.31505557252207761 0 0.28477812391035739 0.32746475730367008 0 0.26420999114373822 0.32063543682588269 0 0.28477812391035739 0.32746475730367008 0 0.26420999114373822 0.32063543682588269 0 0.27223352305966958 0.31505557252207761 0 0.26325425672306052 0.31216287829734279 0 0.27223352305966958 0.31505557252207761 0 0.28060480716910952 0.3140811372286943 0 0.28477812391035739 0.32746475730367008 0 0.28060480716910952 0.3140811372286943 0 0.28845926737261202 0.31743761609996463 0 0.28477812391035739 0.32746475730367008 0 0.28845926737261202 0.31743761609996463 0 0.28477812391035739 0.32746475730367008 0 0.29523183980953471 0.32622880200977722 0 0.28845926737261202 0.31743761609996463 0 0.29523183980953471 0.32622880200977722 0 0.29613542356991629 0.31412305796294832 0 0.2793559548019372 0.33806982244172079 0 0.29082965840232089 0.33472334955086702 0 0.2937099653372976 0.34287116179190269 0 0.2793559548019372 0.33806982244172079 0 0.28477812391035739 0.32746475730367008 0 0.29082965840232089 0.33472334955086702 0 0.28477812391035739 0.32746475730367008 0 0.29523183980953471 0.32622880200977722 0 0.29082965840232089 0.33472334955086702 0 0.29523183980953471 0.32622880200977722 0 0.29082965840232089 0.33472334955086702 0 0.30107846831338619 0.33800154450816972 0 0.29082965840232089 0.33472334955086702 0 0.2937099653372976 0.34287116179190269 0 0.30107846831338619 0.33800154450816972 0 0.30278382670870702 0.34805688440119747 0 0.2937099653372976 0.34287116179190269 0 0.30107846831338619 0.33800154450816972 0 0.29523183980953471 0.32622880200977722 0 0.30107846831338619 0.33800154450816972 0 0.30571347142535349 0.32877864603514551 0 0.30571347142535349 0.32877864603514551 0 0.31143107469945219 0.32950606436234642 0 0.30973717401503431 0.33659403913573638 0 0.30107846831338619 0.33800154450816972 0 0.30571347142535349 0.32877864603514551 0 0.30973717401503431 0.33659403913573638 0 0.31058016729617599 0.34502912053380502 0 0.30107846831338619 0.33800154450816972 0 0.30973717401503431 0.33659403913573638 0 0.31505885183976062 0.34132149713042181 0 0.31058016729617599 0.34502912053380502 0 0.30973717401503431 0.33659403913573638 0 0.31058016729617599 0.34502912053380502 0 0.30278382670870702 0.34805688440119747 0 0.30107846831338619 0.33800154450816972 0 0.29523183980953471 0.32622880200977722 0 0.29613542356991629 0.31412305796294832 0 0.30291901509988739 0.31999676783333519 0 0.29613542356991629 0.31412305796294832 0 0.30291901509988739 0.31999676783333519 0 0.30660499519427897 0.30981633258742169 0 0.29523183980953471 0.32622880200977722 0 0.30571347142535349 0.32877864603514551 0 0.30291901509988739 0.31999676783333519 0 0.31272572350610789 0.31857297199584139 0 0.30571347142535349 0.32877864603514551 0 0.30291901509988739 0.31999676783333519 0 0.31272572350610789 0.31857297199584139 0 0.30571347142535349 0.32877864603514551 0 0.31143107469945219 0.32950606436234642 0 0.31272572350610789 0.31857297199584139 0 0.30291901509988739 0.31999676783333519 0 0.30660499519427897 0.30981633258742169 0 0.30660499519427897 0.30981633258742169 0 0.30831833788332819 0.29519688144262979 0 0.32144453974698861 0.30725792182376888 0 0.30660499519427897 0.30981633258742169 0 0.29736532794027859 0.30272340778505991 0 0.30831833788332819 0.29519688144262979 0 0.29613542356991629 0.31412305796294832 0 0.30660499519427897 0.30981633258742169 0 0.29736532794027859 0.30272340778505991 0 0.29736532794027859 0.30272340778505991 0 0.30831833788332819 0.29519688144262979 0 0.28675804423772572 0.28426090486902239 0 0.30831833788332819 0.29519688144262979 0 0.28675804423772572 0.28426090486902239 0 0.31137944519083521 0.27644014019596791 0 0.28675804423772572 0.28426090486902239 0 0.28554614240414172 0.30529032599473332 0 0.27706271565040108 0.29640502426557019 0 0.29736532794027859 0.30272340778505991 0 0.28675804423772572 0.28426090486902239 0 0.28554614240414172 0.30529032599473332 0 0.29613542356991629 0.31412305796294832 0 0.29736532794027859 0.30272340778505991 0 0.28554614240414172 0.30529032599473332 0 0.28845926737261202 0.31743761609996463 0 0.29613542356991629 0.31412305796294832 0 0.28554614240414172 0.30529032599473332 0 0.28060480716910952 0.3140811372286943 0 0.28845926737261202 0.31743761609996463 0 0.28554614240414172 0.30529032599473332 0 0.28060480716910952 0.3140811372286943 0 0.28554614240414172 0.30529032599473332 0 0.27321042294001102 0.30645508555286999 0 0.27223352305966958 0.31505557252207761 0 0.28060480716910952 0.3140811372286943 0 0.27321042294001102 0.30645508555286999 0 0.27223352305966958 0.31505557252207761 0 0.26834863164926631 0.30987218381971848 0 0.26325425672306052 0.31216287829734279 0 0.27223352305966958 0.31505557252207761 0 0.27321042294001102 0.30645508555286999 0 0.26834863164926631 0.30987218381971848 0 0.27321042294001102 0.30645508555286999 0 0.26834863164926631 0.30987218381971848 0 0.26469632387432401 0.30581519890658371 0 0.27321042294001102 0.30645508555286999 0 0.26768880813542212 0.30012710896637668 0 0.27706271565040108 0.29640502426557019 0 0.27321042294001102 0.30645508555286999 0 0.26768880813542212 0.30012710896637668 0 0.26469632387432401 0.30581519890658371 0 0.28554614240414172 0.30529032599473332 0 0.27321042294001102 0.30645508555286999 0 0.27706271565040108 0.29640502426557019 0 0.28675804423772572 0.28426090486902239 0 0.26213664328461622 0.29208166954207698 0 0.27186287575936352 0.28003484203897661 0 0.28675804423772572 0.28426090486902239 0 0.26213664328461622 0.29208166954207698 0 0.28675804423772572 0.28426090486902239 0 0.27706271565040108 0.29640502426557019 0 0.26213664328461622 0.29208166954207698 0 0.26768880813542212 0.30012710896637668 0 0.27706271565040108 0.29640502426557019 0 0.26213664328461622 0.29208166954207698 0 0.26213664328461622 0.29208166954207698 0 0.25364128886618398 0.29727423909542078 0 0.26133793492775831 0.29987856656478218 0 0.2375152423315067 0.29990243421513169 0 0.26213664328461622 0.29208166954207698 0 0.25364128886618398 0.29727423909542078 0 0.26213664328461622 0.29208166954207698 0 0.25637993889506672 0.28010054666964329 0 0.27186287575936352 0.28003484203897661 0 0.24878954573224371 0.29139866065287068 0 0.26213664328461622 0.29208166954207698 0 0.25637993889506672 0.28010054666964329 0 0.24643472746184411 0.30390485595252292 0 0.25364128886618398 0.29727423909542078 0 0.25142141051806582 0.30575776194584758 0 0.25364128886618398 0.29727423909542078 0 0.25676866220574202 0.30465135787413999 0 0.25142141051806582 0.30575776194584758 0 0.25364128886618398 0.29727423909542078 0 0.25676866220574202 0.30465135787413999 0 0.26133793492775831 0.29987856656478218 0 0.24381142030338651 0.3120941599622109 0 0.25142141051806582 0.30575776194584758 0 0.25645095375317217 0.31086419684494349 0 0.25676866220574202 0.30465135787413999 0 0.25142141051806582 0.30575776194584758 0 0.25645095375317217 0.31086419684494349 0 0.25676866220574202 0.30465135787413999 0 0.25645095375317217 0.31086419684494349 0 0.26029254913907462 0.30837340798075252 0 0.25676866220574202 0.30465135787413999 0 0.26029254913907462 0.30837340798075252 0 0.26469632387432401 0.30581519890658371 0 0.25645095375317217 0.31086419684494349 0 0.26029254913907462 0.30837340798075252 0 0.26325425672306052 0.31216287829734279 0 0.26834863164926631 0.30987218381971848 0 0.26325425672306052 0.31216287829734279 0 0.26469632387432401 0.30581519890658371 0 0.26029254913907462 0.30837340798075252 0 0.26325425672306052 0.31216287829734279 0 0.26469632387432401 0.30581519890658371 0 0.26768880813542212 0.30012710896637668 0 0.26213664328461622 0.29208166954207698 0 0.26133793492775831 0.29987856656478218 0 0.25676866220574202 0.30465135787413999 0 0.26469632387432401 0.30581519890658371 0 0.26133793492775831 0.29987856656478218 0 0.26768880813542212 0.30012710896637668 0 0.26469632387432401 0.30581519890658371 0 0.26133793492775831 0.29987856656478218 0 0.24504868463077251 0.26138358684583268 0 0.25960414990954339 0.26407389330167691 0 0.25707991656272239 0.24440423681808779 0 0.25960414990954339 0.26407389330167691 0 0.27190787640768282 0.2498095979539795 0 0.25707991656272239 0.24440423681808779 0 0.2485760741131082 0.27105116205898022 0 0.24504868463077251 0.26138358684583268 0 0.25960414990954339 0.26407389330167691 0 0.2485760741131082 0.27105116205898022 0 0.25960414990954339 0.26407389330167691 0 0.25637993889506672 0.28010054666964329 0 0.25960414990954339 0.26407389330167691 0 0.25637993889506672 0.28010054666964329 0 0.27553387776635629 0.26471234886904071 0 0.25637993889506672 0.28010054666964329 0 0.27553387776635629 0.26471234886904071 0 0.25637993889506672 0.28010054666964329 0 0.27186287575936352 0.28003484203897661 0 0.27553387776635629 0.26471234886904071 0 0.28675804423772572 0.28426090486902239 0 0.27186287575936352 0.28003484203897661 0 0.27553387776635629 0.26471234886904071 0 0.27553387776635629 0.26471234886904071 0 0.27190787640768282 0.2498095979539795 0 0.29468781663764593 0.24932415106843811 0 0.25960414990954339 0.26407389330167691 0 0.27553387776635629 0.26471234886904071 0 0.27190787640768282 0.2498095979539795 0 0.27553387776635629 0.26471234886904071 0 0.29468781663764593 0.24932415106843811 0 0.27553387776635629 0.26471234886904071 0 0.29432078314075399 0.26710161558215523 0 0.29468781663764593 0.24932415106843811 0 0.28675804423772572 0.28426090486902239 0 0.27553387776635629 0.26471234886904071 0 0.29432078314075399 0.26710161558215523 0 0.28675804423772572 0.28426090486902239 0 0.29432078314075399 0.26710161558215523 0 0.31137944519083521 0.27644014019596791 0 0.28675804423772572 0.28426090486902239 0 0.31137944519083521 0.27644014019596791 0 0.29432078314075399 0.26710161558215523 0 0.31137944519083521 0.27644014019596791 0 0.30852925462888448 0.25868086444592581 0 0.29432078314075399 0.26710161558215523 0 0.30852925462888448 0.25868086444592581 0 0.29468781663764593 0.24932415106843811 0 0.30852925462888448 0.25868086444592581 0 0.32268915691431888 0.25166915791209221 0 0.32647696306434548 0.26746258185224392 0 0.32268915691431888 0.25166915791209221 0 0.33341985818497039 0.25529895665708568 0 0.32647696306434548 0.26746258185224392 0 0.33341985818497039 0.25529895665708568 0 0.34370829945944981 0.26266577806420011 0 0.32647696306434548 0.26746258185224392 0 0.32268915691431888 0.25166915791209221 0 0.33341985818497039 0.25529895665708568 0 0.33309550011116479 0.2449527013720692 0 0.33341985818497039 0.25529895665708568 0 0.34370829945944981 0.26266577806420011 0 0.34278494234848489 0.24961372375922861 0 0.34370829945944981 0.26266577806420011 0 0.34135003345050208 0.27890129902237393 0 0.32647696306434548 0.26746258185224392 0 0.34135003345050208 0.27890129902237393 0 0.32647696306434548 0.26746258185224392 0 0.32543054460421122 0.28799399566683692 0 0.31137944519083521 0.27644014019596791 0 0.30852925462888448 0.25868086444592581 0 0.32647696306434548 0.26746258185224392 0 0.31137944519083521 0.27644014019596791 0 0.32647696306434548 0.26746258185224392 0 0.32543054460421122 0.28799399566683692 0 0.30831833788332819 0.29519688144262979 0 0.32543054460421122 0.28799399566683692 0 0.32144453974698861 0.30725792182376888 0 0.30831833788332819 0.29519688144262979 0 0.31137944519083521 0.27644014019596791 0 0.32543054460421122 0.28799399566683692 0 0.31272572350610789 0.31857297199584139 0 0.30660499519427897 0.30981633258742169 0 0.32144453974698861 0.30725792182376888 0 0.32543054460421122 0.28799399566683692 0 0.32144453974698861 0.30725792182376888 0 0.34289138469250829 0.2998793561861135 0 0.33297757749691842 0.31585433336743879 0 0.32144453974698861 0.30725792182376888 0 0.34289138469250829 0.2998793561861135 0 0.34135003345050208 0.27890129902237393 0 0.32543054460421122 0.28799399566683692 0 0.34289138469250829 0.2998793561861135 0 0.34289138469250829 0.2998793561861135 0 0.36773981072628009 0.30422526457886739 0 0.36089581486711958 0.28172764138990991 0 0.34135003345050208 0.27890129902237393 0 0.34289138469250829 0.2998793561861135 0 0.36089581486711958 0.28172764138990991 0 0.34936252722920402 0.32259820970198971 0 0.34289138469250829 0.2998793561861135 0 0.36773981072628009 0.30422526457886739 0 0.36773981072628009 0.30422526457886739 0 0.36089581486711958 0.28172764138990991 0 0.38611709422335622 0.28585231945574507 0 0.36089581486711958 0.28172764138990991 0 0.35982328973639688 0.26183076911645248 0 0.37676467391911239 0.27108188827527008 0 0.36089581486711958 0.28172764138990991 0 0.37676467391911239 0.27108188827527008 0 0.38611709422335622 0.28585231945574507 0 0.37479197421724081 0.25970988300831438 0 0.35982328973639688 0.26183076911645248 0 0.37676467391911239 0.27108188827527008 0 0.36615677495489168 0.25294791763754748 0 0.3656525742052178 0.24792632527541669 0 0.37671128770489021 0.24988763889950741 0 0.37479197421724081 0.25970988300831438 0 0.36615677495489168 0.25294791763754748 0 0.37671128770489021 0.24988763889950741 0 0.36615677495489168 0.25294791763754748 0 0.35982328973639688 0.26183076911645248 0 0.35845142046435519 0.2481292971720023 0 0.37479197421724081 0.25970988300831438 0 0.36615677495489168 0.25294791763754748 0 0.35982328973639688 0.26183076911645248 0 0.34370829945944981 0.26266577806420011 0 0.35982328973639688 0.26183076911645248 0 0.35080130212163568 0.25340632700122723 0 0.34370829945944981 0.26266577806420011 0 0.35982328973639688 0.26183076911645248 0 0.3514443593783671 0.27128137189823409 0 0.35982328973639688 0.26183076911645248 0 0.35080130212163568 0.25340632700122723 0 0.35845142046435519 0.2481292971720023 0 0.34370829945944981 0.26266577806420011 0 0.35080130212163568 0.25340632700122723 0 0.34278494234848489 0.24961372375922861 0 0.34370829945944981 0.26266577806420011 0 0.34135003345050208 0.27890129902237393 0 0.3514443593783671 0.27128137189823409 0 0.36089581486711958 0.28172764138990991 0 0.35982328973639688 0.26183076911645248 0 0.3514443593783671 0.27128137189823409 0 0.34135003345050208 0.27890129902237393 0 0.36089581486711958 0.28172764138990991 0 0.3514443593783671 0.27128137189823409 0 0.40449437772043229 0.26747937433262281 0 0.38611709422335622 0.28585231945574507 0 0.40449437772043229 0.26747937433262281 0 0.39046999765845342 0.27180369579410818 0 0.38611709422335622 0.28585231945574507 0 0.40449437772043229 0.26747937433262281 0 0.38611709422335622 0.28585231945574507 0 0.40471959242091221 0.28372969487263822 0 0.40449437772043229 0.26747937433262281 0 0.39450384477091283 0.26280120111279481 0 0.39046999765845342 0.27180369579410818 0 0.40449437772043229 0.26747937433262281 0 0.4004048341478289 0.25871377834445641 0 0.39450384477091283 0.26280120111279481 0 0.40449437772043229 0.26747937433262281 0 0.4004048341478289 0.25871377834445641 0 0.40817297360782467 0.25266924123366369 0 0.4004048341478289 0.25871377834445641 0 0.39444814049214599 0.25190529669874417 0 0.40817297360782467 0.25266924123366369 0 0.4004048341478289 0.25871377834445641 0 0.39444814049214599 0.25190529669874417 0 0.39450384477091283 0.26280120111279481 0 0.39444814049214599 0.25190529669874417 0 0.39450384477091283 0.26280120111279481 0 0.37671128770489021 0.24988763889950741 0 0.39450384477091283 0.26280120111279481 0 0.37671128770489021 0.24988763889950741 0 0.37479197421724081 0.25970988300831438 0 0.39450384477091283 0.26280120111279481 0 0.37676467391911239 0.27108188827527008 0 0.37479197421724081 0.25970988300831438 0 0.39450384477091283 0.26280120111279481 0 0.37671128770489021 0.24988763889950741 0 0.39450384477091283 0.26280120111279481 0 0.37676467391911239 0.27108188827527008 0 0.39046999765845342 0.27180369579410818 0 0.37676467391911239 0.27108188827527008 0 0.39046999765845342 0.27180369579410818 0 0.38611709422335622 0.28585231945574507 0 0.36773981072628009 0.30422526457886739 0 0.38611709422335622 0.28585231945574507 0 0.36773981072628009 0.30422526457886739 0 0.38611709422335622 0.28585231945574507 0 0.39295798837812679 0.30762795230367379 0 0.36773981072628009 0.30422526457886739 0 0.39295798837812679 0.30762795230367379 0 0.38316815610072558 0.32262777247852259 0 0.39295798837812679 0.30762795230367379 0 0.40373930962110632 0.29670835588711791 0 0.41172018229403379 0.30871133947340201 0 0.38611709422335622 0.28585231945574507 0 0.39295798837812679 0.30762795230367379 0 0.40373930962110632 0.29670835588711791 0 0.38611709422335622 0.28585231945574507 0 0.40373930962110632 0.29670835588711791 0 0.40471959242091221 0.28372969487263822 0 0.41666971732761648 0.29191342126796022 0 0.42604554499035691 0.27579765485749919 0 0.41328589142404021 0.27677931522495591 0 0.40471959242091221 0.28372969487263822 0 0.41666971732761648 0.29191342126796022 0 0.41328589142404021 0.27677931522495591 0 0.40373930962110632 0.29670835588711791 0 0.40471959242091221 0.28372969487263822 0 0.41666971732761648 0.29191342126796022 0 0.40373930962110632 0.29670835588711791 0 0.41666971732761648 0.29191342126796022 0 0.41172018229403379 0.30871133947340201 0 0.41666971732761648 0.29191342126796022 0 0.41172018229403379 0.30871133947340201 0 0.4280759724377009 0.30677724393992623 0 0.4280759724377009 0.30677724393992623 0 0.43220307264267749 0.29072691731064199 0 0.44496169393389678 0.30427973287693888 0 0.4280759724377009 0.30677724393992623 0 0.44496169393389678 0.30427973287693888 0 0.43591587566339068 0.31933811015904079 0 0.41666971732761648 0.29191342126796022 0 0.43220307264267749 0.29072691731064199 0 0.42604554499035691 0.27579765485749919 0 0.41666971732761648 0.29191342126796022 0 0.4280759724377009 0.30677724393992623 0 0.43220307264267749 0.29072691731064199 0 0.42604554499035691 0.27579765485749919 0 0.43288204316109491 0.26213631554276889 0 0.44659232828735429 0.27478186559609591 0 0.43220307264267749 0.29072691731064199 0 0.42604554499035691 0.27579765485749919 0 0.44659232828735429 0.27478186559609591 0 0.42604554499035691 0.27579765485749919 0 0.42067771866944259 0.26571162973549622 0 0.43288204316109491 0.26213631554276889 0 0.40449437772043229 0.26747937433262281 0 0.42067771866944259 0.26571162973549622 0 0.41328589142404021 0.27677931522495591 0 0.40449437772043229 0.26747937433262281 0 0.40471959242091221 0.28372969487263822 0 0.41328589142404021 0.27677931522495591 0 0.42604554499035691 0.27579765485749919 0 0.42067771866944259 0.26571162973549622 0 0.41328589142404021 0.27677931522495591 0 0.40449437772043229 0.26747937433262281 0 0.42067771866944259 0.26571162973549622 0 0.42287166121750841 0.24910642920950041 0 0.40449437772043229 0.26747937433262281 0 0.42287166121750841 0.24910642920950041 0 0.40449437772043229 0.26747937433262281 0 0.40817297360782467 0.25266924123366369 0 0.42287166121750841 0.24910642920950041 0 0.42067771866944259 0.26571162973549622 0 0.43288204316109491 0.26213631554276889 0 0.42287166121750841 0.24910642920950041 0 0.43288204316109491 0.26213631554276889 0 0.42287166121750841 0.24910642920950041 0 0.44822296264081168 0.24528399831525291 0 0.44659232828735429 0.27478186559609591 0 0.46184031671319897 0.26111925479017611 0 0.44822296264081168 0.24528399831525291 0 0.44659232828735429 0.27478186559609591 0 0.44822296264081168 0.24528399831525291 0 0.43288204316109491 0.26213631554276889 0 0.44659232828735429 0.27478186559609591 0 0.44822296264081168 0.24528399831525291 0 0.44659232828735429 0.27478186559609591 0 0.46184031671319897 0.26111925479017611 0 0.47089198070773641 0.27727543007071559 0 0.46184031671319897 0.26111925479017611 0 0.46710251890239107 0.2460923996478282 0 0.44822296264081168 0.24528399831525291 0 0.46184031671319897 0.26111925479017611 0 0.4763917930277014 0.26216258032098788 0 0.46710251890239107 0.2460923996478282 0 0.4763917930277014 0.26216258032098788 0 0.48643802074001102 0.26089650620487798 0 0.48566745153424518 0.2451984492258496 0 0.4763917930277014 0.26216258032098788 0 0.46710251890239107 0.2460923996478282 0 0.48566745153424518 0.2451984492258496 0 0.4763917930277014 0.26216258032098788 0 0.4866309801350136 0.27138981755606367 0 0.48643802074001102 0.26089650620487798 0 0.4763917930277014 0.26216258032098788 0 0.47089198070773641 0.27727543007071559 0 0.4866309801350136 0.27138981755606367 0 0.47089198070773641 0.27727543007071559 0 0.4866309801350136 0.27138981755606367 0 0.48657671668641139 0.28872683022573858 0 0.46184031671319897 0.26111925479017611 0 0.4763917930277014 0.26216258032098788 0 0.47089198070773641 0.27727543007071559 0 0.4866309801350136 0.27138981755606367 0 0.5 0.26970012890381417 0 0.48657671668641139 0.28872683022573858 0 0.4866309801350136 0.27138981755606367 0 0.49706185826308402 0.26483517771661069 0 0.48643802074001102 0.26089650620487798 0 0.4866309801350136 0.27138981755606367 0 0.5 0.26970012890381417 0 0.49706185826308402 0.26483517771661069 0 0.5 0.26970012890381417 0 0.49706185826308402 0.26483517771661069 0 0.5 0.24027237689535891 0 0.49706185826308402 0.26483517771661069 0 0.5 0.24027237689535891 0 0.48566745153424518 0.2451984492258496 0 0.49706185826308402 0.26483517771661069 0 0.48566745153424518 0.2451984492258496 0 0.49706185826308402 0.26483517771661069 0 0.48643802074001102 0.26089650620487798 0 0.48566745153424518 0.2451984492258496 0 0.50000000000000067 0.29912788091226972 0 0.48184601419489292 0.30834956382593981 0 0.50000000000000067 0.29912788091226972 0 0.48184601419489292 0.30834956382593981 0 0.49999999999999878 0.32600928096046877 0 0.50000000000000067 0.29912788091226972 0 0.48657671668641139 0.28872683022573858 0 0.48184601419489292 0.30834956382593981 0 0.5 0.26970012890381417 0 0.50000000000000067 0.29912788091226972 0 0.48657671668641139 0.28872683022573858 0 0.47089198070773641 0.27727543007071559 0 0.48657671668641139 0.28872683022573858 0 0.46556535932592158 0.29721001758283139 0 0.48184601419489292 0.30834956382593981 0 0.46556535932592158 0.29721001758283139 0 0.46369202838978502 0.31757124673960968 0 0.48657671668641139 0.28872683022573858 0 0.48184601419489292 0.30834956382593981 0 0.46556535932592158 0.29721001758283139 0 0.46556535932592158 0.29721001758283139 0 0.44496169393389678 0.30427973287693888 0 0.46369202838978502 0.31757124673960968 0 0.44659232828735429 0.27478186559609591 0 0.47089198070773641 0.27727543007071559 0 0.46556535932592158 0.29721001758283139 0 0.44659232828735429 0.27478186559609591 0 0.44496169393389678 0.30427973287693888 0 0.44659232828735429 0.27478186559609591 0 0.46556535932592158 0.29721001758283139 0 0.44496169393389678 0.30427973287693888 0 0.43220307264267749 0.29072691731064199 0 0.44659232828735429 0.27478186559609591 0 0.44496169393389678 0.30427973287693888 0 0.44496169393389678 0.30427973287693888 0 0.44333105958043939 0.33377760015778152 0 0.43591587566339068 0.31933811015904079 0 0.44496169393389678 0.30427973287693888 0 0.44553804258467711 0.32679292965327938 0 0.44333105958043939 0.33377760015778152 0 0.44496169393389678 0.30427973287693888 0 0.44553804258467711 0.32679292965327938 0 0.46369202838978502 0.31757124673960968 0 0.44496169393389678 0.30427973287693888 0 0.44333105958043939 0.33377760015778152 0 0.44333105958043939 0.33377760015778152 0 0.43467495465385958 0.33015747709462789 0 0.43591587566339068 0.31933811015904079 0 0.43915145600750172 0.34074585403041779 0 0.44865378688689511 0.33781144593990248 0 0.44640073116452011 0.34464789406614799 0 0.43915145600750172 0.34074585403041779 0 0.44333105958043939 0.33377760015778152 0 0.44865378688689511 0.33781144593990248 0 0.43915145600750172 0.34074585403041779 0 0.44333105958043939 0.33377760015778152 0 0.43467495465385958 0.33015747709462789 0 0.44333105958043939 0.33377760015778152 0 0.44865378688689511 0.33781144593990248 0 0.45361211497051568 0.33289804741491991 0 0.44553804258467711 0.32679292965327938 0 0.44333105958043939 0.33377760015778152 0 0.45361211497051568 0.33289804741491991 0 0.44865378688689511 0.33781144593990248 0 0.45457445685786058 0.34237901330598808 0 0.44640073116452011 0.34464789406614799 0 0.44865378688689511 0.33781144593990248 0 0.45457445685786058 0.34237901330598808 0 0.45361211497051568 0.33289804741491991 0 0.46407624130802111 0.33665173893483702 0 0.46369202838978502 0.31757124673960968 0 0.47724061759298397 0.33026024406778209 0 0.45361211497051568 0.33289804741491991 0 0.46407624130802111 0.33665173893483702 0 0.46369202838978502 0.31757124673960968 0 0.45457445685786058 0.34237901330598808 0 0.46407624130802111 0.33665173893483702 0 0.46170711303372342 0.34850709510409023 0 0.45457445685786058 0.34237901330598808 0 0.45361211497051568 0.33289804741491991 0 0.46407624130802111 0.33665173893483702 0 0.46407624130802111 0.33665173893483702 0 0.47097198565292597 0.34421704260573421 0 0.46170711303372342 0.34850709510409023 0 0.44553804258467711 0.32679292965327938 0 0.46369202838978502 0.31757124673960968 0 0.44553804258467711 0.32679292965327938 0 0.45361211497051568 0.33289804741491991 0 0.46369202838978502 0.31757124673960968 0 0.48184601419489292 0.30834956382593981 0 0.46369202838978502 0.31757124673960968 0 0.47724061759298397 0.33026024406778209 0 0.48184601419489292 0.30834956382593981 0 0.46369202838978502 0.31757124673960968 0 0.47724061759298397 0.33026024406778209 0 0.48229261755431191 0.34851408157391323 0 0.47097198565292597 0.34421704260573421 0 0.46407624130802111 0.33665173893483702 0 0.47724061759298397 0.33026024406778209 0 0.47097198565292597 0.34421704260573421 0 0.47724061759298397 0.33026024406778209 0 0.49999999999999878 0.32600928096046877 0 0.48229261755431191 0.34851408157391323 0 0.49999999999999878 0.32600928096046877 0 0.48229261755431191 0.34851408157391323 0 0.49999999999999878 0.32600928096046877 0 0.5 0.35272209336305538 0 0.48229261755431191 0.34851408157391323 0 0.48184601419489292 0.30834956382593981 0 0.47724061759298397 0.33026024406778209 0 0.49999999999999878 0.32600928096046877 0 0.48672874797716248 0.36653538459412621 0 0.5 0.35272209336305538 0 0.5 0.37943490576564198 0 0.48672874797716248 0.36653538459412621 0 0.5 0.35272209336305538 0 0.48229261755431191 0.34851408157391323 0 0.48229261755431191 0.34851408157391323 0 0.46458523510862559 0.37101888218735812 0 0.4678089628420341 0.35533667517516693 0 0.48229261755431191 0.34851408157391323 0 0.47097198565292597 0.34421704260573421 0 0.4678089628420341 0.35533667517516693 0 0.48229261755431191 0.34851408157391323 0 0.47562509019581239 0.36849131839889032 0 0.46458523510862559 0.37101888218735812 0 0.48229261755431191 0.34851408157391323 0 0.46458523510862559 0.37101888218735812 0 0.48672874797716248 0.36653538459412621 0 0.48229261755431191 0.34851408157391323 0 0.47562509019581239 0.36849131839889032 0 0.48672874797716248 0.36653538459412621 0 0.47562509019581239 0.36849131839889032 0 0.4787919741458061 0.38018383204314682 0 0.47562509019581239 0.36849131839889032 0 0.46572687619315578 0.37620441159590701 0 0.4787919741458061 0.38018383204314682 0 0.47562509019581239 0.36849131839889032 0 0.46458523510862559 0.37101888218735812 0 0.46572687619315578 0.37620441159590701 0 0.46458523510862559 0.37101888218735812 0 0.46168911539056212 0.36299934372973941 0 0.46048889089564909 0.36781975699678848 0 0.46458523510862559 0.37101888218735812 0 0.46168911539056212 0.36299934372973941 0 0.4678089628420341 0.35533667517516693 0 0.46458523510862559 0.37101888218735812 0 0.45846675515298052 0.37306230631500031 0 0.46048889089564909 0.36781975699678848 0 0.46168911539056212 0.36299934372973941 0 0.45652522041395821 0.3646744207984598 0 0.46048889089564909 0.36781975699678848 0 0.45652522041395821 0.3646744207984598 0 0.44992858314573159 0.36075378154985988 0 0.45406389004972109 0.37503673180826952 0 0.46168911539056212 0.36299934372973941 0 0.45652522041395821 0.3646744207984598 0 0.45896764313334132 0.35685454013008322 0 0.45652522041395821 0.3646744207984598 0 0.45896764313334132 0.35685454013008322 0 0.44992858314573159 0.36075378154985988 0 0.45652522041395821 0.3646744207984598 0 0.45846675515298052 0.37306230631500031 0 0.45406389004972109 0.37503673180826952 0 0.45652522041395821 0.3646744207984598 0 0.45846675515298052 0.37306230631500031 0 0.46048889089564909 0.36781975699678848 0 0.47097198565292597 0.34421704260573421 0 0.46170711303372342 0.34850709510409023 0 0.4678089628420341 0.35533667517516693 0 0.46170711303372342 0.34850709510409023 0 0.4678089628420341 0.35533667517516693 0 0.45896764313334132 0.35685454013008322 0 0.46168911539056212 0.36299934372973941 0 0.4678089628420341 0.35533667517516693 0 0.45896764313334132 0.35685454013008322 0 0.46170711303372342 0.34850709510409023 0 0.45896764313334132 0.35685454013008322 0 0.45239201476586682 0.35243949973553113 0 0.45896764313334132 0.35685454013008322 0 0.45239201476586682 0.35243949973553113 0 0.44992858314573159 0.36075378154985988 0 0.45457445685786058 0.34237901330598808 0 0.46170711303372342 0.34850709510409023 0 0.45239201476586682 0.35243949973553113 0 0.45457445685786058 0.34237901330598808 0 0.44640073116452011 0.34464789406614799 0 0.45239201476586682 0.35243949973553113 0 0.44640073116452011 0.34464789406614799 0 0.45239201476586682 0.35243949973553113 0 0.44476280487608899 0.35337506701276689 0 0.44476280487608899 0.35337506701276689 0 0.44992858314573159 0.36075378154985988 0 0.4419496264438969 0.36335331300765189 0 0.45239201476586682 0.35243949973553113 0 0.44476280487608899 0.35337506701276689 0 0.44992858314573159 0.36075378154985988 0 0.44476280487608899 0.35337506701276689 0 0.4419496264438969 0.36335331300765189 0 0.43562616503435941 0.34884599067991962 0 0.44640073116452011 0.34464789406614799 0 0.44476280487608899 0.35337506701276689 0 0.43562616503435941 0.34884599067991962 0 0.43915145600750172 0.34074585403041779 0 0.44640073116452011 0.34464789406614799 0 0.43562616503435941 0.34884599067991962 0 0.43119718938350071 0.37223754119026808 0 0.45406389004972109 0.37503673180826952 0 0.4419496264438969 0.36335331300765189 0 0.43119718938350071 0.37223754119026808 0 0.45406389004972109 0.37503673180826952 0 0.44992858314573159 0.36075378154985988 0 0.4419496264438969 0.36335331300765189 0 0.45406389004972109 0.37503673180826952 0 0.4419496264438969 0.36335331300765189 0 0.43119718938350071 0.37223754119026808 0 0.42478210285431972 0.35940413573023688 0 0.43119718938350071 0.37223754119026808 0 0.40833048871728028 0.3694383505722667 0 0.42478210285431972 0.35940413573023688 0 0.40833048871728028 0.3694383505722667 0 0.40901854583344238 0.35423254157498413 0 0.43119718938350071 0.37223754119026808 0 0.42478210285431972 0.35940413573023688 0 0.40833048871728028 0.3694383505722667 0 0.42478210285431972 0.35940413573023688 0 0.40901854583344238 0.35423254157498413 0 0.42054754720423648 0.34642255562729629 0 0.40901854583344238 0.35423254157498413 0 0.42054754720423648 0.34642255562729629 0 0.40787116693801401 0.34125817851233348 0 0.42054754720423648 0.34642255562729629 0 0.43562616503435941 0.34884599067991962 0 0.42980740797493322 0.33674923110484578 0 0.4419496264438969 0.36335331300765189 0 0.42478210285431972 0.35940413573023688 0 0.43562616503435941 0.34884599067991962 0 0.42478210285431972 0.35940413573023688 0 0.42054754720423648 0.34642255562729629 0 0.43562616503435941 0.34884599067991962 0 0.43915145600750172 0.34074585403041779 0 0.43562616503435941 0.34884599067991962 0 0.42980740797493322 0.33674923110484578 0 0.43915145600750172 0.34074585403041779 0 0.42980740797493322 0.33674923110484578 0 0.43467495465385958 0.33015747709462789 0 0.42980740797493322 0.33674923110484578 0 0.42390403761401602 0.32346696955272342 0 0.41738328801193308 0.33465473995497358 0 0.42980740797493322 0.33674923110484578 0 0.43467495465385958 0.33015747709462789 0 0.42390403761401602 0.32346696955272342 0 0.42054754720423648 0.34642255562729629 0 0.42980740797493322 0.33674923110484578 0 0.41738328801193308 0.33465473995497358 0 0.4280759724377009 0.30677724393992623 0 0.43591587566339068 0.31933811015904079 0 0.42390403761401602 0.32346696955272342 0 0.43467495465385958 0.33015747709462789 0 0.43591587566339068 0.31933811015904079 0 0.42390403761401602 0.32346696955272342 0 0.41172018229403379 0.30871133947340201 0 0.4280759724377009 0.30677724393992623 0 0.42390403761401602 0.32346696955272342 0 0.42390403761401602 0.32346696955272342 0 0.41738328801193308 0.33465473995497358 0 0.40478628032846559 0.32537676497766932 0 0.41172018229403379 0.30871133947340201 0 0.42390403761401602 0.32346696955272342 0 0.40478628032846559 0.32537676497766932 0 0.41738328801193308 0.33465473995497358 0 0.40787116693801401 0.34125817851233348 0 0.40478628032846559 0.32537676497766932 0 0.42054754720423648 0.34642255562729629 0 0.41738328801193308 0.33465473995497358 0 0.40787116693801401 0.34125817851233348 0 0.39272478611108252 0.33800801816363318 0 0.40478628032846559 0.32537676497766932 0 0.38316815610072558 0.32262777247852259 0 0.40787116693801401 0.34125817851233348 0 0.39272478611108252 0.33800801816363318 0 0.40478628032846559 0.32537676497766932 0 0.40787116693801401 0.34125817851233348 0 0.39272478611108252 0.33800801816363318 0 0.3990715992870717 0.34970370205677842 0 0.39295798837812679 0.30762795230367379 0 0.41172018229403379 0.30871133947340201 0 0.40478628032846559 0.32537676497766932 0 0.39295798837812679 0.30762795230367379 0 0.40478628032846559 0.32537676497766932 0 0.38316815610072558 0.32262777247852259 0 0.36683919377500768 0.32451879558091762 0 0.38316815610072558 0.32262777247852259 0 0.37594421209185103 0.33764793621782763 0 0.39272478611108252 0.33800801816363318 0 0.37594421209185103 0.33764793621782763 0 0.38550730192036742 0.35143375473866811 0 0.39272478611108252 0.33800801816363318 0 0.38316815610072558 0.32262777247852259 0 0.37594421209185103 0.33764793621782763 0 0.37011115454736848 0.35223495399250432 0 0.37594421209185103 0.33764793621782763 0 0.38550730192036742 0.35143375473866811 0 0.38550730192036742 0.35143375473866811 0 0.38546378805106002 0.36663915995426533 0 0.39747834476184429 0.35828950177939262 0 0.37011115454736848 0.35223495399250432 0 0.38550730192036742 0.35143375473866811 0 0.38546378805106002 0.36663915995426533 0 0.36259708738483959 0.36383996933626389 0 0.38546378805106002 0.36663915995426533 0 0.38118905446808798 0.37728987283747489 0 0.38546378805106002 0.36663915995426533 0 0.39232661341931979 0.3739428080803317 0 0.38118905446808798 0.37728987283747489 0 0.40833048871728028 0.3694383505722667 0 0.38546378805106002 0.36663915995426533 0 0.39232661341931979 0.3739428080803317 0 0.40833048871728028 0.3694383505722667 0 0.38546378805106002 0.36663915995426533 0 0.40833048871728028 0.3694383505722667 0 0.38546378805106002 0.36663915995426533 0 0.39747834476184429 0.35828950177939262 0 0.40833048871728028 0.3694383505722667 0 0.40901854583344238 0.35423254157498413 0 0.39747834476184429 0.35828950177939262 0 0.40901854583344238 0.35423254157498413 0 0.3990715992870717 0.34970370205677842 0 0.39747834476184429 0.35828950177939262 0 0.40901854583344238 0.35423254157498413 0 0.40787116693801401 0.34125817851233348 0 0.3990715992870717 0.34970370205677842 0 0.39272478611108252 0.33800801816363318 0 0.38550730192036742 0.35143375473866811 0 0.3990715992870717 0.34970370205677842 0 0.38550730192036742 0.35143375473866811 0 0.3990715992870717 0.34970370205677842 0 0.39747834476184429 0.35828950177939262 0 0.39542439064338791 0.39301551684418962 0 0.40351162026661652 0.40049868857820181 0 0.38909609701102588 0.40093070247672402 0 0.40351162026661652 0.40049868857820181 0 0.38909609701102588 0.40093070247672402 0 0.39567429512664992 0.40776605655582893 0 0.39542439064338791 0.39301551684418962 0 0.40351162026661652 0.40049868857820181 0 0.40672199265217218 0.38689137983532867 0 0.39542439064338791 0.39301551684418962 0 0.39432312244085121 0.38240384895731983 0 0.40672199265217218 0.38689137983532867 0 0.40833048871728028 0.3694383505722667 0 0.39432312244085121 0.38240384895731983 0 0.40672199265217218 0.38689137983532867 0 0.40833048871728028 0.3694383505722667 0 0.39232661341931979 0.3739428080803317 0 0.39432312244085121 0.38240384895731983 0 0.37433285719554532 0.39301778777994822 0 0.39432312244085121 0.38240384895731983 0 0.38118905446808798 0.37728987283747489 0 0.37433285719554532 0.39301778777994822 0 0.39432312244085121 0.38240384895731983 0 0.37433285719554532 0.39301778777994822 0 0.39542439064338791 0.39301551684418962 0 0.39432312244085121 0.38240384895731983 0 0.39232661341931979 0.3739428080803317 0 0.39432312244085121 0.38240384895731983 0 0.38118905446808798 0.37728987283747489 0 0.37433285719554532 0.39301778777994822 0 0.39542439064338791 0.39301551684418962 0 0.38909609701102588 0.40093070247672402 0 0.38909609701102588 0.40093070247672402 0 0.38650081554219928 0.40698308234573621 0 0.39567429512664992 0.40776605655582893 0 0.38909609701102588 0.40093070247672402 0 0.38077557912095711 0.40222643788284179 0 0.38650081554219928 0.40698308234573621 0 0.38077557912095711 0.40222643788284179 0 0.376552394456383 0.40827448847742231 0 0.38650081554219928 0.40698308234573621 0 0.37433285719554532 0.39301778777994822 0 0.38909609701102588 0.40093070247672402 0 0.38077557912095711 0.40222643788284179 0 0.37433285719554532 0.39301778777994822 0 0.38077557912095711 0.40222643788284179 0 0.376552394456383 0.40827448847742231 0 0.36436189883343961 0.41925063935586943 0 0.3744178602803922 0.41294804669527918 0 0.39040571199598051 0.41571772633586418 0 0.36436189883343961 0.41925063935586943 0 0.39040571199598051 0.41571772633586418 0 0.38687946006059659 0.41989913234122628 0 0.36436189883343961 0.41925063935586943 0 0.39040571199598051 0.41571772633586418 0 0.3744178602803922 0.41294804669527918 0 0.376552394456383 0.40827448847742231 0 0.39040571199598051 0.41571772633586418 0 0.376552394456383 0.40827448847742231 0 0.39040571199598051 0.41571772633586418 0 0.38650081554219928 0.40698308234573621 0 0.37297618063881871 0.43032619210799472 0 0.38829115003604359 0.42721600810179372 0 0.38626560987210851 0.43899589033984521 0 0.37297618063881871 0.43032619210799472 0 0.38687946006059659 0.41989913234122628 0 0.38829115003604359 0.42721600810179372 0 0.4070433495726507 0.41964281761810868 0 0.38626560987210851 0.43899589033984521 0 0.4070433495726507 0.41964281761810868 0 0.40730031848771803 0.44074888095593562 0 0.38626560987210851 0.43899589033984521 0 0.38687946006059659 0.41989913234122628 0 0.38829115003604359 0.42721600810179372 0 0.4070433495726507 0.41964281761810868 0 0.38829115003604359 0.42721600810179372 0 0.4070433495726507 0.41964281761810868 0 0.38626560987210851 0.43899589033984521 0 0.38687946006059659 0.41989913234122628 0 0.4070433495726507 0.41964281761810868 0 0.41630284802994588 0.41543454297403448 0 0.38687946006059659 0.41989913234122628 0 0.40333108224274911 0.41345469712754818 0 0.41630284802994588 0.41543454297403448 0 0.38687946006059659 0.41989913234122628 0 0.41630284802994588 0.41543454297403448 0 0.38687946006059659 0.41989913234122628 0 0.39485401238359241 0.41421760502321903 0 0.40333108224274911 0.41345469712754818 0 0.39040571199598051 0.41571772633586418 0 0.39567429512664992 0.40776605655582893 0 0.39485401238359241 0.41421760502321903 0 0.39040571199598051 0.41571772633586418 0 0.38650081554219928 0.40698308234573621 0 0.39567429512664992 0.40776605655582893 0 0.39567429512664992 0.40776605655582893 0 0.39485401238359241 0.41421760502321903 0 0.40333108224274911 0.41345469712754818 0 0.39040571199598051 0.41571772633586418 0 0.38687946006059659 0.41989913234122628 0 0.39485401238359241 0.41421760502321903 0 0.40351162026661652 0.40049868857820181 0 0.40333108224274911 0.41345469712754818 0 0.40988366542612631 0.40854782531151379 0 0.40351162026661652 0.40049868857820181 0 0.39567429512664992 0.40776605655582893 0 0.40333108224274911 0.41345469712754818 0 0.40988366542612631 0.40854782531151379 0 0.41630284802994588 0.41543454297403448 0 0.41532529741733731 0.40303773223417372 0 0.40333108224274911 0.41345469712754818 0 0.40988366542612631 0.40854782531151379 0 0.41630284802994588 0.41543454297403448 0 0.4070433495726507 0.41964281761810868 0 0.41630284802994588 0.41543454297403448 0 0.41815272853921243 0.42653078971184399 0 0.41630284802994588 0.41543454297403448 0 0.41815272853921243 0.42653078971184399 0 0.42815747702692619 0.42192837744886891 0 0.41630284802994588 0.41543454297403448 0 0.42772555214039348 0.40513180454704029 0 0.41532529741733731 0.40303773223417372 0 0.41815272853921243 0.42653078971184399 0 0.43195964957882099 0.43489932956227262 0 0.40730031848771803 0.44074888095593562 0 0.4070433495726507 0.41964281761810868 0 0.41815272853921243 0.42653078971184399 0 0.40730031848771803 0.44074888095593562 0 0.42815747702692619 0.42192837744886891 0 0.43195964957882099 0.43489932956227262 0 0.44572623599929512 0.4109699536068428 0 0.41815272853921243 0.42653078971184399 0 0.42815747702692619 0.42192837744886891 0 0.43195964957882099 0.43489932956227262 0 0.41630284802994588 0.41543454297403448 0 0.42772555214039348 0.40513180454704029 0 0.44572623599929512 0.4109699536068428 0 0.41630284802994588 0.41543454297403448 0 0.44572623599929512 0.4109699536068428 0 0.41630284802994588 0.41543454297403448 0 0.42815747702692619 0.42192837744886891 0 0.44572623599929512 0.4109699536068428 0 0.43593344838135251 0.39978319848310478 0 0.42772555214039348 0.40513180454704029 0 0.44572623599929512 0.4109699536068428 0 0.43593344838135251 0.39978319848310478 0 0.42533993087403732 0.39643359543704593 0 0.43451465851503018 0.38769171795256507 0 0.43593344838135251 0.39978319848310478 0 0.42533993087403732 0.39643359543704593 0 0.42772555214039348 0.40513180454704029 0 0.42533993087403732 0.39643359543704593 0 0.42772555214039348 0.40513180454704029 0 0.41532529741733731 0.40303773223417372 0 0.42533993087403732 0.39643359543704593 0 0.41532529741733731 0.40303773223417372 0 0.41423416352315029 0.39425498205222259 0 0.42533993087403732 0.39643359543704593 0 0.41423416352315029 0.39425498205222259 0 0.42027197640558822 0.3844135141763626 0 0.40351162026661652 0.40049868857820181 0 0.41423416352315029 0.39425498205222259 0 0.40672199265217218 0.38689137983532867 0 0.40351162026661652 0.40049868857820181 0 0.41532529741733731 0.40303773223417372 0 0.41423416352315029 0.39425498205222259 0 0.40351162026661652 0.40049868857820181 0 0.40988366542612631 0.40854782531151379 0 0.41532529741733731 0.40303773223417372 0 0.40833048871728028 0.3694383505722667 0 0.40672199265217218 0.38689137983532867 0 0.42027197640558822 0.3844135141763626 0 0.43119718938350071 0.37223754119026808 0 0.40833048871728028 0.3694383505722667 0 0.42027197640558822 0.3844135141763626 0 0.41423416352315029 0.39425498205222259 0 0.40672199265217218 0.38689137983532867 0 0.42027197640558822 0.3844135141763626 0 0.43119718938350071 0.37223754119026808 0 0.42027197640558822 0.3844135141763626 0 0.43451465851503018 0.38769171795256507 0 0.42533993087403732 0.39643359543704593 0 0.42027197640558822 0.3844135141763626 0 0.43451465851503018 0.38769171795256507 0 0.43119718938350071 0.37223754119026808 0 0.43451465851503018 0.38769171795256507 0 0.44166339765279777 0.38212241843797629 0 0.43119718938350071 0.37223754119026808 0 0.44166339765279777 0.38212241843797629 0 0.45406389004972109 0.37503673180826952 0 0.44166339765279777 0.38212241843797629 0 0.44687785266293961 0.39352368280080302 0 0.45406389004972109 0.37503673180826952 0 0.43451465851503018 0.38769171795256507 0 0.44166339765279777 0.38212241843797629 0 0.44687785266293961 0.39352368280080302 0 0.45572655609622548 0.39358718260137487 0 0.44572623599929512 0.4109699536068428 0 0.44687785266293961 0.39352368280080302 0 0.45572655609622548 0.39358718260137487 0 0.44572623599929512 0.4109699536068428 0 0.43593344838135251 0.39978319848310478 0 0.44687785266293961 0.39352368280080302 0 0.44572623599929512 0.4109699536068428 0 0.43593344838135251 0.39978319848310478 0 0.43451465851503018 0.38769171795256507 0 0.44687785266293961 0.39352368280080302 0 0.4624959067194841 0.39965834135949929 0 0.46651319139786451 0.40781582260923571 0 0.44572623599929512 0.4109699536068428 0 0.45572655609622548 0.39358718260137487 0 0.4624959067194841 0.39965834135949929 0 0.44572623599929512 0.4109699536068428 0 0.45572655609622548 0.39358718260137487 0 0.4624959067194841 0.39965834135949929 0 0.4653740168621428 0.3893546649112547 0 0.4624959067194841 0.39965834135949929 0 0.4653740168621428 0.3893546649112547 0 0.47262090655156003 0.39244090692113581 0 0.4624959067194841 0.39965834135949929 0 0.47262090655156003 0.39244090692113581 0 0.46651319139786451 0.40781582260923571 0 0.45572655609622548 0.39358718260137487 0 0.46572687619315578 0.37620441159590701 0 0.46458523510862559 0.37101888218735812 0 0.45846675515298052 0.37306230631500031 0 0.44687785266293961 0.39352368280080302 0 0.45846675515298052 0.37306230631500031 0 0.44687785266293961 0.39352368280080302 0 0.45406389004972109 0.37503673180826952 0 0.46458523510862559 0.37101888218735812 0 0.44687785266293961 0.39352368280080302 0 0.46572687619315578 0.37620441159590701 0 0.44687785266293961 0.39352368280080302 0 0.45572655609622548 0.39358718260137487 0 0.46572687619315578 0.37620441159590701 0 0.45572655609622548 0.39358718260137487 0 0.4653740168621428 0.3893546649112547 0 0.46572687619315578 0.37620441159590701 0 0.46458523510862559 0.37101888218735812 0 0.44687785266293961 0.39352368280080302 0 0.4653740168621428 0.3893546649112547 0 0.46572687619315578 0.37620441159590701 0 0.47029983875028869 0.38488248207835679 0 0.46572687619315578 0.37620441159590701 0 0.4787919741458061 0.38018383204314682 0 0.47029983875028869 0.38488248207835679 0 0.4787919741458061 0.38018383204314682 0 0.47262090655156003 0.39244090692113581 0 0.48664004803894217 0.39145697653823341 0 0.4787919741458061 0.38018383204314682 0 0.47029983875028869 0.38488248207835679 0 0.47262090655156003 0.39244090692113581 0 0.4653740168621428 0.3893546649112547 0 0.47029983875028869 0.38488248207835679 0 0.47262090655156003 0.39244090692113581 0 0.47826857319620009 0.39909384942005838 0 0.48730014679643402 0.40466169161162863 0 0.46651319139786451 0.40781582260923571 0 0.48730014679643402 0.40466169161162863 0 0.46651319139786451 0.40781582260923571 0 0.47262090655156003 0.39244090692113581 0 0.47826857319620009 0.39909384942005838 0 0.46651319139786451 0.40781582260923571 0 0.47826857319620009 0.39909384942005838 0 0.48664004803894217 0.39145697653823341 0 0.48730014679643402 0.40466169161162863 0 0.47262090655156003 0.39244090692113581 0 0.47826857319620009 0.39909384942005838 0 0.48664004803894217 0.39145697653823341 0 0.48664004803894217 0.39145697653823341 0 0.5 0.40614771816822859 0 0.5 0.37943490576564198 0 0.48664004803894217 0.39145697653823341 0 0.48730014679643402 0.40466169161162863 0 0.5 0.40614771816822859 0 0.48672874797716248 0.36653538459412621 0 0.4787919741458061 0.38018383204314682 0 0.5 0.37943490576564198 0 0.4787919741458061 0.38018383204314682 0 0.48664004803894217 0.39145697653823341 0 0.5 0.37943490576564198 0 0.5 0.43286053057081519 0 0.47965976589667342 0.42222071937313083 0 0.48412680874178349 0.4437860844602432 0 0.48730014679643402 0.40466169161162863 0 0.5 0.40614771816822859 0 0.47965976589667342 0.42222071937313083 0 0.5 0.40614771816822859 0 0.5 0.43286053057081519 0 0.47965976589667342 0.42222071937313083 0 0.48730014679643402 0.40466169161162863 0 0.47965976589667342 0.42222071937313083 0 0.46651319139786451 0.40781582260923571 0 0.47965976589667342 0.42222071937313083 0 0.46195913749147649 0.44033987214894538 0 0.48412680874178349 0.4437860844602432 0 0.47965976589667342 0.42222071937313083 0 0.45716359607282608 0.42324913946008541 0 0.46195913749147649 0.44033987214894538 0 0.45716359607282608 0.42324913946008541 0 0.46651319139786451 0.40781582260923571 0 0.44572623599929512 0.4109699536068428 0 0.47965976589667342 0.42222071937313083 0 0.45716359607282608 0.42324913946008541 0 0.46651319139786451 0.40781582260923571 0 0.46651319139786451 0.40781582260923571 0 0.44572623599929512 0.4109699536068428 0 0.43195964957882099 0.43489932956227262 0 0.44572623599929512 0.4109699536068428 0 0.43195964957882099 0.43489932956227262 0 0.45716359607282608 0.42324913946008541 0 0.44572623599929512 0.4109699536068428 0 0.43195964957882099 0.43489932956227262 0 0.45716359607282608 0.42324913946008541 0 0.46195913749147649 0.44033987214894538 0 0.5 0.5 0 0.4585804491934381 0.48021625544761021 0 0.41682497645764482 0.5 0 0.43195964957882099 0.43489932956227262 0 0.44546204210556539 0.45907691800293399 0 0.46195913749147649 0.44033987214894538 0 0.44546204210556539 0.45907691800293399 0 0.47273102105278458 0.45932513048816792 0 0.44546204210556539 0.45907691800293399 0 0.47273102105278458 0.45932513048816792 0 0.4585804491934381 0.48021625544761021 0 0.44546204210556539 0.45907691800293399 0 0.46195913749147649 0.44033987214894538 0 0.47273102105278458 0.45932513048816792 0 0.46195913749147649 0.44033987214894538 0 0.48412680874178349 0.4437860844602432 0 0.47273102105278458 0.45932513048816792 0 0.47273102105278458 0.45932513048816792 0 0.50000000000000377 0.4595733429734018 0 0.4828278675615566 0.47477868222729491 0 0.47273102105278458 0.45932513048816792 0 0.50000000000000377 0.4595733429734018 0 0.48412680874178349 0.4437860844602432 0 0.47273102105278458 0.45932513048816792 0 0.50000000000000377 0.4595733429734018 0 0.5 0.43286053057081519 0 0.48412680874178349 0.4437860844602432 0 0.50000000000000377 0.4595733429734018 0 0.50000000000000377 0.4595733429734018 0 0.5 0.5 0 0.4828278675615566 0.47477868222729491 0 0.5 0.5 0 0.4828278675615566 0.47477868222729491 0 0.4585804491934381 0.48021625544761021 0 0.47273102105278458 0.45932513048816792 0 0.4828278675615566 0.47477868222729491 0 0.4585804491934381 0.48021625544761021 0 0.44546204210556539 0.45907691800293399 0 0.4585804491934381 0.48021625544761021 0 0.42957496301743081 0.47539606810911961 0 0.4585804491934381 0.48021625544761021 0 0.41682497645764482 0.5 0 0.42957496301743081 0.47539606810911961 0 0.41682497645764482 0.5 0 0.40851874210208272 0.47564481799454572 0 0.39884442104581852 0.49246093047138911 0 0.40851874210208272 0.47564481799454572 0 0.42957496301743081 0.47539606810911961 0 0.41819306315834631 0.45882870551770177 0 0.41682497645764482 0.5 0 0.40851874210208272 0.47564481799454572 0 0.42957496301743081 0.47539606810911961 0 0.44546204210556539 0.45907691800293399 0 0.41819306315834631 0.45882870551770177 0 0.44546204210556539 0.45907691800293399 0 0.42957496301743081 0.47539606810911961 0 0.41819306315834631 0.45882870551770177 0 0.43195964957882099 0.43489932956227262 0 0.44546204210556539 0.45907691800293399 0 0.41819306315834631 0.45882870551770177 0 0.43195964957882099 0.43489932956227262 0 0.41819306315834631 0.45882870551770177 0 0.43195964957882099 0.43489932956227262 0 0.40730031848771803 0.44074888095593562 0 0.41819306315834631 0.45882870551770177 0 0.40851874210208272 0.47564481799454572 0 0.41819306315834631 0.45882870551770177 0 0.41819306315834631 0.45882870551770177 0 0.39184046666495631 0.45858883428964092 0 0.40851874210208272 0.47564481799454572 0 0.41819306315834631 0.45882870551770177 0 0.39184046666495631 0.45858883428964092 0 0.40730031848771803 0.44074888095593562 0 0.39184046666495631 0.45858883428964092 0 0.38626560987210851 0.43899589033984521 0 0.40730031848771803 0.44074888095593562 0 0.41819306315834631 0.45882870551770177 0 0.39184046666495631 0.45858883428964092 0 0.36548787017156631 0.45834896306158168 0 0.39184046666495631 0.45858883428964092 0 0.38626560987210851 0.43899589033984521 0 0.36548787017156631 0.45834896306158168 0 0.38626560987210851 0.43899589033984521 0 0.36548787017156631 0.45834896306158168 0 0.39184046666495631 0.45858883428964092 0 0.36548787017156631 0.45834896306158168 0 0.39184046666495631 0.45858883428964092 0 0.37847717535751169 0.4790122240125857 0 0.37847717535751169 0.4790122240125857 0 0.39884442104581852 0.49246093047138911 0 0.39389997893724488 0.47758801366699749 0 0.39184046666495631 0.45858883428964092 0 0.37847717535751169 0.4790122240125857 0 0.39389997893724488 0.47758801366699749 0 0.35607400661002631 0.5 0 0.37847717535751169 0.4790122240125857 0 0.39884442104581852 0.49246093047138911 0 0.35607400661002631 0.5 0 0.41682497645764482 0.5 0 0.39884442104581852 0.49246093047138911 0 0.40851874210208272 0.47564481799454572 0 0.39184046666495631 0.45858883428964092 0 0.39389997893724488 0.47758801366699749 0 0.40851874210208272 0.47564481799454572 0 0.39884442104581852 0.49246093047138911 0 0.39389997893724488 0.47758801366699749 0 0.40851874210208272 0.47564481799454572 0 0.39884442104581852 0.49246093047138911 0 0.3344110807493198 0.07881406394993469 0 0.3370656852504047 0.1018135190977302 0 0.35572263913707081 0.098379007017930398 0 0.3344110807493198 0.07881406394993469 0 0.32567960872476859 0.094628178328821422 0 0.3370656852504047 0.1018135190977302 0 0.3344110807493198 0.07881406394993469 0 0.33653293204803869 0.064743258991125707 0 0.35518018118170658 0.069863407577491959 0 0.3344110807493198 0.07881406394993469 0 0.33653293204803869 0.064743258991125707 0 0.32135937256395319 0.066832024770024659 0 0.3344110807493198 0.07881406394993469 0 0.32135937256395319 0.066832024770024659 0 0.3344110807493198 0.07881406394993469 0 0.32135937256395319 0.066832024770024659 0 0.32168304742077991 0.084299340165517003 0 0.33653293204803869 0.064743258991125707 0 0.32135937256395319 0.066832024770024659 0 0.32267475490818848 0.061512046914628679 0 0.32135937256395319 0.066832024770024659 0 0.32267475490818848 0.061512046914628679 0 0.32135937256395319 0.066832024770024659 0 0.31753175180542431 0.063318101439596111 0 0.32267475490818848 0.061512046914628679 0 0.32135937256395319 0.066832024770024659 0 0.31753175180542431 0.063318101439596111 0 0.32135937256395319 0.066832024770024659 0 0.31461709592177811 0.094100721653868999 0 0.32135937256395319 0.066832024770024659 0 0.31461709592177811 0.094100721653868999 0 0.30272495917003822 0.088474554451340393 0 0.3344110807493198 0.07881406394993469 0 0.32168304742077991 0.084299340165517003 0 0.32567960872476859 0.094628178328821422 0 0.32135937256395319 0.066832024770024659 0 0.32168304742077991 0.084299340165517003 0 0.31461709592177811 0.094100721653868999 0 0.3344110807493198 0.07881406394993469 0 0.32168304742077991 0.084299340165517003 0 0.32168304742077991 0.084299340165517003 0 0.31461709592177811 0.094100721653868999 0 0.32567960872476859 0.094628178328821422 0 0.31461709592177811 0.094100721653868999 0 0.32466619027843768 0.10851068170742149 0 0.30787481927960419 0.1213694185377137 0 0.31461709592177811 0.094100721653868999 0 0.32466619027843768 0.10851068170742149 0 0.32567960872476859 0.094628178328821422 0 0.32603660620435437 0.1241421469063976 0 0.30787481927960419 0.1213694185377137 0 0.32466619027843768 0.10851068170742149 0 0.32603660620435437 0.1241421469063976 0 0.30787481927960419 0.1213694185377137 0 0.32603660620435437 0.1241421469063976 0 0.33657330741779079 0.11515782699739931 0 0.34419839312910472 0.12691487527508141 0 0.32466619027843768 0.10851068170742149 0 0.32603660620435437 0.1241421469063976 0 0.33657330741779079 0.11515782699739931 0 0.33657330741779079 0.11515782699739931 0 0.3370656852504047 0.1018135190977302 0 0.35089966222665248 0.1144079120003656 0 0.32466619027843768 0.10851068170742149 0 0.33657330741779079 0.11515782699739931 0 0.3370656852504047 0.1018135190977302 0 0.32466619027843768 0.10851068170742149 0 0.32567960872476859 0.094628178328821422 0 0.3370656852504047 0.1018135190977302 0 0.3370656852504047 0.1018135190977302 0 0.35572263913707081 0.098379007017930398 0 0.35089966222665248 0.1144079120003656 0 0.35089966222665248 0.1144079120003656 0 0.34419839312910472 0.12691487527508141 0 0.35900557088981849 0.12717927828427811 0 0.33657330741779079 0.11515782699739931 0 0.35089966222665248 0.1144079120003656 0 0.34419839312910472 0.12691487527508141 0 0.35089966222665248 0.1144079120003656 0 0.35900557088981849 0.12717927828427811 0 0.37703419752481859 0.11794395008592939 0 0.35572263913707081 0.098379007017930398 0 0.35089966222665248 0.1144079120003656 0 0.37703419752481859 0.11794395008592939 0 0.35572263913707081 0.098379007017930398 0 0.37525516449768842 0.1152880084670649 0 0.37703419752481859 0.11794395008592939 0 0.35572263913707081 0.098379007017930398 0 0.37760721142619508 0.1104803051256717 0 0.37525516449768842 0.1152880084670649 0 0.35572263913707081 0.098379007017930398 0 0.37703419752481859 0.11794395008592939 0 0.35572263913707081 0.098379007017930398 0 0.36639369630395019 0.090171856351582147 0 0.37760721142619508 0.1104803051256717 0 0.36639369630395019 0.090171856351582147 0 0.37760721142619508 0.1104803051256717 0 0.36639369630395019 0.090171856351582147 0 0.35518018118170658 0.069863407577491959 0 0.36639369630395019 0.090171856351582147 0 0.35518018118170658 0.069863407577491959 0 0.37594196819752213 0.075439085683445567 0 0.3344110807493198 0.07881406394993469 0 0.35572263913707081 0.098379007017930398 0 0.35328028050905658 0.084162509131586544 0 0.36639369630395019 0.090171856351582147 0 0.35328028050905658 0.084162509131586544 0 0.35518018118170658 0.069863407577491959 0 0.3344110807493198 0.07881406394993469 0 0.35572263913707081 0.098379007017930398 0 0.35572263913707081 0.098379007017930398 0 0.36639369630395019 0.090171856351582147 0 0.35328028050905658 0.084162509131586544 0 0.3344110807493198 0.07881406394993469 0 0.35518018118170658 0.069863407577491959 0 0.33653293204803869 0.064743258991125707 0 0.35518018118170658 0.069863407577491959 0 0.35023713714210641 0.060911214124155177 0 0.3344110807493198 0.07881406394993469 0 0.35328028050905658 0.084162509131586544 0 0.35518018118170658 0.069863407577491959 0 0.35518018118170658 0.069863407577491959 0 0.35023713714210641 0.060911214124155177 0 0.35518018118170658 0.069863407577491959 0 0.38114785940623003 0.058672370905750212 0 0.35518018118170658 0.069863407577491959 0 0.37594196819752213 0.075439085683445567 0 0.38114785940623003 0.058672370905750212 0 0.35518018118170658 0.069863407577491959 0 0.3551064303909004 0.051717150447408371 0 0.38114785940623003 0.058672370905750212 0 0.3551064303909004 0.051717150447408371 0 0.37515117282435828 0.045663310368981247 0 0.38114785940623003 0.058672370905750212 0 0.3551064303909004 0.051717150447408371 0 0.38114785940623003 0.058672370905750212 0 0.3551064303909004 0.051717150447408371 0 0.37515117282435828 0.045663310368981247 0 0.37067245804488308 0.032187508493627989 0 0.36046952601375071 0.041933878001098032 0 0.3534834092153234 0.032472333580651762 0 0.37067245804488308 0.032187508493627989 0 0.36046952601375071 0.041933878001098032 0 0.37515117282435828 0.045663310368981247 0 0.36046952601375071 0.041933878001098032 0 0.3551064303909004 0.051717150447408371 0 0.37515117282435828 0.045663310368981247 0 0.36046952601375071 0.041933878001098032 0 0.3534834092153234 0.032472333580651762 0 0.34778581574864181 0.049761939437390677 0 0.35518018118170658 0.069863407577491959 0 0.35023713714210641 0.060911214124155177 0 0.3551064303909004 0.051717150447408371 0 0.34778581574864181 0.049761939437390677 0 0.35078508826774951 0.053022266451003233 0 0.33592284271512229 0.051731923118849617 0 0.34778581574864181 0.049761939437390677 0 0.3551064303909004 0.051717150447408371 0 0.34778581574864181 0.049761939437390677 0 0.35078508826774951 0.053022266451003233 0 0.3551064303909004 0.051717150447408371 0 0.34778581574864181 0.049761939437390677 0 0.35078508826774951 0.053022266451003233 0 0.33653293204803869 0.064743258991125707 0 0.35078508826774951 0.053022266451003233 0 0.35023713714210641 0.060911214124155177 0 0.35078508826774951 0.053022266451003233 0 0.35023713714210641 0.060911214124155177 0 0.3551064303909004 0.051717150447408371 0 0.36046952601375071 0.041933878001098032 0 0.34778581574864181 0.049761939437390677 0 0.3551064303909004 0.051717150447408371 0 0.35078508826774951 0.053022266451003233 0 0.3551064303909004 0.051717150447408371 0 0.35703834181637017 0.01144248958259767 0 0.38269638314167997 0.022003569137885121 0 0.38004824580921331 -0.0028869129075803049 0 0.35703834181637017 0.01144248958259767 0 0.38269638314167997 0.022003569137885121 0 0.37067245804488308 0.032187508493627989 0 0.3534834092153234 0.032472333580651762 0 0.35703834181637017 0.01144248958259767 0 0.37067245804488308 0.032187508493627989 0 0.35703834181637017 0.01144248958259767 0 0.38269638314167997 0.022003569137885121 0 0.3534834092153234 0.032472333580651762 0 0.35703834181637017 0.01144248958259767 0 0.32860675085449959 0.02891354271058454 0 0.35703834181637017 0.01144248958259767 0 0.3313803004910606 0.00088141002731029205 0 0.35703834181637017 0.01144248958259767 0 0.3313803004910606 0.00088141002731029205 0 0.32860675085449959 0.02891354271058454 0 0.32860675085449959 0.02891354271058454 0 0.30942768596035969 0.0080651459837762646 0 0.32860675085449959 0.02891354271058454 0 0.30942768596035969 0.0080651459837762646 0 0.29970711298099312 0.023255784782297079 0 0.3313803004910606 0.00088141002731029205 0 0.32860675085449959 0.02891354271058454 0 0.30942768596035969 0.0080651459837762646 0 0.34778581574864181 0.049761939437390677 0 0.33592284271512229 0.051731923118849617 0 0.32662186179333169 0.0441094091771344 0 0.34778581574864181 0.049761939437390677 0 0.32662186179333169 0.0441094091771344 0 0.35078508826774951 0.053022266451003233 0 0.33592284271512229 0.051731923118849617 0 0.32267475490818848 0.061512046914628679 0 0.33653293204803869 0.064743258991125707 0 0.35078508826774951 0.053022266451003233 0 0.32267475490818848 0.061512046914628679 0 0.35078508826774951 0.053022266451003233 0 0.32267475490818848 0.061512046914628679 0 0.33592284271512229 0.051731923118849617 0 0.32662186179333169 0.0441094091771344 0 0.32431561655684749 0.054875689301283483 0 0.3534834092153234 0.032472333580651762 0 0.34778581574864181 0.049761939437390677 0 0.32860675085449959 0.02891354271058454 0 0.34778581574864181 0.049761939437390677 0 0.32860675085449959 0.02891354271058454 0 0.32662186179333169 0.0441094091771344 0 0.34778581574864181 0.049761939437390677 0 0.32860675085449959 0.02891354271058454 0 0.32662186179333169 0.0441094091771344 0 0.31384940322294819 0.04618838569527612 0 0.30545790783802068 0.038456878916881779 0 0.32860675085449959 0.02891354271058454 0 0.32662186179333169 0.0441094091771344 0 0.30545790783802068 0.038456878916881779 0 0.32662186179333169 0.0441094091771344 0 0.30545790783802068 0.038456878916881779 0 0.32662186179333169 0.0441094091771344 0 0.31384940322294819 0.04618838569527612 0 0.32022736642491839 0.050169213972830043 0 0.31384940322294819 0.04618838569527612 0 0.31632440803186462 0.053751952097133543 0 0.30919109587878069 0.047167509333835927 0 0.31632440803186462 0.053751952097133543 0 0.32022736642491839 0.050169213972830043 0 0.32431561655684749 0.054875689301283483 0 0.31384940322294819 0.04618838569527612 0 0.31632440803186462 0.053751952097133543 0 0.32022736642491839 0.050169213972830043 0 0.32662186179333169 0.0441094091771344 0 0.32022736642491839 0.050169213972830043 0 0.32431561655684749 0.054875689301283483 0 0.31632440803186462 0.053751952097133543 0 0.32431561655684749 0.054875689301283483 0 0.32267475490818848 0.061512046914628679 0 0.33592284271512229 0.051731923118849617 0 0.32431561655684749 0.054875689301283483 0 0.32267475490818848 0.061512046914628679 0 0.32431561655684749 0.054875689301283483 0 0.32267475490818848 0.061512046914628679 0 0.31753175180542431 0.063318101439596111 0 0.32267475490818848 0.061512046914628679 0 0.31753175180542431 0.063318101439596111 0 0.31632440803186462 0.053751952097133543 0 0.32267475490818848 0.061512046914628679 0 0.31753175180542431 0.063318101439596111 0 0.31632440803186462 0.053751952097133543 0 0.30621233150953647 0.052926378336930757 0 0.30621233150953647 0.052926378336930757 0 0.29382453926049329 0.057103913430711438 0 0.29730318444973441 0.074674858836938529 0 0.30621233150953647 0.052926378336930757 0 0.29106529045512008 0.039020731903836509 0 0.29382453926049329 0.057103913430711438 0 0.31753175180542431 0.063318101439596111 0 0.30621233150953647 0.052926378336930757 0 0.30621233150953647 0.052926378336930757 0 0.30919109587878069 0.047167509333835927 0 0.30553230819813509 0.041814857461142968 0 0.31632440803186462 0.053751952097133543 0 0.30621233150953647 0.052926378336930757 0 0.30919109587878069 0.047167509333835927 0 0.31384940322294819 0.04618838569527612 0 0.30553230819813509 0.041814857461142968 0 0.30545790783802068 0.038456878916881779 0 0.31384940322294819 0.04618838569527612 0 0.30919109587878069 0.047167509333835927 0 0.30553230819813509 0.041814857461142968 0 0.30621233150953647 0.052926378336930757 0 0.30553230819813509 0.041814857461142968 0 0.29106529045512008 0.039020731903836509 0 0.30553230819813509 0.041814857461142968 0 0.29106529045512008 0.039020731903836509 0 0.30553230819813509 0.041814857461142968 0 0.30545790783802068 0.038456878916881779 0 0.29106529045512008 0.039020731903836509 0 0.30621233150953647 0.052926378336930757 0 0.29106529045512008 0.039020731903836509 0 0.29106529045512008 0.039020731903836509 0 0.28429395388270973 0.03280434865662929 0 0.2701213292678788 0.03497566482339079 0 0.30545790783802068 0.038456878916881779 0 0.28429395388270973 0.03280434865662929 0 0.29970711298099312 0.023255784782297079 0 0.30545790783802068 0.038456878916881779 0 0.29106529045512008 0.039020731903836509 0 0.28429395388270973 0.03280434865662929 0 0.30545790783802068 0.038456878916881779 0 0.28429395388270973 0.03280434865662929 0 0.29106529045512008 0.039020731903836509 0 0.28429395388270973 0.03280434865662929 0 0.29106529045512008 0.039020731903836509 0 0.29382453926049329 0.057103913430711438 0 0.28071735062758257 0.061793684645139707 0 0.30942768596035969 0.0080651459837762646 0 0.29970711298099312 0.023255784782297079 0 0.28692422129050738 0.0091650621547095315 0 0.32860675085449959 0.02891354271058454 0 0.30545790783802068 0.038456878916881779 0 0.29970711298099312 0.023255784782297079 0 0.28429395388270973 0.03280434865662929 0 0.29970711298099312 0.023255784782297079 0 0.28337931512406739 0.021088998510574501 0 0.29970711298099312 0.023255784782297079 0 0.28337931512406739 0.021088998510574501 0 0.28692422129050738 0.0091650621547095315 0 0.30942768596035969 0.0080651459837762646 0 0.28692422129050738 0.0091650621547095315 0 0.29024862106621879 -0.012783250743031041 0 0.28692422129050738 0.0091650621547095315 0 0.2724061768743295 0.01294300263584074 0 0.26974618760420199 -0.00030030174664443492 0 0.28337931512406739 0.021088998510574501 0 0.28692422129050738 0.0091650621547095315 0 0.2724061768743295 0.01294300263584074 0 0.2724061768743295 0.01294300263584074 0 0.26120369264718968 0.014358136548294379 0 0.26974618760420199 -0.00030030174664443492 0 0.28429395388270973 0.03280434865662929 0 0.26674893645405751 0.028118374469502869 0 0.28429395388270973 0.03280434865662929 0 0.27283146449998469 0.02228128187238777 0 0.26674893645405751 0.028118374469502869 0 0.2724061768743295 0.01294300263584074 0 0.27283146449998469 0.02228128187238777 0 0.26493942106846979 0.020546159193790551 0 0.2724061768743295 0.01294300263584074 0 0.26493942106846979 0.020546159193790551 0 0.26120369264718968 0.014358136548294379 0 0.28337931512406739 0.021088998510574501 0 0.2724061768743295 0.01294300263584074 0 0.27283146449998469 0.02228128187238777 0 0.28429395388270973 0.03280434865662929 0 0.28337931512406739 0.021088998510574501 0 0.27283146449998469 0.02228128187238777 0 0.28429395388270973 0.03280434865662929 0 0.27283146449998469 0.02228128187238777 0 0.27283146449998469 0.02228128187238777 0 0.26674893645405751 0.028118374469502869 0 0.26493942106846979 0.020546159193790551 0 0.24920391902540581 0.02343240028237412 0 0.26674893645405751 0.028118374469502869 0 0.26493942106846979 0.020546159193790551 0 0.24920391902540581 0.02343240028237412 0 0.24917736808063759 0.030930597742944401 0 0.26674893645405751 0.028118374469502869 0 0.24920391902540581 0.02343240028237412 0 0.26493942106846979 0.020546159193790551 0 0.26120369264718968 0.014358136548294379 0 0.24920391902540581 0.02343240028237412 0 0.26674893645405751 0.028118374469502869 0 0.24924375414218081 0.01218264724973479 0 0.24920391902540581 0.02343240028237412 0 0.26120369264718968 0.014358136548294379 0 0.24924375414218081 0.01218264724973479 0 0.26120369264718968 0.014358136548294379 0 0.26974618760420199 -0.00030030174664443492 0 0.24924375414218081 0.01218264724973479 0 0.26010579277704338 -0.0094947121626498474 0 0.26974618760420199 -0.00030030174664443492 0 0.24924375414218081 0.01218264724973479 0 0.26974618760420199 -0.00030030174664443492 0 0.29106529045512008 0.039020731903836509 0 0.2696899186064925 0.050093671284131891 0 0.28071735062758257 0.061793684645139707 0 0.2696899186064925 0.050093671284131891 0 0.28071735062758257 0.061793684645139707 0 0.26596887341206082 0.064641276231060626 0 0.29106529045512008 0.039020731903836509 0 0.2696899186064925 0.050093671284131891 0 0.2701213292678788 0.03497566482339079 0 0.28429395388270973 0.03280434865662929 0 0.26674893645405751 0.028118374469502869 0 0.2701213292678788 0.03497566482339079 0 0.29106529045512008 0.039020731903836509 0 0.2701213292678788 0.03497566482339079 0 0.2696899186064925 0.050093671284131891 0 0.2701213292678788 0.03497566482339079 0 0.25523297909370862 0.045178265150677369 0 0.2701213292678788 0.03497566482339079 0 0.25136097441666611 0.037606820702287568 0 0.25523297909370862 0.045178265150677369 0 0.24917736808063759 0.030930597742944401 0 0.26674893645405751 0.028118374469502869 0 0.2701213292678788 0.03497566482339079 0 0.24917736808063759 0.030930597742944401 0 0.2701213292678788 0.03497566482339079 0 0.25136097441666611 0.037606820702287568 0 0.24917736808063759 0.030930597742944401 0 0.2701213292678788 0.03497566482339079 0 0.24424729673423809 0.041878356460708567 0 0.25136097441666611 0.037606820702287568 0 0.25523297909370862 0.045178265150677369 0 0.2414358262802774 0.05029233879449032 0 0.25523297909370862 0.045178265150677369 0 0.25421258692591608 0.056622967000013923 0 0.2696899186064925 0.050093671284131891 0 0.25523297909370862 0.045178265150677369 0 0.25421258692591608 0.056622967000013923 0 0.2696899186064925 0.050093671284131891 0 0.25421258692591608 0.056622967000013923 0 0.26596887341206082 0.064641276231060626 0 0.25347601198481851 0.070846851749968923 0 0.27160814565400287 0.087257275898576486 0 0.26596887341206082 0.064641276231060626 0 0.25421258692591608 0.056622967000013923 0 0.25347601198481851 0.070846851749968923 0 0.26596887341206082 0.064641276231060626 0 0.24640086058121119 0.085938776428289107 0 0.25347601198481851 0.070846851749968923 0 0.27160814565400287 0.087257275898576486 0 0.24640086058121119 0.085938776428289107 0 0.27160814565400287 0.087257275898576486 0 0.25342826027611698 0.10039197176467771 0 0.28071735062758257 0.061793684645139707 0 0.27160814565400287 0.087257275898576486 0 0.26596887341206082 0.064641276231060626 0 0.29382453926049329 0.057103913430711438 0 0.28071735062758257 0.061793684645139707 0 0.29730318444973441 0.074674858836938529 0 0.28071735062758257 0.061793684645139707 0 0.27160814565400287 0.087257275898576486 0 0.29730318444973441 0.074674858836938529 0 0.27160814565400287 0.087257275898576486 0 0.29730318444973441 0.074674858836938529 0 0.29249765027508179 0.094921693302381191 0 0.30272495917003822 0.088474554451340393 0 0.29730318444973441 0.074674858836938529 0 0.29249765027508179 0.094921693302381191 0 0.31753175180542431 0.063318101439596111 0 0.30621233150953647 0.052926378336930757 0 0.29730318444973441 0.074674858836938529 0 0.32135937256395319 0.066832024770024659 0 0.31753175180542431 0.063318101439596111 0 0.29730318444973441 0.074674858836938529 0 0.32135937256395319 0.066832024770024659 0 0.30272495917003822 0.088474554451340393 0 0.29730318444973441 0.074674858836938529 0 0.30787481927960419 0.1213694185377137 0 0.30194382983159079 0.1041812673136983 0 0.2858116400286338 0.1180010713995171 0 0.31461709592177811 0.094100721653868999 0 0.30787481927960419 0.1213694185377137 0 0.30194382983159079 0.1041812673136983 0 0.31461709592177811 0.094100721653868999 0 0.30272495917003822 0.088474554451340393 0 0.30194382983159079 0.1041812673136983 0 0.30272495917003822 0.088474554451340393 0 0.30194382983159079 0.1041812673136983 0 0.29249765027508179 0.094921693302381191 0 0.31461709592177811 0.094100721653868999 0 0.30787481927960419 0.1213694185377137 0 0.27160814565400287 0.087257275898576486 0 0.29249765027508179 0.094921693302381191 0 0.2858116400286338 0.1180010713995171 0 0.30194382983159079 0.1041812673136983 0 0.29249765027508179 0.094921693302381191 0 0.2858116400286338 0.1180010713995171 0 0.30787481927960419 0.1213694185377137 0 0.2858116400286338 0.1180010713995171 0 0.30787481927960419 0.1213694185377137 0 0.2858116400286338 0.1180010713995171 0 0.29460895879027349 0.1299804511357375 0 0.2858116400286338 0.1180010713995171 0 0.26374846077766351 0.1146327242613201 0 0.270708550717562 0.12802896135811051 0 0.2858116400286338 0.1180010713995171 0 0.26374846077766351 0.1146327242613201 0 0.27160814565400287 0.087257275898576486 0 0.2858116400286338 0.1180010713995171 0 0.26374846077766351 0.1146327242613201 0 0.27160814565400287 0.087257275898576486 0 0.26374846077766351 0.1146327242613201 0 0.24091524765871231 0.1111468173940373 0 0.25342826027611698 0.10039197176467771 0 0.26374846077766351 0.1146327242613201 0 0.27160814565400287 0.087257275898576486 0 0.25342826027611698 0.10039197176467771 0 0.26374846077766351 0.1146327242613201 0 0.24091524765871231 0.1111468173940373 0 0.26374846077766351 0.1146327242613201 0 0.26374846077766351 0.1146327242613201 0 0.25803940136988229 0.1345174987117474 0 0.24091524765871231 0.1111468173940373 0 0.26374846077766351 0.1146327242613201 0 0.25803940136988229 0.1345174987117474 0 0.26374846077766351 0.1146327242613201 0 0.25803940136988229 0.1345174987117474 0 0.270708550717562 0.12802896135811051 0 0.270708550717562 0.12802896135811051 0 0.28113804293990352 0.13652868711880009 0 0.26950194373642089 0.14684962388972331 0 0.2858116400286338 0.1180010713995171 0 0.270708550717562 0.12802896135811051 0 0.28113804293990352 0.13652868711880009 0 0.25803940136988229 0.1345174987117474 0 0.270708550717562 0.12802896135811051 0 0.26950194373642089 0.14684962388972331 0 0.26950194373642089 0.14684962388972331 0 0.27716370424970599 0.16072385036378789 0 0.28402811698442998 0.14949121384156741 0 0.28113804293990352 0.13652868711880009 0 0.26950194373642089 0.14684962388972331 0 0.28402811698442998 0.14949121384156741 0 0.24445650326616589 0.14307299743987489 0 0.25803940136988229 0.1345174987117474 0 0.2523303419621033 0.15440227316217531 0 0.25803940136988229 0.1345174987117474 0 0.26950194373642089 0.14684962388972331 0 0.2523303419621033 0.15440227316217531 0 0.25803940136988229 0.1345174987117474 0 0.2523303419621033 0.15440227316217531 0 0.26950194373642089 0.14684962388972331 0 0.2523303419621033 0.15440227316217531 0 0.26349114018876729 0.16587673114178089 0 0.24662128255432419 0.17428704761260311 0 0.2523303419621033 0.15440227316217531 0 0.26349114018876729 0.16587673114178089 0 0.24662128255432419 0.17428704761260311 0 0.26349114018876729 0.16587673114178089 0 0.26211645135926198 0.18328939682095491 0 0.24204190526368929 0.18587577523225851 0 0.24662128255432419 0.17428704761260311 0 0.26211645135926198 0.18328939682095491 0 0.26349114018876729 0.16587673114178089 0 0.26211645135926198 0.18328939682095491 0 0.2750948451611 0.17436921757156151 0 0.26211645135926198 0.18328939682095491 0 0.2750948451611 0.17436921757156151 0 0.27414548551799889 0.18611786125198121 0 0.2750948451611 0.17436921757156151 0 0.28279566960433788 0.16825989210004069 0 0.28306774625895931 0.1759622552978935 0 0.2750948451611 0.17436921757156151 0 0.27980151561833883 0.1808641238890161 0 0.28306774625895931 0.1759622552978935 0 0.27414548551799889 0.18611786125198121 0 0.27980151561833883 0.1808641238890161 0 0.2864766951731329 0.18531839751248669 0 0.2750948451611 0.17436921757156151 0 0.27414548551799889 0.18611786125198121 0 0.27980151561833883 0.1808641238890161 0 0.26950194373642089 0.14684962388972331 0 0.26349114018876729 0.16587673114178089 0 0.27716370424970599 0.16072385036378789 0 0.26349114018876729 0.16587673114178089 0 0.2750948451611 0.17436921757156151 0 0.27716370424970599 0.16072385036378789 0 0.2750948451611 0.17436921757156151 0 0.27716370424970599 0.16072385036378789 0 0.28279566960433788 0.16825989210004069 0 0.27716370424970599 0.16072385036378789 0 0.28764427110142521 0.16032802721346351 0 0.28402811698442998 0.14949121384156741 0 0.27716370424970599 0.16072385036378789 0 0.28764427110142521 0.16032802721346351 0 0.28279566960433788 0.16825989210004069 0 0.28279566960433788 0.16825989210004069 0 0.2910077812504992 0.16991611005349691 0 0.28306774625895931 0.1759622552978935 0 0.28764427110142521 0.16032802721346351 0 0.28279566960433788 0.16825989210004069 0 0.2910077812504992 0.16991611005349691 0 0.28764427110142521 0.16032802721346351 0 0.2964224355662865 0.1614145228840724 0 0.29460412343159748 0.15302545253323371 0 0.28764427110142521 0.16032802721346351 0 0.2910077812504992 0.16991611005349691 0 0.2964224355662865 0.1614145228840724 0 0.2910077812504992 0.16991611005349691 0 0.2864766951731329 0.18531839751248669 0 0.30607975682633543 0.16438467694342049 0 0.2864766951731329 0.18531839751248669 0 0.30607975682633543 0.16438467694342049 0 0.27980151561833883 0.1808641238890161 0 0.2864766951731329 0.18531839751248669 0 0.28306774625895931 0.1759622552978935 0 0.2910077812504992 0.16991611005349691 0 0.2864766951731329 0.18531839751248669 0 0.28306774625895931 0.1759622552978935 0 0.2864766951731329 0.18531839751248669 0 0.29521047208231149 0.185464621003256 0 0.2927427070680016 0.18894454421152701 0 0.2864766951731329 0.18531839751248669 0 0.29521047208231149 0.185464621003256 0 0.2996793452733611 0.17929486382109339 0 0.2864766951731329 0.18531839751248669 0 0.2996793452733611 0.17929486382109339 0 0.30607975682633543 0.16438467694342049 0 0.2996793452733611 0.17929486382109339 0 0.30924805831506708 0.18634277216010181 0 0.30194314081475049 0.18830067846791679 0 0.29521047208231149 0.185464621003256 0 0.2996793452733611 0.17929486382109339 0 0.30194314081475049 0.18830067846791679 0 0.2996793452733611 0.17929486382109339 0 0.3068905012091524 0.17788267646856681 0 0.30683757875269457 0.16980840111442921 0 0.30683757875269457 0.16980840111442921 0 0.31573991843594912 0.16841517320324181 0 0.3134359625181003 0.17826601499438999 0 0.3068905012091524 0.17788267646856681 0 0.30683757875269457 0.16980840111442921 0 0.3134359625181003 0.17826601499438999 0 0.2996793452733611 0.17929486382109339 0 0.3068905012091524 0.17788267646856681 0 0.30924805831506708 0.18634277216010181 0 0.3068905012091524 0.17788267646856681 0 0.30924805831506708 0.18634277216010181 0 0.3134359625181003 0.17826601499438999 0 0.2964224355662865 0.1614145228840724 0 0.30276018953560813 0.15707201523403419 0 0.30607975682633543 0.16438467694342049 0 0.2964224355662865 0.1614145228840724 0 0.30276018953560813 0.15707201523403419 0 0.29460412343159748 0.15302545253323371 0 0.2996793452733611 0.17929486382109339 0 0.30607975682633543 0.16438467694342049 0 0.30683757875269457 0.16980840111442921 0 0.2910077812504992 0.16991611005349691 0 0.2964224355662865 0.1614145228840724 0 0.30607975682633543 0.16438467694342049 0 0.30683757875269457 0.16980840111442921 0 0.31573991843594912 0.16841517320324181 0 0.30607975682633543 0.16438467694342049 0 0.30683757875269457 0.16980840111442921 0 0.31573991843594912 0.16841517320324181 0 0.30607975682633543 0.16438467694342049 0 0.30967214114923131 0.1587808146803327 0 0.31573991843594912 0.16841517320324181 0 0.30276018953560813 0.15707201523403419 0 0.30607975682633543 0.16438467694342049 0 0.30967214114923131 0.1587808146803327 0 0.30967214114923131 0.1587808146803327 0 0.30715499079396441 0.14705335644650391 0 0.31568439448109842 0.1525723022140808 0 0.30276018953560813 0.15707201523403419 0 0.30967214114923131 0.1587808146803327 0 0.30715499079396441 0.14705335644650391 0 0.30276018953560813 0.15707201523403419 0 0.30715499079396441 0.14705335644650391 0 0.29460412343159748 0.15302545253323371 0 0.30715499079396441 0.14705335644650391 0 0.30405732288040332 0.1368090330313928 0 0.29424891042194501 0.14162988930706491 0 0.30715499079396441 0.14705335644650391 0 0.29460412343159748 0.15302545253323371 0 0.29424891042194501 0.14162988930706491 0 0.30715499079396441 0.14705335644650391 0 0.30405732288040332 0.1368090330313928 0 0.31669617416661872 0.1341385021369858 0 0.30787481927960419 0.1213694185377137 0 0.30405732288040332 0.1368090330313928 0 0.30787481927960419 0.1213694185377137 0 0.30405732288040332 0.1368090330313928 0 0.31669617416661872 0.1341385021369858 0 0.30787481927960419 0.1213694185377137 0 0.30405732288040332 0.1368090330313928 0 0.29460895879027349 0.1299804511357375 0 0.30405732288040332 0.1368090330313928 0 0.29460895879027349 0.1299804511357375 0 0.29424891042194501 0.14162988930706491 0 0.28113804293990352 0.13652868711880009 0 0.29460895879027349 0.1299804511357375 0 0.29424891042194501 0.14162988930706491 0 0.2858116400286338 0.1180010713995171 0 0.28113804293990352 0.13652868711880009 0 0.29460895879027349 0.1299804511357375 0 0.28113804293990352 0.13652868711880009 0 0.28402811698442998 0.14949121384156741 0 0.29424891042194501 0.14162988930706491 0 0.28764427110142521 0.16032802721346351 0 0.28402811698442998 0.14949121384156741 0 0.29460412343159748 0.15302545253323371 0 0.28402811698442998 0.14949121384156741 0 0.29460412343159748 0.15302545253323371 0 0.29424891042194501 0.14162988930706491 0 0.27190787640768282 0.2498095979539795 0 0.25707991656272239 0.24440423681808779 0 0.27317861146112471 0.23354414327421841 0 0.27190787640768282 0.2498095979539795 0 0.27317861146112471 0.23354414327421841 0 0.29468781663764593 0.24932415106843811 0 0.25707991656272239 0.24440423681808779 0 0.26437616055670549 0.22584372188590321 0 0.27317861146112471 0.23354414327421841 0 0.2472705718667278 0.22718583865061909 0 0.26437616055670549 0.22584372188590321 0 0.26687363351993032 0.20625211808155289 0 0.2472705718667278 0.22718583865061909 0 0.25707991656272239 0.24440423681808779 0 0.26437616055670549 0.22584372188590321 0 0.26437616055670549 0.22584372188590321 0 0.27317861146112471 0.23354414327421841 0 0.27747806937302222 0.21783227260503801 0 0.27317861146112471 0.23354414327421841 0 0.27747806937302222 0.21783227260503801 0 0.29303028207592041 0.22797800895215539 0 0.26437616055670549 0.22584372188590321 0 0.26687363351993032 0.20625211808155289 0 0.27747806937302222 0.21783227260503801 0 0.26687363351993032 0.20625211808155289 0 0.27747806937302222 0.21783227260503801 0 0.28224774024546723 0.19985300097140521 0 0.2472705718667278 0.22718583865061909 0 0.26687363351993032 0.20625211808155289 0 0.24527384497532531 0.20354913523981791 0 0.2472705718667278 0.22718583865061909 0 0.26687363351993032 0.20625211808155289 0 0.24527384497532531 0.20354913523981791 0 0.26211645135926198 0.18328939682095491 0 0.26687363351993032 0.20625211808155289 0 0.24527384497532531 0.20354913523981791 0 0.26211645135926198 0.18328939682095491 0 0.2864766951731329 0.18531839751248669 0 0.26687363351993032 0.20625211808155289 0 0.28224774024546723 0.19985300097140521 0 0.2864766951731329 0.18531839751248669 0 0.26687363351993032 0.20625211808155289 0 0.27414548551799889 0.18611786125198121 0 0.2864766951731329 0.18531839751248669 0 0.26687363351993032 0.20625211808155289 0 0.26211645135926198 0.18328939682095491 0 0.27414548551799889 0.18611786125198121 0 0.26687363351993032 0.20625211808155289 0 0.2864766951731329 0.18531839751248669 0 0.28832826178617771 0.19383998097309951 0 0.28224774024546723 0.19985300097140521 0 0.28832826178617771 0.19383998097309951 0 0.28224774024546723 0.19985300097140521 0 0.29532795744401391 0.20241764030979109 0 0.29521047208231149 0.185464621003256 0 0.2927427070680016 0.18894454421152701 0 0.30194314081475049 0.18830067846791679 0 0.2864766951731329 0.18531839751248669 0 0.28832826178617771 0.19383998097309951 0 0.2927427070680016 0.18894454421152701 0 0.28832826178617771 0.19383998097309951 0 0.29532795744401391 0.20241764030979109 0 0.2927427070680016 0.18894454421152701 0 0.30924805831506708 0.18634277216010181 0 0.31189043857763638 0.20284167103683209 0 0.30194314081475049 0.18830067846791679 0 0.29532795744401391 0.20241764030979109 0 0.2927427070680016 0.18894454421152701 0 0.31189043857763638 0.20284167103683209 0 0.2927427070680016 0.18894454421152701 0 0.31189043857763638 0.20284167103683209 0 0.2927427070680016 0.18894454421152701 0 0.31189043857763638 0.20284167103683209 0 0.30194314081475049 0.18830067846791679 0 0.29532795744401391 0.20241764030979109 0 0.30906160950285139 0.2186275621867424 0 0.29153424947327172 0.2138899275791846 0 0.29532795744401391 0.20241764030979109 0 0.31189043857763638 0.20284167103683209 0 0.30906160950285139 0.2186275621867424 0 0.27747806937302222 0.21783227260503801 0 0.28224774024546723 0.19985300097140521 0 0.29153424947327172 0.2138899275791846 0 0.28224774024546723 0.19985300097140521 0 0.29532795744401391 0.20241764030979109 0 0.29153424947327172 0.2138899275791846 0 0.27747806937302222 0.21783227260503801 0 0.29153424947327172 0.2138899275791846 0 0.29303028207592041 0.22797800895215539 0 0.30906160950285139 0.2186275621867424 0 0.29303028207592041 0.22797800895215539 0 0.3138417555089355 0.23393595326783551 0 0.30906160950285139 0.2186275621867424 0 0.29153424947327172 0.2138899275791846 0 0.29303028207592041 0.22797800895215539 0 0.29468781663764593 0.24932415106843811 0 0.3138417555089355 0.23393595326783551 0 0.29303028207592041 0.22797800895215539 0 0.29468781663764593 0.24932415106843811 0 0.3138417555089355 0.23393595326783551 0 0.30852925462888448 0.25868086444592581 0 0.29468781663764593 0.24932415106843811 0 0.3138417555089355 0.23393595326783551 0 0.27317861146112471 0.23354414327421841 0 0.29303028207592041 0.22797800895215539 0 0.29468781663764593 0.24932415106843811 0 0.34341470138310998 0.23915669558068009 0 0.33329399969745149 0.23355784165868279 0 0.3501859015969061 0.23063592468744229 0 0.33341985818497039 0.25529895665708568 0 0.34278494234848489 0.24961372375922861 0 0.33309550011116479 0.2449527013720692 0 0.34278494234848489 0.24961372375922861 0 0.34341470138310998 0.23915669558068009 0 0.33309550011116479 0.2449527013720692 0 0.34341470138310998 0.23915669558068009 0 0.33309550011116479 0.2449527013720692 0 0.33329399969745149 0.23355784165868279 0 0.33309550011116479 0.2449527013720692 0 0.32507598657016928 0.23879681649117729 0 0.33329399969745149 0.23355784165868279 0 0.30852925462888448 0.25868086444592581 0 0.32268915691431888 0.25166915791209221 0 0.3138417555089355 0.23393595326783551 0 0.32268915691431888 0.25166915791209221 0 0.33309550011116479 0.2449527013720692 0 0.32507598657016928 0.23879681649117729 0 0.32268915691431888 0.25166915791209221 0 0.32507598657016928 0.23879681649117729 0 0.3138417555089355 0.23393595326783551 0 0.32245952061897581 0.22986842824520681 0 0.33329399969745149 0.23355784165868279 0 0.32509889264575059 0.2185808425372627 0 0.32507598657016928 0.23879681649117729 0 0.32245952061897581 0.22986842824520681 0 0.3138417555089355 0.23393595326783551 0 0.30906160950285139 0.2186275621867424 0 0.31746606415054529 0.22456590357021761 0 0.32509889264575059 0.2185808425372627 0 0.32507598657016928 0.23879681649117729 0 0.32245952061897581 0.22986842824520681 0 0.33329399969745149 0.23355784165868279 0 0.32245952061897581 0.22986842824520681 0 0.3138417555089355 0.23393595326783551 0 0.31746606415054529 0.22456590357021761 0 0.30906160950285139 0.2186275621867424 0 0.3138417555089355 0.23393595326783551 0 0.31746606415054529 0.22456590357021761 0 0.32245952061897581 0.22986842824520681 0 0.31746606415054529 0.22456590357021761 0 0.32509889264575059 0.2185808425372627 0 0.33103817008727121 0.21673879786213721 0 0.3501859015969061 0.23063592468744229 0 0.33103817008727121 0.21673879786213721 0 0.32509889264575059 0.2185808425372627 0 0.3501859015969061 0.23063592468744229 0 0.32509889264575059 0.2185808425372627 0 0.3501859015969061 0.23063592468744229 0 0.33103817008727121 0.21673879786213721 0 0.34323626834759369 0.2120736136176625 0 0.3501859015969061 0.23063592468744229 0 0.33329399969745149 0.23355784165868279 0 0.32509889264575059 0.2185808425372627 0 0.3501859015969061 0.23063592468744229 0 0.33103817008727121 0.21673879786213721 0 0.34323626834759369 0.2120736136176625 0 0.32584829320140202 0.2037498893580808 0 0.31189043857763638 0.20284167103683209 0 0.33103817008727121 0.21673879786213721 0 0.32584829320140202 0.2037498893580808 0 0.31189043857763638 0.20284167103683209 0 0.33103817008727121 0.21673879786213721 0 0.31189043857763638 0.20284167103683209 0 0.30906160950285139 0.2186275621867424 0 0.32509889264575059 0.2185808425372627 0 0.31189043857763638 0.20284167103683209 0 0.33103817008727121 0.21673879786213721 0 0.32509889264575059 0.2185808425372627 0 0.31189043857763638 0.20284167103683209 0 0.32584829320140202 0.2037498893580808 0 0.32948809339177138 0.19024439341045221 0 0.30924805831506708 0.18634277216010181 0 0.31189043857763638 0.20284167103683209 0 0.32948809339177138 0.19024439341045221 0 0.34323626834759369 0.2120736136176625 0 0.32948809339177138 0.19024439341045221 0 0.34323626834759369 0.2120736136176625 0 0.32584829320140202 0.2037498893580808 0 0.32948809339177138 0.19024439341045221 0 0.34323626834759369 0.2120736136176625 0 0.32948809339177138 0.19024439341045221 0 0.34681430704898081 0.19517182431416411 0 0.32948809339177138 0.19024439341045221 0 0.34681430704898081 0.19517182431416411 0 0.3529840382012947 0.17903468515889129 0 0.34681430704898081 0.19517182431416411 0 0.3611497056187466 0.1947571951910502 0 0.3529840382012947 0.17903468515889129 0 0.34681430704898081 0.19517182431416411 0 0.3611497056187466 0.1947571951910502 0 0.35488262632623602 0.20500268303824629 0 0.3611497056187466 0.1947571951910502 0 0.37447281708369201 0.1988706686609889 0 0.37072654673294819 0.1824564013573258 0 0.3611497056187466 0.1947571951910502 0 0.37447281708369201 0.1988706686609889 0 0.36541447024260099 0.20835791930193229 0 0.3611497056187466 0.1947571951910502 0 0.36541447024260099 0.20835791930193229 0 0.35488262632623602 0.20500268303824629 0 0.36541447024260099 0.20835791930193229 0 0.35790729253534243 0.2145308225199184 0 0.35488262632623602 0.20500268303824629 0 0.37447281708369201 0.1988706686609889 0 0.36541447024260099 0.20835791930193229 0 0.37820159339456888 0.21210403689290769 0 0.36541447024260099 0.20835791930193229 0 0.3690028438711479 0.2183822744109333 0 0.37820159339456888 0.21210403689290769 0 0.36541447024260099 0.20835791930193229 0 0.3690028438711479 0.2183822744109333 0 0.35790729253534243 0.2145308225199184 0 0.34323626834759369 0.2120736136176625 0 0.34681430704898081 0.19517182431416411 0 0.35488262632623602 0.20500268303824629 0 0.34323626834759369 0.2120736136176625 0 0.35790729253534243 0.2145308225199184 0 0.36054612255829999 0.22377401141774361 0 0.34323626834759369 0.2120736136176625 0 0.35790729253534243 0.2145308225199184 0 0.35488262632623602 0.20500268303824629 0 0.34323626834759369 0.2120736136176625 0 0.3501859015969061 0.23063592468744229 0 0.35698444330341489 0.2339028338248734 0 0.34323626834759369 0.2120736136176625 0 0.35698444330341489 0.2339028338248734 0 0.34323626834759369 0.2120736136176625 0 0.35698444330341489 0.2339028338248734 0 0.36054612255829999 0.22377401141774361 0 0.3501859015969061 0.23063592468744229 0 0.35698444330341489 0.2339028338248734 0 0.35891873063886792 0.23697407668621939 0 0.3501859015969061 0.23063592468744229 0 0.35891873063886792 0.23697407668621939 0 0.3501859015969061 0.23063592468744229 0 0.35698444330341489 0.2339028338248734 0 0.3690028438711479 0.2183822744109333 0 0.36054612255829999 0.22377401141774361 0 0.37111483545234181 0.22848741455658159 0 0.3690028438711479 0.2183822744109333 0 0.35790729253534243 0.2145308225199184 0 0.36054612255829999 0.22377401141774361 0 0.3690028438711479 0.2183822744109333 0 0.37111483545234181 0.22848741455658159 0 0.38090127595643719 0.22312787948758481 0 0.37111483545234181 0.22848741455658159 0 0.37312552184007258 0.23439690856132531 0 0.38046304044700169 0.2334370615356722 0 0.37111483545234181 0.22848741455658159 0 0.36740374334097309 0.2331397555769997 0 0.37312552184007258 0.23439690856132531 0 0.36054612255829999 0.22377401141774361 0 0.37111483545234181 0.22848741455658159 0 0.36740374334097309 0.2331397555769997 0 0.35698444330341489 0.2339028338248734 0 0.36054612255829999 0.22377401141774361 0 0.36740374334097309 0.2331397555769997 0 0.35698444330341489 0.2339028338248734 0 0.37571629189778022 0.24290406526180941 0 0.35891873063886792 0.23697407668621939 0 0.37671128770489021 0.24988763889950741 0 0.36129081369673399 0.24074044739260961 0 0.35891873063886792 0.23697407668621939 0 0.37671128770489021 0.24988763889950741 0 0.35698444330341489 0.2339028338248734 0 0.35891873063886792 0.23697407668621939 0 0.37571629189778022 0.24290406526180941 0 0.35698444330341489 0.2339028338248734 0 0.36740374334097309 0.2331397555769997 0 0.37571629189778022 0.24290406526180941 0 0.35891873063886792 0.23697407668621939 0 0.37671128770489021 0.24988763889950741 0 0.37571629189778022 0.24290406526180941 0 0.36129081369673399 0.24074044739260961 0 0.35891873063886792 0.23697407668621939 0 0.36740374334097309 0.2331397555769997 0 0.37312552184007258 0.23439690856132531 0 0.37571629189778022 0.24290406526180941 0 0.36129081369673399 0.24074044739260961 0 0.3656525742052178 0.24792632527541669 0 0.37671128770489021 0.24988763889950741 0 0.36615677495489168 0.25294791763754748 0 0.3656525742052178 0.24792632527541669 0 0.35845142046435519 0.2481292971720023 0 0.36129081369673399 0.24074044739260961 0 0.3656525742052178 0.24792632527541669 0 0.35845142046435519 0.2481292971720023 0 0.35845142046435519 0.2481292971720023 0 0.35621516235778888 0.24179007057475471 0 0.3505719851215513 0.24456682483287739 0 0.35080130212163568 0.25340632700122723 0 0.35845142046435519 0.2481292971720023 0 0.3505719851215513 0.24456682483287739 0 0.36129081369673399 0.24074044739260961 0 0.35845142046435519 0.2481292971720023 0 0.35621516235778888 0.24179007057475471 0 0.36129081369673399 0.24074044739260961 0 0.35621516235778888 0.24179007057475471 0 0.35891873063886792 0.23697407668621939 0 0.3501859015969061 0.23063592468744229 0 0.35891873063886792 0.23697407668621939 0 0.35184286186743557 0.238539706790065 0 0.35621516235778888 0.24179007057475471 0 0.35891873063886792 0.23697407668621939 0 0.35184286186743557 0.238539706790065 0 0.35698444330341489 0.2339028338248734 0 0.35891873063886792 0.23697407668621939 0 0.35621516235778888 0.24179007057475471 0 0.35184286186743557 0.238539706790065 0 0.3505719851215513 0.24456682483287739 0 0.34341470138310998 0.23915669558068009 0 0.3501859015969061 0.23063592468744229 0 0.35184286186743557 0.238539706790065 0 0.34341470138310998 0.23915669558068009 0 0.35184286186743557 0.238539706790065 0 0.3505719851215513 0.24456682483287739 0 0.34278494234848489 0.24961372375922861 0 0.34341470138310998 0.23915669558068009 0 0.3505719851215513 0.24456682483287739 0 0.35080130212163568 0.25340632700122723 0 0.34278494234848489 0.24961372375922861 0 0.3505719851215513 0.24456682483287739 0 0.3400650412170626 0.14649925062294189 0 0.33215607356764543 0.13534323186327249 0 0.32269664171840512 0.14374913015308241 0 0.3400650412170626 0.14649925062294189 0 0.32296277282039898 0.1571382351283849 0 0.33781222363217439 0.1649608283054084 0 0.3400650412170626 0.14649925062294189 0 0.32269664171840512 0.14374913015308241 0 0.32296277282039898 0.1571382351283849 0 0.32603660620435437 0.1241421469063976 0 0.34419839312910472 0.12691487527508141 0 0.32603660620435437 0.1241421469063976 0 0.33215607356764543 0.13534323186327249 0 0.34419839312910472 0.12691487527508141 0 0.3400650412170626 0.14649925062294189 0 0.33215607356764543 0.13534323186327249 0 0.34419839312910472 0.12691487527508141 0 0.32603660620435437 0.1241421469063976 0 0.30787481927960419 0.1213694185377137 0 0.31669617416661872 0.1341385021369858 0 0.33215607356764543 0.13534323186327249 0 0.31669617416661872 0.1341385021369858 0 0.32269664171840512 0.14374913015308241 0 0.32603660620435437 0.1241421469063976 0 0.33215607356764543 0.13534323186327249 0 0.31669617416661872 0.1341385021369858 0 0.30715499079396441 0.14705335644650391 0 0.32269664171840512 0.14374913015308241 0 0.31568439448109842 0.1525723022140808 0 0.30715499079396441 0.14705335644650391 0 0.31669617416661872 0.1341385021369858 0 0.32269664171840512 0.14374913015308241 0 0.32269664171840512 0.14374913015308241 0 0.31568439448109842 0.1525723022140808 0 0.32296277282039898 0.1571382351283849 0 0.31573991843594912 0.16841517320324181 0 0.32296277282039898 0.1571382351283849 0 0.33781222363217439 0.1649608283054084 0 0.31573991843594912 0.16841517320324181 0 0.33781222363217439 0.1649608283054084 0 0.30967214114923131 0.1587808146803327 0 0.31601480672166937 0.15922663130650999 0 0.31573991843594912 0.16841517320324181 0 0.31601480672166937 0.15922663130650999 0 0.31573991843594912 0.16841517320324181 0 0.32296277282039898 0.1571382351283849 0 0.30967214114923131 0.1587808146803327 0 0.31573991843594912 0.16841517320324181 0 0.30967214114923131 0.1587808146803327 0 0.31568439448109842 0.1525723022140808 0 0.31601480672166937 0.15922663130650999 0 0.31568439448109842 0.1525723022140808 0 0.31601480672166937 0.15922663130650999 0 0.32296277282039898 0.1571382351283849 0 0.32948809339177138 0.19024439341045221 0 0.31573991843594912 0.16841517320324181 0 0.30924805831506708 0.18634277216010181 0 0.32948809339177138 0.19024439341045221 0 0.3134359625181003 0.17826601499438999 0 0.32948809339177138 0.19024439341045221 0 0.31573991843594912 0.16841517320324181 0 0.3134359625181003 0.17826601499438999 0 0.32948809339177138 0.19024439341045221 0 0.31573991843594912 0.16841517320324181 0 0.33234821657136038 0.17570538754118939 0 0.33234821657136038 0.17570538754118939 0 0.33781222363217439 0.1649608283054084 0 0.3529840382012947 0.17903468515889129 0 0.32948809339177138 0.19024439341045221 0 0.33234821657136038 0.17570538754118939 0 0.3529840382012947 0.17903468515889129 0 0.31573991843594912 0.16841517320324181 0 0.33234821657136038 0.17570538754118939 0 0.33781222363217439 0.1649608283054084 0 0.3529840382012947 0.17903468515889129 0 0.35988452882839989 0.1615064834075764 0 0.33781222363217439 0.1649608283054084 0 0.3529840382012947 0.17903468515889129 0 0.35988452882839989 0.1615064834075764 0 0.33781222363217439 0.1649608283054084 0 0.35988452882839989 0.1615064834075764 0 0.3400650412170626 0.14649925062294189 0 0.33781222363217439 0.1649608283054084 0 0.35988452882839989 0.1615064834075764 0 0.3611497056187466 0.1947571951910502 0 0.3529840382012947 0.17903468515889129 0 0.37072654673294819 0.1824564013573258 0 0.3529840382012947 0.17903468515889129 0 0.37072654673294819 0.1824564013573258 0 0.35988452882839989 0.1615064834075764 0 0.35988452882839989 0.1615064834075764 0 0.37682063441554242 0.15885596052815609 0 0.37828564343636861 0.17049711546114121 0 0.35988452882839989 0.1615064834075764 0 0.37682063441554242 0.15885596052815609 0 0.37072654673294819 0.1824564013573258 0 0.35988452882839989 0.1615064834075764 0 0.37828564343636861 0.17049711546114121 0 0.35988452882839989 0.1615064834075764 0 0.35432257944819912 0.14036502086732619 0 0.36845936317660938 0.13972521674675301 0 0.35988452882839989 0.1615064834075764 0 0.36845936317660938 0.13972521674675301 0 0.37601866683817381 0.14799277190544829 0 0.35988452882839989 0.1615064834075764 0 0.36845936317660938 0.13972521674675301 0 0.35988452882839989 0.1615064834075764 0 0.37601866683817381 0.14799277190544829 0 0.37682063441554242 0.15885596052815609 0 0.36845936317660938 0.13972521674675301 0 0.38002826378497712 0.13468628068508889 0 0.37601866683817381 0.14799277190544829 0 0.3400650412170626 0.14649925062294189 0 0.35988452882839989 0.1615064834075764 0 0.35432257944819912 0.14036502086732619 0 0.3400650412170626 0.14649925062294189 0 0.34419839312910472 0.12691487527508141 0 0.35432257944819912 0.14036502086732619 0 0.34419839312910472 0.12691487527508141 0 0.35432257944819912 0.14036502086732619 0 0.35900557088981849 0.12717927828427811 0 0.36845936317660938 0.13972521674675301 0 0.37703419752481859 0.11794395008592939 0 0.35900557088981849 0.12717927828427811 0 0.36845936317660938 0.13972521674675301 0 0.37703419752481859 0.11794395008592939 0 0.35432257944819912 0.14036502086732619 0 0.35900557088981849 0.12717927828427811 0 0.36845936317660938 0.13972521674675301 0 0.38002826378497712 0.13468628068508889 0 0.38655398813174269 0.12668353439294941 0 0.37703419752481859 0.11794395008592939 0 0.36845936317660938 0.13972521674675301 0 0.38002826378497712 0.13468628068508889 0 0.37703419752481859 0.11794395008592939 0 0.38620455634480511 0.13436144364641781 0 0.39036676537822501 0.13803177650962159 0 0.38584695919500822 0.1426925051808122 0 0.38620455634480511 0.13436144364641781 0 0.39036676537822501 0.13803177650962159 0 0.38822680523407238 0.12971312146361699 0 0.38002826378497712 0.13468628068508889 0 0.38620455634480511 0.13436144364641781 0 0.38584695919500822 0.1426925051808122 0 0.38002826378497712 0.13468628068508889 0 0.38620455634480511 0.13436144364641781 0 0.38655398813174269 0.12668353439294941 0 0.38620455634480511 0.13436144364641781 0 0.38655398813174269 0.12668353439294941 0 0.38822680523407238 0.12971312146361699 0 0.38655398813174269 0.12668353439294941 0 0.38822680523407238 0.12971312146361699 0 0.38655398813174269 0.12668353439294941 0 0.38822680523407238 0.12971312146361699 0 0.39997302720349442 0.13900279939878701 0 0.38655398813174269 0.12668353439294941 0 0.39997302720349442 0.13900279939878701 0 0.3992976659921943 0.1238598412511633 0 0.38655398813174269 0.12668353439294941 0 0.39997302720349442 0.13900279939878701 0 0.39036676537822501 0.13803177650962159 0 0.39997302720349442 0.13900279939878701 0 0.39355743468088678 0.1435088697603645 0 0.39036676537822501 0.13803177650962159 0 0.38822680523407238 0.12971312146361699 0 0.39997302720349442 0.13900279939878701 0 0.39997302720349442 0.13900279939878701 0 0.41459953355033502 0.1236319525613281 0 0.3992976659921943 0.1238598412511633 0 0.39950236892543872 0.14855719130326331 0 0.40454688748480078 0.1542308239288489 0 0.4133920662752455 0.15132206440462509 0 0.39950236892543872 0.14855719130326331 0 0.40454688748480078 0.1542308239288489 0 0.39764768929586108 0.15320522933389669 0 0.40454688748480078 0.1542308239288489 0 0.39764768929586108 0.15320522933389669 0 0.39832724533775199 0.1580507158559632 0 0.39997302720349442 0.13900279939878701 0 0.39950236892543872 0.14855719130326331 0 0.4133920662752455 0.15132206440462509 0 0.39950236892543872 0.14855719130326331 0 0.39355743468088678 0.1435088697603645 0 0.39209805270226789 0.14926007640933819 0 0.39997302720349442 0.13900279939878701 0 0.39950236892543872 0.14855719130326331 0 0.39355743468088678 0.1435088697603645 0 0.39950236892543872 0.14855719130326331 0 0.39209805270226789 0.14926007640933819 0 0.39764768929586108 0.15320522933389669 0 0.39764768929586108 0.15320522933389669 0 0.39375674000268501 0.15620543764873709 0 0.39832724533775199 0.1580507158559632 0 0.39209805270226789 0.14926007640933819 0 0.39764768929586108 0.15320522933389669 0 0.39375674000268501 0.15620543764873709 0 0.39375674000268501 0.15620543764873709 0 0.38507225162850622 0.1504901848843031 0 0.37682063441554242 0.15885596052815609 0 0.39209805270226789 0.14926007640933819 0 0.39375674000268501 0.15620543764873709 0 0.38507225162850622 0.1504901848843031 0 0.39036676537822501 0.13803177650962159 0 0.39355743468088678 0.1435088697603645 0 0.38584695919500822 0.1426925051808122 0 0.39209805270226789 0.14926007640933819 0 0.38507225162850622 0.1504901848843031 0 0.38584695919500822 0.1426925051808122 0 0.39355743468088678 0.1435088697603645 0 0.39209805270226789 0.14926007640933819 0 0.38584695919500822 0.1426925051808122 0 0.38507225162850622 0.1504901848843031 0 0.38584695919500822 0.1426925051808122 0 0.37601866683817381 0.14799277190544829 0 0.38002826378497712 0.13468628068508889 0 0.38584695919500822 0.1426925051808122 0 0.37601866683817381 0.14799277190544829 0 0.38507225162850622 0.1504901848843031 0 0.37601866683817381 0.14799277190544829 0 0.37682063441554242 0.15885596052815609 0 0.39375674000268501 0.15620543764873709 0 0.37682063441554242 0.15885596052815609 0 0.39375674000268501 0.15620543764873709 0 0.37682063441554242 0.15885596052815609 0 0.39147127392334857 0.16516867616089781 0 0.37682063441554242 0.15885596052815609 0 0.37828564343636861 0.17049711546114121 0 0.39147127392334857 0.16516867616089781 0 0.37828564343636861 0.17049711546114121 0 0.38854146517207833 0.17515965752940951 0 0.39147127392334857 0.16516867616089781 0 0.37072654673294819 0.1824564013573258 0 0.38226941154589422 0.1798355137834815 0 0.38449107600533511 0.1908641985064993 0 0.37072654673294819 0.1824564013573258 0 0.37828564343636861 0.17049711546114121 0 0.38226941154589422 0.1798355137834815 0 0.38226941154589422 0.1798355137834815 0 0.38854146517207833 0.17515965752940951 0 0.39233452659116541 0.18375544348405989 0 0.37828564343636861 0.17049711546114121 0 0.38226941154589422 0.1798355137834815 0 0.38854146517207833 0.17515965752940951 0 0.38226941154589422 0.1798355137834815 0 0.39233452659116541 0.18375544348405989 0 0.38449107600533511 0.1908641985064993 0 0.39233452659116541 0.18375544348405989 0 0.39477368736023782 0.1730322081041685 0 0.4031939257768446 0.18302654749051231 0 0.38854146517207833 0.17515965752940951 0 0.39233452659116541 0.18375544348405989 0 0.39477368736023782 0.1730322081041685 0 0.4031939257768446 0.18302654749051231 0 0.39832724533775199 0.1580507158559632 0 0.4051752279762571 0.17114739829924941 0 0.4031939257768446 0.18302654749051231 0 0.39832724533775199 0.1580507158559632 0 0.39477368736023782 0.1730322081041685 0 0.4031939257768446 0.18302654749051231 0 0.39832724533775199 0.1580507158559632 0 0.39375674000268501 0.15620543764873709 0 0.39832724533775199 0.1580507158559632 0 0.39147127392334857 0.16516867616089781 0 0.39477368736023782 0.1730322081041685 0 0.39832724533775199 0.1580507158559632 0 0.39147127392334857 0.16516867616089781 0 0.38854146517207833 0.17515965752940951 0 0.39477368736023782 0.1730322081041685 0 0.39147127392334857 0.16516867616089781 0 0.4051752279762571 0.17114739829924941 0 0.40457154668894912 0.1609298535201763 0 0.40782821045700729 0.1669858319015646 0 0.39832724533775199 0.1580507158559632 0 0.4051752279762571 0.17114739829924941 0 0.40457154668894912 0.1609298535201763 0 0.40454688748480078 0.1542308239288489 0 0.39832724533775199 0.1580507158559632 0 0.40457154668894912 0.1609298535201763 0 0.42046943085514238 0.16886478697263929 0 0.41217277326263102 0.17928336868637021 0 0.4133920662752455 0.15132206440462509 0 0.40457154668894912 0.1609298535201763 0 0.40782821045700729 0.1669858319015646 0 0.4133920662752455 0.15132206440462509 0 0.41217277326263102 0.17928336868637021 0 0.4133920662752455 0.15132206440462509 0 0.42046943085514238 0.16886478697263929 0 0.4133920662752455 0.15132206440462509 0 0.41820471773315487 0.1557402890162157 0 0.40782821045700729 0.1669858319015646 0 0.41217277326263102 0.17928336868637021 0 0.4133920662752455 0.15132206440462509 0 0.4031939257768446 0.18302654749051231 0 0.41217277326263102 0.17928336868637021 0 0.41482061069616438 0.19037574064345381 0 0.4051752279762571 0.17114739829924941 0 0.40782821045700729 0.1669858319015646 0 0.41217277326263102 0.17928336868637021 0 0.4031939257768446 0.18302654749051231 0 0.4051752279762571 0.17114739829924941 0 0.41217277326263102 0.17928336868637021 0 0.42046943085514238 0.16886478697263929 0 0.41217277326263102 0.17928336868637021 0 0.42078704835203862 0.1775821023707107 0 0.41217277326263102 0.17928336868637021 0 0.42078704835203862 0.1775821023707107 0 0.42134051861483229 0.18430110502963029 0 0.41217277326263102 0.17928336868637021 0 0.42134051861483229 0.18430110502963029 0 0.41482061069616438 0.19037574064345381 0 0.42134051861483229 0.18430110502963029 0 0.43064954185255538 0.1787236411957642 0 0.42848535847169628 0.195661729075471 0 0.42078704835203862 0.1775821023707107 0 0.42134051861483229 0.18430110502963029 0 0.43064954185255538 0.1787236411957642 0 0.42046943085514238 0.16886478697263929 0 0.42078704835203862 0.1775821023707107 0 0.43064954185255538 0.1787236411957642 0 0.43064954185255538 0.1787236411957642 0 0.44043088775549799 0.18192700866746389 0 0.44076874684864692 0.17474914775532871 0 0.43064954185255538 0.1787236411957642 0 0.43711518148331852 0.189051984209122 0 0.44043088775549799 0.18192700866746389 0 0.43064954185255538 0.1787236411957642 0 0.43297278980773379 0.1595770888539309 0 0.44076874684864692 0.17474914775532871 0 0.42046943085514238 0.16886478697263929 0 0.43064954185255538 0.1787236411957642 0 0.43297278980773379 0.1595770888539309 0 0.42046943085514238 0.16886478697263929 0 0.43297278980773379 0.1595770888539309 0 0.41820471773315487 0.1557402890162157 0 0.43297278980773379 0.1595770888539309 0 0.42687267362948678 0.14706679406065151 0 0.4408547642829419 0.14954061823723999 0 0.43297278980773379 0.1595770888539309 0 0.42687267362948678 0.14706679406065151 0 0.41365424601306422 0.1453096561075089 0 0.43297278980773379 0.1595770888539309 0 0.41365424601306422 0.1453096561075089 0 0.42687267362948678 0.14706679406065151 0 0.41738360032164418 0.13917282440709669 0 0.4384580968571804 0.12278464696091849 0 0.41738360032164418 0.13917282440709669 0 0.4384580968571804 0.12278464696091849 0 0.41459953355033502 0.1236319525613281 0 0.42687267362948678 0.14706679406065151 0 0.4408547642829419 0.14954061823723999 0 0.4384580968571804 0.12278464696091849 0 0.41738360032164418 0.13917282440709669 0 0.4384580968571804 0.12278464696091849 0 0.41365424601306422 0.1453096561075089 0 0.41459953355033502 0.1236319525613281 0 0.39997302720349442 0.13900279939878701 0 0.41365424601306422 0.1453096561075089 0 0.41459953355033502 0.1236319525613281 0 0.41738360032164418 0.13917282440709669 0 0.41365424601306422 0.1453096561075089 0 0.41459953355033502 0.1236319525613281 0 0.39997302720349442 0.13900279939878701 0 0.41365424601306422 0.1453096561075089 0 0.4133920662752455 0.15132206440462509 0 0.43297278980773379 0.1595770888539309 0 0.41365424601306422 0.1453096561075089 0 0.41820471773315487 0.1557402890162157 0 0.39997302720349442 0.13900279939878701 0 0.4133920662752455 0.15132206440462509 0 0.41365424601306422 0.1453096561075089 0 0.4133920662752455 0.15132206440462509 0 0.40454688748480078 0.1542308239288489 0 0.40457154668894912 0.1609298535201763 0 0.4133920662752455 0.15132206440462509 0 0.41365424601306422 0.1453096561075089 0 0.4133920662752455 0.15132206440462509 0 0.41820471773315487 0.1557402890162157 0 0.4133920662752455 0.15132206440462509 0 0.41820471773315487 0.1557402890162157 0 0.42687267362948678 0.14706679406065151 0 0.41738360032164418 0.13917282440709669 0 0.41365424601306422 0.1453096561075089 0 0.39967010680651333 0.24186212484987291 0 0.39296158831776717 0.23098850539332219 0 0.4129272866550297 0.23297821075961059 0 0.39444814049214599 0.25190529669874417 0 0.40817297360782467 0.25266924123366369 0 0.39967010680651333 0.24186212484987291 0 0.39967010680651333 0.24186212484987291 0 0.38905184870836562 0.23986817408102171 0 0.39296158831776717 0.23098850539332219 0 0.39444814049214599 0.25190529669874417 0 0.39967010680651333 0.24186212484987291 0 0.38905184870836562 0.23986817408102171 0 0.39444814049214599 0.25190529669874417 0 0.37671128770489021 0.24988763889950741 0 0.37571629189778022 0.24290406526180941 0 0.39444814049214599 0.25190529669874417 0 0.37571629189778022 0.24290406526180941 0 0.39444814049214599 0.25190529669874417 0 0.37571629189778022 0.24290406526180941 0 0.38905184870836562 0.23986817408102171 0 0.37571629189778022 0.24290406526180941 0 0.38905184870836562 0.23986817408102171 0 0.38046304044700169 0.2334370615356722 0 0.37312552184007258 0.23439690856132531 0 0.37571629189778022 0.24290406526180941 0 0.38046304044700169 0.2334370615356722 0 0.38905184870836562 0.23986817408102171 0 0.38046304044700169 0.2334370615356722 0 0.39296158831776717 0.23098850539332219 0 0.38046304044700169 0.2334370615356722 0 0.38090127595643719 0.22312787948758481 0 0.39296158831776717 0.23098850539332219 0 0.37111483545234181 0.22848741455658159 0 0.38046304044700169 0.2334370615356722 0 0.38090127595643719 0.22312787948758481 0 0.38090127595643719 0.22312787948758481 0 0.39296158831776717 0.23098850539332219 0 0.39366375425579608 0.2153679841360919 0 0.39366375425579608 0.2153679841360919 0 0.40806060621593709 0.20800237912506131 0 0.4129272866550297 0.23297821075961059 0 0.39296158831776717 0.23098850539332219 0 0.39366375425579608 0.2153679841360919 0 0.4129272866550297 0.23297821075961059 0 0.39366375425579608 0.2153679841360919 0 0.3948248125755095 0.19751355797599141 0 0.40806060621593709 0.20800237912506131 0 0.39366375425579608 0.2153679841360919 0 0.38513081066298033 0.20294408923449589 0 0.3948248125755095 0.19751355797599141 0 0.38090127595643719 0.22312787948758481 0 0.39366375425579608 0.2153679841360919 0 0.37820159339456888 0.21210403689290769 0 0.3690028438711479 0.2183822744109333 0 0.38090127595643719 0.22312787948758481 0 0.37820159339456888 0.21210403689290769 0 0.37447281708369201 0.1988706686609889 0 0.37820159339456888 0.21210403689290769 0 0.38513081066298033 0.20294408923449589 0 0.39366375425579608 0.2153679841360919 0 0.37820159339456888 0.21210403689290769 0 0.38513081066298033 0.20294408923449589 0 0.37447281708369201 0.1988706686609889 0 0.37072654673294819 0.1824564013573258 0 0.38449107600533511 0.1908641985064993 0 0.38513081066298033 0.20294408923449589 0 0.38449107600533511 0.1908641985064993 0 0.3948248125755095 0.19751355797599141 0 0.37447281708369201 0.1988706686609889 0 0.38513081066298033 0.20294408923449589 0 0.38449107600533511 0.1908641985064993 0 0.39233452659116541 0.18375544348405989 0 0.38449107600533511 0.1908641985064993 0 0.3948248125755095 0.19751355797599141 0 0.39233452659116541 0.18375544348405989 0 0.4031939257768446 0.18302654749051231 0 0.3948248125755095 0.19751355797599141 0 0.4031939257768446 0.18302654749051231 0 0.40806060621593709 0.20800237912506131 0 0.4031939257768446 0.18302654749051231 0 0.3948248125755095 0.19751355797599141 0 0.40806060621593709 0.20800237912506131 0 0.4031939257768446 0.18302654749051231 0 0.41482061069616438 0.19037574064345381 0 0.40806060621593709 0.20800237912506131 0 0.41482061069616438 0.19037574064345381 0 0.42848535847169628 0.195661729075471 0 0.40806060621593709 0.20800237912506131 0 0.42134051861483229 0.18430110502963029 0 0.41482061069616438 0.19037574064345381 0 0.42848535847169628 0.195661729075471 0 0.43064954185255538 0.1787236411957642 0 0.43711518148331852 0.189051984209122 0 0.42848535847169628 0.195661729075471 0 0.42848535847169628 0.195661729075471 0 0.4326538661265481 0.21379360582811049 0 0.44081343219618863 0.19780585273145929 0 0.43711518148331852 0.189051984209122 0 0.42848535847169628 0.195661729075471 0 0.44081343219618863 0.19780585273145929 0 0.42848535847169628 0.195661729075471 0 0.4326538661265481 0.21379360582811049 0 0.40806060621593709 0.20800237912506131 0 0.4326538661265481 0.21379360582811049 0 0.40806060621593709 0.20800237912506131 0 0.42683842993883009 0.22870556885935961 0 0.40806060621593709 0.20800237912506131 0 0.4129272866550297 0.23297821075961059 0 0.42683842993883009 0.22870556885935961 0 0.40806060621593709 0.20800237912506131 0 0.4129272866550297 0.23297821075961059 0 0.4326538661265481 0.21379360582811049 0 0.42683842993883009 0.22870556885935961 0 0.44124894471458448 0.23073348408637809 0 0.42287166121750841 0.24910642920950041 0 0.44124894471458448 0.23073348408637809 0 0.42287166121750841 0.24910642920950041 0 0.44822296264081168 0.24528399831525291 0 0.44124894471458448 0.23073348408637809 0 0.42683842993883009 0.22870556885935961 0 0.42287166121750841 0.24910642920950041 0 0.44124894471458448 0.23073348408637809 0 0.4129272866550297 0.23297821075961059 0 0.42683842993883009 0.22870556885935961 0 0.42287166121750841 0.24910642920950041 0 0.40817297360782467 0.25266924123366369 0 0.4129272866550297 0.23297821075961059 0 0.42287166121750841 0.24910642920950041 0 0.40817297360782467 0.25266924123366369 0 0.39967010680651333 0.24186212484987291 0 0.4129272866550297 0.23297821075961059 0 0.46710251890239107 0.2460923996478282 0 0.44822296264081168 0.24528399831525291 0 0.46046615228388921 0.22772984839538149 0 0.44822296264081168 0.24528399831525291 0 0.44985359699426919 0.21578613103441011 0 0.4326538661265481 0.21379360582811049 0 0.44124894471458448 0.23073348408637809 0 0.44985359699426919 0.21578613103441011 0 0.44822296264081168 0.24528399831525291 0 0.44124894471458448 0.23073348408637809 0 0.44985359699426919 0.21578613103441011 0 0.44822296264081168 0.24528399831525291 0 0.46046615228388921 0.22772984839538149 0 0.44985359699426919 0.21578613103441011 0 0.46710251890239107 0.2460923996478282 0 0.46046615228388921 0.22772984839538149 0 0.47427304480540627 0.22556172073508859 0 0.46046615228388921 0.22772984839538149 0 0.46287863807656759 0.2059249922443277 0 0.47427304480540627 0.22556172073508859 0 0.46287863807656759 0.2059249922443277 0 0.47427304480540627 0.22556172073508859 0 0.46046615228388921 0.22772984839538149 0 0.46287863807656759 0.2059249922443277 0 0.44985359699426919 0.21578613103441011 0 0.4326538661265481 0.21379360582811049 0 0.44985359699426919 0.21578613103441011 0 0.44081343219618863 0.19780585273145929 0 0.44985359699426919 0.21578613103441011 0 0.44081343219618863 0.19780585273145929 0 0.45148423134772769 0.18628826375356741 0 0.44985359699426919 0.21578613103441011 0 0.45148423134772769 0.18628826375356741 0 0.43711518148331852 0.189051984209122 0 0.44081343219618863 0.19780585273145929 0 0.44363526852442597 0.1871859954101284 0 0.44081343219618863 0.19780585273145929 0 0.44363526852442597 0.1871859954101284 0 0.45148423134772769 0.18628826375356741 0 0.46287863807656759 0.2059249922443277 0 0.44985359699426919 0.21578613103441011 0 0.45148423134772769 0.18628826375356741 0 0.46287863807656759 0.2059249922443277 0 0.46154789637017929 0.19357294525638069 0 0.45148423134772769 0.18628826375356741 0 0.46287863807656759 0.2059249922443277 0 0.45148423134772769 0.18628826375356741 0 0.46287863807656759 0.2059249922443277 0 0.46154789637017929 0.19357294525638069 0 0.47329525655149929 0.18953023984392561 0 0.46287863807656759 0.2059249922443277 0 0.47329525655149929 0.18953023984392561 0 0.47815442766613891 0.2086352068523489 0 0.47329525655149929 0.18953023984392561 0 0.49441810827424743 0.20522114414825041 0 0.47815442766613891 0.2086352068523489 0 0.47329525655149929 0.18953023984392561 0 0.49441810827424743 0.20522114414825041 0 0.47329525655149929 0.18953023984392561 0 0.48751312219743731 0.18837672975162251 0 0.49441810827424743 0.20522114414825041 0 0.49441810827424743 0.20522114414825041 0 0.5 0.2108446248869035 0 0.5 0.18141687287844799 0 0.48751312219743731 0.18837672975162251 0 0.49441810827424743 0.20522114414825041 0 0.5 0.18141687287844799 0 0.5 0.2108446248869035 0 0.48713563569858409 0.21627134263349901 0 0.48941522640764712 0.2276297028753399 0 0.49441810827424743 0.20522114414825041 0 0.48713563569858409 0.21627134263349901 0 0.47815442766613891 0.2086352068523489 0 0.49441810827424743 0.20522114414825041 0 0.5 0.2108446248869035 0 0.48713563569858409 0.21627134263349901 0 0.48713563569858409 0.21627134263349901 0 0.47815442766613891 0.2086352068523489 0 0.47427304480540627 0.22556172073508859 0 0.46287863807656759 0.2059249922443277 0 0.47815442766613891 0.2086352068523489 0 0.47427304480540627 0.22556172073508859 0 0.47427304480540627 0.22556172073508859 0 0.48941522640764712 0.2276297028753399 0 0.48566745153424518 0.2451984492258496 0 0.48713563569858409 0.21627134263349901 0 0.47427304480540627 0.22556172073508859 0 0.48941522640764712 0.2276297028753399 0 0.5 0.2108446248869035 0 0.48941522640764712 0.2276297028753399 0 0.5 0.24027237689535891 0 0.48941522640764712 0.2276297028753399 0 0.5 0.24027237689535891 0 0.48566745153424518 0.2451984492258496 0 0.47427304480540627 0.22556172073508859 0 0.48566745153424518 0.2451984492258496 0 0.46710251890239107 0.2460923996478282 0 0.47427304480540627 0.22556172073508859 0 0.48566745153424518 0.2451984492258496 0 0.45379785629155761 0.14443522577109771 0 0.46507694866255661 0.1579445204380644 0 0.47626932037909109 0.13957791316552709 0 0.45379785629155761 0.14443522577109771 0 0.46202300483457831 0.1258490485845109 0 0.47626932037909109 0.13957791316552709 0 0.45379785629155761 0.14443522577109771 0 0.4408547642829419 0.14954061823723999 0 0.4384580968571804 0.12278464696091849 0 0.45379785629155761 0.14443522577109771 0 0.46202300483457831 0.1258490485845109 0 0.4384580968571804 0.12278464696091849 0 0.45379785629155761 0.14443522577109771 0 0.4408547642829419 0.14954061823723999 0 0.45217240482875048 0.17383933553960171 0 0.45379785629155761 0.14443522577109771 0 0.45217240482875048 0.17383933553960171 0 0.43297278980773379 0.1595770888539309 0 0.45217240482875048 0.17383933553960171 0 0.43297278980773379 0.1595770888539309 0 0.4408547642829419 0.14954061823723999 0 0.45217240482875048 0.17383933553960171 0 0.43297278980773379 0.1595770888539309 0 0.44076874684864692 0.17474914775532871 0 0.45217240482875048 0.17383933553960171 0 0.44363526852442597 0.1871859954101284 0 0.44043088775549799 0.18192700866746389 0 0.44833260983939732 0.18085686768902959 0 0.43711518148331852 0.189051984209122 0 0.44363526852442597 0.1871859954101284 0 0.44043088775549799 0.18192700866746389 0 0.44043088775549799 0.18192700866746389 0 0.44076874684864692 0.17474914775532871 0 0.44833260983939732 0.18085686768902959 0 0.44076874684864692 0.17474914775532871 0 0.45217240482875048 0.17383933553960171 0 0.44833260983939732 0.18085686768902959 0 0.44363526852442597 0.1871859954101284 0 0.44833260983939732 0.18085686768902959 0 0.45148423134772769 0.18628826375356741 0 0.45217240482875048 0.17383933553960171 0 0.45148423134772769 0.18628826375356741 0 0.45217240482875048 0.17383933553960171 0 0.44833260983939732 0.18085686768902959 0 0.45148423134772769 0.18628826375356741 0 0.44833260983939732 0.18085686768902959 0 0.45148423134772769 0.18628826375356741 0 0.47329525655149929 0.18953023984392561 0 0.45217240482875048 0.17383933553960171 0 0.47005653934637259 0.17168378276415119 0 0.46154789637017929 0.19357294525638069 0 0.47329525655149929 0.18953023984392561 0 0.45217240482875048 0.17383933553960171 0 0.47329525655149929 0.18953023984392561 0 0.45217240482875048 0.17383933553960171 0 0.46154789637017929 0.19357294525638069 0 0.45217240482875048 0.17383933553960171 0 0.45148423134772769 0.18628826375356741 0 0.45217240482875048 0.17383933553960171 0 0.46507694866255661 0.1579445204380644 0 0.47005653934637259 0.17168378276415119 0 0.45379785629155761 0.14443522577109771 0 0.45217240482875048 0.17383933553960171 0 0.46507694866255661 0.1579445204380644 0 0.46507694866255661 0.1579445204380644 0 0.47005653934637259 0.17168378276415119 0 0.47739896272505372 0.1597661558632987 0 0.47005653934637259 0.17168378276415119 0 0.47739896272505372 0.1597661558632987 0 0.48471064680339382 0.1737938169952398 0 0.47329525655149929 0.18953023984392561 0 0.48751312219743731 0.18837672975162251 0 0.48471064680339382 0.1737938169952398 0 0.47329525655149929 0.18953023984392561 0 0.47005653934637259 0.17168378276415119 0 0.48471064680339382 0.1737938169952398 0 0.48751312219743731 0.18837672975162251 0 0.48471064680339382 0.1737938169952398 0 0.5 0.18141687287844799 0 0.47739896272505372 0.1597661558632987 0 0.48471064680339382 0.1737938169952398 0 0.5 0.15198912086999261 0 0.48471064680339382 0.1737938169952398 0 0.5 0.18141687287844799 0 0.5 0.15198912086999261 0 0.47739896272505372 0.1597661558632987 0 0.5 0.15198912086999261 0 0.47626932037909109 0.13957791316552709 0 0.46507694866255661 0.1579445204380644 0 0.47739896272505372 0.1597661558632987 0 0.47626932037909109 0.13957791316552709 0 0.46202300483457831 0.1258490485845109 0 0.47626932037909109 0.13957791316552709 0 0.48012659283781189 0.1124939463486031 0 0.5 0.15198912086999261 0 0.47626932037909109 0.13957791316552709 0 0.5 0.1225613688615371 0 0.5 0.1225613688615371 0 0.4901834206915161 0.104549306032946 0 0.48012659283781189 0.1124939463486031 0 0.47626932037909109 0.13957791316552709 0 0.5 0.1225613688615371 0 0.48012659283781189 0.1124939463486031 0 0.4901834206915161 0.104549306032946 0 0.5 0.093133616853081413 0 0.48060708992825252 0.09000829206856252 0 0.5 0.1225613688615371 0 0.4901834206915161 0.104549306032946 0 0.5 0.093133616853081413 0 0.48012659283781189 0.1124939463486031 0 0.48060708992825252 0.09000829206856252 0 0.45953259339271652 0.10639646951474049 0 0.48060708992825252 0.09000829206856252 0 0.45953259339271652 0.10639646951474049 0 0.4901834206915161 0.104549306032946 0 0.48012659283781189 0.1124939463486031 0 0.48060708992825252 0.09000829206856252 0 0.48060708992825252 0.09000829206856252 0 0.46893648670227089 0.088859286421372863 0 0.45953259339271652 0.10639646951474049 0 0.5 0.063705864844625815 0 0.48645447600447128 0.072879073726840507 0 0.47590972770138468 0.06124074800906279 0 0.5 0.063705864844625815 0 0.48645447600447128 0.072879073726840507 0 0.5 0.093133616853081413 0 0.48645447600447128 0.072879073726840507 0 0.5 0.093133616853081413 0 0.4804315999440657 0.085189360544179402 0 0.5 0.093133616853081413 0 0.48060708992825252 0.09000829206856252 0 0.4804315999440657 0.085189360544179402 0 0.4804315999440657 0.085189360544179402 0 0.45929255599621488 0.079543483321031741 0 0.4804315999440657 0.085189360544179402 0 0.47186398694252629 0.073618580219809354 0 0.45929255599621488 0.079543483321031741 0 0.46893648670227089 0.088859286421372863 0 0.4804315999440657 0.085189360544179402 0 0.45929255599621488 0.079543483321031741 0 0.48060708992825252 0.09000829206856252 0 0.46893648670227089 0.088859286421372863 0 0.4804315999440657 0.085189360544179402 0 0.48645447600447128 0.072879073726840507 0 0.4804315999440657 0.085189360544179402 0 0.47186398694252629 0.073618580219809354 0 0.48645447600447128 0.072879073726840507 0 0.47186398694252629 0.073618580219809354 0 0.47590972770138468 0.06124074800906279 0 0.47186398694252629 0.073618580219809354 0 0.45555341288805867 0.064289121505317029 0 0.45929255599621488 0.079543483321031741 0 0.47186398694252629 0.073618580219809354 0 0.45555341288805867 0.064289121505317029 0 0.47590972770138468 0.06124074800906279 0 0.46893648670227089 0.088859286421372863 0 0.45929255599621488 0.079543483321031741 0 0.45953259339271652 0.10639646951474049 0 0.45929255599621488 0.079543483321031741 0 0.43815351204836422 0.073897606097884067 0 0.43955212628931412 0.098137459857842849 0 0.45555341288805867 0.064289121505317029 0 0.45929255599621488 0.079543483321031741 0 0.43815351204836422 0.073897606097884067 0 0.45555341288805867 0.064289121505317029 0 0.43815351204836422 0.073897606097884067 0 0.43780228868054499 0.060579604431765667 0 0.45929255599621488 0.079543483321031741 0 0.43815351204836422 0.073897606097884067 0 0.46202300483457831 0.1258490485845109 0 0.45953259339271652 0.10639646951474049 0 0.4384580968571804 0.12278464696091849 0 0.46202300483457831 0.1258490485845109 0 0.48012659283781189 0.1124939463486031 0 0.45953259339271652 0.10639646951474049 0 0.45953259339271652 0.10639646951474049 0 0.43955212628931412 0.098137459857842849 0 0.4384580968571804 0.12278464696091849 0 0.45929255599621488 0.079543483321031741 0 0.45953259339271652 0.10639646951474049 0 0.43955212628931412 0.098137459857842849 0 0.45953259339271652 0.10639646951474049 0 0.4384580968571804 0.12278464696091849 0 0.4384580968571804 0.12278464696091849 0 0.42710418938056349 0.1101239750245301 0 0.41459953355033502 0.1236319525613281 0 0.43955212628931412 0.098137459857842849 0 0.4384580968571804 0.12278464696091849 0 0.42710418938056349 0.1101239750245301 0 0.42710418938056349 0.1101239750245301 0 0.41459953355033502 0.1236319525613281 0 0.41580700082542482 0.095941840718031121 0 0.41459953355033502 0.1236319525613281 0 0.41580700082542482 0.095941840718031121 0 0.41459953355033502 0.1236319525613281 0 0.41580700082542482 0.095941840718031121 0 0.40037625645895908 0.1078537796896914 0 0.43955212628931412 0.098137459857842849 0 0.42710418938056349 0.1101239750245301 0 0.41580700082542482 0.095941840718031121 0 0.43815351204836422 0.073897606097884067 0 0.43955212628931412 0.098137459857842849 0 0.41580700082542482 0.095941840718031121 0 0.43815351204836422 0.073897606097884067 0 0.41580700082542482 0.095941840718031121 0 0.41701446810051412 0.068251728874734102 0 0.43815351204836422 0.073897606097884067 0 0.41701446810051412 0.068251728874734102 0 0.43815351204836422 0.073897606097884067 0 0.41701446810051412 0.068251728874734102 0 0.43780228868054499 0.060579604431765667 0 0.41701446810051412 0.068251728874734102 0 0.40473004269932822 0.081381656432177929 0 0.40043305716544902 0.063823117507216032 0 0.41701446810051412 0.068251728874734102 0 0.40043305716544902 0.063823117507216032 0 0.41580700082542482 0.095941840718031121 0 0.41701446810051412 0.068251728874734102 0 0.41580700082542482 0.095941840718031121 0 0.41701446810051412 0.068251728874734102 0 0.40473004269932822 0.081381656432177929 0 0.41580700082542482 0.095941840718031121 0 0.40108775204199038 0.093599702960918921 0 0.40473004269932822 0.081381656432177929 0 0.40108775204199038 0.093599702960918921 0 0.40473004269932822 0.081381656432177929 0 0.38902013429582177 0.087151711316443822 0 0.40108775204199038 0.093599702960918921 0 0.38902013429582177 0.087151711316443822 0 0.39365679074300591 0.096902614354692843 0 0.40473004269932822 0.081381656432177929 0 0.40043305716544902 0.063823117507216032 0 0.38902013429582177 0.087151711316443822 0 0.40043305716544902 0.063823117507216032 0 0.38902013429582177 0.087151711316443822 0 0.40043305716544902 0.063823117507216032 0 0.37594196819752213 0.075439085683445567 0 0.38114785940623003 0.058672370905750212 0 0.40043305716544902 0.063823117507216032 0 0.37594196819752213 0.075439085683445567 0 0.38902013429582177 0.087151711316443822 0 0.36639369630395019 0.090171856351582147 0 0.37594196819752213 0.075439085683445567 0 0.38902013429582177 0.087151711316443822 0 0.36639369630395019 0.090171856351582147 0 0.3872664309004254 0.090736370096706306 0 0.38902013429582177 0.087151711316443822 0 0.3872664309004254 0.090736370096706306 0 0.38902013429582177 0.087151711316443822 0 0.39365679074300591 0.096902614354692843 0 0.3872664309004254 0.090736370096706306 0 0.38902013429582177 0.087151711316443822 0 0.3872664309004254 0.090736370096706306 0 0.3789880029507372 0.11298101374720319 0 0.3872664309004254 0.090736370096706306 0 0.37760721142619508 0.1104803051256717 0 0.36639369630395019 0.090171856351582147 0 0.3872664309004254 0.090736370096706306 0 0.37760721142619508 0.1104803051256717 0 0.3872664309004254 0.090736370096706306 0 0.39013187968885932 0.10497508385646299 0 0.3789880029507372 0.11298101374720319 0 0.3872664309004254 0.090736370096706306 0 0.37760721142619508 0.1104803051256717 0 0.3789880029507372 0.11298101374720319 0 0.3872664309004254 0.090736370096706306 0 0.39013187968885932 0.10497508385646299 0 0.39365679074300591 0.096902614354692843 0 0.37760721142619508 0.1104803051256717 0 0.37525516449768842 0.1152880084670649 0 0.3789880029507372 0.11298101374720319 0 0.37760721142619508 0.1104803051256717 0 0.37525516449768842 0.1152880084670649 0 0.37760721142619508 0.1104803051256717 0 0.3789880029507372 0.11298101374720319 0 0.37525516449768842 0.1152880084670649 0 0.3789880029507372 0.11298101374720319 0 0.37703419752481859 0.11794395008592939 0 0.3789880029507372 0.11298101374720319 0 0.37703419752481859 0.11794395008592939 0 0.38655398813174269 0.12668353439294941 0 0.37703419752481859 0.11794395008592939 0 0.38655398813174269 0.12668353439294941 0 0.3789880029507372 0.11298101374720319 0 0.37703419752481859 0.11794395008592939 0 0.38655398813174269 0.12668353439294941 0 0.3789880029507372 0.11298101374720319 0 0.38655398813174269 0.12668353439294941 0 0.3789880029507372 0.11298101374720319 0 0.39027315995051881 0.1156898782136119 0 0.39013187968885932 0.10497508385646299 0 0.3789880029507372 0.11298101374720319 0 0.39027315995051881 0.1156898782136119 0 0.39013187968885932 0.10497508385646299 0 0.39027315995051881 0.1156898782136119 0 0.40037625645895908 0.1078537796896914 0 0.41459953355033502 0.1236319525613281 0 0.3992976659921943 0.1238598412511633 0 0.40037625645895908 0.1078537796896914 0 0.39027315995051881 0.1156898782136119 0 0.3992976659921943 0.1238598412511633 0 0.40037625645895908 0.1078537796896914 0 0.38655398813174269 0.12668353439294941 0 0.39027315995051881 0.1156898782136119 0 0.3992976659921943 0.1238598412511633 0 0.41580700082542482 0.095941840718031121 0 0.40108775204199038 0.093599702960918921 0 0.40037625645895908 0.1078537796896914 0 0.40108775204199038 0.093599702960918921 0 0.40037625645895908 0.1078537796896914 0 0.39365679074300591 0.096902614354692843 0 0.39013187968885932 0.10497508385646299 0 0.40037625645895908 0.1078537796896914 0 0.39365679074300591 0.096902614354692843 0 0.40148557155351261 0.022095453024862981 0 0.38269638314167997 0.022003569137885121 0 0.40835442446698977 0.032564648693172583 0 0.40148557155351261 0.022095453024862981 0 0.4016342334918126 0.01089679475427502 0 0.38269638314167997 0.022003569137885121 0 0.38269638314167997 0.022003569137885121 0 0.40835442446698977 0.032564648693172583 0 0.40148557155351261 0.022095453024862981 0 0.4016342334918126 0.01089679475427502 0 0.41325724511356821 0.022916799514119211 0 0.4016342334918126 0.01089679475427502 0 0.41426609782592833 -0.0053004990416876899 0 0.39893425355353762 -0.0051137820231725237 0 0.4016342334918126 0.01089679475427502 0 0.39893425355353762 -0.0051137820231725237 0 0.38004824580921331 -0.0028869129075803049 0 0.4016342334918126 0.01089679475427502 0 0.38269638314167997 0.022003569137885121 0 0.38004824580921331 -0.0028869129075803049 0 0.37515117282435828 0.045663310368981247 0 0.39519591525781611 0.039609470290554137 0 0.37067245804488308 0.032187508493627989 0 0.37515117282435828 0.045663310368981247 0 0.39519591525781611 0.039609470290554137 0 0.37067245804488308 0.032187508493627989 0 0.38269638314167997 0.022003569137885121 0 0.39519591525781611 0.039609470290554137 0 0.37515117282435828 0.045663310368981247 0 0.38114785940623003 0.058672370905750212 0 0.39519591525781611 0.039609470290554137 0 0.40043305716544902 0.063823117507216032 0 0.38114785940623003 0.058672370905750212 0 0.38114785940623003 0.058672370905750212 0 0.39519591525781611 0.039609470290554137 0 0.40877846593531802 0.046764678263540332 0 0.38114785940623003 0.058672370905750212 0 0.40877846593531802 0.046764678263540332 0 0.40043305716544902 0.063823117507216032 0 0.38114785940623003 0.058672370905750212 0 0.40877846593531802 0.046764678263540332 0 0.40043305716544902 0.063823117507216032 0 0.40877846593531802 0.046764678263540332 0 0.39519591525781611 0.039609470290554137 0 0.41524065769127377 0.033555630212126687 0 0.38269638314167997 0.022003569137885121 0 0.39519591525781611 0.039609470290554137 0 0.40835442446698977 0.032564648693172583 0 0.39519591525781611 0.039609470290554137 0 0.40877846593531802 0.046764678263540332 0 0.41524065769127377 0.033555630212126687 0 0.39519591525781611 0.039609470290554137 0 0.40835442446698977 0.032564648693172583 0 0.41524065769127377 0.033555630212126687 0 0.40877846593531802 0.046764678263540332 0 0.41524065769127377 0.033555630212126687 0 0.40877846593531802 0.046764678263540332 0 0.41812712800777441 0.042735776673647398 0 0.41524065769127377 0.033555630212126687 0 0.40877846593531802 0.046764678263540332 0 0.41812712800777441 0.042735776673647398 0 0.41812712800777441 0.042735776673647398 0 0.42498671291891688 0.039779568358457397 0 0.41812712800777441 0.042735776673647398 0 0.41857130570281031 0.032549720034616397 0 0.41812712800777441 0.042735776673647398 0 0.41857130570281031 0.032549720034616397 0 0.42291412105453008 0.035852023887073557 0 0.41812712800777441 0.042735776673647398 0 0.41857130570281031 0.032549720034616397 0 0.41524065769127377 0.033555630212126687 0 0.42156125706535502 0.031646705817737007 0 0.41857130570281031 0.032549720034616397 0 0.42291412105453008 0.035852023887073557 0 0.42156125706535502 0.031646705817737007 0 0.41857130570281031 0.032549720034616397 0 0.42156125706535502 0.031646705817737007 0 0.41857130570281031 0.032549720034616397 0 0.41866693115854198 0.03035679968065438 0 0.41857130570281031 0.032549720034616397 0 0.41866693115854198 0.03035679968065438 0 0.41857130570281031 0.032549720034616397 0 0.41524065769127377 0.033555630212126687 0 0.41866693115854198 0.03035679968065438 0 0.41857130570281031 0.032549720034616397 0 0.41524065769127377 0.033555630212126687 0 0.41701446810051412 0.068251728874734102 0 0.41812712800777441 0.042735776673647398 0 0.41108827980226381 0.055393825329784221 0 0.41701446810051412 0.068251728874734102 0 0.40043305716544902 0.063823117507216032 0 0.41108827980226381 0.055393825329784221 0 0.41701446810051412 0.068251728874734102 0 0.41812712800777441 0.042735776673647398 0 0.42712010951012919 0.05416649475536027 0 0.41701446810051412 0.068251728874734102 0 0.41812712800777441 0.042735776673647398 0 0.40043305716544902 0.063823117507216032 0 0.40877846593531802 0.046764678263540332 0 0.41108827980226381 0.055393825329784221 0 0.40877846593531802 0.046764678263540332 0 0.41812712800777441 0.042735776673647398 0 0.41108827980226381 0.055393825329784221 0 0.41701446810051412 0.068251728874734102 0 0.42712010951012919 0.05416649475536027 0 0.43780228868054499 0.060579604431765667 0 0.41812712800777441 0.042735776673647398 0 0.42712010951012919 0.05416649475536027 0 0.42797019365046918 0.045253629832301627 0 0.42712010951012919 0.05416649475536027 0 0.43581149968714988 0.047534374238026769 0 0.43780228868054499 0.060579604431765667 0 0.42712010951012919 0.05416649475536027 0 0.43581149968714988 0.047534374238026769 0 0.42797019365046918 0.045253629832301627 0 0.42696985456317432 0.034271745268714328 0 0.42498671291891688 0.039779568358457397 0 0.43182380261127579 0.039475463154731882 0 0.42696985456317432 0.034271745268714328 0 0.43325446998727468 0.030537333279844911 0 0.42574324180454443 0.02964088193441335 0 0.42156125706535502 0.031646705817737007 0 0.42696985456317432 0.034271745268714328 0 0.42291412105453008 0.035852023887073557 0 0.42156125706535502 0.031646705817737007 0 0.42696985456317432 0.034271745268714328 0 0.42574324180454443 0.02964088193441335 0 0.42696985456317432 0.034271745268714328 0 0.42291412105453008 0.035852023887073557 0 0.42498671291891688 0.039779568358457397 0 0.41812712800777441 0.042735776673647398 0 0.42291412105453008 0.035852023887073557 0 0.42498671291891688 0.039779568358457397 0 0.41812712800777441 0.042735776673647398 0 0.42498671291891688 0.039779568358457397 0 0.42797019365046918 0.045253629832301627 0 0.42498671291891688 0.039779568358457397 0 0.42797019365046918 0.045253629832301627 0 0.43182380261127579 0.039475463154731882 0 0.43581149968714988 0.047534374238026769 0 0.43182380261127579 0.039475463154731882 0 0.44095922710212021 0.038187891960404043 0 0.43581149968714988 0.047534374238026769 0 0.42797019365046918 0.045253629832301627 0 0.43182380261127579 0.039475463154731882 0 0.43182380261127579 0.039475463154731882 0 0.43325446998727468 0.030537333279844911 0 0.44095922710212021 0.038187891960404043 0 0.42696985456317432 0.034271745268714328 0 0.43182380261127579 0.039475463154731882 0 0.43325446998727468 0.030537333279844911 0 0.43521661187673699 0.024106327886083578 0 0.43325446998727468 0.030537333279844911 0 0.42735680443955781 0.025292463666513981 0 0.43521661187673699 0.024106327886083578 0 0.43325446998727468 0.030537333279844911 0 0.44392188826657192 0.026507316160577981 0 0.43521661187673699 0.024106327886083578 0 0.43634167221921433 0.015735149845459939 0 0.42735680443955781 0.025292463666513981 0 0.43634167221921433 0.015735149845459939 0 0.42287385568876312 0.017952985947986871 0 0.42735680443955781 0.025292463666513981 0 0.42735680443955781 0.025292463666513981 0 0.42574324180454443 0.02964088193441335 0 0.41866693115854198 0.03035679968065438 0 0.42287385568876312 0.017952985947986871 0 0.42735680443955781 0.025292463666513981 0 0.41866693115854198 0.03035679968065438 0 0.43325446998727468 0.030537333279844911 0 0.42735680443955781 0.025292463666513981 0 0.42574324180454443 0.02964088193441335 0 0.42156125706535502 0.031646705817737007 0 0.42574324180454443 0.02964088193441335 0 0.41866693115854198 0.03035679968065438 0 0.41524065769127377 0.033555630212126687 0 0.42287385568876312 0.017952985947986871 0 0.41325724511356821 0.022916799514119211 0 0.41524065769127377 0.033555630212126687 0 0.42287385568876312 0.017952985947986871 0 0.41866693115854198 0.03035679968065438 0 0.41524065769127377 0.033555630212126687 0 0.42287385568876312 0.017952985947986871 0 0.42287385568876312 0.017952985947986871 0 0.41325724511356821 0.022916799514119211 0 0.41704523701408941 0.0077764941694328186 0 0.40148557155351261 0.022095453024862981 0 0.40835442446698977 0.032564648693172583 0 0.41325724511356821 0.022916799514119211 0 0.40835442446698977 0.032564648693172583 0 0.41524065769127377 0.033555630212126687 0 0.41325724511356821 0.022916799514119211 0 0.41704523701408941 0.0077764941694328186 0 0.43050705368625303 0.0023503416838472832 0 0.41426609782592833 -0.0053004990416876899 0 0.4016342334918126 0.01089679475427502 0 0.41704523701408941 0.0077764941694328186 0 0.41426609782592833 -0.0053004990416876899 0 0.4016342334918126 0.01089679475427502 0 0.41325724511356821 0.022916799514119211 0 0.41704523701408941 0.0077764941694328186 0 0.42287385568876312 0.017952985947986871 0 0.43050705368625303 0.0023503416838472832 0 0.42287385568876312 0.017952985947986871 0 0.41704523701408941 0.0077764941694328186 0 0.43050705368625303 0.0023503416838472832 0 0.43634167221921433 0.015735149845459939 0 0.42287385568876312 0.017952985947986871 0 0.43050705368625303 0.0023503416838472832 0 0.43634167221921433 0.015735149845459939 0 0.43050705368625303 0.0023503416838472832 0 0.44299186482868141 0.0069540733956870481 0 0.44299186482868141 0.0069540733956870481 0 0.44816536205612972 8.6233335223146021e-05 0 0.44038506499612179 -0.0033992501075293421 0 0.43050705368625303 0.0023503416838472832 0 0.44299186482868141 0.0069540733956870481 0 0.44038506499612179 -0.0033992501075293421 0 0.44816536205612972 8.6233335223146021e-05 0 0.45392185071049801 0.0063186616824661276 0 0.45560131063927722 -0.0035741020272531021 0 0.44299186482868141 0.0069540733956870481 0 0.44816536205612972 8.6233335223146021e-05 0 0.45392185071049801 0.0063186616824661276 0 0.44299186482868141 0.0069540733956870481 0 0.44965218553236969 0.01613996466707272 0 0.45392185071049801 0.0063186616824661276 0 0.43634167221921433 0.015735149845459939 0 0.44299186482868141 0.0069540733956870481 0 0.44965218553236969 0.01613996466707272 0 0.43521661187673699 0.024106327886083578 0 0.43634167221921433 0.015735149845459939 0 0.44392188826657192 0.026507316160577981 0 0.43634167221921433 0.015735149845459939 0 0.44392188826657192 0.026507316160577981 0 0.44965218553236969 0.01613996466707272 0 0.44392188826657192 0.026507316160577981 0 0.4576233954179505 0.024579635051121981 0 0.45354082576173488 0.036547892589870047 0 0.44392188826657192 0.026507316160577981 0 0.44965218553236969 0.01613996466707272 0 0.4576233954179505 0.024579635051121981 0 0.44965218553236969 0.01613996466707272 0 0.4576233954179505 0.024579635051121981 0 0.46163199338367739 0.012705193699190331 0 0.4576233954179505 0.024579635051121981 0 0.46851698604001141 0.033418542750634397 0 0.46886839916526718 0.019443550967321688 0 0.4576233954179505 0.024579635051121981 0 0.46163199338367739 0.012705193699190331 0 0.46886839916526718 0.019443550967321688 0 0.46163199338367739 0.012705193699190331 0 0.47438726583262758 0.0071668536989817804 0 0.46886839916526718 0.019443550967321688 0 0.46163199338367739 0.012705193699190331 0 0.46275999177157562 0.00191864049906137 0 0.47438726583262758 0.0071668536989817804 0 0.46275999177157562 0.00191864049906137 0 0.45392185071049801 0.0063186616824661276 0 0.45560131063927722 -0.0035741020272531021 0 0.46163199338367739 0.012705193699190331 0 0.46275999177157562 0.00191864049906137 0 0.45392185071049801 0.0063186616824661276 0 0.44965218553236969 0.01613996466707272 0 0.46163199338367739 0.012705193699190331 0 0.45392185071049801 0.0063186616824661276 0 0.45555341288805867 0.064289121505317029 0 0.43780228868054499 0.060579604431765667 0 0.44759656485156951 0.048834214592500223 0 0.43581149968714988 0.047534374238026769 0 0.43780228868054499 0.060579604431765667 0 0.44759656485156951 0.048834214592500223 0 0.44759656485156951 0.048834214592500223 0 0.44095922710212021 0.038187891960404043 0 0.45354082576173488 0.036547892589870047 0 0.43581149968714988 0.047534374238026769 0 0.44759656485156951 0.048834214592500223 0 0.44095922710212021 0.038187891960404043 0 0.43325446998727468 0.030537333279844911 0 0.44392188826657192 0.026507316160577981 0 0.44095922710212021 0.038187891960404043 0 0.44392188826657192 0.026507316160577981 0 0.44095922710212021 0.038187891960404043 0 0.45354082576173488 0.036547892589870047 0 0.45354082576173488 0.036547892589870047 0 0.46851698604001141 0.033418542750634397 0 0.46215360202555589 0.050411282360627613 0 0.4576233954179505 0.024579635051121981 0 0.45354082576173488 0.036547892589870047 0 0.46851698604001141 0.033418542750634397 0 0.44759656485156951 0.048834214592500223 0 0.45354082576173488 0.036547892589870047 0 0.46215360202555589 0.050411282360627613 0 0.45555341288805867 0.064289121505317029 0 0.46215360202555589 0.050411282360627613 0 0.47590972770138468 0.06124074800906279 0 0.45555341288805867 0.064289121505317029 0 0.44759656485156951 0.048834214592500223 0 0.46215360202555589 0.050411282360627613 0 0.46215360202555589 0.050411282360627613 0 0.47590972770138468 0.06124074800906279 0 0.4826661547360438 0.044316323326058088 0 0.46851698604001141 0.033418542750634397 0 0.4826661547360438 0.044316323326058088 0 0.48218235515206909 0.019347529636679978 0 0.46851698604001141 0.033418542750634397 0 0.46215360202555589 0.050411282360627613 0 0.4826661547360438 0.044316323326058088 0 0.4826661547360438 0.044316323326058088 0 0.5 0.034278112836170098 0 0.48218235515206909 0.019347529636679978 0 0.5 0.063705864844625815 0 0.47590972770138468 0.06124074800906279 0 0.4826661547360438 0.044316323326058088 0 0.5 0.063705864844625815 0 0.4826661547360438 0.044316323326058088 0 0.5 0.034278112836170098 0 0.47438726583262758 0.0071668536989817804 0 0.48218235515206909 0.019347529636679978 0 0.48494504499584401 -0.0018124303072876639 0 0.47438726583262758 0.0071668536989817804 0 0.48494504499584401 -0.0018124303072876639 0 0.47113903221859899 -0.00085953651968297606 0 0.46275999177157562 0.00191864049906137 0 0.47438726583262758 0.0071668536989817804 0 0.47113903221859899 -0.00085953651968297606 0 0.47438726583262758 0.0071668536989817804 0 0.46886839916526718 0.019443550967321688 0 0.48218235515206909 0.019347529636679978 0 0.46851698604001141 0.033418542750634397 0 0.46886839916526718 0.019443550967321688 0 0.48218235515206909 0.019347529636679978 0 0.5 0.034278112836170098 0 0.48218235515206909 0.019347529636679978 0 0.5 0.004850360827714395 0 0.48218235515206909 0.019347529636679978 0 0.5 0.004850360827714395 0 0.48494504499584401 -0.0018124303072876639 0 0.5 0.004850360827714395 0 0.48806756950314928 -0.013896549633874459 0 0.48494504499584401 -0.0018124303072876639 0 0.5 0.004850360827714395 0 0.48806756950314928 -0.013896549633874459 0 0.5 -0.0245773911807412 0 0.48494504499584401 -0.0018124303072876639 0 0.4762461463829647 -0.017207034124199719 0 0.45943939936578237 -0.016479965300192481 0 0.48494504499584401 -0.0018124303072876639 0 0.47113903221859899 -0.00085953651968297606 0 0.46310865951158448 -0.0097640718315934079 0 0.48494504499584401 -0.0018124303072876639 0 0.46310865951158448 -0.0097640718315934079 0 0.45943939936578237 -0.016479965300192481 0 0.48494504499584401 -0.0018124303072876639 0 0.45943939936578237 -0.016479965300192481 0 0.48806756950314928 -0.013896549633874459 0 0.48494504499584401 -0.0018124303072876639 0 0.4762461463829647 -0.017207034124199719 0 0.48806756950314928 -0.013896549633874459 0 0.4762461463829647 -0.017207034124199719 0 0.47914665613693802 -0.030736253384858098 0 0.47914665613693802 -0.030736253384858098 0 0.46313284567567792 -0.031300553292528538 0 0.46787274853406691 -0.02330392087087722 0 0.4762461463829647 -0.017207034124199719 0 0.47914665613693802 -0.030736253384858098 0 0.46787274853406691 -0.02330392087087722 0 0.48806756950314928 -0.013896549633874459 0 0.47914665613693802 -0.030736253384858098 0 0.5 -0.0245773911807412 0 0.47914665613693802 -0.030736253384858098 0 0.5 -0.054005143189196907 0 0.47658046430788897 -0.04944643941424675 0 0.47914665613693802 -0.030736253384858098 0 0.5 -0.0245773911807412 0 0.5 -0.054005143189196907 0 0.5 -0.054005143189196907 0 0.47658046430788897 -0.04944643941424675 0 0.47509800040795219 -0.068825853231290798 0 0.47658046430788897 -0.04944643941424675 0 0.46504984557415741 -0.057328335422421162 0 0.47509800040795219 -0.068825853231290798 0 0.47914665613693802 -0.030736253384858098 0 0.47658046430788897 -0.04944643941424675 0 0.46313284567567792 -0.031300553292528538 0 0.47658046430788897 -0.04944643941424675 0 0.46313284567567792 -0.031300553292528538 0 0.45878196416565142 -0.044846624172946867 0 0.46313284567567792 -0.031300553292528538 0 0.44919286238250439 -0.038250799034403572 0 0.4533429689854665 -0.028142313467433351 0 0.46313284567567792 -0.031300553292528538 0 0.45878196416565142 -0.044846624172946867 0 0.44919286238250439 -0.038250799034403572 0 0.47658046430788897 -0.04944643941424675 0 0.45878196416565142 -0.044846624172946867 0 0.46504984557415741 -0.057328335422421162 0 0.45878196416565142 -0.044846624172946867 0 0.46504984557415741 -0.057328335422421162 0 0.44893372258786379 -0.051715677976796173 0 0.46504984557415741 -0.057328335422421162 0 0.44893372258786379 -0.051715677976796173 0 0.45220942989939328 -0.065329846535180716 0 0.44893372258786379 -0.051715677976796173 0 0.45220942989939328 -0.065329846535180716 0 0.43364153259470589 -0.058001785026094418 0 0.44893372258786379 -0.051715677976796173 0 0.43704565265487427 -0.045292962297040593 0 0.43364153259470589 -0.058001785026094418 0 0.44919286238250439 -0.038250799034403572 0 0.4533429689854665 -0.028142313467433351 0 0.43393375373572091 -0.031147500293097291 0 0.45878196416565142 -0.044846624172946867 0 0.44893372258786379 -0.051715677976796173 0 0.44919286238250439 -0.038250799034403572 0 0.44893372258786379 -0.051715677976796173 0 0.44919286238250439 -0.038250799034403572 0 0.43704565265487427 -0.045292962297040593 0 0.44919286238250439 -0.038250799034403572 0 0.43393375373572091 -0.031147500293097291 0 0.43704565265487427 -0.045292962297040593 0 0.4533429689854665 -0.028142313467433351 0 0.45943939936578237 -0.016479965300192481 0 0.43393375373572091 -0.031147500293097291 0 0.45684471781690139 -0.01416063066149004 0 0.45943939936578237 -0.016479965300192481 0 0.43393375373572091 -0.031147500293097291 0 0.45943939936578237 -0.016479965300192481 0 0.43393375373572091 -0.031147500293097291 0 0.45684471781690139 -0.01416063066149004 0 0.42831657745204882 -0.018662570779593581 0 0.45684471781690139 -0.01416063066149004 0 0.42831657745204882 -0.018662570779593581 0 0.43393375373572091 -0.031147500293097291 0 0.4417606028482543 -0.01212479764662971 0 0.44038506499612179 -0.0033992501075293421 0 0.44983169963966191 -0.0081782791449018597 0 0.4417606028482543 -0.01212479764662971 0 0.44038506499612179 -0.0033992501075293421 0 0.4316133602267142 -0.0080790492607380852 0 0.4417606028482543 -0.01212479764662971 0 0.45684471781690139 -0.01416063066149004 0 0.42831657745204882 -0.018662570779593581 0 0.44816536205612972 8.6233335223146021e-05 0 0.44038506499612179 -0.0033992501075293421 0 0.44983169963966191 -0.0081782791449018597 0 0.44816536205612972 8.6233335223146021e-05 0 0.44983169963966191 -0.0081782791449018597 0 0.45560131063927722 -0.0035741020272531021 0 0.4417606028482543 -0.01212479764662971 0 0.44983169963966191 -0.0081782791449018597 0 0.45684471781690139 -0.01416063066149004 0 0.44983169963966191 -0.0081782791449018597 0 0.45684471781690139 -0.01416063066149004 0 0.45704158844607051 -0.0093873607381714276 0 0.45704158844607051 -0.0093873607381714276 0 0.45910859128508458 -0.01244800713286184 0 0.46310865951158448 -0.0097640718315934079 0 0.45684471781690139 -0.01416063066149004 0 0.45704158844607051 -0.0093873607381714276 0 0.45910859128508458 -0.01244800713286184 0 0.45684471781690139 -0.01416063066149004 0 0.45910859128508458 -0.01244800713286184 0 0.45943939936578237 -0.016479965300192481 0 0.45910859128508458 -0.01244800713286184 0 0.46310865951158448 -0.0097640718315934079 0 0.45943939936578237 -0.016479965300192481 0 0.46275999177157562 0.00191864049906137 0 0.45560131063927722 -0.0035741020272531021 0 0.46310865951158448 -0.0097640718315934079 0 0.44983169963966191 -0.0081782791449018597 0 0.45704158844607051 -0.0093873607381714276 0 0.45560131063927722 -0.0035741020272531021 0 0.45704158844607051 -0.0093873607381714276 0 0.45560131063927722 -0.0035741020272531021 0 0.46310865951158448 -0.0097640718315934079 0 0.46275999177157562 0.00191864049906137 0 0.47113903221859899 -0.00085953651968297606 0 0.46310865951158448 -0.0097640718315934079 0 0.4762461463829647 -0.017207034124199719 0 0.46787274853406691 -0.02330392087087722 0 0.45943939936578237 -0.016479965300192481 0 0.46787274853406691 -0.02330392087087722 0 0.46094699064024841 -0.0248066882327579 0 0.45943939936578237 -0.016479965300192481 0 0.46313284567567792 -0.031300553292528538 0 0.46787274853406691 -0.02330392087087722 0 0.46094699064024841 -0.0248066882327579 0 0.46313284567567792 -0.031300553292528538 0 0.46094699064024841 -0.0248066882327579 0 0.4533429689854665 -0.028142313467433351 0 0.46094699064024841 -0.0248066882327579 0 0.4533429689854665 -0.028142313467433351 0 0.45943939936578237 -0.016479965300192481 0 0.47261504033763302 -0.1087337160622332 0 0.45980496495355633 -0.1284767728883684 0 0.48346214595958159 -0.1260974568606231 0 0.49999999999999661 -0.11286064720610819 0 0.47261504033763302 -0.1087337160622332 0 0.48346214595958159 -0.1260974568606231 0 0.49999999999999661 -0.11286064720610819 0 0.47261504033763302 -0.1087337160622332 0 0.49999999999999661 -0.11286064720610819 0 0.47845098442960959 -0.088555307361378233 0 0.5 -0.083432895197652568 0 0.49999999999999661 -0.11286064720610819 0 0.47261504033763302 -0.1087337160622332 0 0.47845098442960959 -0.088555307361378233 0 0.47261504033763302 -0.1087337160622332 0 0.47845098442960959 -0.088555307361378233 0 0.46223293014382011 -0.096642674317846053 0 0.47845098442960959 -0.088555307361378233 0 0.5 -0.083432895197652568 0 0.47509800040795219 -0.068825853231290798 0 0.5 -0.054005143189196907 0 0.5 -0.083432895197652568 0 0.47509800040795219 -0.068825853231290798 0 0.47509800040795219 -0.068825853231290798 0 0.45220942989939328 -0.065329846535180716 0 0.4526356151327689 -0.0846748889294133 0 0.46504984557415741 -0.057328335422421162 0 0.47509800040795219 -0.068825853231290798 0 0.45220942989939328 -0.065329846535180716 0 0.45220942989939328 -0.065329846535180716 0 0.43886409299228851 -0.070914323886447778 0 0.4526356151327689 -0.0846748889294133 0 0.45220942989939328 -0.065329846535180716 0 0.43886409299228851 -0.070914323886447778 0 0.43364153259470589 -0.058001785026094418 0 0.4526356151327689 -0.0846748889294133 0 0.44128085259518679 -0.093093822563226514 0 0.435488465535048 -0.08342420761362665 0 0.43886409299228851 -0.070914323886447778 0 0.4526356151327689 -0.0846748889294133 0 0.435488465535048 -0.08342420761362665 0 0.47845098442960959 -0.088555307361378233 0 0.47509800040795219 -0.068825853231290798 0 0.4526356151327689 -0.0846748889294133 0 0.47845098442960959 -0.088555307361378233 0 0.4526356151327689 -0.0846748889294133 0 0.46223293014382011 -0.096642674317846053 0 0.4526356151327689 -0.0846748889294133 0 0.46223293014382011 -0.096642674317846053 0 0.44523008067526892 -0.1046067849183594 0 0.47261504033763302 -0.1087337160622332 0 0.46223293014382011 -0.096642674317846053 0 0.44523008067526892 -0.1046067849183594 0 0.47261504033763302 -0.1087337160622332 0 0.44523008067526892 -0.1046067849183594 0 0.45793493824399301 -0.113223787459097 0 0.47261504033763302 -0.1087337160622332 0 0.44523008067526892 -0.1046067849183594 0 0.4526356151327689 -0.0846748889294133 0 0.44523008067526892 -0.1046067849183594 0 0.4526356151327689 -0.0846748889294133 0 0.44128085259518679 -0.093093822563226514 0 0.44523008067526892 -0.1046067849183594 0 0.44128085259518679 -0.093093822563226514 0 0.44025841766752061 -0.099878364944812642 0 0.44523008067526892 -0.1046067849183594 0 0.44128085259518679 -0.093093822563226514 0 0.44025841766752061 -0.099878364944812642 0 0.43498703521160759 -0.093213089030802151 0 0.44523008067526892 -0.1046067849183594 0 0.4426857910698585 -0.11145470603355161 0 0.43411405531069958 -0.1029315927019457 0 0.44025841766752061 -0.099878364944812642 0 0.44523008067526892 -0.1046067849183594 0 0.43411405531069958 -0.1029315927019457 0 0.44523008067526892 -0.1046067849183594 0 0.43411405531069958 -0.1029315927019457 0 0.4426857910698585 -0.11145470603355161 0 0.43411405531069958 -0.1029315927019457 0 0.44523008067526892 -0.1046067849183594 0 0.4426857910698585 -0.11145470603355161 0 0.44523008067526892 -0.1046067849183594 0 0.4426857910698585 -0.11145470603355161 0 0.45793493824399301 -0.113223787459097 0 0.4426857910698585 -0.11145470603355161 0 0.45980496495355633 -0.1284767728883684 0 0.44734082874004122 -0.129959896439788 0 0.4426857910698585 -0.11145470603355161 0 0.43486792283317199 -0.13249639282107631 0 0.44734082874004122 -0.129959896439788 0 0.4426857910698585 -0.11145470603355161 0 0.45980496495355633 -0.1284767728883684 0 0.4426857910698585 -0.11145470603355161 0 0.43486792283317199 -0.13249639282107631 0 0.47261504033763302 -0.1087337160622332 0 0.45793493824399301 -0.113223787459097 0 0.45980496495355633 -0.1284767728883684 0 0.4426857910698585 -0.11145470603355161 0 0.45793493824399301 -0.113223787459097 0 0.45980496495355633 -0.1284767728883684 0 0.41282459532414723 -0.1182526735583805 0 0.42878551679754828 -0.1177318485792843 0 0.42136950622391078 -0.13034940820212931 0 0.41282459532414723 -0.1182526735583805 0 0.42623093028202458 -0.10965654480484729 0 0.41998156495642552 -0.1060363290293396 0 0.4426857910698585 -0.11145470603355161 0 0.42878551679754828 -0.1177318485792843 0 0.43486792283317199 -0.13249639282107631 0 0.41282459532414723 -0.1182526735583805 0 0.42878551679754828 -0.1177318485792843 0 0.42623093028202458 -0.10965654480484729 0 0.4426857910698585 -0.11145470603355161 0 0.42878551679754828 -0.1177318485792843 0 0.43317107494065021 -0.1080693889703222 0 0.42878551679754828 -0.1177318485792843 0 0.42623093028202458 -0.10965654480484729 0 0.43317107494065021 -0.1080693889703222 0 0.43411405531069958 -0.1029315927019457 0 0.42883897921097858 -0.087250969931559341 0 0.43498703521160759 -0.093213089030802151 0 0.42623093028202458 -0.10965654480484729 0 0.43411405531069958 -0.1029315927019457 0 0.41998156495642552 -0.1060363290293396 0 0.4426857910698585 -0.11145470603355161 0 0.43317107494065021 -0.1080693889703222 0 0.43411405531069958 -0.1029315927019457 0 0.42623093028202458 -0.10965654480484729 0 0.43317107494065021 -0.1080693889703222 0 0.43411405531069958 -0.1029315927019457 0 0.44025841766752061 -0.099878364944812642 0 0.43411405531069958 -0.1029315927019457 0 0.43498703521160759 -0.093213089030802151 0 0.43411405531069958 -0.1029315927019457 0 0.41998156495642552 -0.1060363290293396 0 0.41151652628869811 -0.094687126047479364 0 0.41282459532414723 -0.1182526735583805 0 0.41998156495642552 -0.1060363290293396 0 0.41151652628869811 -0.094687126047479364 0 0.41282459532414723 -0.1182526735583805 0 0.41151652628869811 -0.094687126047479364 0 0.4015445002281755 -0.1052725304457056 0 0.41282459532414723 -0.1182526735583805 0 0.41151652628869811 -0.094687126047479364 0 0.41151652628869811 -0.094687126047479364 0 0.410208457253249 -0.071121578536578217 0 0.39940120225915449 -0.081239884130975576 0 0.41151652628869811 -0.094687126047479364 0 0.410208457253249 -0.071121578536578217 0 0.41151652628869811 -0.094687126047479364 0 0.41429465754535488 -0.083224618751224763 0 0.410208457253249 -0.071121578536578217 0 0.43411405531069958 -0.1029315927019457 0 0.41151652628869811 -0.094687126047479364 0 0.41429465754535488 -0.083224618751224763 0 0.43411405531069958 -0.1029315927019457 0 0.41429465754535488 -0.083224618751224763 0 0.43411405531069958 -0.1029315927019457 0 0.41429465754535488 -0.083224618751224763 0 0.42883897921097858 -0.087250969931559341 0 0.44128085259518679 -0.093093822563226514 0 0.43498703521160759 -0.093213089030802151 0 0.435488465535048 -0.08342420761362665 0 0.42883897921097858 -0.087250969931559341 0 0.43498703521160759 -0.093213089030802151 0 0.435488465535048 -0.08342420761362665 0 0.42883897921097858 -0.087250969931559341 0 0.435488465535048 -0.08342420761362665 0 0.42531068245218329 -0.073461341560197332 0 0.41429465754535488 -0.083224618751224763 0 0.42883897921097858 -0.087250969931559341 0 0.42531068245218329 -0.073461341560197332 0 0.43886409299228851 -0.070914323886447778 0 0.435488465535048 -0.08342420761362665 0 0.42531068245218329 -0.073461341560197332 0 0.43886409299228851 -0.070914323886447778 0 0.42531068245218329 -0.073461341560197332 0 0.43364153259470589 -0.058001785026094418 0 0.42531068245218329 -0.073461341560197332 0 0.43364153259470589 -0.058001785026094418 0 0.42088418629505381 -0.060805419777010462 0 0.42531068245218329 -0.073461341560197332 0 0.410208457253249 -0.071121578536578217 0 0.42088418629505381 -0.060805419777010462 0 0.41429465754535488 -0.083224618751224763 0 0.42531068245218329 -0.073461341560197332 0 0.410208457253249 -0.071121578536578217 0 0.410208457253249 -0.071121578536578217 0 0.40161657380641008 -0.06145591279584342 0 0.40467541934390039 -0.055475052802685401 0 0.410208457253249 -0.071121578536578217 0 0.39965206425879868 -0.068955232587388476 0 0.40161657380641008 -0.06145591279584342 0 0.410208457253249 -0.071121578536578217 0 0.39965206425879868 -0.068955232587388476 0 0.39940120225915449 -0.081239884130975576 0 0.39965206425879868 -0.068955232587388476 0 0.38771672477029029 -0.070245811552951148 0 0.39940120225915449 -0.081239884130975576 0 0.39965206425879868 -0.068955232587388476 0 0.40161657380641008 -0.06145591279584342 0 0.3930020052869394 -0.059394739168174587 0 0.39965206425879868 -0.068955232587388476 0 0.38771672477029029 -0.070245811552951148 0 0.3930020052869394 -0.059394739168174587 0 0.38771672477029029 -0.070245811552951148 0 0.38231845371855422 -0.05550700707105885 0 0.36759562395766071 -0.067892731800677661 0 0.38771672477029029 -0.070245811552951148 0 0.36759562395766071 -0.067892731800677661 0 0.37191937548940451 -0.083376030081658309 0 0.38771672477029029 -0.070245811552951148 0 0.38416134509704508 -0.090304831799239926 0 0.37191937548940451 -0.083376030081658309 0 0.38771672477029029 -0.070245811552951148 0 0.38416134509704508 -0.090304831799239926 0 0.39940120225915449 -0.081239884130975576 0 0.38416134509704508 -0.090304831799239926 0 0.39940120225915449 -0.081239884130975576 0 0.39803095740753869 -0.094643518747046532 0 0.41151652628869811 -0.094687126047479364 0 0.39940120225915449 -0.081239884130975576 0 0.39803095740753869 -0.094643518747046532 0 0.41151652628869811 -0.094687126047479364 0 0.4015445002281755 -0.1052725304457056 0 0.39803095740753869 -0.094643518747046532 0 0.4015445002281755 -0.1052725304457056 0 0.38918215562268482 -0.10267270705414699 0 0.39412249895228618 -0.11649531811084859 0 0.4015445002281755 -0.1052725304457056 0 0.39803095740753869 -0.094643518747046532 0 0.38918215562268482 -0.10267270705414699 0 0.38416134509704508 -0.090304831799239926 0 0.39803095740753869 -0.094643518747046532 0 0.38918215562268482 -0.10267270705414699 0 0.38416134509704508 -0.090304831799239926 0 0.38918215562268482 -0.10267270705414699 0 0.37284485229092379 -0.1076109494702602 0 0.38918215562268482 -0.10267270705414699 0 0.38286545207415162 -0.11265670874226 0 0.37284485229092379 -0.1076109494702602 0 0.38918215562268482 -0.10267270705414699 0 0.38286545207415162 -0.11265670874226 0 0.39412249895228618 -0.11649531811084859 0 0.38286545207415162 -0.11265670874226 0 0.37001781658910299 -0.1196985277156337 0 0.37284485229092379 -0.1076109494702602 0 0.38286545207415162 -0.11265670874226 0 0.38087854083845341 -0.124187762088129 0 0.37001781658910299 -0.1196985277156337 0 0.38286545207415162 -0.11265670874226 0 0.38087854083845341 -0.124187762088129 0 0.39412249895228618 -0.11649531811084859 0 0.41282459532414723 -0.1182526735583805 0 0.4015445002281755 -0.1052725304457056 0 0.39412249895228618 -0.11649531811084859 0 0.38087854083845341 -0.124187762088129 0 0.39412249895228618 -0.11649531811084859 0 0.39825185075687791 -0.13055214771997639 0 0.41282459532414723 -0.1182526735583805 0 0.39412249895228618 -0.11649531811084859 0 0.39825185075687791 -0.13055214771997639 0 0.42831657745204882 -0.018662570779593581 0 0.39978843708719619 -0.023164510897697121 0 0.42831657745204882 -0.018662570779593581 0 0.41702248266262609 -0.031250065839635299 0 0.39978843708719619 -0.023164510897697121 0 0.41426609782592833 -0.0053004990416876899 0 0.42831657745204882 -0.018662570779593581 0 0.39978843708719619 -0.023164510897697121 0 0.41702248266262609 -0.031250065839635299 0 0.40654651169497008 -0.036166460816765042 0 0.39978843708719619 -0.023164510897697121 0 0.43050705368625303 0.0023503416838472832 0 0.41426609782592833 -0.0053004990416876899 0 0.4316133602267142 -0.0080790492607380852 0 0.41426609782592833 -0.0053004990416876899 0 0.4316133602267142 -0.0080790492607380852 0 0.42831657745204882 -0.018662570779593581 0 0.43050705368625303 0.0023503416838472832 0 0.44038506499612179 -0.0033992501075293421 0 0.4316133602267142 -0.0080790492607380852 0 0.4417606028482543 -0.01212479764662971 0 0.4316133602267142 -0.0080790492607380852 0 0.42831657745204882 -0.018662570779593581 0 0.42831657745204882 -0.018662570779593581 0 0.43393375373572091 -0.031147500293097291 0 0.41702248266262609 -0.031250065839635299 0 0.43393375373572091 -0.031147500293097291 0 0.4277615199763698 -0.043840939660795969 0 0.41609329889326729 -0.044670253719692139 0 0.43704565265487427 -0.045292962297040593 0 0.4277615199763698 -0.043840939660795969 0 0.42996053029165737 -0.049085590100068938 0 0.43393375373572091 -0.031147500293097291 0 0.43704565265487427 -0.045292962297040593 0 0.4277615199763698 -0.043840939660795969 0 0.43704565265487427 -0.045292962297040593 0 0.43364153259470589 -0.058001785026094418 0 0.42996053029165737 -0.049085590100068938 0 0.43364153259470589 -0.058001785026094418 0 0.42996053029165737 -0.049085590100068938 0 0.42168745713459788 -0.050491046292558357 0 0.4277615199763698 -0.043840939660795969 0 0.42996053029165737 -0.049085590100068938 0 0.42168745713459788 -0.050491046292558357 0 0.43364153259470589 -0.058001785026094418 0 0.42088418629505381 -0.060805419777010462 0 0.42168745713459788 -0.050491046292558357 0 0.410208457253249 -0.071121578536578217 0 0.40890038821779989 -0.047556031025676987 0 0.410208457253249 -0.071121578536578217 0 0.40890038821779989 -0.047556031025676987 0 0.41392590426383008 -0.052712426413040608 0 0.410208457253249 -0.071121578536578217 0 0.42088418629505381 -0.060805419777010462 0 0.41392590426383008 -0.052712426413040608 0 0.410208457253249 -0.071121578536578217 0 0.40890038821779989 -0.047556031025676987 0 0.40467541934390039 -0.055475052802685401 0 0.42088418629505381 -0.060805419777010462 0 0.42168745713459788 -0.050491046292558357 0 0.41392590426383008 -0.052712426413040608 0 0.41595168775856972 -0.048779610744958929 0 0.41245266831878991 -0.048330706461922668 0 0.41392590426383008 -0.052712426413040608 0 0.42168745713459788 -0.050491046292558357 0 0.41595168775856972 -0.048779610744958929 0 0.41609329889326729 -0.044670253719692139 0 0.42168745713459788 -0.050491046292558357 0 0.41595168775856972 -0.048779610744958929 0 0.41392590426383008 -0.052712426413040608 0 0.40890038821779989 -0.047556031025676987 0 0.40467541934390039 -0.055475052802685401 0 0.40533481195694482 -0.048949494623858919 0 0.41245266831878991 -0.048330706461922668 0 0.40890038821779989 -0.047556031025676987 0 0.41392590426383008 -0.052712426413040608 0 0.41595168775856972 -0.048779610744958929 0 0.41245266831878991 -0.048330706461922668 0 0.41243320809781009 -0.046045398993336643 0 0.41245266831878991 -0.048330706461922668 0 0.41055359318501478 -0.046936792941734598 0 0.41243320809781009 -0.046045398993336643 0 0.41245266831878991 -0.048330706461922668 0 0.41055359318501478 -0.046936792941734598 0 0.40890038821779989 -0.047556031025676987 0 0.40890038821779989 -0.047556031025676987 0 0.40670564264993941 -0.047155962200257251 0 0.40533481195694482 -0.048949494623858919 0 0.43393375373572091 -0.031147500293097291 0 0.41609329889326729 -0.044670253719692139 0 0.40842810810565933 -0.045815035286002122 0 0.43393375373572091 -0.031147500293097291 0 0.40842810810565933 -0.045815035286002122 0 0.43393375373572091 -0.031147500293097291 0 0.41702248266262609 -0.031250065839635299 0 0.40842810810565933 -0.045815035286002122 0 0.4277615199763698 -0.043840939660795969 0 0.42168745713459788 -0.050491046292558357 0 0.41609329889326729 -0.044670253719692139 0 0.41595168775856972 -0.048779610744958929 0 0.41609329889326729 -0.044670253719692139 0 0.41243320809781009 -0.046045398993336643 0 0.41055359318501478 -0.046936792941734598 0 0.41243320809781009 -0.046045398993336643 0 0.40842810810565933 -0.045815035286002122 0 0.41609329889326729 -0.044670253719692139 0 0.41243320809781009 -0.046045398993336643 0 0.40842810810565933 -0.045815035286002122 0 0.41055359318501478 -0.046936792941734598 0 0.40890038821779989 -0.047556031025676987 0 0.40842810810565933 -0.045815035286002122 0 0.40890038821779989 -0.047556031025676987 0 0.40670564264993941 -0.047155962200257251 0 0.40842810810565933 -0.045815035286002122 0 0.40670564264993941 -0.047155962200257251 0 0.40842810810565933 -0.045815035286002122 0 0.40464206912160461 -0.045938529563297692 0 0.41702248266262609 -0.031250065839635299 0 0.40842810810565933 -0.045815035286002122 0 0.40654651169497008 -0.036166460816765042 0 0.40654651169497008 -0.036166460816765042 0 0.40301104359298567 -0.041998001172575412 0 0.39831964441294349 -0.037527842435324643 0 0.40654651169497008 -0.036166460816765042 0 0.39831964441294349 -0.037527842435324643 0 0.39978843708719619 -0.023164510897697121 0 0.39831964441294349 -0.037527842435324643 0 0.38473920074584922 -0.039210774910751839 0 0.39978843708719619 -0.023164510897697121 0 0.40842810810565933 -0.045815035286002122 0 0.40654651169497008 -0.036166460816765042 0 0.40301104359298567 -0.041998001172575412 0 0.40301104359298567 -0.041998001172575412 0 0.39831964441294349 -0.037527842435324643 0 0.39480055854150931 -0.047664865003854827 0 0.40301104359298567 -0.041998001172575412 0 0.40187627138956572 -0.048526908386181108 0 0.39480055854150931 -0.047664865003854827 0 0.40842810810565933 -0.045815035286002122 0 0.40301104359298567 -0.041998001172575412 0 0.40464206912160461 -0.045938529563297692 0 0.40301104359298567 -0.041998001172575412 0 0.40464206912160461 -0.045938529563297692 0 0.40187627138956572 -0.048526908386181108 0 0.39831964441294349 -0.037527842435324643 0 0.39480055854150931 -0.047664865003854827 0 0.38473920074584922 -0.039210774910751839 0 0.40161657380641008 -0.06145591279584342 0 0.40467541934390039 -0.055475052802685401 0 0.3993813955926378 -0.05450973689816184 0 0.40467541934390039 -0.055475052802685401 0 0.3993813955926378 -0.05450973689816184 0 0.40187627138956572 -0.048526908386181108 0 0.40467541934390039 -0.055475052802685401 0 0.40533481195694482 -0.048949494623858919 0 0.40187627138956572 -0.048526908386181108 0 0.40670564264993941 -0.047155962200257251 0 0.40464206912160461 -0.045938529563297692 0 0.40533481195694482 -0.048949494623858919 0 0.40464206912160461 -0.045938529563297692 0 0.40533481195694482 -0.048949494623858919 0 0.40187627138956572 -0.048526908386181108 0 0.3993813955926378 -0.05450973689816184 0 0.40187627138956572 -0.048526908386181108 0 0.39480055854150931 -0.047664865003854827 0 0.3993813955926378 -0.05450973689816184 0 0.39480055854150931 -0.047664865003854827 0 0.3930020052869394 -0.059394739168174587 0 0.40161657380641008 -0.06145591279584342 0 0.3993813955926378 -0.05450973689816184 0 0.3930020052869394 -0.059394739168174587 0 0.39480055854150931 -0.047664865003854827 0 0.38231845371855422 -0.05550700707105885 0 0.38473920074584922 -0.039210774910751839 0 0.38231845371855422 -0.05550700707105885 0 0.38473920074584922 -0.039210774910751839 0 0.3635053007253724 -0.047454516549181272 0 0.38771672477029029 -0.070245811552951148 0 0.3930020052869394 -0.059394739168174587 0 0.38231845371855422 -0.05550700707105885 0 0.39480055854150931 -0.047664865003854827 0 0.3930020052869394 -0.059394739168174587 0 0.38231845371855422 -0.05550700707105885 0 0.38473920074584922 -0.039210774910751839 0 0.39978843708719619 -0.023164510897697121 0 0.37126029672234362 -0.027666451015800671 0 0.39978843708719619 -0.023164510897697121 0 0.37126029672234362 -0.027666451015800671 0 0.39978843708719619 -0.023164510897697121 0 0.38004824580921331 -0.0028869129075803049 0 0.37126029672234362 -0.027666451015800671 0 0.39978843708719619 -0.023164510897697121 0 0.39893425355353762 -0.0051137820231725237 0 0.38004824580921331 -0.0028869129075803049 0 0.41426609782592833 -0.0053004990416876899 0 0.39978843708719619 -0.023164510897697121 0 0.39893425355353762 -0.0051137820231725237 0 0.35703834181637017 0.01144248958259767 0 0.38004824580921331 -0.0028869129075803049 0 0.35250975552703762 -0.012334663797653279 0 0.38004824580921331 -0.0028869129075803049 0 0.37126029672234362 -0.027666451015800671 0 0.35250975552703762 -0.012334663797653279 0 0.37126029672234362 -0.027666451015800671 0 0.35250975552703762 -0.012334663797653279 0 0.3427321563574911 -0.032168391133904212 0 0.37126029672234362 -0.027666451015800671 0 0.3427321563574911 -0.032168391133904212 0 0.35703834181637017 0.01144248958259767 0 0.3313803004910606 0.00088141002731029205 0 0.35250975552703762 -0.012334663797653279 0 0.3313803004910606 0.00088141002731029205 0 0.33387490679194742 -0.018770821537064001 0 0.31983916069721402 -0.01756133944343553 0 0.3313803004910606 0.00088141002731029205 0 0.35250975552703762 -0.012334663797653279 0 0.33387490679194742 -0.018770821537064001 0 0.33387490679194742 -0.018770821537064001 0 0.3229131608869335 -0.032671123337637262 0 0.3427321563574911 -0.032168391133904212 0 0.35250975552703762 -0.012334663797653279 0 0.33387490679194742 -0.018770821537064001 0 0.3427321563574911 -0.032168391133904212 0 0.31983916069721402 -0.01756133944343553 0 0.3229131608869335 -0.032671123337637262 0 0.30658089097657798 -0.022727187040331151 0 0.3229131608869335 -0.032671123337637262 0 0.30658089097657798 -0.022727187040331151 0 0.31024221046599409 -0.031304029368407392 0 0.33387490679194742 -0.018770821537064001 0 0.31983916069721402 -0.01756133944343553 0 0.3229131608869335 -0.032671123337637262 0 0.3229131608869335 -0.032671123337637262 0 0.30658089097657798 -0.022727187040331151 0 0.3313803004910606 0.00088141002731029205 0 0.30942768596035969 0.0080651459837762646 0 0.30572225916575102 -0.0096796695279770875 0 0.3313803004910606 0.00088141002731029205 0 0.30572225916575102 -0.0096796695279770875 0 0.3313803004910606 0.00088141002731029205 0 0.31983916069721402 -0.01756133944343553 0 0.30572225916575102 -0.0096796695279770875 0 0.31781803219706939 -0.050909700542606573 0 0.33446933861452921 -0.051012628627060887 0 0.33103993927204262 -0.067455949230195711 0 0.31781803219706939 -0.050909700542606573 0 0.32730588579043202 -0.04269026288889486 0 0.33446933861452921 -0.051012628627060887 0 0.31781803219706939 -0.050909700542606573 0 0.33103993927204262 -0.067455949230195711 0 0.30739998991578282 -0.066093278928345392 0 0.31420401599263842 -0.036670331252007769 0 0.3229131608869335 -0.032671123337637262 0 0.3427321563574911 -0.032168391133904212 0 0.31781803219706939 -0.050909700542606573 0 0.31420401599263842 -0.036670331252007769 0 0.32730588579043202 -0.04269026288889486 0 0.31420401599263842 -0.036670331252007769 0 0.32730588579043202 -0.04269026288889486 0 0.3427321563574911 -0.032168391133904212 0 0.31420401599263842 -0.036670331252007769 0 0.3229131608869335 -0.032671123337637262 0 0.31024221046599409 -0.031304029368407392 0 0.31420401599263842 -0.036670331252007769 0 0.3427321563574911 -0.032168391133904212 0 0.32730588579043202 -0.04269026288889486 0 0.3427321563574911 -0.032168391133904212 0 0.33446933861452921 -0.051012628627060887 0 0.3427321563574911 -0.032168391133904212 0 0.33446933861452921 -0.051012628627060887 0 0.34720700592797898 -0.04800488704894882 0 0.33446933861452921 -0.051012628627060887 0 0.3496229337030719 -0.062310307825590022 0 0.33103993927204262 -0.067455949230195711 0 0.3496229337030719 -0.062310307825590022 0 0.34720700592797898 -0.04800488704894882 0 0.3635053007253724 -0.047454516549181272 0 0.33446933861452921 -0.051012628627060887 0 0.3496229337030719 -0.062310307825590022 0 0.34720700592797898 -0.04800488704894882 0 0.37126029672234362 -0.027666451015800671 0 0.3427321563574911 -0.032168391133904212 0 0.3635053007253724 -0.047454516549181272 0 0.3427321563574911 -0.032168391133904212 0 0.34720700592797898 -0.04800488704894882 0 0.3635053007253724 -0.047454516549181272 0 0.38473920074584922 -0.039210774910751839 0 0.37126029672234362 -0.027666451015800671 0 0.3635053007253724 -0.047454516549181272 0 0.38231845371855422 -0.05550700707105885 0 0.3635053007253724 -0.047454516549181272 0 0.36759562395766071 -0.067892731800677661 0 0.3496229337030719 -0.062310307825590022 0 0.3635053007253724 -0.047454516549181272 0 0.36759562395766071 -0.067892731800677661 0 0.37191937548940451 -0.083376030081658309 0 0.34992328486210073 -0.08582523008845036 0 0.36491171726418098 -0.095967172004788895 0 0.38416134509704508 -0.090304831799239926 0 0.37191937548940451 -0.083376030081658309 0 0.36491171726418098 -0.095967172004788895 0 0.36759562395766071 -0.067892731800677661 0 0.37191937548940451 -0.083376030081658309 0 0.34992328486210073 -0.08582523008845036 0 0.3496229337030719 -0.062310307825590022 0 0.36759562395766071 -0.067892731800677661 0 0.34992328486210073 -0.08582523008845036 0 0.37001781658910299 -0.1196985277156337 0 0.37284485229092379 -0.1076109494702602 0 0.35510600836586242 -0.1097999872766936 0 0.37001781658910299 -0.1196985277156337 0 0.35510600836586242 -0.1097999872766936 0 0.35912921923195762 -0.12444259222593911 0 0.38416134509704508 -0.090304831799239926 0 0.36491171726418098 -0.095967172004788895 0 0.37284485229092379 -0.1076109494702602 0 0.36491171726418098 -0.095967172004788895 0 0.37284485229092379 -0.1076109494702602 0 0.35510600836586242 -0.1097999872766936 0 0.34992328486210073 -0.08582523008845036 0 0.35510600836586242 -0.1097999872766936 0 0.33506782891287928 -0.1058502281547762 0 0.34992328486210073 -0.08582523008845036 0 0.36491171726418098 -0.095967172004788895 0 0.35510600836586242 -0.1097999872766936 0 0.35510600836586242 -0.1097999872766936 0 0.34243346160057592 -0.1237296628284698 0 0.33506782891287928 -0.1058502281547762 0 0.35510600836586242 -0.1097999872766936 0 0.35912921923195762 -0.12444259222593911 0 0.34243346160057592 -0.1237296628284698 0 0.34243346160057592 -0.1237296628284698 0 0.33506782891287928 -0.1058502281547762 0 0.32283255050196619 -0.1263048316539207 0 0.31620326780428482 -0.10444427429064899 0 0.32700605633970209 -0.088584549369121079 0 0.29708710807028538 -0.08889980189720928 0 0.33506782891287928 -0.1058502281547762 0 0.31620326780428482 -0.10444427429064899 0 0.32700605633970209 -0.088584549369121079 0 0.33506782891287928 -0.1058502281547762 0 0.31620326780428482 -0.10444427429064899 0 0.32283255050196619 -0.1263048316539207 0 0.31620326780428482 -0.10444427429064899 0 0.29902279519659108 -0.1125819603782178 0 0.32283255050196619 -0.1263048316539207 0 0.3496229337030719 -0.062310307825590022 0 0.34992328486210073 -0.08582523008845036 0 0.33103993927204262 -0.067455949230195711 0 0.34992328486210073 -0.08582523008845036 0 0.33506782891287928 -0.1058502281547762 0 0.32700605633970209 -0.088584549369121079 0 0.34992328486210073 -0.08582523008845036 0 0.33103993927204262 -0.067455949230195711 0 0.32700605633970209 -0.088584549369121079 0 0.32700605633970209 -0.088584549369121079 0 0.30739998991578282 -0.066093278928345392 0 0.33103993927204262 -0.067455949230195711 0 0.32700605633970209 -0.088584549369121079 0 0.30739998991578282 -0.066093278928345392 0 0.32700605633970209 -0.088584549369121079 0 0.30739998991578282 -0.066093278928345392 0 0.29708710807028538 -0.08889980189720928 0 0.29708710807028538 -0.08889980189720928 0 0.28169361708016433 -0.1035695596960859 0 0.27107402700204342 -0.085488293785975805 0 0.29708710807028538 -0.08889980189720928 0 0.27943397524695451 -0.064545151136772866 0 0.27107402700204342 -0.085488293785975805 0 0.30739998991578282 -0.066093278928345392 0 0.29708710807028538 -0.08889980189720928 0 0.27943397524695451 -0.064545151136772866 0 0.29902279519659108 -0.1125819603782178 0 0.30070296141837072 -0.12923664205863339 0 0.32283255050196619 -0.1263048316539207 0 0.31620326780428482 -0.10444427429064899 0 0.29708710807028538 -0.08889980189720928 0 0.29902279519659108 -0.1125819603782178 0 0.29708710807028538 -0.08889980189720928 0 0.29902279519659108 -0.1125819603782178 0 0.28169361708016433 -0.1035695596960859 0 0.29902279519659108 -0.1125819603782178 0 0.28169361708016433 -0.1035695596960859 0 0.27682270856738761 -0.1232888814359593 0 0.29902279519659108 -0.1125819603782178 0 0.27682270856738761 -0.1232888814359593 0 0.30070296141837072 -0.12923664205863339 0 0.28169361708016433 -0.1035695596960859 0 0.27682270856738761 -0.1232888814359593 0 0.26271407875713298 -0.10643143643517911 0 0.27682270856738761 -0.1232888814359593 0 0.26271407875713298 -0.10643143643517911 0 0.25849072858486971 -0.1170116724036338 0 0.27682270856738761 -0.1232888814359593 0 0.25849072858486971 -0.1170116724036338 0 0.26832550367893793 -0.13091520818086119 0 0.27682270856738761 -0.1232888814359593 0 0.26271407875713298 -0.10643143643517911 0 0.26271407875713298 -0.10643143643517911 0 0.27107402700204342 -0.085488293785975805 0 0.28169361708016433 -0.1035695596960859 0 0.26271407875713298 -0.10643143643517911 0 0.27107402700204342 -0.085488293785975805 0 0.25014461766983942 -0.1056157606165187 0 0.26271407875713298 -0.10643143643517911 0 0.24409979373027321 -0.08419048956157503 0 0.26271407875713298 -0.10643143643517911 0 0.24409979373027321 -0.08419048956157503 0 0.26271407875713298 -0.10643143643517911 0 0.25849072858486971 -0.1170116724036338 0 0.25014461766983942 -0.1056157606165187 0 0.26271407875713298 -0.10643143643517911 0 0.25849072858486971 -0.1170116724036338 0 0.25014461766983942 -0.1056157606165187 0 0.25849072858486971 -0.1170116724036338 0 0.2462752805337094 -0.1164302520937919 0 0.25849072858486971 -0.1170116724036338 0 0.25176187605930839 -0.1237749620808777 0 0.2462752805337094 -0.1164302520937919 0 0.25849072858486971 -0.1170116724036338 0 0.25176187605930839 -0.1237749620808777 0 0.25897312315171861 -0.1276760618184595 0 0.27943397524695451 -0.064545151136772866 0 0.27107402700204342 -0.085488293785975805 0 0.26317258075180422 -0.064657564702826548 0 0.27943397524695451 -0.064545151136772866 0 0.27107402700204342 -0.085488293785975805 0 0.26271407875713298 -0.10643143643517911 0 0.27107402700204342 -0.085488293785975805 0 0.25788891384778417 -0.078562395337112748 0 0.26271407875713298 -0.10643143643517911 0 0.25788891384778417 -0.078562395337112748 0 0.24409979373027321 -0.08419048956157503 0 0.25788891384778417 -0.078562395337112748 0 0.26317258075180422 -0.064657564702826548 0 0.24193210565152751 -0.065305200451343373 0 0.27107402700204342 -0.085488293785975805 0 0.25788891384778417 -0.078562395337112748 0 0.26317258075180422 -0.064657564702826548 0 0.26047413934767799 -0.045149281653793019 0 0.249462220344529 -0.049513941626465573 0 0.24193210565152751 -0.065305200451343373 0 0.26317258075180422 -0.064657564702826548 0 0.26047413934767799 -0.045149281653793019 0 0.24193210565152751 -0.065305200451343373 0 0.26047413934767799 -0.045149281653793019 0 0.24193210565152751 -0.065305200451343373 0 0.26047413934767799 -0.045149281653793019 0 0.24945292373939221 -0.046888506575663548 0 0.249462220344529 -0.049513941626465573 0 0.27943397524695451 -0.064545151136772866 0 0.26317258075180422 -0.064657564702826548 0 0.27531009889321711 -0.051825255470214951 0 0.27943397524695451 -0.064545151136772866 0 0.27531009889321711 -0.051825255470214951 0 0.28779392349186422 -0.04360200848756933 0 0.26317258075180422 -0.064657564702826548 0 0.27531009889321711 -0.051825255470214951 0 0.26047413934767799 -0.045149281653793019 0 0.27531009889321711 -0.051825255470214951 0 0.26047413934767799 -0.045149281653793019 0 0.28567587562778612 -0.041172271370113478 0 0.26047413934767799 -0.045149281653793019 0 0.28567587562778612 -0.041172271370113478 0 0.26047413934767799 -0.045149281653793019 0 0.27519414274329002 -0.029148059889041941 0 0.28567587562778612 -0.041172271370113478 0 0.26047413934767799 -0.045149281653793019 0 0.27519414274329002 -0.029148059889041941 0 0.26269328683150289 -0.032419444928623288 0 0.26047413934767799 -0.045149281653793019 0 0.27519414274329002 -0.029148059889041941 0 0.27519414274329002 -0.029148059889041941 0 0.28567587562778612 -0.041172271370113478 0 0.26269328683150289 -0.032419444928623288 0 0.25784798866327252 -0.025327478933740748 0 0.24945292373939221 -0.046888506575663548 0 0.26269328683150289 -0.032419444928623288 0 0.26047413934767799 -0.045149281653793019 0 0.24945292373939221 -0.046888506575663548 0 0.26047413934767799 -0.045149281653793019 0 0.24945292373939221 -0.046888506575663548 0 0.25784798866327252 -0.025327478933740748 0 0.24945292373939221 -0.046888506575663548 0 0.24934833894078609 -0.017352929662964419 0 0.25784798866327252 -0.025327478933740748 0 0.26010579277704338 -0.0094947121626498474 0 0.2676396010276379 -0.020481801338802629 0 0.25784798866327252 -0.025327478933740748 0 0.26010579277704338 -0.0094947121626498474 0 0.24934833894078609 -0.017352929662964419 0 0.26269328683150289 -0.032419444928623288 0 0.25784798866327252 -0.025327478933740748 0 0.2676396010276379 -0.020481801338802629 0 0.24924375414218081 0.01218264724973479 0 0.26010579277704338 -0.0094947121626498474 0 0.24934833894078609 -0.017352929662964419 0 0.26010579277704338 -0.0094947121626498474 0 0.26974618760420199 -0.00030030174664443492 0 0.2676396010276379 -0.020481801338802629 0 0.26974618760420199 -0.00030030174664443492 0 0.2676396010276379 -0.020481801338802629 0 0.29024862106621879 -0.012783250743031041 0 0.26974618760420199 -0.00030030174664443492 0 0.29024862106621879 -0.012783250743031041 0 0.2676396010276379 -0.020481801338802629 0 0.27519414274329002 -0.029148059889041941 0 0.29024862106621879 -0.012783250743031041 0 0.2676396010276379 -0.020481801338802629 0 0.27519414274329002 -0.029148059889041941 0 0.26269328683150289 -0.032419444928623288 0 0.2676396010276379 -0.020481801338802629 0 0.27519414274329002 -0.029148059889041941 0 0.29090676930867171 -0.026031733996952432 0 0.29024862106621879 -0.012783250743031041 0 0.30658089097657798 -0.022727187040331151 0 0.27519414274329002 -0.029148059889041941 0 0.29024862106621879 -0.012783250743031041 0 0.27519414274329002 -0.029148059889041941 0 0.29090676930867171 -0.026031733996952432 0 0.29024862106621879 -0.012783250743031041 0 0.27519414274329002 -0.029148059889041941 0 0.29090676930867171 -0.026031733996952432 0 0.28919230489230668 -0.033217477073101492 0 0.29090676930867171 -0.026031733996952432 0 0.30046245425324641 -0.033839495589077548 0 0.28919230489230668 -0.033217477073101492 0 0.28692422129050738 0.0091650621547095315 0 0.26974618760420199 -0.00030030174664443492 0 0.29024862106621879 -0.012783250743031041 0 0.30942768596035969 0.0080651459837762646 0 0.29024862106621879 -0.012783250743031041 0 0.29024862106621879 -0.012783250743031041 0 0.30572225916575102 -0.0096796695279770875 0 0.30658089097657798 -0.022727187040331151 0 0.30942768596035969 0.0080651459837762646 0 0.29024862106621879 -0.012783250743031041 0 0.30572225916575102 -0.0096796695279770875 0 0.29090676930867171 -0.026031733996952432 0 0.30658089097657798 -0.022727187040331151 0 0.30046245425324641 -0.033839495589077548 0 0.29024862106621879 -0.012783250743031041 0 0.30658089097657798 -0.022727187040331151 0 0.31983916069721402 -0.01756133944343553 0 0.30572225916575102 -0.0096796695279770875 0 0.30658089097657798 -0.022727187040331151 0 0.30658089097657798 -0.022727187040331151 0 0.31024221046599409 -0.031304029368407392 0 0.30046245425324641 -0.033839495589077548 0 0.31420401599263842 -0.036670331252007769 0 0.31024221046599409 -0.031304029368407392 0 0.30046245425324641 -0.033839495589077548 0 0.31420401599263842 -0.036670331252007769 0 0.30046245425324641 -0.033839495589077548 0 0.28567587562778612 -0.041172271370113478 0 0.31420401599263842 -0.036670331252007769 0 0.30303407321983089 -0.047672710453262823 0 0.28860548478163028 -0.041568904530202608 0 0.31420401599263842 -0.036670331252007769 0 0.28567587562778612 -0.041172271370113478 0 0.31781803219706939 -0.050909700542606573 0 0.31420401599263842 -0.036670331252007769 0 0.30303407321983089 -0.047672710453262823 0 0.30739998991578282 -0.066093278928345392 0 0.28779392349186422 -0.04360200848756933 0 0.30739998991578282 -0.066093278928345392 0 0.30303407321983089 -0.047672710453262823 0 0.28779392349186422 -0.04360200848756933 0 0.31781803219706939 -0.050909700542606573 0 0.30739998991578282 -0.066093278928345392 0 0.30303407321983089 -0.047672710453262823 0 0.27943397524695451 -0.064545151136772866 0 0.28779392349186422 -0.04360200848756933 0 0.30739998991578282 -0.066093278928345392 0 0.27943397524695451 -0.064545151136772866 0 0.28779392349186422 -0.04360200848756933 0 0.31420401599263842 -0.036670331252007769 0 0.28860548478163028 -0.041568904530202608 0 0.28567587562778612 -0.041172271370113478 0 0.27531009889321711 -0.051825255470214951 0 0.28779392349186422 -0.04360200848756933 0 0.28567587562778612 -0.041172271370113478 0 0.28779392349186422 -0.04360200848756933 0 0.28860548478163028 -0.041568904530202608 0 0.28779392349186422 -0.04360200848756933 0 0.28860548478163028 -0.041568904530202608 0 0.28567587562778612 -0.041172271370113478 0 0.28779392349186422 -0.04360200848756933 0 0.28567587562778612 -0.041172271370113478 0 0.27519414274329002 -0.029148059889041941 0 0.28567587562778612 -0.041172271370113478 0 0.28919230489230668 -0.033217477073101492 0 0.30046245425324641 -0.033839495589077548 0 0.28567587562778612 -0.041172271370113478 0 0.28919230489230668 -0.033217477073101492 0 0.30303407321983089 -0.047672710453262823 0 0.28779392349186422 -0.04360200848756933 0 0.28860548478163028 -0.041568904530202608 0 0.28290953480762221 -0.2051828886799956 0 0.29992766187092951 -0.2106866390911879 0 0.28083523331761101 -0.21269972576943191 0 0.29992766187092951 -0.2106866390911879 0 0.30283587745714308 -0.2166639343261256 0 0.27860703304225409 -0.22274632491321431 0 0.29992766187092951 -0.2106866390911879 0 0.27860703304225409 -0.22274632491321431 0 0.28083523331761101 -0.21269972576943191 0 0.28290953480762221 -0.2051828886799956 0 0.28566119425708708 -0.19792131935882201 0 0.29992766187092951 -0.2106866390911879 0 0.29992766187092951 -0.2106866390911879 0 0.27860703304225409 -0.22274632491321431 0 0.28290953480762221 -0.2051828886799956 0 0.28566119425708708 -0.19792131935882201 0 0.27531845594637688 -0.1973181983445538 0 0.28566119425708708 -0.19792131935882201 0 0.28914215964982692 -0.18851904899290511 0 0.29992766187092951 -0.2106866390911879 0 0.28914215964982692 -0.18851904899290511 0 0.29992766187092951 -0.2106866390911879 0 0.28914215964982692 -0.18851904899290511 0 0.28100815901068088 -0.18789982168546701 0 0.28566119425708708 -0.19792131935882201 0 0.28914215964982692 -0.18851904899290511 0 0.28100815901068088 -0.18789982168546701 0 0.28914215964982692 -0.18851904899290511 0 0.30427811815484318 -0.18967132316232069 0 0.30375826169666981 -0.20851991920784971 0 0.31941407665985921 -0.1908235973317399 0 0.28914215964982692 -0.18851904899290511 0 0.30427811815484318 -0.18967132316232069 0 0.30375826169666981 -0.20851991920784971 0 0.30427811815484318 -0.18967132316232069 0 0.30375826169666981 -0.20851991920784971 0 0.31941407665985921 -0.1908235973317399 0 0.28914215964982692 -0.18851904899290511 0 0.30375826169666981 -0.20851991920784971 0 0.29992766187092951 -0.2106866390911879 0 0.30427811815484318 -0.18967132316232069 0 0.31941407665985921 -0.1908235973317399 0 0.30375826169666981 -0.20851991920784971 0 0.31397832197813952 -0.21413814654667979 0 0.31655881118879658 -0.20127948523824629 0 0.30375826169666981 -0.20851991920784971 0 0.31655881118879658 -0.20127948523824629 0 0.30375826169666981 -0.20851991920784971 0 0.29992766187092951 -0.2106866390911879 0 0.29992766187092951 -0.2106866390911879 0 0.30283587745714308 -0.2166639343261256 0 0.30375826169666981 -0.20851991920784971 0 0.29992766187092951 -0.2106866390911879 0 0.31397832197813952 -0.21413814654667979 0 0.29992766187092951 -0.2106866390911879 0 0.30283587745714308 -0.2166639343261256 0 0.31397832197813952 -0.21413814654667979 0 0.30978869405476811 -0.22558233672527031 0 0.30819810831357242 -0.24106028415953401 0 0.29367370006732579 -0.23146522284893251 0 0.30283587745714308 -0.2166639343261256 0 0.30978869405476811 -0.22558233672527031 0 0.29367370006732579 -0.23146522284893251 0 0.30283587745714308 -0.2166639343261256 0 0.30978869405476811 -0.22558233672527031 0 0.31397832197813952 -0.21413814654667979 0 0.30819810831357242 -0.24106028415953401 0 0.28613875416948542 -0.25753647257398821 0 0.30819810831357242 -0.24106028415953401 0 0.29367370006732579 -0.23146522284893251 0 0.28613875416948542 -0.25753647257398821 0 0.29367370006732579 -0.23146522284893251 0 0.27517653528561892 -0.24063479640347971 0 0.28613875416948542 -0.25753647257398821 0 0.30283587745714308 -0.2166639343261256 0 0.29367370006732579 -0.23146522284893251 0 0.27860703304225409 -0.22274632491321431 0 0.29367370006732579 -0.23146522284893251 0 0.27860703304225409 -0.22274632491321431 0 0.27517653528561892 -0.24063479640347971 0 0.27860703304225409 -0.22274632491321431 0 0.27517653528561892 -0.24063479640347971 0 0.26558390309263102 -0.23011265809569001 0 0.27860703304225409 -0.22274632491321431 0 0.26558390309263102 -0.23011265809569001 0 0.26736532852397732 -0.2139252029523733 0 0.27860703304225409 -0.22274632491321431 0 0.26558390309263102 -0.23011265809569001 0 0.27517653528561892 -0.24063479640347971 0 0.25728640421358012 -0.23480601073524321 0 0.26558390309263102 -0.23011265809569001 0 0.25728640421358012 -0.23480601073524321 0 0.26021268495159 -0.25369246622202929 0 0.2359657753849061 -0.24686569655727211 0 0.27517653528561892 -0.24063479640347971 0 0.25728640421358012 -0.23480601073524321 0 0.26021268495159 -0.25369246622202929 0 0.26558390309263102 -0.23011265809569001 0 0.24577709228845779 -0.20894014118177259 0 0.25728640421358012 -0.23480601073524321 0 0.26558390309263102 -0.23011265809569001 0 0.24577709228845779 -0.20894014118177259 0 0.25728640421358012 -0.23480601073524321 0 0.26558390309263102 -0.23011265809569001 0 0.26558390309263102 -0.23011265809569001 0 0.26736532852397732 -0.2139252029523733 0 0.24577709228845779 -0.20894014118177259 0 0.26736532852397732 -0.2139252029523733 0 0.26311871650952168 -0.19916322550797991 0 0.24577709228845779 -0.20894014118177259 0 0.26736532852397732 -0.2139252029523733 0 0.27396774000191182 -0.20586983724924779 0 0.26311871650952168 -0.19916322550797991 0 0.28290953480762221 -0.2051828886799956 0 0.27396774000191182 -0.20586983724924779 0 0.28083523331761101 -0.21269972576943191 0 0.26736532852397732 -0.2139252029523733 0 0.27396774000191182 -0.20586983724924779 0 0.28083523331761101 -0.21269972576943191 0 0.27860703304225409 -0.22274632491321431 0 0.26736532852397732 -0.2139252029523733 0 0.28083523331761101 -0.21269972576943191 0 0.28566119425708708 -0.19792131935882201 0 0.28100815901068088 -0.18789982168546701 0 0.27531845594637688 -0.1973181983445538 0 0.28100815901068088 -0.18789982168546701 0 0.27531845594637688 -0.1973181983445538 0 0.27117931588479272 -0.1879895719080211 0 0.28290953480762221 -0.2051828886799956 0 0.27396774000191182 -0.20586983724924779 0 0.27531845594637688 -0.1973181983445538 0 0.27396774000191182 -0.20586983724924779 0 0.27531845594637688 -0.1973181983445538 0 0.26311871650952168 -0.19916322550797991 0 0.27531845594637688 -0.1973181983445538 0 0.27117931588479272 -0.1879895719080211 0 0.26311871650952168 -0.19916322550797991 0 0.26311871650952168 -0.19916322550797991 0 0.2473321467029129 -0.19438791307811501 0 0.24577709228845779 -0.20894014118177259 0 0.27117931588479272 -0.1879895719080211 0 0.26311871650952168 -0.19916322550797991 0 0.25422100649276402 -0.18125372490620401 0 0.26311871650952168 -0.19916322550797991 0 0.25422100649276402 -0.18125372490620401 0 0.2473321467029129 -0.19438791307811501 0 0.25422100649276402 -0.18125372490620401 0 0.26378411895645859 -0.16522760264032429 0 0.24978916718025401 -0.16190726118607571 0 0.26378411895645859 -0.16522760264032429 0 0.25907899387967959 -0.15208666501255391 0 0.24978916718025401 -0.16190726118607571 0 0.26378411895645859 -0.16522760264032429 0 0.27360118576497527 -0.1565774730008874 0 0.25907899387967959 -0.15208666501255391 0 0.27360118576497527 -0.1565774730008874 0 0.28223024146461928 -0.17431288909590109 0 0.26378411895645859 -0.16522760264032429 0 0.27360118576497527 -0.1565774730008874 0 0.28223024146461928 -0.17431288909590109 0 0.25422100649276402 -0.18125372490620401 0 0.26378411895645859 -0.16522760264032429 0 0.28223024146461928 -0.17431288909590109 0 0.25422100649276402 -0.18125372490620401 0 0.28223024146461928 -0.17431288909590109 0 0.27117931588479272 -0.1879895719080211 0 0.25422100649276402 -0.18125372490620401 0 0.28223024146461928 -0.17431288909590109 0 0.28100815901068088 -0.18789982168546701 0 0.27117931588479272 -0.1879895719080211 0 0.28223024146461928 -0.17431288909590109 0 0.25849072858486971 -0.1170116724036338 0 0.25897312315171861 -0.1276760618184595 0 0.26832550367893793 -0.13091520818086119 0 0.26257764950351631 -0.13239377212167891 0 0.25897312315171861 -0.1276760618184595 0 0.26832550367893793 -0.13091520818086119 0 0.26257764950351631 -0.13239377212167891 0 0.25897312315171861 -0.1276760618184595 0 0.25866409629821568 -0.13342480178366811 0 0.25176187605930839 -0.1237749620808777 0 0.25897312315171861 -0.1276760618184595 0 0.25277327120285892 -0.13174155060927689 0 0.25897312315171861 -0.1276760618184595 0 0.25277327120285892 -0.13174155060927689 0 0.25866409629821568 -0.13342480178366811 0 0.25277327120285892 -0.13174155060927689 0 0.25348559013088362 -0.13826493822524219 0 0.25866409629821568 -0.13342480178366811 0 0.25277327120285892 -0.13174155060927689 0 0.25348559013088362 -0.13826493822524219 0 0.24630144909439439 -0.1366621448626984 0 0.25348559013088362 -0.13826493822524219 0 0.26497213006532949 -0.13884205690587459 0 0.26257764950351631 -0.13239377212167891 0 0.26497213006532949 -0.13884205690587459 0 0.26832550367893793 -0.13091520818086119 0 0.25348559013088362 -0.13826493822524219 0 0.25866409629821568 -0.13342480178366811 0 0.26497213006532949 -0.13884205690587459 0 0.26257764950351631 -0.13239377212167891 0 0.25866409629821568 -0.13342480178366811 0 0.26497213006532949 -0.13884205690587459 0 0.25348559013088362 -0.13826493822524219 0 0.26497213006532949 -0.13884205690587459 0 0.25907899387967959 -0.15208666501255391 0 0.25348559013088362 -0.13826493822524219 0 0.25907899387967959 -0.15208666501255391 0 0.24784948648729269 -0.1473367807090844 0 0.25907899387967959 -0.15208666501255391 0 0.24784948648729269 -0.1473367807090844 0 0.24978916718025401 -0.16190726118607571 0 0.26497213006532949 -0.13884205690587459 0 0.29093133837764112 -0.14014632643674019 0 0.28437812676419721 -0.15058931198625269 0 0.27360118576497527 -0.1565774730008874 0 0.26497213006532949 -0.13884205690587459 0 0.25907899387967959 -0.15208666501255391 0 0.27360118576497527 -0.1565774730008874 0 0.26497213006532949 -0.13884205690587459 0 0.27360118576497527 -0.1565774730008874 0 0.26497213006532949 -0.13884205690587459 0 0.28437812676419721 -0.15058931198625269 0 0.27682270856738761 -0.1232888814359593 0 0.26832550367893793 -0.13091520818086119 0 0.29093133837764112 -0.14014632643674019 0 0.26497213006532949 -0.13884205690587459 0 0.26832550367893793 -0.13091520818086119 0 0.29093133837764112 -0.14014632643674019 0 0.26497213006532949 -0.13884205690587459 0 0.29093133837764112 -0.14014632643674019 0 0.27682270856738761 -0.1232888814359593 0 0.29093133837764112 -0.14014632643674019 0 0.30070296141837072 -0.12923664205863339 0 0.27682270856738761 -0.1232888814359593 0 0.29093133837764112 -0.14014632643674019 0 0.27360118576497527 -0.1565774730008874 0 0.28437812676419721 -0.15058931198625269 0 0.29097024614107292 -0.16107974026599359 0 0.29093133837764112 -0.14014632643674019 0 0.29581216321336451 -0.14597809304577461 0 0.28437812676419721 -0.15058931198625269 0 0.29093133837764112 -0.14014632643674019 0 0.29581216321336451 -0.14597809304577461 0 0.28437812676419721 -0.15058931198625269 0 0.29329752080994231 -0.15348642567965559 0 0.29097024614107292 -0.16107974026599359 0 0.29581216321336451 -0.14597809304577461 0 0.28437812676419721 -0.15058931198625269 0 0.29329752080994231 -0.15348642567965559 0 0.29093133837764112 -0.14014632643674019 0 0.29581216321336451 -0.14597809304577461 0 0.31168280305014812 -0.1411889430977529 0 0.29581216321336451 -0.14597809304577461 0 0.30917958967982528 -0.15069988544090029 0 0.31168280305014812 -0.1411889430977529 0 0.29093133837764112 -0.14014632643674019 0 0.31168280305014812 -0.1411889430977529 0 0.29581216321336451 -0.14597809304577461 0 0.30917958967982528 -0.15069988544090029 0 0.30202954712113472 -0.15629855742060161 0 0.29581216321336451 -0.14597809304577461 0 0.29329752080994231 -0.15348642567965559 0 0.30202954712113472 -0.15629855742060161 0 0.30917958967982528 -0.15069988544090029 0 0.30202954712113472 -0.15629855742060161 0 0.31364406075975559 -0.15950338510816189 0 0.31168280305014812 -0.1411889430977529 0 0.30070296141837072 -0.12923664205863339 0 0.32283255050196619 -0.1263048316539207 0 0.29093133837764112 -0.14014632643674019 0 0.31168280305014812 -0.1411889430977529 0 0.30070296141837072 -0.12923664205863339 0 0.28914215964982692 -0.18851904899290511 0 0.28223024146461928 -0.17431288909590109 0 0.30487799773071528 -0.16870065592093261 0 0.28914215964982692 -0.18851904899290511 0 0.28100815901068088 -0.18789982168546701 0 0.28223024146461928 -0.17431288909590109 0 0.28914215964982692 -0.18851904899290511 0 0.28223024146461928 -0.17431288909590109 0 0.27360118576497527 -0.1565774730008874 0 0.28223024146461928 -0.17431288909590109 0 0.29097024614107292 -0.16107974026599359 0 0.28223024146461928 -0.17431288909590109 0 0.30487799773071528 -0.16870065592093261 0 0.28223024146461928 -0.17431288909590109 0 0.29097024614107292 -0.16107974026599359 0 0.30487799773071528 -0.16870065592093261 0 0.29329752080994231 -0.15348642567965559 0 0.29097024614107292 -0.16107974026599359 0 0.30202954712113472 -0.15629855742060161 0 0.29097024614107292 -0.16107974026599359 0 0.30202954712113472 -0.15629855742060161 0 0.30487799773071528 -0.16870065592093261 0 0.30202954712113472 -0.15629855742060161 0 0.30487799773071528 -0.16870065592093261 0 0.31364406075975559 -0.15950338510816189 0 0.30427811815484318 -0.18967132316232069 0 0.30487799773071528 -0.16870065592093261 0 0.3200111854544026 -0.17594443895079889 0 0.28914215964982692 -0.18851904899290511 0 0.30427811815484318 -0.18967132316232069 0 0.30487799773071528 -0.16870065592093261 0 0.30427811815484318 -0.18967132316232069 0 0.3200111854544026 -0.17594443895079889 0 0.31941407665985921 -0.1908235973317399 0 0.33479379346138421 -0.17414989345136669 0 0.31941407665985921 -0.1908235973317399 0 0.3200111854544026 -0.17594443895079889 0 0.33479379346138421 -0.17414989345136669 0 0.31941407665985921 -0.1908235973317399 0 0.30487799773071528 -0.16870065592093261 0 0.3200111854544026 -0.17594443895079889 0 0.3275257539968105 -0.1630884227459605 0 0.30487799773071528 -0.16870065592093261 0 0.31364406075975559 -0.15950338510816189 0 0.3275257539968105 -0.1630884227459605 0 0.30487799773071528 -0.16870065592093261 0 0.3275257539968105 -0.1630884227459605 0 0.31364406075975559 -0.15950338510816189 0 0.3275257539968105 -0.1630884227459605 0 0.33433223639602372 -0.15586243711320791 0 0.31364406075975559 -0.15950338510816189 0 0.33433223639602372 -0.15586243711320791 0 0.3200111854544026 -0.17594443895079889 0 0.3275257539968105 -0.1630884227459605 0 0.33479379346138421 -0.17414989345136669 0 0.3275257539968105 -0.1630884227459605 0 0.33479379346138421 -0.17414989345136669 0 0.35017351026290627 -0.15747618957099069 0 0.3275257539968105 -0.1630884227459605 0 0.35017351026290627 -0.15747618957099069 0 0.33479379346138421 -0.17414989345136669 0 0.35017351026290627 -0.15747618957099069 0 0.3275257539968105 -0.1630884227459605 0 0.33433223639602372 -0.15586243711320791 0 0.35017351026290627 -0.15747618957099069 0 0.33479379346138421 -0.17414989345136669 0 0.34470782739642991 -0.1731298427481206 0 0.34887430100835948 -0.16707688767799561 0 0.33479379346138421 -0.17414989345136669 0 0.34470782739642991 -0.1731298427481206 0 0.3331899605066645 -0.19187233138530621 0 0.33479379346138421 -0.17414989345136669 0 0.3331899605066645 -0.19187233138530621 0 0.31941407665985921 -0.1908235973317399 0 0.31168280305014812 -0.1411889430977529 0 0.32283255050196619 -0.1263048316539207 0 0.33243426772265522 -0.14223155975876589 0 0.31168280305014812 -0.1411889430977529 0 0.33243426772265522 -0.14223155975876589 0 0.31168280305014812 -0.1411889430977529 0 0.32272937425472381 -0.15053044853221051 0 0.33243426772265522 -0.14223155975876589 0 0.31364406075975559 -0.15950338510816189 0 0.32272937425472381 -0.15053044853221051 0 0.33433223639602372 -0.15586243711320791 0 0.30917958967982528 -0.15069988544090029 0 0.31168280305014812 -0.1411889430977529 0 0.32272937425472381 -0.15053044853221051 0 0.30917958967982528 -0.15069988544090029 0 0.31364406075975559 -0.15950338510816189 0 0.32272937425472381 -0.15053044853221051 0 0.32272937425472381 -0.15053044853221051 0 0.33433223639602372 -0.15586243711320791 0 0.33243426772265522 -0.14223155975876589 0 0.33433223639602372 -0.15586243711320791 0 0.33243426772265522 -0.14223155975876589 0 0.34404686332428469 -0.14650411665960519 0 0.33243426772265522 -0.14223155975876589 0 0.34212907852848051 -0.13600463667247001 0 0.34404686332428469 -0.14650411665960519 0 0.32283255050196619 -0.1263048316539207 0 0.33243426772265522 -0.14223155975876589 0 0.33466435558301949 -0.13199297951212841 0 0.34243346160057592 -0.1237296628284698 0 0.32283255050196619 -0.1263048316539207 0 0.33466435558301949 -0.13199297951212841 0 0.33243426772265522 -0.14223155975876589 0 0.34212907852848051 -0.13600463667247001 0 0.33466435558301949 -0.13199297951212841 0 0.34243346160057592 -0.1237296628284698 0 0.34212907852848051 -0.13600463667247001 0 0.33466435558301949 -0.13199297951212841 0 0.35912921923195762 -0.12444259222593911 0 0.34243346160057592 -0.1237296628284698 0 0.35194598719300768 -0.13046895819920681 0 0.35912921923195762 -0.12444259222593911 0 0.35194598719300768 -0.13046895819920681 0 0.3542813546880606 -0.13954981542923769 0 0.34243346160057592 -0.1237296628284698 0 0.34212907852848051 -0.13600463667247001 0 0.35194598719300768 -0.13046895819920681 0 0.34212907852848051 -0.13600463667247001 0 0.35194598719300768 -0.13046895819920681 0 0.34798199576084021 -0.14128727611733979 0 0.35194598719300768 -0.13046895819920681 0 0.3542813546880606 -0.13954981542923769 0 0.34798199576084021 -0.14128727611733979 0 0.33433223639602372 -0.15586243711320791 0 0.35502041203229179 -0.15222148911825351 0 0.35017351026290627 -0.15747618957099069 0 0.33433223639602372 -0.15586243711320791 0 0.34404686332428469 -0.14650411665960519 0 0.35502041203229179 -0.15222148911825351 0 0.33433223639602372 -0.15586243711320791 0 0.35502041203229179 -0.15222148911825351 0 0.3542813546880606 -0.13954981542923769 0 0.35889032887211691 -0.14802597314994431 0 0.3542813546880606 -0.13954981542923769 0 0.35889032887211691 -0.14802597314994431 0 0.35204419093551892 -0.14551773409487601 0 0.35204419093551892 -0.14551773409487601 0 0.34404686332428469 -0.14650411665960519 0 0.35502041203229179 -0.15222148911825351 0 0.34212907852848051 -0.13600463667247001 0 0.34798199576084021 -0.14128727611733979 0 0.34404686332428469 -0.14650411665960519 0 0.3542813546880606 -0.13954981542923769 0 0.35204419093551892 -0.14551773409487601 0 0.34798199576084021 -0.14128727611733979 0 0.35204419093551892 -0.14551773409487601 0 0.34798199576084021 -0.14128727611733979 0 0.34404686332428469 -0.14650411665960519 0 0.35502041203229179 -0.15222148911825351 0 0.3582143733091982 -0.15548362139718791 0 0.35017351026290627 -0.15747618957099069 0 0.35502041203229179 -0.15222148911825351 0 0.35017351026290627 -0.15747618957099069 0 0.35889032887211691 -0.14802597314994431 0 0.35204419093551892 -0.14551773409487601 0 0.35502041203229179 -0.15222148911825351 0 0.35889032887211691 -0.14802597314994431 0 0.35502041203229179 -0.15222148911825351 0 0.36063442852163391 -0.151233468596777 0 0.35502041203229179 -0.15222148911825351 0 0.36063442852163391 -0.151233468596777 0 0.35889032887211691 -0.14802597314994431 0 0.35502041203229179 -0.15222148911825351 0 0.35502041203229179 -0.15222148911825351 0 0.3582143733091982 -0.15548362139718791 0 0.36063442852163391 -0.151233468596777 0 0.36063442852163391 -0.151233468596777 0 0.38738354644061551 -0.1465258448330303 0 0.37609422236765672 -0.1576521855633547 0 0.36063442852163391 -0.151233468596777 0 0.38738354644061551 -0.1465258448330303 0 0.36063442852163391 -0.151233468596777 0 0.36988443485528411 -0.13610686761903559 0 0.38738354644061551 -0.1465258448330303 0 0.35889032887211691 -0.14802597314994431 0 0.36063442852163391 -0.151233468596777 0 0.35889032887211691 -0.14802597314994431 0 0.36063442852163391 -0.151233468596777 0 0.36988443485528411 -0.13610686761903559 0 0.3542813546880606 -0.13954981542923769 0 0.35889032887211691 -0.14802597314994431 0 0.36988443485528411 -0.13610686761903559 0 0.35889032887211691 -0.14802597314994431 0 0.36988443485528411 -0.13610686761903559 0 0.38087854083845341 -0.124187762088129 0 0.37001781658910299 -0.1196985277156337 0 0.36988443485528411 -0.13610686761903559 0 0.37001781658910299 -0.1196985277156337 0 0.35912921923195762 -0.12444259222593911 0 0.36988443485528411 -0.13610686761903559 0 0.35912921923195762 -0.12444259222593911 0 0.3542813546880606 -0.13954981542923769 0 0.36988443485528411 -0.13610686761903559 0 0.35510943109362908 -0.17947391993187059 0 0.3331899605066645 -0.19187233138530621 0 0.35510943109362908 -0.17947391993187059 0 0.34470782739642991 -0.1731298427481206 0 0.3331899605066645 -0.19187233138530621 0 0.35510943109362908 -0.17947391993187059 0 0.35164302507253931 -0.17211668545389031 0 0.35692805453760179 -0.16751321740653949 0 0.35510943109362908 -0.17947391993187059 0 0.34470782739642991 -0.1731298427481206 0 0.35510943109362908 -0.17947391993187059 0 0.35164302507253931 -0.17211668545389031 0 0.34470782739642991 -0.1731298427481206 0 0.33479379346138421 -0.17414989345136669 0 0.34887430100835948 -0.16707688767799561 0 0.35017351026290627 -0.15747618957099069 0 0.35164302507253931 -0.17211668545389031 0 0.34470782739642991 -0.1731298427481206 0 0.34887430100835948 -0.16707688767799561 0 0.34887430100835948 -0.16707688767799561 0 0.35017351026290627 -0.15747618957099069 0 0.3535475597795168 -0.16188747901317879 0 0.3582143733091982 -0.15548362139718791 0 0.35017351026290627 -0.15747618957099069 0 0.3582143733091982 -0.15548362139718791 0 0.3535475597795168 -0.16188747901317879 0 0.35692805453760179 -0.16751321740653949 0 0.3582143733091982 -0.15548362139718791 0 0.35017351026290627 -0.15747618957099069 0 0.3535475597795168 -0.16188747901317879 0 0.35164302507253931 -0.17211668545389031 0 0.34887430100835948 -0.16707688767799561 0 0.35692805453760179 -0.16751321740653949 0 0.34887430100835948 -0.16707688767799561 0 0.3535475597795168 -0.16188747901317879 0 0.35692805453760179 -0.16751321740653949 0 0.36063442852163391 -0.151233468596777 0 0.37107873687895038 -0.17044112769509151 0 0.37609422236765672 -0.1576521855633547 0 0.3582143733091982 -0.15548362139718791 0 0.35692805453760179 -0.16751321740653949 0 0.37107873687895038 -0.17044112769509151 0 0.36063442852163391 -0.151233468596777 0 0.37107873687895038 -0.17044112769509151 0 0.3582143733091982 -0.15548362139718791 0 0.36063442852163391 -0.151233468596777 0 0.37107873687895038 -0.17044112769509151 0 0.35510943109362908 -0.17947391993187059 0 0.37107873687895038 -0.17044112769509151 0 0.36828617792380358 -0.1875105940212628 0 0.37107873687895038 -0.17044112769509151 0 0.36828617792380358 -0.1875105940212628 0 0.38146292475397919 -0.19554726811065329 0 0.35510943109362908 -0.17947391993187059 0 0.35692805453760179 -0.16751321740653949 0 0.37107873687895038 -0.17044112769509151 0 0.35510943109362908 -0.17947391993187059 0 0.37107873687895038 -0.17044112769509151 0 0.35510943109362908 -0.17947391993187059 0 0.36828617792380358 -0.1875105940212628 0 0.35510943109362908 -0.17947391993187059 0 0.36828617792380358 -0.1875105940212628 0 0.35732644263032193 -0.193709799747979 0 0.35732644263032193 -0.193709799747979 0 0.38146292475397919 -0.19554726811065329 0 0.36828617792380358 -0.1875105940212628 0 0.38146292475397919 -0.19554726811065329 0 0.36828617792380358 -0.1875105940212628 0 0.35732644263032193 -0.193709799747979 0 0.38146292475397919 -0.19554726811065329 0 0.36691937182044621 -0.20207117739486549 0 0.35732644263032193 -0.193709799747979 0 0.38146292475397919 -0.19554726811065329 0 0.36691937182044621 -0.20207117739486549 0 0.3741819503777612 -0.20812184240509851 0 0.38146292475397919 -0.19554726811065329 0 0.36691937182044621 -0.20207117739486549 0 0.35732644263032193 -0.193709799747979 0 0.35905420901211221 -0.20101605012282051 0 0.36691937182044621 -0.20207117739486549 0 0.3619705221450521 -0.20466464747852939 0 0.35905420901211221 -0.20101605012282051 0 0.37125951387741568 -0.21663476918842911 0 0.36788399724133403 -0.21146472381548101 0 0.3741819503777612 -0.20812184240509851 0 0.37125951387741568 -0.21663476918842911 0 0.36788399724133403 -0.21146472381548101 0 0.36695638564413002 -0.21552020619467521 0 0.36788399724133403 -0.21146472381548101 0 0.3741819503777612 -0.20812184240509851 0 0.36614458571974762 -0.2072227303302355 0 0.36691937182044621 -0.20207117739486549 0 0.3741819503777612 -0.20812184240509851 0 0.36614458571974762 -0.2072227303302355 0 0.3619705221450521 -0.20466464747852939 0 0.36199934630687458 -0.2076735691691276 0 0.36614458571974762 -0.2072227303302355 0 0.36691937182044621 -0.20207117739486549 0 0.3619705221450521 -0.20466464747852939 0 0.36614458571974762 -0.2072227303302355 0 0.3619705221450521 -0.20466464747852939 0 0.35939127899991619 -0.20711681511487101 0 0.35759977824210643 -0.20481019637751791 0 0.3619705221450521 -0.20466464747852939 0 0.35759977824210643 -0.20481019637751791 0 0.35905420901211221 -0.20101605012282051 0 0.3619705221450521 -0.20466464747852939 0 0.36199934630687458 -0.2076735691691276 0 0.35939127899991619 -0.20711681511487101 0 0.36199934630687458 -0.2076735691691276 0 0.35939127899991619 -0.20711681511487101 0 0.36000362378914708 -0.20980129011567211 0 0.36000362378914708 -0.20980129011567211 0 0.36361459193988849 -0.21014152740092029 0 0.36176909915793048 -0.212134599760778 0 0.36199934630687458 -0.2076735691691276 0 0.36000362378914708 -0.20980129011567211 0 0.36361459193988849 -0.21014152740092029 0 0.36199934630687458 -0.2076735691691276 0 0.36361459193988849 -0.21014152740092029 0 0.36614458571974762 -0.2072227303302355 0 0.36788399724133403 -0.21146472381548101 0 0.36361459193988849 -0.21014152740092029 0 0.36614458571974762 -0.2072227303302355 0 0.37125951387741568 -0.21663476918842911 0 0.36244360758129918 -0.2165189384514902 0 0.36695638564413002 -0.21552020619467521 0 0.36788399724133403 -0.21146472381548101 0 0.36361459193988849 -0.21014152740092029 0 0.36472355443827009 -0.21300039403078661 0 0.36788399724133403 -0.21146472381548101 0 0.36472355443827009 -0.21300039403078661 0 0.36695638564413002 -0.21552020619467521 0 0.36472355443827009 -0.21300039403078661 0 0.36415871050964671 -0.21514445608549271 0 0.36695638564413002 -0.21552020619467521 0 0.36361459193988849 -0.21014152740092029 0 0.36472355443827009 -0.21300039403078661 0 0.36176909915793048 -0.212134599760778 0 0.36472355443827009 -0.21300039403078661 0 0.36176909915793048 -0.212134599760778 0 0.36244360758129918 -0.2165189384514902 0 0.36176909915793048 -0.212134599760778 0 0.36244360758129918 -0.2165189384514902 0 0.35845182294636491 -0.21183293303493311 0 0.36000362378914708 -0.20980129011567211 0 0.36176909915793048 -0.212134599760778 0 0.35845182294636491 -0.21183293303493311 0 0.36244360758129918 -0.2165189384514902 0 0.36415871050964671 -0.21514445608549271 0 0.36695638564413002 -0.21552020619467521 0 0.36472355443827009 -0.21300039403078661 0 0.36244360758129918 -0.2165189384514902 0 0.36415871050964671 -0.21514445608549271 0 0.36244360758129918 -0.2165189384514902 0 0.35231681660174707 -0.2081079073306264 0 0.34786655431206842 -0.2275815085649445 0 0.36244360758129918 -0.2165189384514902 0 0.35231681660174707 -0.2081079073306264 0 0.36244360758129918 -0.2165189384514902 0 0.35845182294636491 -0.21183293303493311 0 0.35231681660174707 -0.2081079073306264 0 0.35231681660174707 -0.2081079073306264 0 0.35671260067183291 -0.20744883828773331 0 0.35417366216930291 -0.20672102459472261 0 0.35231681660174707 -0.2081079073306264 0 0.35417366216930291 -0.20672102459472261 0 0.35845182294636491 -0.21183293303493311 0 0.35776406835735541 -0.20910345494325491 0 0.35671260067183291 -0.20744883828773331 0 0.35845182294636491 -0.21183293303493311 0 0.35231681660174707 -0.2081079073306264 0 0.35671260067183291 -0.20744883828773331 0 0.36000362378914708 -0.20980129011567211 0 0.35845182294636491 -0.21183293303493311 0 0.35776406835735541 -0.20910345494325491 0 0.35939127899991619 -0.20711681511487101 0 0.35776406835735541 -0.20910345494325491 0 0.35671260067183291 -0.20744883828773331 0 0.35939127899991619 -0.20711681511487101 0 0.36000362378914708 -0.20980129011567211 0 0.35776406835735541 -0.20910345494325491 0 0.35671260067183291 -0.20744883828773331 0 0.35759977824210643 -0.20481019637751791 0 0.35417366216930291 -0.20672102459472261 0 0.35939127899991619 -0.20711681511487101 0 0.35671260067183291 -0.20744883828773331 0 0.35759977824210643 -0.20481019637751791 0 0.35759977824210643 -0.20481019637751791 0 0.35417366216930291 -0.20672102459472261 0 0.35508472753477749 -0.20293093646028021 0 0.35417366216930291 -0.20672102459472261 0 0.35508472753477749 -0.20293093646028021 0 0.35045732976403382 -0.20242657562756999 0 0.35231681660174707 -0.2081079073306264 0 0.35417366216930291 -0.20672102459472261 0 0.35045732976403382 -0.20242657562756999 0 0.35732644263032193 -0.193709799747979 0 0.3331899605066645 -0.19187233138530621 0 0.35732644263032193 -0.193709799747979 0 0.34935389001330391 -0.19869305714922461 0 0.33876575883263049 -0.19685277538934151 0 0.35510943109362908 -0.17947391993187059 0 0.35732644263032193 -0.193709799747979 0 0.3331899605066645 -0.19187233138530621 0 0.35732644263032193 -0.193709799747979 0 0.35413865848633241 -0.19968083557876989 0 0.34935389001330391 -0.19869305714922461 0 0.35732644263032193 -0.193709799747979 0 0.35905420901211221 -0.20101605012282051 0 0.35413865848633241 -0.19968083557876989 0 0.35759977824210643 -0.20481019637751791 0 0.35905420901211221 -0.20101605012282051 0 0.35508472753477749 -0.20293093646028021 0 0.35905420901211221 -0.20101605012282051 0 0.35413865848633241 -0.19968083557876989 0 0.35508472753477749 -0.20293093646028021 0 0.35413865848633241 -0.19968083557876989 0 0.35508472753477749 -0.20293093646028021 0 0.35045732976403382 -0.20242657562756999 0 0.35231681660174707 -0.2081079073306264 0 0.35045732976403382 -0.20242657562756999 0 0.33876575883263049 -0.19685277538934151 0 0.35231681660174707 -0.2081079073306264 0 0.33876575883263049 -0.19685277538934151 0 0.34935389001330391 -0.19869305714922461 0 0.35045732976403382 -0.20242657562756999 0 0.33876575883263049 -0.19685277538934151 0 0.35413865848633241 -0.19968083557876989 0 0.34935389001330391 -0.19869305714922461 0 0.35045732976403382 -0.20242657562756999 0 0.35732644263032193 -0.193709799747979 0 0.3331899605066645 -0.19187233138530621 0 0.33876575883263049 -0.19685277538934151 0 0.32841292692175628 -0.20283178611387351 0 0.33876575883263049 -0.19685277538934151 0 0.33743824120344829 -0.20809414114473029 0 0.3331899605066645 -0.19187233138530621 0 0.32841292692175628 -0.20283178611387351 0 0.33876575883263049 -0.19685277538934151 0 0.35231681660174707 -0.2081079073306264 0 0.33743824120344829 -0.20809414114473029 0 0.33025746245765941 -0.22458409574507979 0 0.32841292692175628 -0.20283178611387351 0 0.33743824120344829 -0.20809414114473029 0 0.33025746245765941 -0.22458409574507979 0 0.35231681660174707 -0.2081079073306264 0 0.33025746245765941 -0.22458409574507979 0 0.35231681660174707 -0.2081079073306264 0 0.33876575883263049 -0.19685277538934151 0 0.33743824120344829 -0.20809414114473029 0 0.32841292692175628 -0.20283178611387351 0 0.31397832197813952 -0.21413814654667979 0 0.33025746245765941 -0.22458409574507979 0 0.32841292692175628 -0.20283178611387351 0 0.31397832197813952 -0.21413814654667979 0 0.31655881118879658 -0.20127948523824629 0 0.3331899605066645 -0.19187233138530621 0 0.31655881118879658 -0.20127948523824629 0 0.3331899605066645 -0.19187233138530621 0 0.32841292692175628 -0.20283178611387351 0 0.31655881118879658 -0.20127948523824629 0 0.3331899605066645 -0.19187233138530621 0 0.31655881118879658 -0.20127948523824629 0 0.31941407665985921 -0.1908235973317399 0 0.30375826169666981 -0.20851991920784971 0 0.31655881118879658 -0.20127948523824629 0 0.31941407665985921 -0.1908235973317399 0 0.3331899605066645 -0.19187233138530621 0 0.31941407665985921 -0.1908235973317399 0 0.30819810831357242 -0.24106028415953401 0 0.33025746245765941 -0.22458409574507979 0 0.3351638155597263 -0.25225363975510923 0 0.30819810831357242 -0.24106028415953401 0 0.33025746245765941 -0.22458409574507979 0 0.30978869405476811 -0.22558233672527031 0 0.31397832197813952 -0.21413814654667979 0 0.33025746245765941 -0.22458409574507979 0 0.30978869405476811 -0.22558233672527031 0 0.30819810831357242 -0.24106028415953401 0 0.33025746245765941 -0.22458409574507979 0 0.35231681660174707 -0.2081079073306264 0 0.33025746245765941 -0.22458409574507979 0 0.34786655431206842 -0.2275815085649445 0 0.33025746245765941 -0.22458409574507979 0 0.34786655431206842 -0.2275815085649445 0 0.3351638155597263 -0.25225363975510923 0 0.34786655431206842 -0.2275815085649445 0 0.36050810751045298 -0.24456064994487159 0 0.3351638155597263 -0.25225363975510923 0 0.36244360758129918 -0.2165189384514902 0 0.34786655431206842 -0.2275815085649445 0 0.36050810751045298 -0.24456064994487159 0 0.36244360758129918 -0.2165189384514902 0 0.38250668642347602 -0.23318277409919591 0 0.37125951387741568 -0.21663476918842911 0 0.36244360758129918 -0.2165189384514902 0 0.38250668642347602 -0.23318277409919591 0 0.36244360758129918 -0.2165189384514902 0 0.36050810751045298 -0.24456064994487159 0 0.36244360758129918 -0.2165189384514902 0 0.36050810751045298 -0.24456064994487159 0 0.38250668642347602 -0.23318277409919591 0 0.36050810751045298 -0.24456064994487159 0 0.38250668642347602 -0.23318277409919591 0 0.38102784705546822 -0.26328283175542633 0 0.40256976526565352 -0.2498466097469009 0 0.38250668642347602 -0.23318277409919591 0 0.38102784705546822 -0.26328283175542633 0 0.40256976526565352 -0.2498466097469009 0 0.38250668642347602 -0.23318277409919591 0 0.40256976526565352 -0.2498466097469009 0 0.39829105358646327 -0.2324089304759594 0 0.38250668642347602 -0.23318277409919591 0 0.40256976526565352 -0.2498466097469009 0 0.39829105358646327 -0.2324089304759594 0 0.40770832490896719 -0.23565669762810121 0 0.39829105358646327 -0.2324089304759594 0 0.39808094484594542 -0.22009967738436151 0 0.40845377222999729 -0.22406931611211389 0 0.39829105358646327 -0.2324089304759594 0 0.40770832490896719 -0.23565669762810121 0 0.40845377222999729 -0.22406931611211389 0 0.39829105358646327 -0.2324089304759594 0 0.39808094484594542 -0.22009967738436151 0 0.38961409177072448 -0.22395408305857689 0 0.39808094484594542 -0.22009967738436151 0 0.38961409177072448 -0.22395408305857689 0 0.38771114712348248 -0.21368037111784591 0 0.39829105358646327 -0.2324089304759594 0 0.38961409177072448 -0.22395408305857689 0 0.38250668642347602 -0.23318277409919591 0 0.37125951387741568 -0.21663476918842911 0 0.38250668642347602 -0.23318277409919591 0 0.38206786425535189 -0.21734173164795881 0 0.38961409177072448 -0.22395408305857689 0 0.38250668642347602 -0.23318277409919591 0 0.38206786425535189 -0.21734173164795881 0 0.37125951387741568 -0.21663476918842911 0 0.3741819503777612 -0.20812184240509851 0 0.38206786425535189 -0.21734173164795881 0 0.3741819503777612 -0.20812184240509851 0 0.38206786425535189 -0.21734173164795881 0 0.38273471414903348 -0.20694887674770171 0 0.3741819503777612 -0.20812184240509851 0 0.38273471414903348 -0.20694887674770171 0 0.38146292475397919 -0.19554726811065329 0 0.38273471414903348 -0.20694887674770171 0 0.38771114712348248 -0.21368037111784591 0 0.38635173928690641 -0.19852902146684859 0 0.38206786425535189 -0.21734173164795881 0 0.38273471414903348 -0.20694887674770171 0 0.38771114712348248 -0.21368037111784591 0 0.38961409177072448 -0.22395408305857689 0 0.38206786425535189 -0.21734173164795881 0 0.38771114712348248 -0.21368037111784591 0 0.38909321908174271 -0.1961281491335512 0 0.38635173928690641 -0.19852902146684859 0 0.39498539047849429 -0.19682113384208541 0 0.38273471414903348 -0.20694887674770171 0 0.38146292475397919 -0.19554726811065329 0 0.38635173928690641 -0.19852902146684859 0 0.38909321908174271 -0.1961281491335512 0 0.38487148708422508 -0.19580675602657829 0 0.38635173928690641 -0.19852902146684859 0 0.38909321908174271 -0.1961281491335512 0 0.38487148708422508 -0.19580675602657829 0 0.38146292475397919 -0.19554726811065329 0 0.38635173928690641 -0.19852902146684859 0 0.38487148708422508 -0.19580675602657829 0 0.38635173928690641 -0.19852902146684859 0 0.38146292475397919 -0.19554726811065329 0 0.38487148708422508 -0.19580675602657829 0 0.38635173928690641 -0.19852902146684859 0 0.38146292475397919 -0.19554726811065329 0 0.38487148708422508 -0.19580675602657829 0 0.38909321908174271 -0.1961281491335512 0 0.39444438500833279 -0.18952052640579559 0 0.38788501593538649 -0.18411032010186101 0 0.38909321908174271 -0.1961281491335512 0 0.38487148708422508 -0.19580675602657829 0 0.38788501593538649 -0.18411032010186101 0 0.38635173928690641 -0.19852902146684859 0 0.39498539047849429 -0.19682113384208541 0 0.40235803575756002 -0.20829147571832049 0 0.39498539047849429 -0.19682113384208541 0 0.40267957325792958 -0.19163649648591069 0 0.40235803575756002 -0.20829147571832049 0 0.39444438500833279 -0.18952052640579559 0 0.39498539047849429 -0.19682113384208541 0 0.40267957325792958 -0.19163649648591069 0 0.38909321908174271 -0.1961281491335512 0 0.39444438500833279 -0.18952052640579559 0 0.39498539047849429 -0.19682113384208541 0 0.38635173928690641 -0.19852902146684859 0 0.40235803575756002 -0.20829147571832049 0 0.40235803575756002 -0.20829147571832049 0 0.39745897484537268 -0.21055159891657119 0 0.40845377222999729 -0.22406931611211389 0 0.39808094484594542 -0.22009967738436151 0 0.38635173928690641 -0.19852902146684859 0 0.39808094484594542 -0.22009967738436151 0 0.38771114712348248 -0.21368037111784591 0 0.38635173928690641 -0.19852902146684859 0 0.38635173928690641 -0.19852902146684859 0 0.40235803575756002 -0.20829147571832049 0 0.39745897484537268 -0.21055159891657119 0 0.39808094484594542 -0.22009967738436151 0 0.38635173928690641 -0.19852902146684859 0 0.39745897484537268 -0.21055159891657119 0 0.39808094484594542 -0.22009967738436151 0 0.39745897484537268 -0.21055159891657119 0 0.40845377222999729 -0.22406931611211389 0 0.39745897484537268 -0.21055159891657119 0 0.40845377222999729 -0.22406931611211389 0 0.40235803575756002 -0.20829147571832049 0 0.4183643322282139 -0.218053929969792 0 0.40845377222999729 -0.22406931611211389 0 0.40235803575756002 -0.20829147571832049 0 0.4183643322282139 -0.218053929969792 0 0.41695377627200819 -0.19264202700295521 0 0.4183643322282139 -0.218053929969792 0 0.41695377627200819 -0.19264202700295521 0 0.40235803575756002 -0.20829147571832049 0 0.4183643322282139 -0.218053929969792 0 0.40267957325792958 -0.19163649648591069 0 0.40235803575756002 -0.20829147571832049 0 0.41695377627200819 -0.19264202700295521 0 0.41695377627200819 -0.19264202700295521 0 0.43704203958206522 -0.18929505334170851 0 0.43279487732576177 -0.2057177680927412 0 0.4183643322282139 -0.218053929969792 0 0.43279487732576177 -0.2057177680927412 0 0.43607517374462013 -0.21853931032809351 0 0.4183643322282139 -0.218053929969792 0 0.41695377627200819 -0.19264202700295521 0 0.43279487732576177 -0.2057177680927412 0 0.4183643322282139 -0.218053929969792 0 0.43607517374462013 -0.21853931032809351 0 0.43930040029095663 -0.2308231178355141 0 0.4183643322282139 -0.218053929969792 0 0.43930040029095663 -0.2308231178355141 0 0.4183643322282139 -0.218053929969792 0 0.41944856961462201 -0.2375870333076566 0 0.43930040029095663 -0.2308231178355141 0 0.41944856961462201 -0.2375870333076566 0 0.435558855691697 -0.25739406417061123 0 0.41944856961462201 -0.2375870333076566 0 0.4447729432568156 -0.24569528213603811 0 0.435558855691697 -0.25739406417061123 0 0.41944856961462201 -0.2375870333076566 0 0.4447729432568156 -0.24569528213603811 0 0.43930040029095663 -0.2308231178355141 0 0.40256976526565352 -0.2498466097469009 0 0.41944856961462201 -0.2375870333076566 0 0.42079356725079659 -0.2618178688663006 0 0.41944856961462201 -0.2375870333076566 0 0.42079356725079659 -0.2618178688663006 0 0.40256976526565352 -0.2498466097469009 0 0.41944856961462201 -0.2375870333076566 0 0.40770832490896719 -0.23565669762810121 0 0.4183643322282139 -0.218053929969792 0 0.41944856961462201 -0.2375870333076566 0 0.40845377222999729 -0.22406931611211389 0 0.4183643322282139 -0.218053929969792 0 0.41944856961462201 -0.2375870333076566 0 0.41944856961462201 -0.2375870333076566 0 0.40845377222999729 -0.22406931611211389 0 0.41944856961462201 -0.2375870333076566 0 0.40770832490896719 -0.23565669762810121 0 0.40845377222999729 -0.22406931611211389 0 0.39825185075687791 -0.13055214771997639 0 0.38738354644061551 -0.1465258448330303 0 0.41413266435959678 -0.1418182210692816 0 0.38087854083845341 -0.124187762088129 0 0.39825185075687791 -0.13055214771997639 0 0.38738354644061551 -0.1465258448330303 0 0.38087854083845341 -0.124187762088129 0 0.36988443485528411 -0.13610686761903559 0 0.38738354644061551 -0.1465258448330303 0 0.38087854083845341 -0.124187762088129 0 0.36988443485528411 -0.13610686761903559 0 0.38738354644061551 -0.1465258448330303 0 0.3852801776294264 -0.16240830112852039 0 0.37609422236765672 -0.1576521855633547 0 0.38738354644061551 -0.1465258448330303 0 0.39948161837990392 -0.154375474561952 0 0.41413266435959678 -0.1418182210692816 0 0.38738354644061551 -0.1465258448330303 0 0.41413266435959678 -0.1418182210692816 0 0.38738354644061551 -0.1465258448330303 0 0.39948161837990392 -0.154375474561952 0 0.3852801776294264 -0.16240830112852039 0 0.39673279226299157 -0.16608571366729361 0 0.39830994034517547 -0.17801040858381609 0 0.41554322031580232 -0.1672301240361185 0 0.39948161837990392 -0.154375474561952 0 0.39673279226299157 -0.16608571366729361 0 0.41554322031580232 -0.1672301240361185 0 0.39948161837990392 -0.154375474561952 0 0.3852801776294264 -0.16240830112852039 0 0.39948161837990392 -0.154375474561952 0 0.39673279226299157 -0.16608571366729361 0 0.3852801776294264 -0.16240830112852039 0 0.37107873687895038 -0.17044112769509151 0 0.3852801776294264 -0.16240830112852039 0 0.38785733261038602 -0.17221117423531651 0 0.37107873687895038 -0.17044112769509151 0 0.3852801776294264 -0.16240830112852039 0 0.37609422236765672 -0.1576521855633547 0 0.37107873687895038 -0.17044112769509151 0 0.3852801776294264 -0.16240830112852039 0 0.39673279226299157 -0.16608571366729361 0 0.3852801776294264 -0.16240830112852039 0 0.38785733261038602 -0.17221117423531651 0 0.37107873687895038 -0.17044112769509151 0 0.38487148708422508 -0.19580675602657829 0 0.37107873687895038 -0.17044112769509151 0 0.38785733261038602 -0.17221117423531651 0 0.38788501593538649 -0.18411032010186101 0 0.37107873687895038 -0.17044112769509151 0 0.38146292475397919 -0.19554726811065329 0 0.38487148708422508 -0.19580675602657829 0 0.37107873687895038 -0.17044112769509151 0 0.38487148708422508 -0.19580675602657829 0 0.38788501593538649 -0.18411032010186101 0 0.40267957325792958 -0.19163649648591069 0 0.41695377627200819 -0.19264202700295521 0 0.39830994034517547 -0.17801040858381609 0 0.39444438500833279 -0.18952052640579559 0 0.38788501593538649 -0.18411032010186101 0 0.39830994034517547 -0.17801040858381609 0 0.38785733261038602 -0.17221117423531651 0 0.38788501593538649 -0.18411032010186101 0 0.39830994034517547 -0.17801040858381609 0 0.39673279226299157 -0.16608571366729361 0 0.38785733261038602 -0.17221117423531651 0 0.39830994034517547 -0.17801040858381609 0 0.39444438500833279 -0.18952052640579559 0 0.40267957325792958 -0.19163649648591069 0 0.39830994034517547 -0.17801040858381609 0 0.41695377627200819 -0.19264202700295521 0 0.41554322031580232 -0.1672301240361185 0 0.41695377627200819 -0.19264202700295521 0 0.39830994034517547 -0.17801040858381609 0 0.41554322031580232 -0.1672301240361185 0 0.41695377627200819 -0.19264202700295521 0 0.41923218635979831 -0.1745797663961253 0 0.41554322031580232 -0.1672301240361185 0 0.41695377627200819 -0.19264202700295521 0 0.43704203958206522 -0.18929505334170851 0 0.43003699926510741 -0.1788382532975738 0 0.43704203958206522 -0.18929505334170851 0 0.43003699926510741 -0.1788382532975738 0 0.44481554871242912 -0.17082437160293121 0 0.41695377627200819 -0.19264202700295521 0 0.41923218635979831 -0.1745797663961253 0 0.43003699926510741 -0.1788382532975738 0 0.43003699926510741 -0.1788382532975738 0 0.43214144539923621 -0.1668500481441488 0 0.44481554871242912 -0.17082437160293121 0 0.41923218635979831 -0.1745797663961253 0 0.43003699926510741 -0.1788382532975738 0 0.43214144539923621 -0.1668500481441488 0 0.41923218635979831 -0.1745797663961253 0 0.43214144539923621 -0.1668500481441488 0 0.42705005459648521 -0.1535380796086008 0 0.41923218635979831 -0.1745797663961253 0 0.42705005459648521 -0.1535380796086008 0 0.43214144539923621 -0.1668500481441488 0 0.42705005459648521 -0.1535380796086008 0 0.43923015431336088 -0.1567927231723916 0 0.41923218635979831 -0.1745797663961253 0 0.41554322031580232 -0.1672301240361185 0 0.42705005459648521 -0.1535380796086008 0 0.41554322031580232 -0.1672301240361185 0 0.41413266435959678 -0.1418182210692816 0 0.42705005459648521 -0.1535380796086008 0 0.39948161837990392 -0.154375474561952 0 0.41554322031580232 -0.1672301240361185 0 0.41413266435959678 -0.1418182210692816 0 0.41554322031580232 -0.1672301240361185 0 0.41413266435959678 -0.1418182210692816 0 0.41413266435959678 -0.1418182210692816 0 0.41623683180508958 -0.14144790498262369 0 0.42705005459648521 -0.1535380796086008 0 0.41413266435959678 -0.1418182210692816 0 0.41623683180508958 -0.14144790498262369 0 0.41623683180508958 -0.14144790498262369 0 0.42705005459648521 -0.1535380796086008 0 0.43486792283317199 -0.13249639282107631 0 0.42705005459648521 -0.1535380796086008 0 0.43486792283317199 -0.13249639282107631 0 0.43923015431336088 -0.1567927231723916 0 0.42705005459648521 -0.1535380796086008 0 0.43486792283317199 -0.13249639282107631 0 0.41623683180508958 -0.14144790498262369 0 0.43486792283317199 -0.13249639282107631 0 0.42136950622391078 -0.13034940820212931 0 0.42878551679754828 -0.1177318485792843 0 0.43486792283317199 -0.13249639282107631 0 0.42136950622391078 -0.13034940820212931 0 0.41282459532414723 -0.1182526735583805 0 0.41413266435959678 -0.1418182210692816 0 0.41282459532414723 -0.1182526735583805 0 0.41413266435959678 -0.1418182210692816 0 0.42136950622391078 -0.13034940820212931 0 0.41282459532414723 -0.1182526735583805 0 0.39825185075687791 -0.13055214771997639 0 0.41413266435959678 -0.1418182210692816 0 0.41413266435959678 -0.1418182210692816 0 0.41623683180508958 -0.14144790498262369 0 0.42136950622391078 -0.13034940820212931 0 0.45980496495355633 -0.1284767728883684 0 0.45200463610357811 -0.14741171401615549 0 0.47692413883725421 -0.145498839743185 0 0.45980496495355633 -0.1284767728883684 0 0.47692413883725421 -0.145498839743185 0 0.43486792283317199 -0.13249639282107631 0 0.44734082874004122 -0.129959896439788 0 0.45200463610357811 -0.14741171401615549 0 0.45980496495355633 -0.1284767728883684 0 0.44734082874004122 -0.129959896439788 0 0.45200463610357811 -0.14741171401615549 0 0.43486792283317199 -0.13249639282107631 0 0.45200463610357811 -0.14741171401615549 0 0.43923015431336088 -0.1567927231723916 0 0.45200463610357811 -0.14741171401615549 0 0.4638561312800894 -0.16886452194443161 0 0.47692413883725421 -0.145498839743185 0 0.45200463610357811 -0.14741171401615549 0 0.4638561312800894 -0.16886452194443161 0 0.44481554871242912 -0.17082437160293121 0 0.45200463610357811 -0.14741171401615549 0 0.43923015431336088 -0.1567927231723916 0 0.44481554871242912 -0.17082437160293121 0 0.43214144539923621 -0.1668500481441488 0 0.43923015431336088 -0.1567927231723916 0 0.44481554871242912 -0.17082437160293121 0 0.43704203958206522 -0.18929505334170851 0 0.44481554871242912 -0.17082437160293121 0 0.45371051824628539 -0.18718750716105281 0 0.4638561312800894 -0.16886452194443161 0 0.44481554871242912 -0.17082437160293121 0 0.45371051824628539 -0.18718750716105281 0 0.4638561312800894 -0.16886452194443161 0 0.45371051824628539 -0.18718750716105281 0 0.47032925359483818 -0.18748778576867611 0 0.4638561312800894 -0.16886452194443161 0 0.48286360883579432 -0.1756546004911041 0 0.47032925359483818 -0.18748778576867611 0 0.48286360883579432 -0.1756546004911041 0 0.5 -0.16347208568963681 0 0.5 -0.1887778049314012 0 0.48286360883579432 -0.1756546004911041 0 0.5 -0.16347208568963681 0 0.47692413883725421 -0.145498839743185 0 0.4638561312800894 -0.16886452194443161 0 0.48286360883579432 -0.1756546004911041 0 0.47692413883725421 -0.145498839743185 0 0.5 -0.16347208568963681 0 0.47692413883725421 -0.145498839743185 0 0.5 -0.13816636644787239 0 0.47692413883725421 -0.145498839743185 0 0.5 -0.13816636644787239 0 0.48346214595958159 -0.1260974568606231 0 0.49999999999999661 -0.11286064720610819 0 0.5 -0.13816636644787239 0 0.48346214595958159 -0.1260974568606231 0 0.45980496495355633 -0.1284767728883684 0 0.47692413883725421 -0.145498839743185 0 0.48346214595958159 -0.1260974568606231 0 0.45802438751333607 -0.22265639783362609 0 0.47239893650413589 -0.2172390185249094 0 0.47332897442072802 -0.2339116105146814 0 0.45802438751333607 -0.22265639783362609 0 0.46127645925697641 -0.23488815980518291 0 0.44845761535298823 -0.23162934683298869 0 0.45802438751333607 -0.22265639783362609 0 0.46127645925697641 -0.23488815980518291 0 0.47332897442072802 -0.2339116105146814 0 0.46127645925697641 -0.23488815980518291 0 0.44845761535298823 -0.23162934683298869 0 0.46529485974085311 -0.25135528403943519 0 0.44845761535298823 -0.23162934683298869 0 0.46529485974085311 -0.25135528403943519 0 0.46127645925697641 -0.23488815980518291 0 0.47332897442072802 -0.2339116105146814 0 0.46529485974085311 -0.25135528403943519 0 0.4447729432568156 -0.24569528213603811 0 0.44845761535298823 -0.23162934683298869 0 0.46529485974085311 -0.25135528403943519 0 0.4447729432568156 -0.24569528213603811 0 0.43930040029095663 -0.2308231178355141 0 0.44845761535298823 -0.23162934683298869 0 0.43930040029095663 -0.2308231178355141 0 0.44845761535298823 -0.23162934683298869 0 0.44546122736839361 -0.22344201564130939 0 0.45802438751333607 -0.22265639783362609 0 0.44546122736839361 -0.22344201564130939 0 0.44544855994006688 -0.2135619053763245 0 0.45802438751333607 -0.22265639783362609 0 0.44845761535298823 -0.23162934683298869 0 0.44546122736839361 -0.22344201564130939 0 0.43607517374462013 -0.21853931032809351 0 0.43930040029095663 -0.2308231178355141 0 0.44546122736839361 -0.22344201564130939 0 0.43279487732576177 -0.2057177680927412 0 0.43607517374462013 -0.21853931032809351 0 0.44544855994006688 -0.2135619053763245 0 0.43607517374462013 -0.21853931032809351 0 0.44546122736839361 -0.22344201564130939 0 0.44544855994006688 -0.2135619053763245 0 0.43279487732576177 -0.2057177680927412 0 0.44544855994006688 -0.2135619053763245 0 0.44591191418436121 -0.20088144888889631 0 0.44544855994006688 -0.2135619053763245 0 0.44591191418436121 -0.20088144888889631 0 0.46030822212392969 -0.20577186141967341 0 0.43704203958206522 -0.18929505334170851 0 0.45371051824628539 -0.18718750716105281 0 0.44591191418436121 -0.20088144888889631 0 0.43704203958206522 -0.18929505334170851 0 0.43279487732576177 -0.2057177680927412 0 0.44591191418436121 -0.20088144888889631 0 0.45371051824628539 -0.18718750716105281 0 0.47032925359483818 -0.18748778576867611 0 0.46030822212392969 -0.20577186141967341 0 0.45371051824628539 -0.18718750716105281 0 0.44591191418436121 -0.20088144888889631 0 0.46030822212392969 -0.20577186141967341 0 0.45802438751333607 -0.22265639783362609 0 0.46030822212392969 -0.20577186141967341 0 0.47239893650413589 -0.2172390185249094 0 0.45802438751333607 -0.22265639783362609 0 0.44544855994006688 -0.2135619053763245 0 0.46030822212392969 -0.20577186141967341 0 0.46030822212392969 -0.20577186141967341 0 0.47239893650413589 -0.2172390185249094 0 0.48181552453209381 -0.20180966924818039 0 0.47239893650413589 -0.2172390185249094 0 0.48181552453209381 -0.20180966924818039 0 0.48563684608546659 -0.2217893649575183 0 0.48286360883579432 -0.1756546004911041 0 0.47032925359483818 -0.18748778576867611 0 0.48181552453209381 -0.20180966924818039 0 0.47032925359483818 -0.18748778576867611 0 0.46030822212392969 -0.20577186141967341 0 0.48181552453209381 -0.20180966924818039 0 0.48286360883579432 -0.1756546004911041 0 0.48181552453209381 -0.20180966924818039 0 0.5 -0.1887778049314012 0 0.48181552453209381 -0.20180966924818039 0 0.5 -0.1887778049314012 0 0.5 -0.2140835241731657 0 0.48181552453209381 -0.20180966924818039 0 0.5 -0.2140835241731657 0 0.48563684608546659 -0.2217893649575183 0 0.5 -0.2140835241731657 0 0.48563684608546659 -0.2217893649575183 0 0.5 -0.23938924341493009 0 0.48563684608546659 -0.2217893649575183 0 0.47332897442072802 -0.2339116105146814 0 0.5 -0.23938924341493009 0 0.47239893650413589 -0.2172390185249094 0 0.48563684608546659 -0.2217893649575183 0 0.47332897442072802 -0.2339116105146814 0 0.47332897442072802 -0.2339116105146814 0 0.48450869228969101 -0.25207378970617839 0 0.46529485974085311 -0.25135528403943519 0 0.47332897442072802 -0.2339116105146814 0 0.5 -0.23938924341493009 0 0.48450869228969101 -0.25207378970617839 0 0.50000000000000089 -0.26469496265669462 0 0.48450869228969101 -0.25207378970617839 0 0.48213210412871799 -0.27108122124588152 0 0.5 -0.23938924341493009 0 0.50000000000000089 -0.26469496265669462 0 0.48450869228969101 -0.25207378970617839 0 0.50000000000000089 -0.26469496265669462 0 0.48213210412871799 -0.27108122124588152 0 0.49999999999999928 -0.29201463432992741 0 0.50000000000000089 -0.26469496265669462 0 0.48213210412871799 -0.27108122124588152 0 0.48213210412871799 -0.27108122124588152 0 0.45754605404238552 -0.2798686506482625 0 0.47843044578984328 -0.28793556551980171 0 0.48213210412871799 -0.27108122124588152 0 0.45754605404238552 -0.2798686506482625 0 0.48213210412871799 -0.27108122124588152 0 0.46529485974085311 -0.25135528403943519 0 0.48450869228969101 -0.25207378970617839 0 0.48213210412871799 -0.27108122124588152 0 0.46529485974085311 -0.25135528403943519 0 0.48213210412871799 -0.27108122124588152 0 0.46529485974085311 -0.25135528403943519 0 0.46057735884977691 -0.26538284663002282 0 0.4447729432568156 -0.24569528213603811 0 0.46529485974085311 -0.25135528403943519 0 0.46057735884977691 -0.26538284663002282 0 0.48213210412871799 -0.27108122124588152 0 0.46057735884977691 -0.26538284663002282 0 0.45754605404238552 -0.2798686506482625 0 0.46057735884977691 -0.26538284663002282 0 0.45754605404238552 -0.2798686506482625 0 0.45166914176877221 -0.27720109503356583 0 0.45166914176877221 -0.27720109503356583 0 0.43762205898824891 -0.27210767179964013 0 0.435558855691697 -0.25739406417061123 0 0.46057735884977691 -0.26538284663002282 0 0.45166914176877221 -0.27720109503356583 0 0.435558855691697 -0.25739406417061123 0 0.45166914176877221 -0.27720109503356583 0 0.435558855691697 -0.25739406417061123 0 0.44928132954932742 -0.28084743796089279 0 0.45166914176877221 -0.27720109503356583 0 0.44255159524851723 -0.2788499744444527 0 0.44255159524851723 -0.2788499744444527 0 0.43762205898824891 -0.27210767179964013 0 0.43599660736935453 -0.28494400474602949 0 0.45166914176877221 -0.27720109503356583 0 0.44255159524851723 -0.2788499744444527 0 0.43762205898824891 -0.27210767179964013 0 0.4447729432568156 -0.24569528213603811 0 0.46057735884977691 -0.26538284663002282 0 0.435558855691697 -0.25739406417061123 0 0.45101545073011062 -0.30979961617029111 0 0.43804760157825978 -0.30180124505444089 0 0.4526439872431185 -0.2965396558918969 0 0.45101545073011062 -0.30979961617029111 0 0.43804760157825978 -0.30180124505444089 0 0.43965554177997029 -0.31433787880657349 0 0.44928132954932742 -0.28084743796089279 0 0.43804760157825978 -0.30180124505444089 0 0.44928132954932742 -0.28084743796089279 0 0.43804760157825978 -0.30180124505444089 0 0.4526439872431185 -0.2965396558918969 0 0.44928132954932742 -0.28084743796089279 0 0.43804760157825978 -0.30180124505444089 0 0.43599660736935453 -0.28494400474602949 0 0.44928132954932742 -0.28084743796089279 0 0.44255159524851723 -0.2788499744444527 0 0.43599660736935453 -0.28494400474602949 0 0.45166914176877221 -0.27720109503356583 0 0.46777942784584742 -0.29700812589652048 0 0.45754605404238552 -0.2798686506482625 0 0.45166914176877221 -0.27720109503356583 0 0.46777942784584742 -0.29700812589652048 0 0.44928132954932742 -0.28084743796089279 0 0.4526439872431185 -0.2965396558918969 0 0.46777942784584742 -0.29700812589652048 0 0.44928132954932742 -0.28084743796089279 0 0.45166914176877221 -0.27720109503356583 0 0.46777942784584742 -0.29700812589652048 0 0.45754605404238552 -0.2798686506482625 0 0.46777942784584742 -0.29700812589652048 0 0.47843044578984328 -0.28793556551980171 0 0.46834865367009793 -0.30403334540053623 0 0.46777942784584742 -0.29700812589652048 0 0.46046532586915823 -0.30278433811952199 0 0.4526439872431185 -0.2965396558918969 0 0.46777942784584742 -0.29700812589652048 0 0.46046532586915823 -0.30278433811952199 0 0.45101545073011062 -0.30979961617029111 0 0.4526439872431185 -0.2965396558918969 0 0.46046532586915823 -0.30278433811952199 0 0.45101545073011062 -0.30979961617029111 0 0.46046532586915823 -0.30278433811952199 0 0.46128273695043609 -0.30993856333490483 0 0.46834865367009793 -0.30403334540053623 0 0.46128273695043609 -0.30993856333490483 0 0.46817755581930248 -0.31403613727384622 0 0.46834865367009793 -0.30403334540053623 0 0.46046532586915823 -0.30278433811952199 0 0.46128273695043609 -0.30993856333490483 0 0.46834865367009793 -0.30403334540053623 0 0.46777942784584742 -0.29700812589652048 0 0.48388971392292263 -0.31681515675947508 0 0.46777942784584742 -0.29700812589652048 0 0.48388971392292263 -0.31681515675947508 0 0.46777942784584742 -0.29700812589652048 0 0.48517761471778259 -0.30040241968321357 0 0.48388971392292263 -0.31681515675947508 0 0.46777942784584742 -0.29700812589652048 0 0.47843044578984328 -0.28793556551980171 0 0.48517761471778259 -0.30040241968321357 0 0.48213210412871799 -0.27108122124588152 0 0.49999999999999928 -0.29201463432992741 0 0.48213210412871799 -0.27108122124588152 0 0.47843044578984328 -0.28793556551980171 0 0.49999999999999928 -0.29201463432992741 0 0.47843044578984328 -0.28793556551980171 0 0.49999999999999928 -0.29201463432992741 0 0.48517761471778259 -0.30040241968321357 0 0.48517761471778259 -0.30040241968321357 0 0.5 -0.31431841097617819 0 0.48388971392292263 -0.31681515675947508 0 0.49999999999999928 -0.29201463432992741 0 0.48517761471778259 -0.30040241968321357 0 0.5 -0.31431841097617819 0 0.49999999999999861 -0.33662218762242901 0 0.48388971392292263 -0.31681515675947508 0 0.49999999999999861 -0.33662218762242901 0 0.48388971392292263 -0.31681515675947508 0 0.4841743268350488 -0.32772614909785291 0 0.5 -0.31431841097617819 0 0.49999999999999861 -0.33662218762242901 0 0.48388971392292263 -0.31681515675947508 0 0.4841743268350488 -0.32772614909785291 0 0.49999999999999978 -0.35141895279516971 0 0.48589041106536163 -0.34092749571105613 0 0.4841743268350488 -0.32772614909785291 0 0.49999999999999978 -0.35141895279516971 0 0.49999999999999861 -0.33662218762242901 0 0.4841743268350488 -0.32772614909785291 0 0.49999999999999978 -0.35141895279516971 0 0.48589041106536163 -0.34092749571105613 0 0.47795827307006572 -0.33411653922117179 0 0.4841743268350488 -0.32772614909785291 0 0.48589041106536163 -0.34092749571105613 0 0.47795827307006572 -0.33411653922117179 0 0.47743291059604509 -0.34194949892511761 0 0.47795827307006572 -0.33411653922117179 0 0.47743291059604509 -0.34194949892511761 0 0.46869894841096399 -0.3355456310626897 0 0.47743291059604509 -0.34194949892511761 0 0.47002676322760711 -0.34612938753090838 0 0.46869894841096399 -0.3355456310626897 0 0.47795827307006572 -0.33411653922117179 0 0.47204400893823389 -0.32826410324460881 0 0.46869894841096399 -0.3355456310626897 0 0.46834865367009793 -0.30403334540053623 0 0.4841743268350488 -0.32772614909785291 0 0.46834865367009793 -0.30403334540053623 0 0.47332252219066973 -0.32165290548431219 0 0.46817755581930248 -0.31403613727384622 0 0.46834865367009793 -0.30403334540053623 0 0.47332252219066973 -0.32165290548431219 0 0.4841743268350488 -0.32772614909785291 0 0.46834865367009793 -0.30403334540053623 0 0.48388971392292263 -0.31681515675947508 0 0.4841743268350488 -0.32772614909785291 0 0.47795827307006572 -0.33411653922117179 0 0.47204400893823389 -0.32826410324460881 0 0.47332252219066973 -0.32165290548431219 0 0.47204400893823389 -0.32826410324460881 0 0.47332252219066973 -0.32165290548431219 0 0.46923231481126981 -0.32174115866785791 0 0.47332252219066973 -0.32165290548431219 0 0.46923231481126981 -0.32174115866785791 0 0.46817755581930248 -0.31403613727384622 0 0.47795827307006572 -0.33411653922117179 0 0.47332252219066973 -0.32165290548431219 0 0.4841743268350488 -0.32772614909785291 0 0.49999999999999978 -0.35141895279516971 0 0.4825730755300176 -0.36810832584522668 0 0.5 -0.38005224507457919 0 0.49999999999999978 -0.35141895279516971 0 0.49134667275356109 -0.34903808687237298 0 0.4825730755300176 -0.36810832584522668 0 0.48589041106536163 -0.34092749571105613 0 0.49999999999999978 -0.35141895279516971 0 0.49134667275356109 -0.34903808687237298 0 0.48589041106536163 -0.34092749571105613 0 0.47743291059604509 -0.34194949892511761 0 0.49134667275356109 -0.34903808687237298 0 0.49134667275356109 -0.34903808687237298 0 0.46234658772405968 -0.35424628002661013 0 0.49134667275356109 -0.34903808687237298 0 0.47190516035913682 -0.36233555814878748 0 0.46234658772405968 -0.35424628002661013 0 0.49134667275356109 -0.34903808687237298 0 0.47002676322760711 -0.34612938753090838 0 0.46234658772405968 -0.35424628002661013 0 0.47743291059604509 -0.34194949892511761 0 0.49134667275356109 -0.34903808687237298 0 0.47002676322760711 -0.34612938753090838 0 0.4825730755300176 -0.36810832584522668 0 0.47190516035913682 -0.36233555814878748 0 0.46680554537209201 -0.37381767462463489 0 0.49134667275356109 -0.34903808687237298 0 0.4825730755300176 -0.36810832584522668 0 0.47190516035913682 -0.36233555814878748 0 0.46680554537209201 -0.37381767462463489 0 0.45794094878538938 -0.36517314279534241 0 0.45497478341173497 -0.38120126314447061 0 0.47190516035913682 -0.36233555814878748 0 0.45794094878538938 -0.36517314279534241 0 0.46234658772405968 -0.35424628002661013 0 0.47190516035913682 -0.36233555814878748 0 0.46680554537209201 -0.37381767462463489 0 0.45794094878538938 -0.36517314279534241 0 0.45794094878538938 -0.36517314279534241 0 0.46234658772405968 -0.35424628002661013 0 0.44713553874993411 -0.36455777425600489 0 0.47002676322760711 -0.34612938753090838 0 0.46234658772405968 -0.35424628002661013 0 0.46009364522264617 -0.3424807711847534 0 0.46234658772405968 -0.35424628002661013 0 0.45037085889147482 -0.34789629748495232 0 0.46009364522264617 -0.3424807711847534 0 0.45037085889147482 -0.34789629748495232 0 0.43918228052019931 -0.34689591175783502 0 0.43334650269455838 -0.35945447318084728 0 0.46234658772405968 -0.35424628002661013 0 0.45037085889147482 -0.34789629748495232 0 0.43334650269455838 -0.35945447318084728 0 0.46234658772405968 -0.35424628002661013 0 0.43334650269455838 -0.35945447318084728 0 0.45037085889147482 -0.34789629748495232 0 0.43918228052019931 -0.34689591175783502 0 0.44215662876344269 -0.33928618755272649 0 0.44713553874993411 -0.36455777425600489 0 0.43334650269455838 -0.35945447318084728 0 0.43859496164911471 -0.37735683622028721 0 0.46234658772405968 -0.35424628002661013 0 0.44713553874993411 -0.36455777425600489 0 0.43334650269455838 -0.35945447318084728 0 0.45794094878538938 -0.36517314279534241 0 0.43859496164911471 -0.37735683622028721 0 0.45794094878538938 -0.36517314279534241 0 0.45497478341173497 -0.38120126314447061 0 0.43859496164911471 -0.37735683622028721 0 0.45794094878538938 -0.36517314279534241 0 0.44713553874993411 -0.36455777425600489 0 0.43859496164911471 -0.37735683622028721 0 0.45615678265017301 -0.32010257485561622 0 0.45886575844788469 -0.33134072742431592 0 0.44928151293482133 -0.3291036806937645 0 0.45615678265017301 -0.32010257485561622 0 0.46447127937426558 -0.32453838990795258 0 0.45886575844788469 -0.33134072742431592 0 0.45101545073011062 -0.30979961617029111 0 0.46128273695043609 -0.30993856333490483 0 0.45615678265017301 -0.32010257485561622 0 0.46128273695043609 -0.30993856333490483 0 0.45615678265017301 -0.32010257485561622 0 0.46409543072202009 -0.31693400251435122 0 0.46128273695043609 -0.30993856333490483 0 0.46409543072202009 -0.31693400251435122 0 0.46817755581930248 -0.31403613727384622 0 0.46923231481126981 -0.32174115866785791 0 0.46409543072202009 -0.31693400251435122 0 0.46817755581930248 -0.31403613727384622 0 0.46923231481126981 -0.32174115866785791 0 0.46409543072202009 -0.31693400251435122 0 0.46447127937426558 -0.32453838990795258 0 0.45615678265017301 -0.32010257485561622 0 0.46409543072202009 -0.31693400251435122 0 0.46447127937426558 -0.32453838990795258 0 0.47204400893823389 -0.32826410324460881 0 0.46923231481126981 -0.32174115866785791 0 0.46447127937426558 -0.32453838990795258 0 0.47204400893823389 -0.32826410324460881 0 0.46447127937426558 -0.32453838990795258 0 0.46869894841096399 -0.3355456310626897 0 0.46447127937426558 -0.32453838990795258 0 0.46869894841096399 -0.3355456310626897 0 0.45886575844788469 -0.33134072742431592 0 0.47002676322760711 -0.34612938753090838 0 0.46869894841096399 -0.3355456310626897 0 0.46009364522264617 -0.3424807711847534 0 0.46869894841096399 -0.3355456310626897 0 0.46009364522264617 -0.3424807711847534 0 0.45886575844788469 -0.33134072742431592 0 0.45037085889147482 -0.34789629748495232 0 0.46009364522264617 -0.3424807711847534 0 0.45215368085205399 -0.33802153286810238 0 0.46009364522264617 -0.3424807711847534 0 0.45886575844788469 -0.33134072742431592 0 0.45215368085205399 -0.33802153286810238 0 0.45886575844788469 -0.33134072742431592 0 0.44928151293482133 -0.3291036806937645 0 0.45215368085205399 -0.33802153286810238 0 0.44928151293482133 -0.3291036806937645 0 0.45215368085205399 -0.33802153286810238 0 0.44215662876344269 -0.33928618755272649 0 0.45037085889147482 -0.34789629748495232 0 0.45215368085205399 -0.33802153286810238 0 0.44215662876344269 -0.33928618755272649 0 0.44928151293482133 -0.3291036806937645 0 0.44215662876344269 -0.33928618755272649 0 0.43550094733465722 -0.33057786247713539 0 0.44928151293482133 -0.3291036806937645 0 0.44274524120431868 -0.3229956018535729 0 0.43550094733465722 -0.33057786247713539 0 0.45615678265017301 -0.32010257485561622 0 0.44928151293482133 -0.3291036806937645 0 0.44274524120431868 -0.3229956018535729 0 0.45101545073011062 -0.30979961617029111 0 0.45615678265017301 -0.32010257485561622 0 0.44274524120431868 -0.3229956018535729 0 0.45101545073011062 -0.30979961617029111 0 0.44274524120431868 -0.3229956018535729 0 0.43965554177997029 -0.31433787880657349 0 0.43804760157825978 -0.30180124505444089 0 0.43965554177997029 -0.31433787880657349 0 0.42681387360719242 -0.32275505214798889 0 0.44274524120431868 -0.3229956018535729 0 0.42681387360719242 -0.32275505214798889 0 0.43550094733465722 -0.33057786247713539 0 0.44274524120431868 -0.3229956018535729 0 0.43965554177997029 -0.31433787880657349 0 0.42681387360719242 -0.32275505214798889 0 0.42681387360719242 -0.32275505214798889 0 0.41658767322425749 -0.32164989172801989 0 0.42348356252314567 -0.31027953998358859 0 0.42681387360719242 -0.32275505214798889 0 0.43550094733465722 -0.33057786247713539 0 0.43085513173132112 -0.34094668881281381 0 0.42681387360719242 -0.32275505214798889 0 0.43085513173132112 -0.34094668881281381 0 0.41558014563612478 -0.34370885924153688 0 0.44215662876344269 -0.33928618755272649 0 0.43550094733465722 -0.33057786247713539 0 0.43085513173132112 -0.34094668881281381 0 0.43918228052019931 -0.34689591175783502 0 0.44215662876344269 -0.33928618755272649 0 0.43085513173132112 -0.34094668881281381 0 0.42681387360719242 -0.32275505214798889 0 0.41558014563612478 -0.34370885924153688 0 0.41658767322425749 -0.32164989172801989 0 0.41558014563612478 -0.34370885924153688 0 0.41658767322425749 -0.32164989172801989 0 0.40513377476745688 -0.3235137521193131 0 0.42681387360719242 -0.32275505214798889 0 0.41558014563612478 -0.34370885924153688 0 0.41658767322425749 -0.32164989172801989 0 0.40513377476745688 -0.3235137521193131 0 0.41192700958736778 -0.30799225514767198 0 0.41658767322425749 -0.32164989172801989 0 0.42348356252314567 -0.31027953998358859 0 0.41192700958736778 -0.30799225514767198 0 0.43334650269455838 -0.35945447318084728 0 0.42064516823078429 -0.37402276863838502 0 0.43859496164911471 -0.37735683622028721 0 0.43085513173132112 -0.34094668881281381 0 0.41558014563612478 -0.34370885924153688 0 0.43334650269455838 -0.35945447318084728 0 0.43918228052019931 -0.34689591175783502 0 0.43085513173132112 -0.34094668881281381 0 0.43334650269455838 -0.35945447318084728 0 0.41558014563612478 -0.34370885924153688 0 0.40434641766505708 -0.36466266633508482 0 0.41558014563612478 -0.34370885924153688 0 0.43334650269455838 -0.35945447318084728 0 0.40434641766505708 -0.36466266633508482 0 0.43334650269455838 -0.35945447318084728 0 0.42064516823078429 -0.37402276863838502 0 0.40434641766505708 -0.36466266633508482 0 0.43334650269455838 -0.35945447318084728 0 0.40434641766505708 -0.36466266633508482 0 0.42064516823078429 -0.37402276863838502 0 0.40434641766505708 -0.36466266633508482 0 0.40768898463235109 -0.37909933781047328 0 0.40434641766505708 -0.36466266633508482 0 0.39241096112685298 -0.35213966966885829 0 0.38554025173073059 -0.36804010969695627 0 0.40434641766505708 -0.36466266633508482 0 0.38554025173073059 -0.36804010969695627 0 0.39381524537170548 -0.38430602544722869 0 0.40434641766505708 -0.36466266633508482 0 0.38554025173073059 -0.36804010969695627 0 0.40434641766505708 -0.36466266633508482 0 0.39381524537170548 -0.38430602544722869 0 0.41558014563612478 -0.34370885924153688 0 0.39241096112685298 -0.35213966966885829 0 0.39746685561584211 -0.33719429133361167 0 0.41558014563612478 -0.34370885924153688 0 0.40434641766505708 -0.36466266633508482 0 0.39241096112685298 -0.35213966966885829 0 0.39241096112685298 -0.35213966966885829 0 0.37626942297652338 -0.34475019158411091 0 0.37892694536517668 -0.35732182778380028 0 0.39241096112685298 -0.35213966966885829 0 0.37892694536517668 -0.35732182778380028 0 0.38554025173073059 -0.36804010969695627 0 0.38554025173073059 -0.36804010969695627 0 0.37872773141026811 -0.38403121354771141 0 0.36673408579640387 -0.37141755305882729 0 0.37892694536517668 -0.35732182778380028 0 0.38554025173073059 -0.36804010969695627 0 0.36673408579640387 -0.37141755305882729 0 0.38554025173073059 -0.36804010969695627 0 0.36673408579640387 -0.37141755305882729 0 0.40513377476745688 -0.3235137521193131 0 0.38918258259559879 -0.31981897289302108 0 0.39969562438033313 -0.310928779700476 0 0.40513377476745688 -0.3235137521193131 0 0.39746685561584211 -0.33719429133361167 0 0.38918258259559879 -0.31981897289302108 0 0.40513377476745688 -0.3235137521193131 0 0.39969562438033313 -0.310928779700476 0 0.41192700958736778 -0.30799225514767198 0 0.39241096112685298 -0.35213966966885829 0 0.39746685561584211 -0.33719429133361167 0 0.38508515386669517 -0.33429661236714642 0 0.41558014563612478 -0.34370885924153688 0 0.40513377476745688 -0.3235137521193131 0 0.39746685561584211 -0.33719429133361167 0 0.39241096112685298 -0.35213966966885829 0 0.37626942297652338 -0.34475019158411091 0 0.38508515386669517 -0.33429661236714642 0 0.39746685561584211 -0.33719429133361167 0 0.38508515386669517 -0.33429661236714642 0 0.38918258259559879 -0.31981897289302108 0 0.37626942297652338 -0.34475019158411091 0 0.38508515386669517 -0.33429661236714642 0 0.37219049522129399 -0.32551643064874142 0 0.38918258259559879 -0.31981897289302108 0 0.37699853060293359 -0.3032918143950174 0 0.37219049522129399 -0.32551643064874142 0 0.38508515386669517 -0.33429661236714642 0 0.38918258259559879 -0.31981897289302108 0 0.37219049522129399 -0.32551643064874142 0 0.37699853060293359 -0.3032918143950174 0 0.39144897915974619 -0.30210664700153472 0 0.39038779191352641 -0.28600476574521011 0 0.38918258259559879 -0.31981897289302108 0 0.37699853060293359 -0.3032918143950174 0 0.39144897915974619 -0.30210664700153472 0 0.38918258259559879 -0.31981897289302108 0 0.39144897915974619 -0.30210664700153472 0 0.39969562438033313 -0.310928779700476 0 0.39144897915974619 -0.30210664700153472 0 0.4039193271903524 -0.29762423452340592 0 0.39969562438033313 -0.310928779700476 0 0.4039193271903524 -0.29762423452340592 0 0.39969562438033313 -0.310928779700476 0 0.41192700958736778 -0.30799225514767198 0 0.39144897915974619 -0.30210664700153472 0 0.4039193271903524 -0.29762423452340592 0 0.39038779191352641 -0.28600476574521011 0 0.4039193271903524 -0.29762423452340592 0 0.39038779191352641 -0.28600476574521011 0 0.40720608676573938 -0.28253769829868952 0 0.37699853060293359 -0.3032918143950174 0 0.39038779191352641 -0.28600476574521011 0 0.37272477687605871 -0.28516516925310809 0 0.39038779191352641 -0.28600476574521011 0 0.38102784705546822 -0.26328283175542633 0 0.40033277848770937 -0.26919775340454871 0 0.39038779191352641 -0.28600476574521011 0 0.38102784705546822 -0.26328283175542633 0 0.37272477687605871 -0.28516516925310809 0 0.40256976526565352 -0.2498466097469009 0 0.38102784705546822 -0.26328283175542633 0 0.40033277848770937 -0.26919775340454871 0 0.39038779191352641 -0.28600476574521011 0 0.40033277848770937 -0.26919775340454871 0 0.40720608676573938 -0.28253769829868952 0 0.40033277848770937 -0.26919775340454871 0 0.42079356725079659 -0.2618178688663006 0 0.40720608676573938 -0.28253769829868952 0 0.42079356725079659 -0.2618178688663006 0 0.42213856488697121 -0.28604870442494462 0 0.40720608676573938 -0.28253769829868952 0 0.42079356725079659 -0.2618178688663006 0 0.42213856488697121 -0.28604870442494462 0 0.40256976526565352 -0.2498466097469009 0 0.40033277848770937 -0.26919775340454871 0 0.42079356725079659 -0.2618178688663006 0 0.41944856961462201 -0.2375870333076566 0 0.42079356725079659 -0.2618178688663006 0 0.435558855691697 -0.25739406417061123 0 0.43762205898824891 -0.27210767179964013 0 0.42079356725079659 -0.2618178688663006 0 0.435558855691697 -0.25739406417061123 0 0.43762205898824891 -0.27210767179964013 0 0.42079356725079659 -0.2618178688663006 0 0.42213856488697121 -0.28604870442494462 0 0.43762205898824891 -0.27210767179964013 0 0.43599660736935453 -0.28494400474602949 0 0.42213856488697121 -0.28604870442494462 0 0.43804760157825978 -0.30180124505444089 0 0.43599660736935453 -0.28494400474602949 0 0.42213856488697121 -0.28604870442494462 0 0.42213856488697121 -0.28604870442494462 0 0.42348356252314567 -0.31027953998358859 0 0.43804760157825978 -0.30180124505444089 0 0.42681387360719242 -0.32275505214798889 0 0.42348356252314567 -0.31027953998358859 0 0.43804760157825978 -0.30180124505444089 0 0.42213856488697121 -0.28604870442494462 0 0.42348356252314567 -0.31027953998358859 0 0.43804760157825978 -0.30180124505444089 0 0.42681387360719242 -0.32275505214798889 0 0.4039193271903524 -0.29762423452340592 0 0.42213856488697121 -0.28604870442494462 0 0.41192700958736778 -0.30799225514767198 0 0.42213856488697121 -0.28604870442494462 0 0.42348356252314567 -0.31027953998358859 0 0.41192700958736778 -0.30799225514767198 0 0.4039193271903524 -0.29762423452340592 0 0.42213856488697121 -0.28604870442494462 0 0.40720608676573938 -0.28253769829868952 0 0.45112731391400379 -0.50000000000000067 0 0.44383519788567211 -0.48830681216426369 0 0.46050512677007188 -0.48238038531332911 0 0.45112731391400379 -0.50000000000000067 0 0.44383519788567211 -0.48830681216426369 0 0.43173720264974408 -0.48994512322017941 0 0.44383519788567211 -0.48830681216426369 0 0.44886573766341392 -0.46905620858625552 0 0.46050512677007188 -0.48238038531332911 0 0.44383519788567211 -0.48830681216426369 0 0.44886573766341392 -0.46905620858625552 0 0.44383519788567211 -0.48830681216426369 0 0.44886573766341392 -0.46905620858625552 0 0.42971985842364341 -0.47682500417429619 0 0.44886573766341392 -0.46905620858625552 0 0.42971985842364341 -0.47682500417429619 0 0.44886573766341392 -0.46905620858625552 0 0.46050512677007188 -0.48238038531332911 0 0.4646727537085954 -0.46264221866320399 0 0.46050512677007188 -0.48238038531332911 0 0.47192526898962578 -0.47448262667593138 0 0.4646727537085954 -0.46264221866320399 0 0.45112731391400379 -0.50000000000000067 0 0.46050512677007188 -0.48238038531332911 0 0.47556365695700281 -0.49166745874039519 0 0.45112731391400379 -0.50000000000000067 0 0.47556365695700281 -0.49166745874039519 0 0.45112731391400379 -0.50000000000000067 0 0.47556365695700281 -0.49166745874039519 0 0.5 -0.5 0 0.47556365695700281 -0.49166745874039519 0 0.5 -0.5 0 0.50000000000000133 -0.48333491748078872 0 0.47556365695700281 -0.49166745874039519 0 0.50000000000000133 -0.48333491748078872 0 0.47556365695700281 -0.49166745874039519 0 0.50000000000000133 -0.48333491748078872 0 0.48559373914008069 -0.47368628638849353 0 0.50000000000000133 -0.48333491748078872 0 0.48559373914008069 -0.47368628638849353 0 0.49999999999999711 -0.46271820030519972 0 0.47556365695700281 -0.49166745874039519 0 0.48559373914008069 -0.47368628638849353 0 0.47192526898962578 -0.47448262667593138 0 0.46050512677007188 -0.48238038531332911 0 0.47556365695700281 -0.49166745874039519 0 0.47192526898962578 -0.47448262667593138 0 0.48047976975377688 -0.45622822874015218 0 0.4646727537085954 -0.46264221866320399 0 0.47192526898962578 -0.47448262667593138 0 0.48047976975377688 -0.45622822874015218 0 0.4646727537085954 -0.46264221866320399 0 0.48559373914008069 -0.47368628638849353 0 0.47192526898962578 -0.47448262667593138 0 0.48047976975377688 -0.45622822874015218 0 0.48047976975377688 -0.45622822874015218 0 0.470691407189475 -0.45297385141420099 0 0.4646727537085954 -0.46264221866320399 0 0.48047976975377688 -0.45622822874015218 0 0.470691407189475 -0.45297385141420099 0 0.48047976975377688 -0.45622822874015218 0 0.49999999999999711 -0.46271820030519972 0 0.50000000000000244 -0.44830753328839051 0 0.48559373914008069 -0.47368628638849353 0 0.48047976975377688 -0.45622822874015218 0 0.49999999999999711 -0.46271820030519972 0 0.48047976975377688 -0.45622822874015218 0 0.49999999999999711 -0.46271820030519972 0 0.48047976975377688 -0.45622822874015218 0 0.50000000000000244 -0.44830753328839051 0 0.48047976975377688 -0.45622822874015218 0 0.50000000000000244 -0.44830753328839051 0 0.48534570359473722 -0.44514634052379981 0 0.50000000000000244 -0.44830753328839051 0 0.48534570359473722 -0.44514634052379981 0 0.49999999999999928 -0.4373188296333983 0 0.48534570359473722 -0.44514634052379981 0 0.49999999999999928 -0.4373188296333983 0 0.48534570359473722 -0.44514634052379981 0 0.470691407189475 -0.45297385141420099 0 0.47097048664221319 -0.43643251844295372 0 0.48047976975377688 -0.45622822874015218 0 0.48534570359473722 -0.44514634052379981 0 0.470691407189475 -0.45297385141420099 0 0.48534570359473722 -0.44514634052379981 0 0.470691407189475 -0.45297385141420099 0 0.470691407189475 -0.45297385141420099 0 0.4544770832219866 -0.44758300816244723 0 0.470691407189475 -0.45297385141420099 0 0.4544770832219866 -0.44758300816244723 0 0.47097048664221319 -0.43643251844295372 0 0.44886573766341392 -0.46905620858625552 0 0.4646727537085954 -0.46264221866320399 0 0.470691407189475 -0.45297385141420099 0 0.4646727537085954 -0.46264221866320399 0 0.45020944586695522 -0.46391417709583921 0 0.470691407189475 -0.45297385141420099 0 0.4544770832219866 -0.44758300816244723 0 0.45020944586695522 -0.46391417709583921 0 0.44886573766341392 -0.46905620858625552 0 0.4646727537085954 -0.46264221866320399 0 0.45020944586695522 -0.46391417709583921 0 0.470691407189475 -0.45297385141420099 0 0.45020944586695522 -0.46391417709583921 0 0.45020944586695522 -0.46391417709583921 0 0.43354429895265317 -0.47281577259755192 0 0.4544770832219866 -0.44758300816244723 0 0.45020944586695522 -0.46391417709583921 0 0.45020944586695522 -0.46391417709583921 0 0.43809781679219229 -0.46582749488248509 0 0.43354429895265317 -0.47281577259755192 0 0.4544770832219866 -0.44758300816244723 0 0.45020944586695522 -0.46391417709583921 0 0.43983568967163922 -0.45392720411593052 0 0.44886573766341392 -0.46905620858625552 0 0.45020944586695522 -0.46391417709583921 0 0.43354429895265317 -0.47281577259755192 0 0.44886573766341392 -0.46905620858625552 0 0.45020944586695522 -0.46391417709583921 0 0.45020944586695522 -0.46391417709583921 0 0.43954534047197691 -0.46190563183931183 0 0.43809781679219229 -0.46582749488248509 0 0.45020944586695522 -0.46391417709583921 0 0.43954534047197691 -0.46190563183931183 0 0.43983568967163922 -0.45392720411593052 0 0.4544770832219866 -0.44758300816244723 0 0.43983568967163922 -0.45392720411593052 0 0.42639476312990371 -0.43824636322643662 0 0.4544770832219866 -0.44758300816244723 0 0.42639476312990371 -0.43824636322643662 0 0.4544770832219866 -0.44758300816244723 0 0.44129703071422421 -0.42311630120439092 0 0.46204244936752009 -0.41863226509614671 0 0.4544770832219866 -0.44758300816244723 0 0.44129703071422421 -0.42311630120439092 0 0.42639476312990371 -0.43824636322643662 0 0.44129703071422421 -0.42311630120439092 0 0.46204244936752009 -0.41863226509614671 0 0.44341167410846138 -0.39868285947249099 0 0.4544770832219866 -0.44758300816244723 0 0.46204244936752009 -0.41863226509614671 0 0.47097048664221319 -0.43643251844295372 0 0.4544770832219866 -0.44758300816244723 0 0.46204244936752009 -0.41863226509614671 0 0.46204244936752009 -0.41863226509614671 0 0.47097048664221319 -0.43643251844295372 0 0.48326021817421938 -0.42458114554289239 0 0.48534570359473722 -0.44514634052379981 0 0.47097048664221319 -0.43643251844295372 0 0.48326021817421938 -0.42458114554289239 0 0.48534570359473722 -0.44514634052379981 0 0.48326021817421938 -0.42458114554289239 0 0.49999999999999928 -0.4373188296333983 0 0.48326021817421938 -0.42458114554289239 0 0.49999999999999928 -0.4373188296333983 0 0.5 -0.40868553735398883 0 0.48326021817421938 -0.42458114554289239 0 0.5 -0.40868553735398883 0 0.48221987020137669 -0.40445354362338781 0 0.46204244936752009 -0.41863226509614671 0 0.48326021817421938 -0.42458114554289239 0 0.48221987020137669 -0.40445354362338781 0 0.48221987020137669 -0.40445354362338781 0 0.5 -0.38005224507457919 0 0.46960781551305342 -0.38968152202984618 0 0.46204244936752009 -0.41863226509614671 0 0.48221987020137669 -0.40445354362338781 0 0.46960781551305342 -0.38968152202984618 0 0.5 -0.40868553735398883 0 0.48221987020137669 -0.40445354362338781 0 0.5 -0.38005224507457919 0 0.4825730755300176 -0.36810832584522668 0 0.46680554537209201 -0.37381767462463489 0 0.46960781551305342 -0.38968152202984618 0 0.4825730755300176 -0.36810832584522668 0 0.5 -0.38005224507457919 0 0.46960781551305342 -0.38968152202984618 0 0.46960781551305342 -0.38968152202984618 0 0.45497478341173497 -0.38120126314447061 0 0.44341167410846138 -0.39868285947249099 0 0.46680554537209201 -0.37381767462463489 0 0.46960781551305342 -0.38968152202984618 0 0.45497478341173497 -0.38120126314447061 0 0.46204244936752009 -0.41863226509614671 0 0.46960781551305342 -0.38968152202984618 0 0.44341167410846138 -0.39868285947249099 0 0.46204244936752009 -0.41863226509614671 0 0.46960781551305342 -0.38968152202984618 0 0.45497478341173497 -0.38120126314447061 0 0.44341167410846138 -0.39868285947249099 0 0.43859496164911471 -0.37735683622028721 0 0.43859496164911471 -0.37735683622028721 0 0.41924897451283988 -0.389540529645232 0 0.44341167410846138 -0.39868285947249099 0 0.43859496164911471 -0.37735683622028721 0 0.41924897451283988 -0.389540529645232 0 0.42064516823078429 -0.37402276863838502 0 0.43859496164911471 -0.37735683622028721 0 0.41924897451283988 -0.389540529645232 0 0.44341167410846138 -0.39868285947249099 0 0.41924897451283988 -0.389540529645232 0 0.42015918374324901 -0.41243701006443251 0 0.41924897451283988 -0.389540529645232 0 0.4030787767879741 -0.38815408338542218 0 0.3999029873765651 -0.40172422307017691 0 0.41924897451283988 -0.389540529645232 0 0.3999029873765651 -0.40172422307017691 0 0.42015918374324901 -0.41243701006443251 0 0.41924897451283988 -0.389540529645232 0 0.3999029873765651 -0.40172422307017691 0 0.41924897451283988 -0.389540529645232 0 0.40768898463235109 -0.37909933781047328 0 0.4030787767879741 -0.38815408338542218 0 0.42064516823078429 -0.37402276863838502 0 0.41924897451283988 -0.389540529645232 0 0.40768898463235109 -0.37909933781047328 0 0.40434641766505708 -0.36466266633508482 0 0.40768898463235109 -0.37909933781047328 0 0.39381524537170548 -0.38430602544722869 0 0.40768898463235109 -0.37909933781047328 0 0.4030787767879741 -0.38815408338542218 0 0.39381524537170548 -0.38430602544722869 0 0.4030787767879741 -0.38815408338542218 0 0.39381524537170548 -0.38430602544722869 0 0.39602960953723759 -0.39312002070651769 0 0.38554025173073059 -0.36804010969695627 0 0.37872773141026811 -0.38403121354771141 0 0.386488824886625 -0.39219351892882881 0 0.38554025173073059 -0.36804010969695627 0 0.39381524537170548 -0.38430602544722869 0 0.386488824886625 -0.39219351892882881 0 0.37872773141026811 -0.38403121354771141 0 0.386488824886625 -0.39219351892882881 0 0.37872773141026811 -0.38403121354771141 0 0.38011185199866099 -0.40791405387020252 0 0.39381524537170548 -0.38430602544722869 0 0.38741235749015701 -0.39878981903645538 0 0.38328407307835338 -0.40394938455937229 0 0.37872773141026811 -0.38403121354771141 0 0.386488824886625 -0.39219351892882881 0 0.38328407307835338 -0.40394938455937229 0 0.37872773141026811 -0.38403121354771141 0 0.38328407307835338 -0.40394938455937229 0 0.38011185199866099 -0.40791405387020252 0 0.39381524537170548 -0.38430602544722869 0 0.386488824886625 -0.39219351892882881 0 0.38328407307835338 -0.40394938455937229 0 0.38741235749015701 -0.39878981903645538 0 0.38328407307835338 -0.40394938455937229 0 0.3999029873765651 -0.40172422307017691 0 0.37872773141026811 -0.38403121354771141 0 0.38011185199866099 -0.40791405387020252 0 0.37066492906770221 -0.39784483428232981 0 0.38228220884780839 -0.40581812037662168 0 0.38328407307835338 -0.40394938455937229 0 0.3999029873765651 -0.40172422307017691 0 0.39381524537170548 -0.38430602544722869 0 0.38328407307835338 -0.40394938455937229 0 0.38228220884780839 -0.40581812037662168 0 0.38328407307835338 -0.40394938455937229 0 0.38011185199866099 -0.40791405387020252 0 0.38328407307835338 -0.40394938455937229 0 0.38011185199866099 -0.40791405387020252 0 0.38228220884780839 -0.40581812037662168 0 0.38328407307835338 -0.40394938455937229 0 0.38741235749015701 -0.39878981903645538 0 0.38328407307835338 -0.40394938455937229 0 0.39381524537170548 -0.38430602544722869 0 0.38741235749015701 -0.39878981903645538 0 0.39602960953723759 -0.39312002070651769 0 0.38741235749015701 -0.39878981903645538 0 0.39602960953723759 -0.39312002070651769 0 0.3999029873765651 -0.40172422307017691 0 0.4030787767879741 -0.38815408338542218 0 0.39602960953723759 -0.39312002070651769 0 0.3999029873765651 -0.40172422307017691 0 0.3999029873765651 -0.40172422307017691 0 0.39489834377311228 -0.41525232102608378 0 0.38055700024028949 -0.41390791649512038 0 0.3999029873765651 -0.40172422307017691 0 0.4049478401920994 -0.41371247788859861 0 0.39489834377311228 -0.41525232102608378 0 0.4049478401920994 -0.41371247788859861 0 0.39489834377311228 -0.41525232102608378 0 0.39999320125919202 -0.42331866650463751 0 0.39489834377311228 -0.41525232102608378 0 0.38924074373060469 -0.42480961455627608 0 0.39999320125919202 -0.42331866650463751 0 0.3999029873765651 -0.40172422307017691 0 0.38055700024028949 -0.41390791649512038 0 0.38228220884780839 -0.40581812037662168 0 0.3999029873765651 -0.40172422307017691 0 0.38055700024028949 -0.41390791649512038 0 0.39489834377311228 -0.41525232102608378 0 0.38055700024028949 -0.41390791649512038 0 0.38924074373060469 -0.42480961455627608 0 0.38055700024028949 -0.41390791649512038 0 0.36999264865686993 -0.42056112162851989 0 0.38011185199866099 -0.40791405387020252 0 0.38055700024028949 -0.41390791649512038 0 0.36999264865686993 -0.42056112162851989 0 0.38011185199866099 -0.40791405387020252 0 0.36999264865686993 -0.42056112162851989 0 0.38228220884780839 -0.40581812037662168 0 0.38011185199866099 -0.40791405387020252 0 0.38055700024028949 -0.41390791649512038 0 0.38011185199866099 -0.40791405387020252 0 0.38055700024028949 -0.41390791649512038 0 0.38055700024028949 -0.41390791649512038 0 0.38216038541245639 -0.43549728731182069 0 0.38924074373060469 -0.42480961455627608 0 0.38216038541245639 -0.43549728731182069 0 0.38924074373060469 -0.42480961455627608 0 0.39863823464078768 -0.44100468123562792 0 0.38055700024028949 -0.41390791649512038 0 0.38216038541245639 -0.43549728731182069 0 0.38055700024028949 -0.41390791649512038 0 0.38216038541245639 -0.43549728731182069 0 0.36999264865686993 -0.42056112162851989 0 0.39999320125919202 -0.42331866650463751 0 0.41081245425675911 -0.42995412860293802 0 0.39863823464078768 -0.44100468123562792 0 0.38924074373060469 -0.42480961455627608 0 0.39999320125919202 -0.42331866650463751 0 0.39863823464078768 -0.44100468123562792 0 0.4049478401920994 -0.41371247788859861 0 0.39999320125919202 -0.42331866650463751 0 0.41081245425675911 -0.42995412860293802 0 0.41081245425675911 -0.42995412860293802 0 0.42015918374324901 -0.41243701006443251 0 0.42639476312990371 -0.43824636322643662 0 0.4049478401920994 -0.41371247788859861 0 0.41081245425675911 -0.42995412860293802 0 0.42015918374324901 -0.41243701006443251 0 0.3999029873765651 -0.40172422307017691 0 0.4049478401920994 -0.41371247788859861 0 0.42015918374324901 -0.41243701006443251 0 0.44129703071422421 -0.42311630120439092 0 0.44341167410846138 -0.39868285947249099 0 0.42015918374324901 -0.41243701006443251 0 0.44129703071422421 -0.42311630120439092 0 0.42015918374324901 -0.41243701006443251 0 0.42639476312990371 -0.43824636322643662 0 0.42639476312990371 -0.43824636322643662 0 0.42615756409492611 -0.45419387264070282 0 0.41474150257532261 -0.45100557269789548 0 0.43983568967163922 -0.45392720411593052 0 0.42639476312990371 -0.43824636322643662 0 0.42615756409492611 -0.45419387264070282 0 0.43983568967163922 -0.45392720411593052 0 0.43161545569034859 -0.46275240670591711 0 0.42615756409492611 -0.45419387264070282 0 0.43954534047197691 -0.46190563183931183 0 0.43983568967163922 -0.45392720411593052 0 0.43161545569034859 -0.46275240670591711 0 0.43954534047197691 -0.46190563183931183 0 0.43809781679219229 -0.46582749488248509 0 0.43161545569034859 -0.46275240670591711 0 0.43809781679219229 -0.46582749488248509 0 0.43161545569034859 -0.46275240670591711 0 0.43354429895265317 -0.47281577259755192 0 0.43161545569034859 -0.46275240670591711 0 0.42109471743711102 -0.4736731032341272 0 0.43161545569034859 -0.46275240670591711 0 0.42186617001222981 -0.46348976261781683 0 0.42109471743711102 -0.4736731032341272 0 0.43161545569034859 -0.46275240670591711 0 0.42615756409492611 -0.45419387264070282 0 0.42186617001222981 -0.46348976261781683 0 0.41193640477771543 -0.46764431714803589 0 0.41474150257532261 -0.45100557269789548 0 0.40215000086710689 -0.45667862739943671 0 0.42186617001222981 -0.46348976261781683 0 0.41193640477771543 -0.46764431714803589 0 0.41474150257532261 -0.45100557269789548 0 0.42615756409492611 -0.45419387264070282 0 0.42186617001222981 -0.46348976261781683 0 0.41474150257532261 -0.45100557269789548 0 0.42186617001222981 -0.46348976261781683 0 0.41193640477771543 -0.46764431714803589 0 0.42109471743711102 -0.4736731032341272 0 0.41081245425675911 -0.42995412860293802 0 0.42639476312990371 -0.43824636322643662 0 0.41474150257532261 -0.45100557269789548 0 0.41081245425675911 -0.42995412860293802 0 0.41474150257532261 -0.45100557269789548 0 0.39863823464078768 -0.44100468123562792 0 0.41474150257532261 -0.45100557269789548 0 0.39863823464078768 -0.44100468123562792 0 0.40215000086710689 -0.45667862739943671 0 0.39863823464078768 -0.44100468123562792 0 0.38376377058462691 -0.45708665812852078 0 0.40215000086710689 -0.45667862739943671 0 0.38216038541245639 -0.43549728731182069 0 0.39863823464078768 -0.44100468123562792 0 0.38376377058462691 -0.45708665812852078 0 0.38216038541245639 -0.43549728731182069 0 0.38376377058462691 -0.45708665812852078 0 0.38216038541245639 -0.43549728731182069 0 0.38376377058462691 -0.45708665812852078 0 0.37443578174858783 -0.44692519807429332 0 0.38216038541245639 -0.43549728731182069 0 0.37443578174858783 -0.44692519807429332 0 0.36941448342498118 -0.43561323724203821 0 0.38376377058462691 -0.45708665812852078 0 0.39778160963841869 -0.46968460933064221 0 0.3853671557567972 -0.47867602894522082 0 0.38376377058462691 -0.45708665812852078 0 0.3853671557567972 -0.47867602894522082 0 0.37333433305271618 -0.46807149774360041 0 0.38376377058462691 -0.45708665812852078 0 0.3853671557567972 -0.47867602894522082 0 0.38376377058462691 -0.45708665812852078 0 0.40215000086710689 -0.45667862739943671 0 0.39778160963841869 -0.46968460933064221 0 0.41193640477771543 -0.46764431714803589 0 0.40215000086710689 -0.45667862739943671 0 0.39778160963841869 -0.46968460933064221 0 0.41193640477771543 -0.46764431714803589 0 0.40621469855655151 -0.47787031755281911 0 0.39778160963841869 -0.46968460933064221 0 0.40621469855655151 -0.47787031755281911 0 0.39780573289922211 -0.48264346980654821 0 0.40738733373279568 -0.48588684025480611 0 0.40621469855655151 -0.47787031755281911 0 0.39780573289922211 -0.48264346980654821 0 0.39778160963841869 -0.46968460933064221 0 0.39780573289922211 -0.48264346980654821 0 0.39778160963841869 -0.46968460933064221 0 0.3853671557567972 -0.47867602894522082 0 0.3853671557567972 -0.47867602894522082 0 0.39573201376905331 -0.50000000000000122 0 0.37134820330251822 -0.5 0 0.39780573289922211 -0.48264346980654821 0 0.39573201376905331 -0.50000000000000122 0 0.40738733373279568 -0.48588684025480611 0 0.39780573289922211 -0.48264346980654821 0 0.3853671557567972 -0.47867602894522082 0 0.39573201376905331 -0.50000000000000122 0 0.39573201376905331 -0.50000000000000122 0 0.41057397918387267 -0.48459379976233657 0 0.40738733373279568 -0.48588684025480611 0 0.39573201376905331 -0.50000000000000122 0 0.41057397918387267 -0.48459379976233657 0 0.39573201376905331 -0.50000000000000122 0 0.41057397918387267 -0.48459379976233657 0 0.42342966384152858 -0.5 0 0.41057397918387267 -0.48459379976233657 0 0.41698994145119023 -0.48199040407958149 0 0.43173720264974408 -0.48994512322017941 0 0.41057397918387267 -0.48459379976233657 0 0.40738733373279568 -0.48588684025480611 0 0.40621469855655151 -0.47787031755281911 0 0.41057397918387267 -0.48459379976233657 0 0.41245494998881249 -0.47594538442432949 0 0.40621469855655151 -0.47787031755281911 0 0.41057397918387267 -0.48459379976233657 0 0.40738733373279568 -0.48588684025480611 0 0.41057397918387267 -0.48459379976233657 0 0.41698994145119023 -0.48199040407958149 0 0.41193640477771543 -0.46764431714803589 0 0.40621469855655151 -0.47787031755281911 0 0.41245494998881249 -0.47594538442432949 0 0.41193640477771543 -0.46764431714803589 0 0.41245494998881249 -0.47594538442432949 0 0.42109471743711102 -0.4736731032341272 0 0.41057397918387267 -0.48459379976233657 0 0.42109471743711102 -0.4736731032341272 0 0.41698994145119023 -0.48199040407958149 0 0.41057397918387267 -0.48459379976233657 0 0.41245494998881249 -0.47594538442432949 0 0.42109471743711102 -0.4736731032341272 0 0.41057397918387267 -0.48459379976233657 0 0.42109471743711102 -0.4736731032341272 0 0.44886573766341392 -0.46905620858625552 0 0.43354429895265317 -0.47281577259755192 0 0.42971985842364341 -0.47682500417429619 0 0.42109471743711102 -0.4736731032341272 0 0.41698994145119023 -0.48199040407958149 0 0.43354429895265317 -0.47281577259755192 0 0.41698994145119023 -0.48199040407958149 0 0.43354429895265317 -0.47281577259755192 0 0.42971985842364341 -0.47682500417429619 0 0.41698994145119023 -0.48199040407958149 0 0.43354429895265317 -0.47281577259755192 0 0.41698994145119023 -0.48199040407958149 0 0.42971985842364341 -0.47682500417429619 0 0.41698994145119023 -0.48199040407958149 0 0.42971985842364341 -0.47682500417429619 0 0.43173720264974408 -0.48994512322017941 0 0.43161545569034859 -0.46275240670591711 0 0.42109471743711102 -0.4736731032341272 0 0.43354429895265317 -0.47281577259755192 0 0.41057397918387267 -0.48459379976233657 0 0.43173720264974408 -0.48994512322017941 0 0.42342966384152858 -0.5 0 0.44383519788567211 -0.48830681216426369 0 0.42971985842364341 -0.47682500417429619 0 0.43173720264974408 -0.48994512322017941 0 0.45112731391400379 -0.50000000000000067 0 0.43173720264974408 -0.48994512322017941 0 0.42342966384152858 -0.5 0 0.32258058236944798 -0.5 0 0.32212688393084649 -0.48038416790466959 0 0.30600606236159622 -0.48512230486692759 0 0.32212688393084649 -0.48038416790466959 0 0.33808213883952087 -0.46044315247928619 0 0.32212688393084649 -0.48038416790466959 0 0.34020356085998471 -0.48249631182493918 0 0.33808213883952087 -0.46044315247928619 0 0.32258058236944798 -0.5 0 0.34020356085998471 -0.48249631182493918 0 0.34696439283598302 -0.5 0 0.32258058236944798 -0.5 0 0.32212688393084649 -0.48038416790466959 0 0.34020356085998471 -0.48249631182493918 0 0.34020356085998471 -0.48249631182493918 0 0.34696439283598302 -0.5 0 0.36013108391176291 -0.47819567723086881 0 0.34696439283598302 -0.5 0 0.37134820330251822 -0.5 0 0.36013108391176291 -0.47819567723086881 0 0.3853671557567972 -0.47867602894522082 0 0.37134820330251822 -0.5 0 0.36013108391176291 -0.47819567723086881 0 0.3853671557567972 -0.47867602894522082 0 0.36013108391176291 -0.47819567723086881 0 0.37333433305271618 -0.46807149774360041 0 0.34020356085998471 -0.48249631182493918 0 0.36013108391176291 -0.47819567723086881 0 0.33808213883952087 -0.46044315247928619 0 0.36013108391176291 -0.47819567723086881 0 0.36407532195767811 -0.4583276266697911 0 0.33808213883952087 -0.46044315247928619 0 0.38376377058462691 -0.45708665812852078 0 0.37333433305271618 -0.46807149774360041 0 0.36407532195767811 -0.4583276266697911 0 0.38376377058462691 -0.45708665812852078 0 0.36407532195767811 -0.4583276266697911 0 0.37443578174858783 -0.44692519807429332 0 0.36013108391176291 -0.47819567723086881 0 0.37333433305271618 -0.46807149774360041 0 0.36407532195767811 -0.4583276266697911 0 0.37443578174858783 -0.44692519807429332 0 0.35403739374819532 -0.44050213705390301 0 0.36941448342498118 -0.43561323724203821 0 0.36407532195767811 -0.4583276266697911 0 0.37443578174858783 -0.44692519807429332 0 0.35403739374819532 -0.44050213705390301 0 0.36407532195767811 -0.4583276266697911 0 0.35403739374819532 -0.44050213705390301 0 0.33808213883952087 -0.46044315247928619 0 0.35403739374819532 -0.44050213705390301 0 0.33808213883952087 -0.46044315247928619 0 0.35403739374819532 -0.44050213705390301 0 0.33808213883952087 -0.46044315247928619 0 0.32405613103707021 -0.43551898695432728 0 0.32212688393084649 -0.48038416790466959 0 0.33808213883952087 -0.46044315247928619 0 0.30730840783683949 -0.45701265796955193 0 0.32405613103707021 -0.43551898695432728 0 0.30754385596312561 -0.42880221774276123 0 0.30730840783683949 -0.45701265796955193 0 0.32405613103707021 -0.43551898695432728 0 0.30730840783683949 -0.45701265796955193 0 0.33808213883952087 -0.46044315247928619 0 0.32405613103707021 -0.43551898695432728 0 0.30730840783683949 -0.45701265796955193 0 0.32405613103707021 -0.43551898695432728 0 0.32219994594435508 -0.40761046451754879 0 0.30754385596312561 -0.42880221774276123 0 0.32219994594435508 -0.40761046451754879 0 0.34080385423730092 -0.41402531593910291 0 0.33966809938678011 -0.40171005065643239 0 0.32405613103707021 -0.43551898695432728 0 0.32219994594435508 -0.40761046451754879 0 0.34080385423730092 -0.41402531593910291 0 0.34080385423730092 -0.41402531593910291 0 0.34974357121117211 -0.40578881253119881 0 0.33966809938678011 -0.40171005065643239 0 0.32405613103707021 -0.43551898695432728 0 0.34080385423730092 -0.41402531593910291 0 0.34728985247950611 -0.42633030275290001 0 0.35403739374819532 -0.44050213705390301 0 0.32405613103707021 -0.43551898695432728 0 0.34728985247950611 -0.42633030275290001 0 0.32405613103707021 -0.43551898695432728 0 0.34080385423730092 -0.41402531593910291 0 0.34728985247950611 -0.42633030275290001 0 0.3605503273891979 -0.4265076958061409 0 0.35700155598576599 -0.41509737801102597 0 0.35403739374819532 -0.44050213705390301 0 0.34728985247950611 -0.42633030275290001 0 0.3605503273891979 -0.4265076958061409 0 0.35403739374819532 -0.44050213705390301 0 0.36941448342498118 -0.43561323724203821 0 0.36999264865686993 -0.42056112162851989 0 0.35403739374819532 -0.44050213705390301 0 0.3605503273891979 -0.4265076958061409 0 0.36999264865686993 -0.42056112162851989 0 0.35403739374819532 -0.44050213705390301 0 0.36999264865686993 -0.42056112162851989 0 0.3605503273891979 -0.4265076958061409 0 0.36999264865686993 -0.42056112162851989 0 0.38216038541245639 -0.43549728731182069 0 0.36941448342498118 -0.43561323724203821 0 0.36999264865686993 -0.42056112162851989 0 0.38011185199866099 -0.40791405387020252 0 0.36844751927040592 -0.40906378870439081 0 0.36999264865686993 -0.42056112162851989 0 0.36844751927040592 -0.40906378870439081 0 0.36999264865686993 -0.42056112162851989 0 0.35700155598576599 -0.41509737801102597 0 0.3605503273891979 -0.4265076958061409 0 0.36999264865686993 -0.42056112162851989 0 0.35700155598576599 -0.41509737801102597 0 0.36844751927040592 -0.40906378870439081 0 0.35700155598576599 -0.41509737801102597 0 0.36136527763605941 -0.40164169906751718 0 0.34080385423730092 -0.41402531593910291 0 0.35700155598576599 -0.41509737801102597 0 0.34974357121117211 -0.40578881253119881 0 0.34080385423730092 -0.41402531593910291 0 0.34728985247950611 -0.42633030275290001 0 0.35700155598576599 -0.41509737801102597 0 0.35700155598576599 -0.41509737801102597 0 0.34974357121117211 -0.40578881253119881 0 0.36136527763605941 -0.40164169906751718 0 0.34987906880995367 -0.39646961898191529 0 0.36136527763605941 -0.40164169906751718 0 0.36348549573409628 -0.38509747776662362 0 0.34974357121117211 -0.40578881253119881 0 0.34987906880995367 -0.39646961898191529 0 0.33966809938678011 -0.40171005065643239 0 0.34974357121117211 -0.40578881253119881 0 0.34987906880995367 -0.39646961898191529 0 0.36136527763605941 -0.40164169906751718 0 0.36844751927040592 -0.40906378870439081 0 0.36136527763605941 -0.40164169906751718 0 0.37066492906770221 -0.39784483428232981 0 0.36136527763605941 -0.40164169906751718 0 0.37066492906770221 -0.39784483428232981 0 0.36348549573409628 -0.38509747776662362 0 0.38011185199866099 -0.40791405387020252 0 0.36844751927040592 -0.40906378870439081 0 0.37066492906770221 -0.39784483428232981 0 0.37872773141026811 -0.38403121354771141 0 0.36673408579640387 -0.37141755305882729 0 0.37872773141026811 -0.38403121354771141 0 0.36348549573409628 -0.38509747776662362 0 0.36673408579640387 -0.37141755305882729 0 0.37872773141026811 -0.38403121354771141 0 0.37066492906770221 -0.39784483428232981 0 0.36348549573409628 -0.38509747776662362 0 0.36348549573409628 -0.38509747776662362 0 0.33856736420206429 -0.37647608052299641 0 0.33421563968185197 -0.38971038363704469 0 0.36348549573409628 -0.38509747776662362 0 0.33421563968185197 -0.38971038363704469 0 0.34987906880995367 -0.39646961898191529 0 0.36348549573409628 -0.38509747776662362 0 0.33421563968185197 -0.38971038363704469 0 0.36348549573409628 -0.38509747776662362 0 0.33856736420206429 -0.37647608052299641 0 0.36673408579640387 -0.37141755305882729 0 0.32219994594435508 -0.40761046451754879 0 0.33421563968185197 -0.38971038363704469 0 0.33966809938678011 -0.40171005065643239 0 0.34987906880995367 -0.39646961898191529 0 0.33421563968185197 -0.38971038363704469 0 0.33966809938678011 -0.40171005065643239 0 0.32219994594435508 -0.40761046451754879 0 0.33421563968185197 -0.38971038363704469 0 0.30494578362960761 -0.39432328950746581 0 0.33421563968185197 -0.38971038363704469 0 0.30494578362960761 -0.39432328950746581 0 0.33856736420206429 -0.37647608052299641 0 0.33421563968185197 -0.38971038363704469 0 0.31040064260772471 -0.38153460798716449 0 0.33856736420206429 -0.37647608052299641 0 0.31040064260772471 -0.38153460798716449 0 0.33856736420206429 -0.37647608052299641 0 0.31040064260772471 -0.38153460798716449 0 0.31878951036080028 -0.37056314492068798 0 0.33421563968185197 -0.38971038363704469 0 0.31040064260772471 -0.38153460798716449 0 0.30494578362960761 -0.39432328950746581 0 0.31040064260772471 -0.38153460798716449 0 0.30494578362960761 -0.39432328950746581 0 0.28223392101338501 -0.38659313545133273 0 0.31040064260772471 -0.38153460798716449 0 0.28727210962547878 -0.3760602607361076 0 0.30115315567059497 -0.36900928796358362 0 0.32219994594435508 -0.40761046451754879 0 0.30494578362960761 -0.39432328950746581 0 0.30596081231038957 -0.41050817810991852 0 0.30494578362960761 -0.39432328950746581 0 0.29172713373153808 -0.40818571268928389 0 0.30596081231038957 -0.41050817810991852 0 0.30494578362960761 -0.39432328950746581 0 0.28223392101338501 -0.38659313545133273 0 0.27567592757736331 -0.39893619537788683 0 0.30494578362960761 -0.39432328950746581 0 0.27567592757736331 -0.39893619537788683 0 0.29172713373153808 -0.40818571268928389 0 0.30494578362960761 -0.39432328950746581 0 0.27567592757736331 -0.39893619537788683 0 0.31040064260772471 -0.38153460798716449 0 0.28223392101338501 -0.38659313545133273 0 0.31040064260772471 -0.38153460798716449 0 0.28223392101338501 -0.38659313545133273 0 0.28727210962547878 -0.3760602607361076 0 0.28727210962547878 -0.3760602607361076 0 0.2721050617615654 -0.38162682933401432 0 0.28223392101338501 -0.38659313545133273 0 0.25406719941904499 -0.39165166291549969 0 0.28223392101338501 -0.38659313545133273 0 0.28727210962547878 -0.3760602607361076 0 0.2721050617615654 -0.38162682933401432 0 0.28223392101338501 -0.38659313545133273 0 0.2721050617615654 -0.38162682933401432 0 0.25406719941904499 -0.39165166291549969 0 0.2721050617615654 -0.38162682933401432 0 0.26117294983186512 -0.38061670454965119 0 0.28028441834602452 -0.3670781455361205 0 0.2721050617615654 -0.38162682933401432 0 0.2569380138976522 -0.38719339793192148 0 0.25406719941904499 -0.39165166291549969 0 0.2721050617615654 -0.38162682933401432 0 0.26117294983186512 -0.38061670454965119 0 0.2569380138976522 -0.38719339793192148 0 0.2721050617615654 -0.38162682933401432 0 0.2569380138976522 -0.38719339793192148 0 0.26117294983186512 -0.38061670454965119 0 0.2569380138976522 -0.38719339793192148 0 0.26117294983186512 -0.38061670454965119 0 0.24905319067607451 -0.3892023385860352 0 0.26117294983186512 -0.38061670454965119 0 0.2569380138976522 -0.38719339793192148 0 0.24905319067607451 -0.3892023385860352 0 0.2569380138976522 -0.38719339793192148 0 0.25406719941904499 -0.39165166291549969 0 0.26117294983186512 -0.38061670454965119 0 0.2486235252893392 -0.37526373790379403 0 0.24905319067607451 -0.3892023385860352 0 0.27567592757736331 -0.39893619537788683 0 0.24640607152511901 -0.40354910124830851 0 0.25406719941904499 -0.39165166291549969 0 0.27567592757736331 -0.39893619537788683 0 0.24640607152511901 -0.40354910124830851 0 0.27567592757736331 -0.39893619537788683 0 0.26251128004628832 -0.41119497252338832 0 0.24640607152511901 -0.40354910124830851 0 0.25406719941904499 -0.39165166291549969 0 0.24640607152511901 -0.40354910124830851 0 0.28223392101338501 -0.38659313545133273 0 0.25406719941904499 -0.39165166291549969 0 0.27567592757736331 -0.39893619537788683 0 0.27567592757736331 -0.39893619537788683 0 0.27872359511788369 -0.41470083848158462 0 0.26251128004628832 -0.41119497252338832 0 0.27872359511788369 -0.41470083848158462 0 0.26251128004628832 -0.41119497252338832 0 0.26150268906424212 -0.42142421723391899 0 0.27872359511788369 -0.41470083848158462 0 0.26150268906424212 -0.42142421723391899 0 0.28034731300207438 -0.4281358719620591 0 0.26251128004628832 -0.41119497252338832 0 0.25024811694683369 -0.41736451027524291 0 0.24640607152511901 -0.40354910124830851 0 0.26251128004628832 -0.41119497252338832 0 0.26150268906424212 -0.42142421723391899 0 0.25024811694683369 -0.41736451027524291 0 0.26150268906424212 -0.42142421723391899 0 0.25897048810701268 -0.43489440019333442 0 0.27132043853851978 -0.43896135315391832 0 0.26150268906424212 -0.42142421723391899 0 0.25024811694683369 -0.41736451027524291 0 0.24917355477919639 -0.43118944032294948 0 0.26150268906424212 -0.42142421723391899 0 0.25897048810701268 -0.43489440019333442 0 0.24917355477919639 -0.43118944032294948 0 0.28034731300207438 -0.4281358719620591 0 0.29155478101013621 -0.44096334171931051 0 0.27132043853851978 -0.43896135315391832 0 0.26150268906424212 -0.42142421723391899 0 0.28034731300207438 -0.4281358719620591 0 0.27132043853851978 -0.43896135315391832 0 0.28034731300207438 -0.4281358719620591 0 0.29418305763996311 -0.42119967718591012 0 0.29155478101013621 -0.44096334171931051 0 0.27567592757736331 -0.39893619537788683 0 0.27872359511788369 -0.41470083848158462 0 0.29172713373153808 -0.40818571268928389 0 0.27872359511788369 -0.41470083848158462 0 0.28034731300207438 -0.4281358719620591 0 0.29418305763996311 -0.42119967718591012 0 0.27872359511788369 -0.41470083848158462 0 0.29172713373153808 -0.40818571268928389 0 0.29418305763996311 -0.42119967718591012 0 0.29418305763996311 -0.42119967718591012 0 0.30596081231038957 -0.41050817810991852 0 0.30754385596312561 -0.42880221774276123 0 0.32219994594435508 -0.40761046451754879 0 0.30596081231038957 -0.41050817810991852 0 0.30754385596312561 -0.42880221774276123 0 0.29172713373153808 -0.40818571268928389 0 0.29418305763996311 -0.42119967718591012 0 0.30596081231038957 -0.41050817810991852 0 0.29418305763996311 -0.42119967718591012 0 0.30754385596312561 -0.42880221774276123 0 0.29155478101013621 -0.44096334171931051 0 0.30754385596312561 -0.42880221774276123 0 0.30730840783683949 -0.45701265796955193 0 0.29155478101013621 -0.44096334171931051 0 0.30730840783683949 -0.45701265796955193 0 0.29056068463660878 -0.47850632898477641 0 0.30730840783683949 -0.45701265796955193 0 0.27718082942801803 -0.45896032763382683 0 0.29056068463660878 -0.47850632898477641 0 0.30730840783683949 -0.45701265796955193 0 0.29155478101013621 -0.44096334171931051 0 0.27718082942801803 -0.45896032763382683 0 0.29155478101013621 -0.44096334171931051 0 0.27132043853851978 -0.43896135315391832 0 0.27718082942801803 -0.45896032763382683 0 0.27132043853851978 -0.43896135315391832 0 0.25388527004609263 -0.4480025900625505 0 0.27718082942801803 -0.45896032763382683 0 0.25897048810701268 -0.43489440019333442 0 0.25388527004609263 -0.4480025900625505 0 0.24917355477919639 -0.43118944032294948 0 0.25897048810701268 -0.43489440019333442 0 0.27132043853851978 -0.43896135315391832 0 0.25388527004609263 -0.4480025900625505 0 0.25388527004609263 -0.4480025900625505 0 0.25405696806359668 -0.46712639438704973 0 0.27718082942801803 -0.45896032763382683 0 0.25405696806359668 -0.46712639438704973 0 0.27718082942801803 -0.45896032763382683 0 0.26568355678642969 -0.48072610901422203 0 0.27718082942801803 -0.45896032763382683 0 0.26568355678642969 -0.48072610901422203 0 0.29056068463660878 -0.47850632898477641 0 0.25405696806359668 -0.46712639438704973 0 0.26568355678642969 -0.48072610901422203 0 0.23878849170555491 -0.48082748886226789 0 0.26568355678642969 -0.48072610901422203 0 0.25079767143598858 -0.5 0 0.23878849170555491 -0.48082748886226789 0 0.26568355678642969 -0.48072610901422203 0 0.25079767143598858 -0.5 0 0.27381296143637779 -0.50000000000000067 0 0.26568355678642969 -0.48072610901422203 0 0.27381296143637779 -0.50000000000000067 0 0.29056068463660878 -0.47850632898477641 0 0.27381296143637779 -0.50000000000000067 0 0.29056068463660878 -0.47850632898477641 0 0.29819677190291283 -0.5 0 0.27381296143637779 -0.50000000000000067 0 0.29056068463660878 -0.47850632898477641 0 0.32212688393084649 -0.48038416790466959 0 0.30730840783683949 -0.45701265796955193 0 0.30600606236159622 -0.48512230486692759 0 0.30730840783683949 -0.45701265796955193 0 0.29056068463660878 -0.47850632898477641 0 0.30600606236159622 -0.48512230486692759 0 0.29056068463660878 -0.47850632898477641 0 0.29819677190291283 -0.5 0 0.30600606236159622 -0.48512230486692759 0 0.32258058236944798 -0.5 0 0.29819677190291283 -0.5 0 0.30600606236159622 -0.48512230486692759 0 0.33177487355804192 -0.29747112343242182 0 0.34093556071833031 -0.2811394976737604 0 0.35663710736875931 -0.30064407293163398 0 0.33177487355804192 -0.29747112343242182 0 0.32278040344860159 -0.27376804078495698 0 0.34093556071833031 -0.2811394976737604 0 0.33177487355804192 -0.29747112343242182 0 0.35663710736875931 -0.30064407293163398 0 0.3393100609006075 -0.31709347661112719 0 0.33177487355804192 -0.29747112343242182 0 0.3393100609006075 -0.31709347661112719 0 0.31803577510986208 -0.32020176953824381 0 0.33177487355804192 -0.29747112343242182 0 0.31505238968431593 -0.29282064908167421 0 0.31803577510986208 -0.32020176953824381 0 0.33177487355804192 -0.29747112343242182 0 0.31505238968431593 -0.29282064908167421 0 0.32278040344860159 -0.27376804078495698 0 0.31505238968431593 -0.29282064908167421 0 0.32278040344860159 -0.27376804078495698 0 0.30286492262761999 -0.27611417897097001 0 0.32278040344860159 -0.27376804078495698 0 0.3351638155597263 -0.25225363975510923 0 0.31102920082380109 -0.26014652324891169 0 0.30819810831357242 -0.24106028415953401 0 0.3351638155597263 -0.25225363975510923 0 0.31102920082380109 -0.26014652324891169 0 0.32278040344860159 -0.27376804078495698 0 0.3351638155597263 -0.25225363975510923 0 0.34093556071833031 -0.2811394976737604 0 0.3351638155597263 -0.25225363975510923 0 0.34093556071833031 -0.2811394976737604 0 0.35857260743960617 -0.27260236143825278 0 0.36050810751045298 -0.24456064994487159 0 0.3351638155597263 -0.25225363975510923 0 0.35857260743960617 -0.27260236143825278 0 0.36050810751045298 -0.24456064994487159 0 0.35857260743960617 -0.27260236143825278 0 0.36050810751045298 -0.24456064994487159 0 0.38102784705546822 -0.26328283175542633 0 0.35857260743960617 -0.27260236143825278 0 0.38102784705546822 -0.26328283175542633 0 0.35857260743960617 -0.27260236143825278 0 0.37272477687605871 -0.28516516925310809 0 0.37699853060293359 -0.3032918143950174 0 0.37272477687605871 -0.28516516925310809 0 0.35663710736875931 -0.30064407293163398 0 0.35857260743960617 -0.27260236143825278 0 0.37272477687605871 -0.28516516925310809 0 0.35663710736875931 -0.30064407293163398 0 0.35857260743960617 -0.27260236143825278 0 0.35663710736875931 -0.30064407293163398 0 0.34093556071833031 -0.2811394976737604 0 0.35857260743960617 -0.27260236143825278 0 0.35663710736875931 -0.30064407293163398 0 0.37699853060293359 -0.3032918143950174 0 0.35663710736875931 -0.30064407293163398 0 0.37219049522129399 -0.32551643064874142 0 0.35663710736875931 -0.30064407293163398 0 0.37219049522129399 -0.32551643064874142 0 0.35470160729791239 -0.32868578442501523 0 0.37626942297652338 -0.34475019158411091 0 0.37219049522129399 -0.32551643064874142 0 0.36469661641304157 -0.34223344466870481 0 0.37219049522129399 -0.32551643064874142 0 0.36469661641304157 -0.34223344466870481 0 0.35470160729791239 -0.32868578442501523 0 0.35470160729791239 -0.32868578442501523 0 0.35276610722706342 -0.35672749591839642 0 0.33540094116846147 -0.33846463272832128 0 0.36469661641304157 -0.34223344466870481 0 0.35470160729791239 -0.32868578442501523 0 0.35276610722706342 -0.35672749591839642 0 0.35470160729791239 -0.32868578442501523 0 0.35276610722706342 -0.35672749591839642 0 0.35663710736875931 -0.30064407293163398 0 0.35470160729791239 -0.32868578442501523 0 0.3393100609006075 -0.31709347661112719 0 0.35663710736875931 -0.30064407293163398 0 0.35470160729791239 -0.32868578442501523 0 0.37892694536517668 -0.35732182778380028 0 0.36673408579640387 -0.37141755305882729 0 0.36722824552746292 -0.3545129818405488 0 0.36673408579640387 -0.37141755305882729 0 0.36722824552746292 -0.3545129818405488 0 0.35276610722706342 -0.35672749591839642 0 0.36673408579640387 -0.37141755305882729 0 0.35276610722706342 -0.35672749591839642 0 0.37626942297652338 -0.34475019158411091 0 0.37892694536517668 -0.35732182778380028 0 0.36722824552746292 -0.3545129818405488 0 0.37626942297652338 -0.34475019158411091 0 0.36469661641304157 -0.34223344466870481 0 0.36722824552746292 -0.3545129818405488 0 0.36469661641304157 -0.34223344466870481 0 0.36722824552746292 -0.3545129818405488 0 0.35276610722706342 -0.35672749591839642 0 0.35276610722706342 -0.35672749591839642 0 0.34489507239696232 -0.36041186135021219 0 0.33540094116846147 -0.33846463272832128 0 0.35276610722706342 -0.35672749591839642 0 0.33540094116846147 -0.33846463272832128 0 0.33856736420206429 -0.37647608052299641 0 0.36673408579640387 -0.37141755305882729 0 0.34428521284313263 -0.36860346444302622 0 0.33856736420206429 -0.37647608052299641 0 0.36673408579640387 -0.37141755305882729 0 0.36673408579640387 -0.37141755305882729 0 0.35218527230260988 -0.36514268826181062 0 0.34428521284313263 -0.36860346444302622 0 0.36673408579640387 -0.37141755305882729 0 0.35276610722706342 -0.35672749591839642 0 0.35218527230260988 -0.36514268826181062 0 0.35276610722706342 -0.35672749591839642 0 0.35218527230260988 -0.36514268826181062 0 0.35276610722706342 -0.35672749591839642 0 0.35218527230260988 -0.36514268826181062 0 0.34489507239696232 -0.36041186135021219 0 0.35218527230260988 -0.36514268826181062 0 0.34489507239696232 -0.36041186135021219 0 0.34428521284313263 -0.36860346444302622 0 0.33856736420206429 -0.37647608052299641 0 0.32888733277091842 -0.36618056145565092 0 0.31878951036080028 -0.37056314492068798 0 0.33856736420206429 -0.37647608052299641 0 0.34428521284313263 -0.36860346444302622 0 0.32888733277091842 -0.36618056145565092 0 0.34489507239696232 -0.36041186135021219 0 0.34428521284313263 -0.36860346444302622 0 0.33546278052536649 -0.35796112438268107 0 0.34428521284313263 -0.36860346444302622 0 0.32888733277091842 -0.36618056145565092 0 0.33546278052536649 -0.35796112438268107 0 0.33546278052536649 -0.35796112438268107 0 0.32502032281910098 -0.3520050769873071 0 0.33540094116846147 -0.33846463272832128 0 0.34489507239696232 -0.36041186135021219 0 0.33546278052536649 -0.35796112438268107 0 0.33540094116846147 -0.33846463272832128 0 0.32888733277091842 -0.36618056145565092 0 0.33546278052536649 -0.35796112438268107 0 0.32502032281910098 -0.3520050769873071 0 0.32502032281910098 -0.3520050769873071 0 0.31493905655269921 -0.35961518667404452 0 0.31850735537434333 -0.34000102750905931 0 0.32888733277091842 -0.36618056145565092 0 0.32502032281910098 -0.3520050769873071 0 0.31493905655269921 -0.35961518667404452 0 0.32888733277091842 -0.36618056145565092 0 0.31493905655269921 -0.35961518667404452 0 0.31878951036080028 -0.37056314492068798 0 0.3393100609006075 -0.31709347661112719 0 0.33540094116846147 -0.33846463272832128 0 0.31803577510986208 -0.32020176953824381 0 0.35470160729791239 -0.32868578442501523 0 0.3393100609006075 -0.31709347661112719 0 0.33540094116846147 -0.33846463272832128 0 0.33540094116846147 -0.33846463272832128 0 0.31803577510986208 -0.32020176953824381 0 0.33540094116846147 -0.33846463272832128 0 0.31850735537434333 -0.34000102750905931 0 0.31803577510986208 -0.32020176953824381 0 0.32502032281910098 -0.3520050769873071 0 0.33540094116846147 -0.33846463272832128 0 0.31850735537434333 -0.34000102750905931 0 0.31803577510986208 -0.32020176953824381 0 0.29720434972762239 -0.3284630752085394 0 0.30067060905126258 -0.30193890634816628 0 0.31850735537434333 -0.34000102750905931 0 0.31803577510986208 -0.32020176953824381 0 0.29720434972762239 -0.3284630752085394 0 0.31850735537434333 -0.34000102750905931 0 0.29720434972762239 -0.3284630752085394 0 0.29939588686018392 -0.35353958652258988 0 0.29720434972762239 -0.3284630752085394 0 0.28264994471999472 -0.33443103179109168 0 0.29939588686018392 -0.35353958652258988 0 0.29720434972762239 -0.3284630752085394 0 0.28418187981411519 -0.30730326752812531 0 0.30067060905126258 -0.30193890634816628 0 0.29720434972762239 -0.3284630752085394 0 0.28264994471999472 -0.33443103179109168 0 0.27538823740033502 -0.32101757188968522 0 0.29720434972762239 -0.3284630752085394 0 0.27538823740033502 -0.32101757188968522 0 0.28418187981411519 -0.30730326752812531 0 0.31040064260772471 -0.38153460798716449 0 0.31878951036080028 -0.37056314492068798 0 0.30115315567059497 -0.36900928796358362 0 0.31493905655269921 -0.35961518667404452 0 0.31878951036080028 -0.37056314492068798 0 0.30115315567059497 -0.36900928796358362 0 0.31493905655269921 -0.35961518667404452 0 0.30115315567059497 -0.36900928796358362 0 0.29939588686018392 -0.35353958652258988 0 0.31493905655269921 -0.35961518667404452 0 0.31850735537434333 -0.34000102750905931 0 0.29939588686018392 -0.35353958652258988 0 0.31850735537434333 -0.34000102750905931 0 0.29939588686018392 -0.35353958652258988 0 0.29939588686018392 -0.35353958652258988 0 0.28028441834602452 -0.3670781455361205 0 0.28109211097044062 -0.34968300985497519 0 0.28264994471999472 -0.33443103179109168 0 0.29939588686018392 -0.35353958652258988 0 0.28109211097044062 -0.34968300985497519 0 0.30115315567059497 -0.36900928796358362 0 0.29939588686018392 -0.35353958652258988 0 0.28028441834602452 -0.3670781455361205 0 0.29939588686018392 -0.35353958652258988 0 0.28028441834602452 -0.3670781455361205 0 0.28727210962547878 -0.3760602607361076 0 0.30115315567059497 -0.36900928796358362 0 0.28028441834602452 -0.3670781455361205 0 0.26117294983186512 -0.38061670454965119 0 0.28028441834602452 -0.3670781455361205 0 0.26117294983186512 -0.38061670454965119 0 0.28028441834602452 -0.3670781455361205 0 0.27113253040115293 -0.36514985720231319 0 0.28028441834602452 -0.3670781455361205 0 0.27113253040115293 -0.36514985720231319 0 0.28109211097044062 -0.34968300985497519 0 0.26117294983186512 -0.38061670454965119 0 0.27113253040115293 -0.36514985720231319 0 0.28727210962547878 -0.3760602607361076 0 0.2721050617615654 -0.38162682933401432 0 0.28028441834602452 -0.3670781455361205 0 0.27113253040115293 -0.36514985720231319 0 0.28109211097044062 -0.34968300985497519 0 0.26256163427262869 -0.35317330646138251 0 0.28109211097044062 -0.34968300985497519 0 0.26256163427262869 -0.35317330646138251 0 0.26777214857491721 -0.33741746764993569 0 0.27113253040115293 -0.36514985720231319 0 0.28109211097044062 -0.34968300985497519 0 0.26256163427262869 -0.35317330646138251 0 0.249458090832507 -0.33990190657442088 0 0.24795699434168089 -0.35970105813092401 0 0.27113253040115293 -0.36514985720231319 0 0.26256163427262869 -0.35317330646138251 0 0.25809438463603379 -0.36707104520227002 0 0.26256163427262869 -0.35317330646138251 0 0.25809438463603379 -0.36707104520227002 0 0.24795699434168089 -0.35970105813092401 0 0.26117294983186512 -0.38061670454965119 0 0.25809438463603379 -0.36707104520227002 0 0.2486235252893392 -0.37526373790379403 0 0.25809438463603379 -0.36707104520227002 0 0.24795699434168089 -0.35970105813092401 0 0.2486235252893392 -0.37526373790379403 0 0.26117294983186512 -0.38061670454965119 0 0.27113253040115293 -0.36514985720231319 0 0.25809438463603379 -0.36707104520227002 0 0.27538823740033502 -0.32101757188968522 0 0.25973050593711738 -0.3232524497740597 0 0.26434075989869299 -0.30142074103614669 0 0.27538823740033502 -0.32101757188968522 0 0.26777214857491721 -0.33741746764993569 0 0.25973050593711738 -0.3232524497740597 0 0.28264994471999472 -0.33443103179109168 0 0.27538823740033502 -0.32101757188968522 0 0.26777214857491721 -0.33741746764993569 0 0.28264994471999472 -0.33443103179109168 0 0.28109211097044062 -0.34968300985497519 0 0.26777214857491721 -0.33741746764993569 0 0.26256163427262869 -0.35317330646138251 0 0.26777214857491721 -0.33741746764993569 0 0.249458090832507 -0.33990190657442088 0 0.26777214857491721 -0.33741746764993569 0 0.25973050593711738 -0.3232524497740597 0 0.249458090832507 -0.33990190657442088 0 0.25973050593711738 -0.3232524497740597 0 0.24553558198473091 -0.31435176084963351 0 0.249458090832507 -0.33990190657442088 0 0.25973050593711738 -0.3232524497740597 0 0.26434075989869299 -0.30142074103614669 0 0.24553558198473091 -0.31435176084963351 0 0.26434075989869299 -0.30142074103614669 0 0.2420200458813114 -0.29048884940289638 0 0.24553558198473091 -0.31435176084963351 0 0.26434075989869299 -0.30142074103614669 0 0.26407940002539831 -0.27401266098844229 0 0.2420200458813114 -0.29048884940289638 0 0.26407940002539831 -0.27401266098844229 0 0.2420200458813114 -0.29048884940289638 0 0.26434075989869299 -0.30142074103614669 0 0.28330544299266308 -0.2836760431580887 0 0.26407940002539831 -0.27401266098844229 0 0.26434075989869299 -0.30142074103614669 0 0.28418187981411519 -0.30730326752812531 0 0.28330544299266308 -0.2836760431580887 0 0.27538823740033502 -0.32101757188968522 0 0.26434075989869299 -0.30142074103614669 0 0.28418187981411519 -0.30730326752812531 0 0.28418187981411519 -0.30730326752812531 0 0.28330544299266308 -0.2836760431580887 0 0.30067060905126258 -0.30193890634816628 0 0.28330544299266308 -0.2836760431580887 0 0.30067060905126258 -0.30193890634816628 0 0.28330544299266308 -0.2836760431580887 0 0.30067060905126258 -0.30193890634816628 0 0.30286492262761999 -0.27611417897097001 0 0.31505238968431593 -0.29282064908167421 0 0.30067060905126258 -0.30193890634816628 0 0.30286492262761999 -0.27611417897097001 0 0.31803577510986208 -0.32020176953824381 0 0.30067060905126258 -0.30193890634816628 0 0.31505238968431593 -0.29282064908167421 0 0.31803577510986208 -0.32020176953824381 0 0.30067060905126258 -0.30193890634816628 0 0.30819810831357242 -0.24106028415953401 0 0.31102920082380109 -0.26014652324891169 0 0.28613875416948542 -0.25753647257398821 0 0.31102920082380109 -0.26014652324891169 0 0.30286492262761999 -0.27611417897097001 0 0.28613875416948542 -0.25753647257398821 0 0.32278040344860159 -0.27376804078495698 0 0.31102920082380109 -0.26014652324891169 0 0.30286492262761999 -0.27611417897097001 0 0.28330544299266308 -0.2836760431580887 0 0.30286492262761999 -0.27611417897097001 0 0.28613875416948542 -0.25753647257398821 0 0.27517653528561892 -0.24063479640347971 0 0.28613875416948542 -0.25753647257398821 0 0.26021268495159 -0.25369246622202929 0 0.28613875416948542 -0.25753647257398821 0 0.26407940002539831 -0.27401266098844229 0 0.26021268495159 -0.25369246622202929 0 0.28613875416948542 -0.25753647257398821 0 0.26407940002539831 -0.27401266098844229 0 0.28330544299266308 -0.2836760431580887 0 0.28613875416948542 -0.25753647257398821 0 0.26407940002539831 -0.27401266098844229 0 0.26407940002539831 -0.27401266098844229 0 0.26021268495159 -0.25369246622202929 0 0.2414694795391398 -0.26942316962641888 0 0.26021268495159 -0.25369246622202929 0 0.2414694795391398 -0.26942316962641888 0 0.2359657753849061 -0.24686569655727211 0 0.26407940002539831 -0.27401266098844229 0 0.2414694795391398 -0.26942316962641888 0 0.2420200458813114 -0.29048884940289638 0 0.2414694795391398 -0.26942316962641888 0 0.22164992267999631 -0.26461046573988328 0 0.22404122764718029 -0.28942299769522611 0 0.2414694795391398 -0.26942316962641888 0 0.22164992267999631 -0.26461046573988328 0 0.2359657753849061 -0.24686569655727211 0 0.22164992267999631 -0.26461046573988328 0 0.2359657753849061 -0.24686569655727211 0 0.21515344991645319 -0.24530421796328999 0 0.22164992267999631 -0.26461046573988328 0 0.20270426843027989 -0.25754390902865992 0 0.21515344991645319 -0.24530421796328999 0 0.22164992267999631 -0.26461046573988328 0 0.2100441422612177 -0.27808917461310823 0 0.22404122764718029 -0.28942299769522611 0 0.22164992267999631 -0.26461046573988328 0 0.2100441422612177 -0.27808917461310823 0 0.20270426843027989 -0.25754390902865992 0 0.2100441422612177 -0.27808917461310823 0 0.1950826415222521 -0.2778323907864374 0 0.20270426843027989 -0.25754390902865992 0 0.1950826415222521 -0.2778323907864374 0 0.20270426843027989 -0.25754390902865992 0 0.18439312041272921 -0.26696631368910501 0 0.20270426843027989 -0.25754390902865992 0 0.18439312041272921 -0.26696631368910501 0 0.18477260126701189 -0.24804654939694321 0 0.19550492905848191 -0.30751445319551352 0 0.1907659590886942 -0.28993009147832982 0 0.20367172731253569 -0.29391081472215608 0 0.19550492905848191 -0.30751445319551352 0 0.20367172731253569 -0.29391081472215608 0 0.2047037781199226 -0.30543864209841831 0 0.19550492905848191 -0.30751445319551352 0 0.20453799577623269 -0.31051036400218562 0 0.2047037781199226 -0.30543864209841831 0 0.2100441422612177 -0.27808917461310823 0 0.1950826415222521 -0.2778323907864374 0 0.20367172731253569 -0.29391081472215608 0 0.1950826415222521 -0.2778323907864374 0 0.1907659590886942 -0.28993009147832982 0 0.20367172731253569 -0.29391081472215608 0 0.19550492905848191 -0.30751445319551352 0 0.1907659590886942 -0.28993009147832982 0 0.1812980008206507 -0.29197357766481669 0 0.1950826415222521 -0.2778323907864374 0 0.1907659590886942 -0.28993009147832982 0 0.1820912460657336 -0.28077092951692129 0 0.2100441422612177 -0.27808917461310823 0 0.21361146366384481 -0.30781568405875931 0 0.22404122764718029 -0.28942299769522611 0 0.2100441422612177 -0.27808917461310823 0 0.20367172731253569 -0.29391081472215608 0 0.21361146366384481 -0.30781568405875931 0 0.2100441422612177 -0.27808917461310823 0 0.21361146366384481 -0.30781568405875931 0 0.20367172731253569 -0.29391081472215608 0 0.2047037781199226 -0.30543864209841831 0 0.21361146366384481 -0.30781568405875931 0 0.20453799577623269 -0.31051036400218562 0 0.2047037781199226 -0.30543864209841831 0 0.21361146366384481 -0.30781568405875931 0 0.21996069173722441 -0.30696503781735052 0 0.23375637270354149 -0.30871814311605178 0 0.2420200458813114 -0.29048884940289638 0 0.21996069173722441 -0.30696503781735052 0 0.2420200458813114 -0.29048884940289638 0 0.21361146366384481 -0.30781568405875931 0 0.21996069173722441 -0.30696503781735052 0 0.22404122764718029 -0.28942299769522611 0 0.21996069173722441 -0.30696503781735052 0 0.22404122764718029 -0.28942299769522611 0 0.2420200458813114 -0.29048884940289638 0 0.2414694795391398 -0.26942316962641888 0 0.22404122764718029 -0.28942299769522611 0 0.2420200458813114 -0.29048884940289638 0 0.23375637270354149 -0.30871814311605178 0 0.2420200458813114 -0.29048884940289638 0 0.24553558198473091 -0.31435176084963351 0 0.24553558198473091 -0.31435176084963351 0 0.249458090832507 -0.33990190657442088 0 0.22750917121089939 -0.32306692439432699 0 0.23375637270354149 -0.30871814311605178 0 0.24553558198473091 -0.31435176084963351 0 0.22750917121089939 -0.32306692439432699 0 0.249458090832507 -0.33990190657442088 0 0.22750917121089939 -0.32306692439432699 0 0.23299839342262979 -0.34981253713130139 0 0.22750917121089939 -0.32306692439432699 0 0.23299839342262979 -0.34981253713130139 0 0.21717878506647181 -0.33754219350441039 0 0.21361146366384481 -0.30781568405875931 0 0.22750917121089939 -0.32306692439432699 0 0.21717878506647181 -0.33754219350441039 0 0.21996069173722441 -0.30696503781735052 0 0.23375637270354149 -0.30871814311605178 0 0.22750917121089939 -0.32306692439432699 0 0.21361146366384481 -0.30781568405875931 0 0.21996069173722441 -0.30696503781735052 0 0.22750917121089939 -0.32306692439432699 0 0.23677314110955061 -0.36717394062999742 0 0.2486235252893392 -0.37526373790379403 0 0.23572025440614661 -0.38195842678338932 0 0.24795699434168089 -0.35970105813092401 0 0.23677314110955061 -0.36717394062999742 0 0.2486235252893392 -0.37526373790379403 0 0.249458090832507 -0.33990190657442088 0 0.24795699434168089 -0.35970105813092401 0 0.23299839342262979 -0.34981253713130139 0 0.24795699434168089 -0.35970105813092401 0 0.23677314110955061 -0.36717394062999742 0 0.23299839342262979 -0.34981253713130139 0 0.23299839342262979 -0.34981253713130139 0 0.2207461064690989 -0.36726870295006131 0 0.21717878506647181 -0.33754219350441039 0 0.2207461064690989 -0.36726870295006131 0 0.21717878506647181 -0.33754219350441039 0 0.23677314110955061 -0.36717394062999742 0 0.23299839342262979 -0.34981253713130139 0 0.2207461064690989 -0.36726870295006131 0 0.23677314110955061 -0.36717394062999742 0 0.2207461064690989 -0.36726870295006131 0 0.23572025440614661 -0.38195842678338932 0 0.2207461064690989 -0.36726870295006131 0 0.20465575920516699 -0.37123648301107698 0 0.20279597144072711 -0.35319974219218597 0 0.2207461064690989 -0.36726870295006131 0 0.20465575920516699 -0.37123648301107698 0 0.21453199434940931 -0.3804329772062689 0 0.2207461064690989 -0.36726870295006131 0 0.20279597144072711 -0.35319974219218597 0 0.21717878506647181 -0.33754219350441039 0 0.19063773553339089 -0.34861268274156831 0 0.20279597144072711 -0.35319974219218597 0 0.1940857276368845 -0.33592187077047753 0 0.19063773553339089 -0.34861268274156831 0 0.20279597144072711 -0.35319974219218597 0 0.19182700423648741 -0.3598006152260203 0 0.19063773553339089 -0.34861268274156831 0 0.19182700423648741 -0.3598006152260203 0 0.18471346175462791 -0.35152806597550601 0 0.20465575920516699 -0.37123648301107698 0 0.20279597144072711 -0.35319974219218597 0 0.19182700423648741 -0.3598006152260203 0 0.19182700423648741 -0.3598006152260203 0 0.19252850447063119 -0.371336442161119 0 0.18687477358041901 -0.36544735032267528 0 0.19252850447063119 -0.371336442161119 0 0.18427593038848861 -0.37377788177057691 0 0.18687477358041901 -0.36544735032267528 0 0.20465575920516699 -0.37123648301107698 0 0.19182700423648741 -0.3598006152260203 0 0.19252850447063119 -0.371336442161119 0 0.21361146366384481 -0.30781568405875931 0 0.2043318122626816 -0.32127267665605141 0 0.21717878506647181 -0.33754219350441039 0 0.21361146366384481 -0.30781568405875931 0 0.21717878506647181 -0.33754219350441039 0 0.20453799577623269 -0.31051036400218562 0 0.21361146366384481 -0.30781568405875931 0 0.2043318122626816 -0.32127267665605141 0 0.2043318122626816 -0.32127267665605141 0 0.21717878506647181 -0.33754219350441039 0 0.1940857276368845 -0.33592187077047753 0 0.20279597144072711 -0.35319974219218597 0 0.21717878506647181 -0.33754219350441039 0 0.1940857276368845 -0.33592187077047753 0 0.19063773553339089 -0.34861268274156831 0 0.1940857276368845 -0.33592187077047753 0 0.1834568154628631 -0.3432999279273044 0 0.1940857276368845 -0.33592187077047753 0 0.18806819746461309 -0.32201558986647388 0 0.18069304119550181 -0.33425359709724101 0 0.2043318122626816 -0.32127267665605141 0 0.1940857276368845 -0.33592187077047753 0 0.18806819746461309 -0.32201558986647388 0 0.19550492905848191 -0.30751445319551352 0 0.2043318122626816 -0.32127267665605141 0 0.18806819746461309 -0.32201558986647388 0 0.19550492905848191 -0.30751445319551352 0 0.20453799577623269 -0.31051036400218562 0 0.2043318122626816 -0.32127267665605141 0 0.19550492905848191 -0.30751445319551352 0 0.18806819746461309 -0.32201558986647388 0 0.18112552876611571 -0.31099981206061322 0 0.18806819746461309 -0.32201558986647388 0 0.1726681458680128 -0.32213112941894728 0 0.18112552876611571 -0.31099981206061322 0 0.18806819746461309 -0.32201558986647388 0 0.1726681458680128 -0.32213112941894728 0 0.18069304119550181 -0.33425359709724101 0 0.1726681458680128 -0.32213112941894728 0 0.174321349778019 -0.34770207740996922 0 0.1726681458680128 -0.32213112941894728 0 0.18069304119550181 -0.33425359709724101 0 0.174321349778019 -0.34770207740996922 0 0.1940857276368845 -0.33592187077047753 0 0.18069304119550181 -0.33425359709724101 0 0.1834568154628631 -0.3432999279273044 0 0.18069304119550181 -0.33425359709724101 0 0.1834568154628631 -0.3432999279273044 0 0.174321349778019 -0.34770207740996922 0 0.16002434963430351 -0.34004137917559629 0 0.16513065574247021 -0.35216970711433759 0 0.14598600144066851 -0.33282291240334472 0 0.1726681458680128 -0.32213112941894728 0 0.16105002297814869 -0.32692197770862091 0 0.174321349778019 -0.34770207740996922 0 0.16002434963430351 -0.34004137917559629 0 0.16105002297814869 -0.32692197770862091 0 0.16851228833308701 -0.3500975015548059 0 0.16105002297814869 -0.32692197770862091 0 0.174321349778019 -0.34770207740996922 0 0.16851228833308701 -0.3500975015548059 0 0.16105002297814869 -0.32692197770862091 0 0.16851228833308701 -0.3500975015548059 0 0.16002434963430351 -0.34004137917559629 0 0.16105002297814869 -0.32692197770862091 0 0.15509467008815689 -0.33094691097691592 0 0.16105002297814869 -0.32692197770862091 0 0.15331830629950699 -0.32400137462010159 0 0.15509467008815689 -0.33094691097691592 0 0.16105002297814869 -0.32692197770862091 0 0.15896173179909351 -0.31354733135871588 0 0.15331830629950699 -0.32400137462010159 0 0.1726681458680128 -0.32213112941894728 0 0.16105002297814869 -0.32692197770862091 0 0.15896173179909351 -0.31354733135871588 0 0.1759745536880252 -0.373273025400991 0 0.16851228833308701 -0.3500975015548059 0 0.1759745536880252 -0.373273025400991 0 0.174321349778019 -0.34770207740996922 0 0.1759745536880252 -0.373273025400991 0 0.1808146739418304 -0.3655156873045618 0 0.174321349778019 -0.34770207740996922 0 0.1759745536880252 -0.373273025400991 0 0.17975762697986519 -0.37439619487988018 0 0.1808146739418304 -0.3655156873045618 0 0.18427593038848861 -0.37377788177057691 0 0.17975762697986519 -0.37439619487988018 0 0.1808146739418304 -0.3655156873045618 0 0.18427593038848861 -0.37377788177057691 0 0.1808146739418304 -0.3655156873045618 0 0.18687477358041901 -0.36544735032267528 0 0.19182700423648741 -0.3598006152260203 0 0.18687477358041901 -0.36544735032267528 0 0.1833244037623793 -0.35822502657266803 0 0.1808146739418304 -0.3655156873045618 0 0.18687477358041901 -0.36544735032267528 0 0.1833244037623793 -0.35822502657266803 0 0.1759745536880252 -0.373273025400991 0 0.174321349778019 -0.34770207740996922 0 0.16851228833308701 -0.3500975015548059 0 0.1808146739418304 -0.3655156873045618 0 0.1833244037623793 -0.35822502657266803 0 0.174321349778019 -0.34770207740996922 0 0.1833244037623793 -0.35822502657266803 0 0.18471346175462791 -0.35152806597550601 0 0.174321349778019 -0.34770207740996922 0 0.19182700423648741 -0.3598006152260203 0 0.1833244037623793 -0.35822502657266803 0 0.18471346175462791 -0.35152806597550601 0 0.19063773553339089 -0.34861268274156831 0 0.1834568154628631 -0.3432999279273044 0 0.18471346175462791 -0.35152806597550601 0 0.1834568154628631 -0.3432999279273044 0 0.18471346175462791 -0.35152806597550601 0 0.174321349778019 -0.34770207740996922 0 0.1599455624564225 -0.35976042380053891 0 0.15676844330674319 -0.36838655190670172 0 0.15311879317902519 -0.34953088621492739 0 0.16002434963430351 -0.34004137917559629 0 0.16851228833308701 -0.3500975015548059 0 0.16513065574247021 -0.35216970711433759 0 0.1585930897326451 -0.35327028783923092 0 0.16513065574247021 -0.35216970711433759 0 0.15311879317902519 -0.34953088621492739 0 0.1585930897326451 -0.35327028783923092 0 0.1599455624564225 -0.35976042380053891 0 0.15311879317902519 -0.34953088621492739 0 0.1585930897326451 -0.35327028783923092 0 0.16216627238101161 -0.35569886131464201 0 0.16513065574247021 -0.35216970711433759 0 0.1585930897326451 -0.35327028783923092 0 0.16216627238101161 -0.35569886131464201 0 0.1599455624564225 -0.35976042380053891 0 0.16216627238101161 -0.35569886131464201 0 0.16499578159250869 -0.35759502650446051 0 0.1599455624564225 -0.35976042380053891 0 0.16851228833308701 -0.3500975015548059 0 0.16499578159250869 -0.35759502650446051 0 0.16811590539830609 -0.3639734593341184 0 0.16851228833308701 -0.3500975015548059 0 0.16499578159250869 -0.35759502650446051 0 0.16513065574247021 -0.35216970711433759 0 0.16216627238101161 -0.35569886131464201 0 0.16499578159250869 -0.35759502650446051 0 0.16513065574247021 -0.35216970711433759 0 0.1759745536880252 -0.373273025400991 0 0.16811590539830609 -0.3639734593341184 0 0.15676844330674319 -0.36838655190670172 0 0.15676844330674319 -0.36838655190670172 0 0.17627218205678569 -0.37787659516765237 0 0.1759745536880252 -0.373273025400991 0 0.15676844330674319 -0.36838655190670172 0 0.17627218205678569 -0.37787659516765237 0 0.1759745536880252 -0.373273025400991 0 0.16851228833308701 -0.3500975015548059 0 0.16811590539830609 -0.3639734593341184 0 0.15676844330674319 -0.36838655190670172 0 0.17627218205678569 -0.37787659516765237 0 0.16385276723791439 -0.37779546502542088 0 0.16499578159250869 -0.35759502650446051 0 0.16811590539830609 -0.3639734593341184 0 0.1624564231884951 -0.36242886538645491 0 0.16499578159250869 -0.35759502650446051 0 0.1624564231884951 -0.36242886538645491 0 0.1599455624564225 -0.35976042380053891 0 0.1624564231884951 -0.36242886538645491 0 0.1599455624564225 -0.35976042380053891 0 0.15676844330674319 -0.36838655190670172 0 0.16811590539830609 -0.3639734593341184 0 0.1624564231884951 -0.36242886538645491 0 0.15676844330674319 -0.36838655190670172 0 0.15676844330674319 -0.36838655190670172 0 0.16385276723791439 -0.37779546502542088 0 0.15676844330674319 -0.36838655190670172 0 0.134942643881725 -0.35776665059430368 0 0.13884580460497589 -0.37748287045214529 0 0.15676844330674319 -0.36838655190670172 0 0.134942643881725 -0.35776665059430368 0 0.15676844330674319 -0.36838655190670172 0 0.14099906250465871 -0.34744274197588038 0 0.134942643881725 -0.35776665059430368 0 0.16513065574247021 -0.35216970711433759 0 0.15311879317902519 -0.34953088621492739 0 0.14598600144066851 -0.33282291240334472 0 0.15676844330674319 -0.36838655190670172 0 0.15311879317902519 -0.34953088621492739 0 0.14099906250465871 -0.34744274197588038 0 0.15676844330674319 -0.36838655190670172 0 0.14099906250465871 -0.34744274197588038 0 0.14099906250465871 -0.34744274197588038 0 0.134942643881725 -0.35776665059430368 0 0.1261821465740697 -0.34229294288840512 0 0.134942643881725 -0.35776665059430368 0 0.12725451995619561 -0.36966521274644643 0 0.13884580460497589 -0.37748287045214529 0 0.134942643881725 -0.35776665059430368 0 0.12725451995619561 -0.36966521274644643 0 0.11997443032266659 -0.36128539168157792 0 0.14583902740822061 -0.31368504357979721 0 0.15331830629950699 -0.32400137462010159 0 0.14598600144066851 -0.33282291240334472 0 0.15896173179909351 -0.31354733135871588 0 0.14583902740822061 -0.31368504357979721 0 0.15331830629950699 -0.32400137462010159 0 0.16513065574247021 -0.35216970711433759 0 0.14598600144066851 -0.33282291240334472 0 0.15311879317902519 -0.34953088621492739 0 0.14099906250465871 -0.34744274197588038 0 0.14598600144066851 -0.33282291240334472 0 0.16002434963430351 -0.34004137917559629 0 0.15509467008815689 -0.33094691097691592 0 0.14598600144066851 -0.33282291240334472 0 0.15331830629950699 -0.32400137462010159 0 0.15509467008815689 -0.33094691097691592 0 0.14598600144066851 -0.33282291240334472 0 0.14099906250465871 -0.34744274197588038 0 0.12522968170257401 -0.32649893204505931 0 0.14099906250465871 -0.34744274197588038 0 0.1261821465740697 -0.34229294288840512 0 0.12522968170257401 -0.32649893204505931 0 0.14099906250465871 -0.34744274197588038 0 0.14598600144066851 -0.33282291240334472 0 0.12522968170257401 -0.32649893204505931 0 0.14598600144066851 -0.33282291240334472 0 0.12684134713886669 -0.31347611769235179 0 0.12522968170257401 -0.32649893204505931 0 0.14598600144066851 -0.33282291240334472 0 0.12684134713886669 -0.31347611769235179 0 0.14583902740822061 -0.31368504357979721 0 0.14598600144066851 -0.33282291240334472 0 0.12684134713886669 -0.31347611769235179 0 0.14583902740822061 -0.31368504357979721 0 0.12684134713886669 -0.31347611769235179 0 0.1397796845354127 -0.30099952800939828 0 0.12684134713886669 -0.31347611769235179 0 0.1397796845354127 -0.30099952800939828 0 0.12773706826987269 -0.29344404498182097 0 0.14583902740822061 -0.31368504357979721 0 0.1397796845354127 -0.30099952800939828 0 0.1523420319251656 -0.30204290435419717 0 0.15896173179909351 -0.31354733135871588 0 0.14583902740822061 -0.31368504357979721 0 0.1523420319251656 -0.30204290435419717 0 0.1397796845354127 -0.30099952800939828 0 0.1523420319251656 -0.30204290435419717 0 0.14611477392509481 -0.28542243739514939 0 0.14611477392509481 -0.28542243739514939 0 0.12773706826987269 -0.29344404498182097 0 0.1212146058921835 -0.27428469336237271 0 0.1397796845354127 -0.30099952800939828 0 0.14611477392509481 -0.28542243739514939 0 0.12773706826987269 -0.29344404498182097 0 0.14611477392509481 -0.28542243739514939 0 0.1442300507489096 -0.25955745300895983 0 0.1212146058921835 -0.27428469336237271 0 0.14611477392509481 -0.28542243739514939 0 0.1212146058921835 -0.27428469336237271 0 0.1284018024931908 -0.25439569680934893 0 0.1442300507489096 -0.25955745300895983 0 0.1212146058921835 -0.27428469336237271 0 0.1442300507489096 -0.25955745300895983 0 0.1579158558967115 -0.26653609250655769 0 0.1567649187369701 -0.2477814471462626 0 0.14611477392509481 -0.28542243739514939 0 0.1442300507489096 -0.25955745300895983 0 0.1579158558967115 -0.26653609250655769 0 0.14611477392509481 -0.28542243739514939 0 0.1579158558967115 -0.26653609250655769 0 0.16074813535372021 -0.2813882458136624 0 0.1579158558967115 -0.26653609250655769 0 0.17072021218006009 -0.27261408244778917 0 0.16074813535372021 -0.2813882458136624 0 0.17072021218006009 -0.27261408244778917 0 0.16074813535372021 -0.2813882458136624 0 0.17028754237001531 -0.28530912103504952 0 0.1579158558967115 -0.26653609250655769 0 0.17072021218006009 -0.27261408244778917 0 0.17090619971108759 -0.25322506140830192 0 0.1579158558967115 -0.26653609250655769 0 0.17090619971108759 -0.25322506140830192 0 0.1567649187369701 -0.2477814471462626 0 0.17090619971108759 -0.25322506140830192 0 0.18439312041272921 -0.26696631368910501 0 0.18477260126701189 -0.24804654939694321 0 0.17072021218006009 -0.27261408244778917 0 0.17090619971108759 -0.25322506140830192 0 0.18439312041272921 -0.26696631368910501 0 0.17072021218006009 -0.27261408244778917 0 0.18439312041272921 -0.26696631368910501 0 0.1820912460657336 -0.28077092951692129 0 0.17072021218006009 -0.27261408244778917 0 0.1820912460657336 -0.28077092951692129 0 0.17028754237001531 -0.28530912103504952 0 0.1950826415222521 -0.2778323907864374 0 0.18439312041272921 -0.26696631368910501 0 0.1820912460657336 -0.28077092951692129 0 0.1907659590886942 -0.28993009147832982 0 0.1820912460657336 -0.28077092951692129 0 0.1812980008206507 -0.29197357766481669 0 0.1820912460657336 -0.28077092951692129 0 0.1812980008206507 -0.29197357766481669 0 0.17028754237001531 -0.28530912103504952 0 0.1812980008206507 -0.29197357766481669 0 0.17028754237001531 -0.28530912103504952 0 0.1710149419580064 -0.29656018142792562 0 0.19550492905848191 -0.30751445319551352 0 0.1710149419580064 -0.29656018142792562 0 0.19550492905848191 -0.30751445319551352 0 0.18112552876611571 -0.31099981206061322 0 0.1710149419580064 -0.29656018142792562 0 0.19550492905848191 -0.30751445319551352 0 0.1812980008206507 -0.29197357766481669 0 0.1710149419580064 -0.29656018142792562 0 0.1726681458680128 -0.32213112941894728 0 0.18112552876611571 -0.31099981206061322 0 0.1710149419580064 -0.29656018142792562 0 0.1726681458680128 -0.32213112941894728 0 0.15896173179909351 -0.31354733135871588 0 0.1710149419580064 -0.29656018142792562 0 0.1726681458680128 -0.32213112941894728 0 0.1710149419580064 -0.29656018142792562 0 0.15896173179909351 -0.31354733135871588 0 0.1523420319251656 -0.30204290435419717 0 0.1710149419580064 -0.29656018142792562 0 0.1523420319251656 -0.30204290435419717 0 0.14611477392509481 -0.28542243739514939 0 0.1710149419580064 -0.29656018142792562 0 0.14611477392509481 -0.28542243739514939 0 0.16074813535372021 -0.2813882458136624 0 0.1710149419580064 -0.29656018142792562 0 0.14611477392509481 -0.28542243739514939 0 0.1710149419580064 -0.29656018142792562 0 0.16074813535372021 -0.2813882458136624 0 0.17028754237001531 -0.28530912103504952 0 0.1710149419580064 -0.29656018142792562 0 0.17028754237001531 -0.28530912103504952 0 0.1710149419580064 -0.29656018142792562 0 0.20476709143521021 -0.5 0 0.1865940872914689 -0.48333291755796298 0 0.20476709143521021 -0.5 0 0.1865940872914689 -0.48333291755796298 0 0.1763845582976924 -0.5 0 0.20476709143521021 -0.5 0 0.2118204540253433 -0.48530813137607559 0 0.1865940872914689 -0.48333291755796298 0 0.2036568376166252 -0.46925075840349062 0 0.2118204540253433 -0.48530813137607559 0 0.1865940872914689 -0.48333291755796298 0 0.2036568376166252 -0.46925075840349062 0 0.18580573865707181 -0.46107370259783359 0 0.1865940872914689 -0.48333291755796298 0 0.2036568376166252 -0.46925075840349062 0 0.2118204540253433 -0.48530813137607559 0 0.22121605617351781 -0.47134936791464999 0 0.20476709143521021 -0.5 0 0.2118204540253433 -0.48530813137607559 0 0.2277823814355994 -0.5 0 0.2118204540253433 -0.48530813137607559 0 0.2277823814355994 -0.5 0 0.23878849170555491 -0.48082748886226789 0 0.25079767143598858 -0.5 0 0.2277823814355994 -0.5 0 0.23878849170555491 -0.48082748886226789 0 0.25405696806359668 -0.46712639438704973 0 0.23878849170555491 -0.48082748886226789 0 0.23645246484656179 -0.46172570508662408 0 0.23878849170555491 -0.48082748886226789 0 0.22121605617351781 -0.47134936791464999 0 0.23645246484656179 -0.46172570508662408 0 0.2118204540253433 -0.48530813137607559 0 0.23878849170555491 -0.48082748886226789 0 0.22121605617351781 -0.47134936791464999 0 0.22121605617351781 -0.47134936791464999 0 0.23645246484656179 -0.46172570508662408 0 0.21643121545891711 -0.4563880163436978 0 0.23645246484656179 -0.46172570508662408 0 0.2300111944658573 -0.44447473368438217 0 0.21643121545891711 -0.4563880163436978 0 0.25388527004609263 -0.4480025900625505 0 0.25405696806359668 -0.46712639438704973 0 0.23645246484656179 -0.46172570508662408 0 0.25388527004609263 -0.4480025900625505 0 0.2300111944658573 -0.44447473368438217 0 0.24917355477919639 -0.43118944032294948 0 0.25388527004609263 -0.4480025900625505 0 0.23645246484656179 -0.46172570508662408 0 0.2300111944658573 -0.44447473368438217 0 0.21643121545891711 -0.4563880163436978 0 0.20019237267889561 -0.45440173701607561 0 0.20705836697204461 -0.43712579595696421 0 0.2300111944658573 -0.44447473368438217 0 0.21643121545891711 -0.4563880163436978 0 0.20705836697204461 -0.43712579595696421 0 0.2036568376166252 -0.46925075840349062 0 0.22121605617351781 -0.47134936791464999 0 0.21643121545891711 -0.4563880163436978 0 0.2036568376166252 -0.46925075840349062 0 0.21643121545891711 -0.4563880163436978 0 0.20019237267889561 -0.45440173701607561 0 0.2036568376166252 -0.46925075840349062 0 0.20019237267889561 -0.45440173701607561 0 0.18580573865707181 -0.46107370259783359 0 0.20019237267889561 -0.45440173701607561 0 0.1856550639965385 -0.44282070391938488 0 0.18580573865707181 -0.46107370259783359 0 0.20019237267889561 -0.45440173701607561 0 0.20705836697204461 -0.43712579595696421 0 0.1856550639965385 -0.44282070391938488 0 0.20705836697204461 -0.43712579595696421 0 0.18455499271052991 -0.42450686095695572 0 0.1856550639965385 -0.44282070391938488 0 0.20490748799253489 -0.41469486244176851 0 0.20705836697204461 -0.43712579595696421 0 0.18455499271052991 -0.42450686095695572 0 0.20490748799253489 -0.41469486244176851 0 0.18455499271052991 -0.42450686095695572 0 0.19087428120130601 -0.41954704191759451 0 0.18853976254332969 -0.41229673785389792 0 0.20490748799253489 -0.41469486244176851 0 0.19087428120130601 -0.41954704191759451 0 0.20490748799253489 -0.41469486244176851 0 0.18455499271052991 -0.42450686095695572 0 0.19087428120130601 -0.41954704191759451 0 0.18853976254332969 -0.41229673785389792 0 0.18455499271052991 -0.42450686095695572 0 0.18853976254332969 -0.41229673785389792 0 0.2065514208693828 -0.40568614807178238 0 0.18853976254332969 -0.41229673785389792 0 0.20490748799253489 -0.41469486244176851 0 0.2065514208693828 -0.40568614807178238 0 0.19087428120130601 -0.41954704191759451 0 0.18853976254332969 -0.41229673785389792 0 0.20490748799253489 -0.41469486244176851 0 0.22525998327453881 -0.40488286392657941 0 0.2065514208693828 -0.40568614807178238 0 0.20490748799253489 -0.41469486244176851 0 0.22525998327453881 -0.40488286392657941 0 0.20490748799253489 -0.41469486244176851 0 0.20705836697204461 -0.43712579595696421 0 0.22763558887019769 -0.42467879880548087 0 0.2300111944658573 -0.44447473368438217 0 0.20705836697204461 -0.43712579595696421 0 0.22763558887019769 -0.42467879880548087 0 0.2300111944658573 -0.44447473368438217 0 0.22763558887019769 -0.42467879880548087 0 0.2300111944658573 -0.44447473368438217 0 0.22763558887019769 -0.42467879880548087 0 0.2385649930928829 -0.42538279469360191 0 0.2300111944658573 -0.44447473368438217 0 0.2385649930928829 -0.42538279469360191 0 0.24917355477919639 -0.43118944032294948 0 0.25024811694683369 -0.41736451027524291 0 0.2385649930928829 -0.42538279469360191 0 0.24917355477919639 -0.43118944032294948 0 0.23941977658172711 -0.41439854984317698 0 0.24640607152511901 -0.40354910124830851 0 0.25024811694683369 -0.41736451027524291 0 0.23941977658172711 -0.41439854984317698 0 0.24640607152511901 -0.40354910124830851 0 0.25024811694683369 -0.41736451027524291 0 0.2385649930928829 -0.42538279469360191 0 0.23941977658172711 -0.41439854984317698 0 0.22763558887019769 -0.42467879880548087 0 0.2385649930928829 -0.42538279469360191 0 0.23941977658172711 -0.41439854984317698 0 0.23941977658172711 -0.41439854984317698 0 0.2329583111898923 -0.40566845750628389 0 0.24640607152511901 -0.40354910124830851 0 0.22763558887019769 -0.42467879880548087 0 0.22525998327453881 -0.40488286392657941 0 0.2329583111898923 -0.40566845750628389 0 0.20490748799253489 -0.41469486244176851 0 0.22763558887019769 -0.42467879880548087 0 0.22525998327453881 -0.40488286392657941 0 0.22763558887019769 -0.42467879880548087 0 0.23941977658172711 -0.41439854984317698 0 0.2329583111898923 -0.40566845750628389 0 0.22763558887019769 -0.42467879880548087 0 0.22525998327453881 -0.40488286392657941 0 0.22456307919543569 -0.39907555828966629 0 0.22525998327453881 -0.40488286392657941 0 0.2065514208693828 -0.40568614807178238 0 0.22456307919543569 -0.39907555828966629 0 0.2243134278717262 -0.39699521239571239 0 0.2114277957754272 -0.3993093732267477 0 0.22456307919543569 -0.39907555828966629 0 0.22525998327453881 -0.40488286392657941 0 0.22456307919543569 -0.39907555828966629 0 0.2243134278717262 -0.39699521239571239 0 0.2243134278717262 -0.39699521239571239 0 0.23590191921166151 -0.39491400810947758 0 0.22456307919543569 -0.39907555828966629 0 0.2243134278717262 -0.39699521239571239 0 0.23590191921166151 -0.39491400810947758 0 0.2243134278717262 -0.39699521239571239 0 0.23590191921166151 -0.39491400810947758 0 0.23572025440614661 -0.38195842678338932 0 0.22456307919543569 -0.39907555828966629 0 0.23590191921166151 -0.39491400810947758 0 0.22456307919543569 -0.39907555828966629 0 0.2329583111898923 -0.40566845750628389 0 0.23590191921166151 -0.39491400810947758 0 0.22456307919543569 -0.39907555828966629 0 0.22525998327453881 -0.40488286392657941 0 0.2329583111898923 -0.40566845750628389 0 0.2329583111898923 -0.40566845750628389 0 0.23590191921166151 -0.39491400810947758 0 0.24640607152511901 -0.40354910124830851 0 0.25406719941904499 -0.39165166291549969 0 0.23590191921166151 -0.39491400810947758 0 0.24640607152511901 -0.40354910124830851 0 0.2569380138976522 -0.38719339793192148 0 0.23590191921166151 -0.39491400810947758 0 0.2329583111898923 -0.40566845750628389 0 0.24640607152511901 -0.40354910124830851 0 0.2569380138976522 -0.38719339793192148 0 0.25406719941904499 -0.39165166291549969 0 0.23590191921166151 -0.39491400810947758 0 0.25406719941904499 -0.39165166291549969 0 0.23590191921166151 -0.39491400810947758 0 0.2569380138976522 -0.38719339793192148 0 0.23590191921166151 -0.39491400810947758 0 0.24905319067607451 -0.3892023385860352 0 0.2486235252893392 -0.37526373790379403 0 0.24905319067607451 -0.3892023385860352 0 0.23572025440614661 -0.38195842678338932 0 0.23590191921166151 -0.39491400810947758 0 0.24905319067607451 -0.3892023385860352 0 0.23572025440614661 -0.38195842678338932 0 0.2207461064690989 -0.36726870295006131 0 0.2243134278717262 -0.39699521239571239 0 0.21453199434940931 -0.3804329772062689 0 0.2207461064690989 -0.36726870295006131 0 0.2243134278717262 -0.39699521239571239 0 0.23572025440614661 -0.38195842678338932 0 0.2207461064690989 -0.36726870295006131 0 0.2243134278717262 -0.39699521239571239 0 0.2243134278717262 -0.39699521239571239 0 0.21453199434940931 -0.3804329772062689 0 0.21414090913747291 -0.38904932083865229 0 0.20655617652088959 -0.38424070016840822 0 0.2098635803233864 -0.39422134972119449 0 0.1937702596287271 -0.38639073265018131 0 0.20465575920516699 -0.37123648301107698 0 0.21453199434940931 -0.3804329772062689 0 0.20655617652088959 -0.38424070016840822 0 0.20655617652088959 -0.38424070016840822 0 0.21414090913747291 -0.38904932083865229 0 0.2098635803233864 -0.39422134972119449 0 0.21453199434940931 -0.3804329772062689 0 0.20655617652088959 -0.38424070016840822 0 0.21414090913747291 -0.38904932083865229 0 0.2243134278717262 -0.39699521239571239 0 0.2114277957754272 -0.3993093732267477 0 0.2243134278717262 -0.39699521239571239 0 0.2160564080325986 -0.39467374108888009 0 0.2114277957754272 -0.3993093732267477 0 0.2243134278717262 -0.39699521239571239 0 0.21414090913747291 -0.38904932083865229 0 0.2160564080325986 -0.39467374108888009 0 0.22456307919543569 -0.39907555828966629 0 0.2114277957754272 -0.3993093732267477 0 0.2065514208693828 -0.40568614807178238 0 0.22456307919543569 -0.39907555828966629 0 0.2065514208693828 -0.40568614807178238 0 0.2160564080325986 -0.39467374108888009 0 0.2114277957754272 -0.3993093732267477 0 0.2098635803233864 -0.39422134972119449 0 0.21414090913747291 -0.38904932083865229 0 0.2160564080325986 -0.39467374108888009 0 0.2098635803233864 -0.39422134972119449 0 0.2065828875049355 -0.39909072284345531 0 0.2065514208693828 -0.40568614807178238 0 0.19848875305154551 -0.3971460203540963 0 0.2114277957754272 -0.3993093732267477 0 0.2065828875049355 -0.39909072284345531 0 0.2065514208693828 -0.40568614807178238 0 0.2065828875049355 -0.39909072284345531 0 0.2098635803233864 -0.39422134972119449 0 0.19848875305154551 -0.3971460203540963 0 0.2114277957754272 -0.3993093732267477 0 0.2065828875049355 -0.39909072284345531 0 0.2098635803233864 -0.39422134972119449 0 0.18853976254332969 -0.41229673785389792 0 0.19848875305154551 -0.3971460203540963 0 0.18310835073869869 -0.395428426716533 0 0.18853976254332969 -0.41229673785389792 0 0.2065514208693828 -0.40568614807178238 0 0.19848875305154551 -0.3971460203540963 0 0.2098635803233864 -0.39422134972119449 0 0.19848875305154551 -0.3971460203540963 0 0.1937702596287271 -0.38639073265018131 0 0.19848875305154551 -0.3971460203540963 0 0.1937702596287271 -0.38639073265018131 0 0.18310835073869869 -0.395428426716533 0 0.2098635803233864 -0.39422134972119449 0 0.1937702596287271 -0.38639073265018131 0 0.19252850447063119 -0.371336442161119 0 0.18427593038848861 -0.37377788177057691 0 0.1937702596287271 -0.38639073265018131 0 0.20465575920516699 -0.37123648301107698 0 0.20655617652088959 -0.38424070016840822 0 0.1937702596287271 -0.38639073265018131 0 0.20465575920516699 -0.37123648301107698 0 0.19252850447063119 -0.371336442161119 0 0.1937702596287271 -0.38639073265018131 0 0.17678778867768899 -0.38585174572660291 0 0.17627218205678569 -0.37787659516765237 0 0.18310835073869869 -0.395428426716533 0 0.17627218205678569 -0.37787659516765237 0 0.18310835073869869 -0.395428426716533 0 0.1937702596287271 -0.38639073265018131 0 0.17627218205678569 -0.37787659516765237 0 0.1937702596287271 -0.38639073265018131 0 0.17627218205678569 -0.37787659516765237 0 0.18310835073869869 -0.395428426716533 0 0.18427593038848861 -0.37377788177057691 0 0.1937702596287271 -0.38639073265018131 0 0.17627218205678569 -0.37787659516765237 0 0.17678778867768899 -0.38585174572660291 0 0.17139024675331641 -0.39375948522412552 0 0.16928029008819051 -0.38453802724033342 0 0.17678778867768899 -0.38585174572660291 0 0.17627218205678569 -0.37787659516765237 0 0.16928029008819051 -0.38453802724033342 0 0.17678778867768899 -0.38585174572660291 0 0.17627218205678569 -0.37787659516765237 0 0.1759745536880252 -0.373273025400991 0 0.17975762697986519 -0.37439619487988018 0 0.17627218205678569 -0.37787659516765237 0 0.1759745536880252 -0.373273025400991 0 0.17627218205678569 -0.37787659516765237 0 0.18427593038848861 -0.37377788177057691 0 0.17975762697986519 -0.37439619487988018 0 0.17627218205678569 -0.37787659516765237 0 0.18853976254332969 -0.41229673785389792 0 0.18310835073869869 -0.395428426716533 0 0.18853976254332969 -0.41229673785389792 0 0.18310835073869869 -0.395428426716533 0 0.1758383815355051 -0.40587703262204827 0 0.18310835073869869 -0.395428426716533 0 0.1758383815355051 -0.40587703262204827 0 0.17139024675331641 -0.39375948522412552 0 0.17678778867768899 -0.38585174572660291 0 0.18310835073869869 -0.395428426716533 0 0.17139024675331641 -0.39375948522412552 0 0.17139024675331641 -0.39375948522412552 0 0.16344408517006209 -0.4018401204234342 0 0.1598825843097528 -0.38902155861580112 0 0.1758383815355051 -0.40587703262204827 0 0.17139024675331641 -0.39375948522412552 0 0.16344408517006209 -0.4018401204234342 0 0.17139024675331641 -0.39375948522412552 0 0.1598825843097528 -0.38902155861580112 0 0.16928029008819051 -0.38453802724033342 0 0.1598825843097528 -0.38902155861580112 0 0.16928029008819051 -0.38453802724033342 0 0.16385276723791439 -0.37779546502542088 0 0.17627218205678569 -0.37787659516765237 0 0.16928029008819051 -0.38453802724033342 0 0.16385276723791439 -0.37779546502542088 0 0.1598825843097528 -0.38902155861580112 0 0.16385276723791439 -0.37779546502542088 0 0.1513215346333695 -0.37985921723184107 0 0.15676844330674319 -0.36838655190670172 0 0.16385276723791439 -0.37779546502542088 0 0.1513215346333695 -0.37985921723184107 0 0.1513215346333695 -0.37985921723184107 0 0.13884580460497589 -0.37748287045214529 0 0.14142790299556071 -0.39741517481003658 0 0.1598825843097528 -0.38902155861580112 0 0.1513215346333695 -0.37985921723184107 0 0.14142790299556071 -0.39741517481003658 0 0.15676844330674319 -0.36838655190670172 0 0.1513215346333695 -0.37985921723184107 0 0.13884580460497589 -0.37748287045214529 0 0.13884580460497589 -0.37748287045214529 0 0.12517983724594761 -0.38184384705093849 0 0.14142790299556071 -0.39741517481003658 0 0.12725451995619561 -0.36966521274644643 0 0.13884580460497589 -0.37748287045214529 0 0.12517983724594761 -0.38184384705093849 0 0.12517983724594761 -0.38184384705093849 0 0.14142790299556071 -0.39741517481003658 0 0.1131381689462954 -0.39378605836187702 0 0.14142790299556071 -0.39741517481003658 0 0.1131381689462954 -0.39378605836187702 0 0.14142790299556071 -0.39741517481003658 0 0.12138725619122601 -0.40582348381147548 0 0.1131381689462954 -0.39378605836187702 0 0.16344408517006209 -0.4018401204234342 0 0.14142790299556071 -0.39741517481003658 0 0.15235064514107699 -0.41204029760121691 0 0.16344408517006209 -0.4018401204234342 0 0.1598825843097528 -0.38902155861580112 0 0.14142790299556071 -0.39741517481003658 0 0.15235064514107699 -0.41204029760121691 0 0.13650890774812771 -0.41554019669586117 0 0.15073496567997971 -0.42617175143320207 0 0.14142790299556071 -0.39741517481003658 0 0.15235064514107699 -0.41204029760121691 0 0.13650890774812771 -0.41554019669586117 0 0.14142790299556071 -0.39741517481003658 0 0.13650890774812771 -0.41554019669586117 0 0.12138725619122601 -0.40582348381147548 0 0.13650890774812771 -0.41554019669586117 0 0.13183256724830639 -0.43310925822285867 0 0.15073496567997971 -0.42617175143320207 0 0.13650890774812771 -0.41554019669586117 0 0.13183256724830639 -0.43310925822285867 0 0.1158979561714838 -0.41849508247082101 0 0.13183256724830639 -0.43310925822285867 0 0.15073496567997971 -0.42617175143320207 0 0.13183256724830639 -0.43310925822285867 0 0.15073496567997971 -0.42617175143320207 0 0.14385000214651991 -0.44413085798733021 0 0.15073496567997971 -0.42617175143320207 0 0.16420249742852491 -0.43431885947214299 0 0.14385000214651991 -0.44413085798733021 0 0.15073496567997971 -0.42617175143320207 0 0.16420249742852491 -0.43431885947214299 0 0.16963736411165459 -0.41923424464354958 0 0.15073496567997971 -0.42617175143320207 0 0.16963736411165459 -0.41923424464354958 0 0.16344408517006209 -0.4018401204234342 0 0.15235064514107699 -0.41204029760121691 0 0.16963736411165459 -0.41923424464354958 0 0.1758383815355051 -0.40587703262204827 0 0.16344408517006209 -0.4018401204234342 0 0.16963736411165459 -0.41923424464354958 0 0.15235064514107699 -0.41204029760121691 0 0.15073496567997971 -0.42617175143320207 0 0.16963736411165459 -0.41923424464354958 0 0.18853976254332969 -0.41229673785389792 0 0.16963736411165459 -0.41923424464354958 0 0.18455499271052991 -0.42450686095695572 0 0.18853976254332969 -0.41229673785389792 0 0.1758383815355051 -0.40587703262204827 0 0.16963736411165459 -0.41923424464354958 0 0.18853976254332969 -0.41229673785389792 0 0.16963736411165459 -0.41923424464354958 0 0.16420249742852491 -0.43431885947214299 0 0.18455499271052991 -0.42450686095695572 0 0.1856550639965385 -0.44282070391938488 0 0.16420249742852491 -0.43431885947214299 0 0.16963736411165459 -0.41923424464354958 0 0.18455499271052991 -0.42450686095695572 0 0.16420249742852491 -0.43431885947214299 0 0.18455499271052991 -0.42450686095695572 0 0.16420249742852491 -0.43431885947214299 0 0.1856550639965385 -0.44282070391938488 0 0.1703149872111748 -0.44997026357416209 0 0.1856550639965385 -0.44282070391938488 0 0.18580573865707181 -0.46107370259783359 0 0.1703149872111748 -0.44997026357416209 0 0.18580573865707181 -0.46107370259783359 0 0.16842108314772761 -0.46666583511592608 0 0.1703149872111748 -0.44997026357416209 0 0.16842108314772761 -0.46666583511592608 0 0.1536201494627446 -0.44806990196086938 0 0.15024807900398349 -0.44999875267389222 0 0.16842108314772761 -0.46666583511592608 0 0.1703149872111748 -0.44997026357416209 0 0.1536201494627446 -0.44806990196086938 0 0.16842108314772761 -0.46666583511592608 0 0.15024807900398349 -0.44999875267389222 0 0.16420249742852491 -0.43431885947214299 0 0.1703149872111748 -0.44997026357416209 0 0.1536201494627446 -0.44806990196086938 0 0.16420249742852491 -0.43431885947214299 0 0.1536201494627446 -0.44806990196086938 0 0.14385000214651991 -0.44413085798733021 0 0.16420249742852491 -0.43431885947214299 0 0.14385000214651991 -0.44413085798733021 0 0.15024807900398349 -0.44999875267389222 0 0.14385000214651991 -0.44413085798733021 0 0.1303229046546269 -0.45065231192534461 0 0.1536201494627446 -0.44806990196086938 0 0.15024807900398349 -0.44999875267389222 0 0.14385000214651991 -0.44413085798733021 0 0.1536201494627446 -0.44806990196086938 0 0.15024807900398349 -0.44999875267389222 0 0.15024807900398349 -0.44999875267389222 0 0.14385000214651991 -0.44413085798733021 0 0.13183256724830639 -0.43310925822285867 0 0.14385000214651991 -0.44413085798733021 0 0.13183256724830639 -0.43310925822285867 0 0.14385000214651991 -0.44413085798733021 0 0.12893727280907341 -0.44231123750735069 0 0.14385000214651991 -0.44413085798733021 0 0.1303229046546269 -0.45065231192534461 0 0.14385000214651991 -0.44413085798733021 0 0.1303229046546269 -0.45065231192534461 0 0.12893727280907341 -0.44231123750735069 0 0.1303229046546269 -0.45065231192534461 0 0.12893727280907341 -0.44231123750735069 0 0.12174374633063501 -0.44981089461588802 0 0.13183256724830639 -0.43310925822285867 0 0.12893727280907341 -0.44231123750735069 0 0.1202287093499108 -0.44286905811385768 0 0.15024807900398349 -0.44999875267389222 0 0.12934456146542619 -0.46195572842575078 0 0.15024807900398349 -0.44999875267389222 0 0.1303229046546269 -0.45065231192534461 0 0.12934456146542619 -0.46195572842575078 0 0.1303229046546269 -0.45065231192534461 0 0.12934456146542619 -0.46195572842575078 0 0.12035288374125951 -0.45849298428064572 0 0.16842108314772761 -0.46666583511592608 0 0.15024807900398349 -0.44999875267389222 0 0.14818527923923969 -0.47257216873077212 0 0.15024807900398349 -0.44999875267389222 0 0.12934456146542619 -0.46195572842575078 0 0.14818527923923969 -0.47257216873077212 0 0.12934456146542619 -0.46195572842575078 0 0.14818527923923969 -0.47257216873077212 0 0.12760324301467479 -0.48288041514247121 0 0.12760324301467479 -0.48288041514247121 0 0.14800202516017461 -0.5 0 0.1196194920226568 -0.5 0 0.14818527923923969 -0.47257216873077212 0 0.14800202516017461 -0.5 0 0.16219329172893349 -0.48577195662546441 0 0.14818527923923969 -0.47257216873077212 0 0.12760324301467479 -0.48288041514247121 0 0.14800202516017461 -0.5 0 0.14800202516017461 -0.5 0 0.16219329172893349 -0.48577195662546441 0 0.1763845582976924 -0.5 0 0.16842108314772761 -0.46666583511592608 0 0.14818527923923969 -0.47257216873077212 0 0.16219329172893349 -0.48577195662546441 0 0.16842108314772761 -0.46666583511592608 0 0.16219329172893349 -0.48577195662546441 0 0.1865940872914689 -0.48333291755796298 0 0.18580573865707181 -0.46107370259783359 0 0.16842108314772761 -0.46666583511592608 0 0.1865940872914689 -0.48333291755796298 0 0.16842108314772761 -0.46666583511592608 0 0.1865940872914689 -0.48333291755796298 0 0.16219329172893349 -0.48577195662546441 0 0.1865940872914689 -0.48333291755796298 0 0.1763845582976924 -0.5 0 0.066634008849752929 -0.49782665568132312 0 0.087537526388310707 -0.48586967992946561 0 0.066634008849752929 -0.49782665568132312 0 0.075791752376312332 -0.48369059752775773 0 0.087537526388310707 -0.48586967992946561 0 0.066634008849752929 -0.49782665568132312 0 0.062854425747621123 -0.5 0 0.091236958885138941 -0.5 0 0.066634008849752929 -0.49782665568132312 0 0.067623185916694528 -0.48757774077778893 0 0.075791752376312332 -0.48369059752775773 0 0.066634008849752929 -0.49782665568132312 0 0.067623185916694528 -0.48757774077778893 0 0.057677045661119079 -0.48662306979380399 0 0.067623185916694528 -0.48757774077778893 0 0.069990483642720688 -0.47723617612893138 0 0.057677045661119079 -0.48662306979380399 0 0.069990483642720688 -0.47723617612893138 0 0.062831140545445904 -0.45935847994314499 0 0.057677045661119079 -0.48662306979380399 0 0.069990483642720688 -0.47723617612893138 0 0.075791752376312332 -0.48369059752775773 0 0.084166154185529335 -0.46811089900678199 0 0.067623185916694528 -0.48757774077778893 0 0.069990483642720688 -0.47723617612893138 0 0.075791752376312332 -0.48369059752775773 0 0.087537526388310707 -0.48586967992946561 0 0.094838069889482901 -0.47199273650265511 0 0.084166154185529335 -0.46811089900678199 0 0.075791752376312332 -0.48369059752775773 0 0.087537526388310707 -0.48586967992946561 0 0.084166154185529335 -0.46811089900678199 0 0.066634008849752929 -0.49782665568132312 0 0.087537526388310707 -0.48586967992946561 0 0.091236958885138941 -0.5 0 0.091236958885138941 -0.5 0 0.1058792166576648 -0.48874529967684233 0 0.1196194920226568 -0.5 0 0.087537526388310707 -0.48586967992946561 0 0.091236958885138941 -0.5 0 0.1058792166576648 -0.48874529967684233 0 0.12760324301467479 -0.48288041514247121 0 0.1058792166576648 -0.48874529967684233 0 0.1196194920226568 -0.5 0 0.12760324301467479 -0.48288041514247121 0 0.1058792166576648 -0.48874529967684233 0 0.1084410439268684 -0.47391270417760822 0 0.12934456146542619 -0.46195572842575078 0 0.12760324301467479 -0.48288041514247121 0 0.1084410439268684 -0.47391270417760822 0 0.087537526388310707 -0.48586967992946561 0 0.1058792166576648 -0.48874529967684233 0 0.1084410439268684 -0.47391270417760822 0 0.087537526388310707 -0.48586967992946561 0 0.1084410439268684 -0.47391270417760822 0 0.087537526388310707 -0.48586967992946561 0 0.1084410439268684 -0.47391270417760822 0 0.094838069889482901 -0.47199273650265511 0 0.1084410439268684 -0.47391270417760822 0 0.099207555057223132 -0.46007766289676438 0 0.11191216232874079 -0.45613328225863659 0 0.1084410439268684 -0.47391270417760822 0 0.094838069889482901 -0.47199273650265511 0 0.099207555057223132 -0.46007766289676438 0 0.099207555057223132 -0.46007766289676438 0 0.1032401387759509 -0.45134886670592489 0 0.086288594501165952 -0.44929695168096112 0 0.099207555057223132 -0.46007766289676438 0 0.11191216232874079 -0.45613328225863659 0 0.1032401387759509 -0.45134886670592489 0 0.1084410439268684 -0.47391270417760822 0 0.11191216232874079 -0.45613328225863659 0 0.12035288374125951 -0.45849298428064572 0 0.12934456146542619 -0.46195572842575078 0 0.1084410439268684 -0.47391270417760822 0 0.12934456146542619 -0.46195572842575078 0 0.1084410439268684 -0.47391270417760822 0 0.12035288374125951 -0.45849298428064572 0 0.11191216232874079 -0.45613328225863659 0 0.12035288374125951 -0.45849298428064572 0 0.12174374633063501 -0.44981089461588802 0 0.13183256724830639 -0.43310925822285867 0 0.10570891787707461 -0.44269708886447912 0 0.13183256724830639 -0.43310925822285867 0 0.1202287093499108 -0.44286905811385768 0 0.10570891787707461 -0.44269708886447912 0 0.12893727280907341 -0.44231123750735069 0 0.1202287093499108 -0.44286905811385768 0 0.12174374633063501 -0.44981089461588802 0 0.1303229046546269 -0.45065231192534461 0 0.12035288374125951 -0.45849298428064572 0 0.12174374633063501 -0.44981089461588802 0 0.1202287093499108 -0.44286905811385768 0 0.12174374633063501 -0.44981089461588802 0 0.11308346411554999 -0.44853934782878319 0 0.11191216232874079 -0.45613328225863659 0 0.12174374633063501 -0.44981089461588802 0 0.11308346411554999 -0.44853934782878319 0 0.11191216232874079 -0.45613328225863659 0 0.11308346411554999 -0.44853934782878319 0 0.1032401387759509 -0.45134886670592489 0 0.1202287093499108 -0.44286905811385768 0 0.11308346411554999 -0.44853934782878319 0 0.10570891787707461 -0.44269708886447912 0 0.1100034814817455 -0.43924187324545028 0 0.10570891787707461 -0.44269708886447912 0 0.11854301372872771 -0.43546217015475452 0 0.1100034814817455 -0.43924187324545028 0 0.10570891787707461 -0.44269708886447912 0 0.086288594501165952 -0.44929695168096112 0 0.1100034814817455 -0.43924187324545028 0 0.080820163809380702 -0.43851070310554341 0 0.1100034814817455 -0.43924187324545028 0 0.086288594501165952 -0.44929695168096112 0 0.10570891787707461 -0.44269708886447912 0 0.1032401387759509 -0.45134886670592489 0 0.086288594501165952 -0.44929695168096112 0 0.11308346411554999 -0.44853934782878319 0 0.10570891787707461 -0.44269708886447912 0 0.1032401387759509 -0.45134886670592489 0 0.1100034814817455 -0.43924187324545028 0 0.080820163809380702 -0.43851070310554341 0 0.086288594501165952 -0.44929695168096112 0 0.099207555057223132 -0.46007766289676438 0 0.086288594501165952 -0.44929695168096112 0 0.084166154185529335 -0.46811089900678199 0 0.094838069889482901 -0.47199273650265511 0 0.099207555057223132 -0.46007766289676438 0 0.084166154185529335 -0.46811089900678199 0 0.086288594501165952 -0.44929695168096112 0 0.084166154185529335 -0.46811089900678199 0 0.062831140545445904 -0.45935847994314499 0 0.086288594501165952 -0.44929695168096112 0 0.062831140545445904 -0.45935847994314499 0 0.069990483642720688 -0.47723617612893138 0 0.084166154185529335 -0.46811089900678199 0 0.062831140545445904 -0.45935847994314499 0 0.080820163809380702 -0.43851070310554341 0 0.062831140545445904 -0.45935847994314499 0 0.051894279161875827 -0.43778598279231212 0 0.080820163809380702 -0.43851070310554341 0 0.051894279161875827 -0.43778598279231212 0 0.080820163809380702 -0.43851070310554341 0 0.086288594501165952 -0.44929695168096112 0 0.062831140545445904 -0.45935847994314499 0 0.080820163809380702 -0.43851070310554341 0 0.066712453126269916 -0.4259473449320586 0 0.051894279161875827 -0.43778598279231212 0 0.080820163809380702 -0.43851070310554341 0 0.066712453126269916 -0.4259473449320586 0 0.080040480133542979 -0.42272351959006632 0 0.067661455886976071 -0.41260405535160383 0 0.080040480133542979 -0.42272351959006632 0 0.08089544756948569 -0.40623350771157157 0 0.066712453126269916 -0.4259473449320586 0 0.067661455886976071 -0.41260405535160383 0 0.080040480133542979 -0.42272351959006632 0 0.0920205979410752 -0.41245754993283562 0 0.080040480133542979 -0.42272351959006632 0 0.095780167115111836 -0.42417449295575932 0 0.0920205979410752 -0.41245754993283562 0 0.080040480133542979 -0.42272351959006632 0 0.08089544756948569 -0.40623350771157157 0 0.080820163809380702 -0.43851070310554341 0 0.080040480133542979 -0.42272351959006632 0 0.092038195924988089 -0.4323482429183147 0 0.080040480133542979 -0.42272351959006632 0 0.092038195924988089 -0.4323482429183147 0 0.095780167115111836 -0.42417449295575932 0 0.1100034814817455 -0.43924187324545028 0 0.092038195924988089 -0.4323482429183147 0 0.1021939525657969 -0.43221798676597151 0 0.1100034814817455 -0.43924187324545028 0 0.080820163809380702 -0.43851070310554341 0 0.092038195924988089 -0.4323482429183147 0 0.092038195924988089 -0.4323482429183147 0 0.095780167115111836 -0.42417449295575932 0 0.1021939525657969 -0.43221798676597151 0 0.095780167115111836 -0.42417449295575932 0 0.11016844712562519 -0.42807799270312491 0 0.1027661026895917 -0.41741720495626439 0 0.095780167115111836 -0.42417449295575932 0 0.1021939525657969 -0.43221798676597151 0 0.11016844712562519 -0.42807799270312491 0 0.1021939525657969 -0.43221798676597151 0 0.1088231103494719 -0.43346182153452839 0 0.11016844712562519 -0.42807799270312491 0 0.1100034814817455 -0.43924187324545028 0 0.1021939525657969 -0.43221798676597151 0 0.1088231103494719 -0.43346182153452839 0 0.13183256724830639 -0.43310925822285867 0 0.1158979561714838 -0.41849508247082101 0 0.13183256724830639 -0.43310925822285867 0 0.10570891787707461 -0.44269708886447912 0 0.11854301372872771 -0.43546217015475452 0 0.1100034814817455 -0.43924187324545028 0 0.11854301372872771 -0.43546217015475452 0 0.11218224090091471 -0.43413195555635092 0 0.11016844712562519 -0.42807799270312491 0 0.11854301372872771 -0.43546217015475452 0 0.13183256724830639 -0.43310925822285867 0 0.11854301372872771 -0.43546217015475452 0 0.1158979561714838 -0.41849508247082101 0 0.11016844712562519 -0.42807799270312491 0 0.11854301372872771 -0.43546217015475452 0 0.1158979561714838 -0.41849508247082101 0 0.1100034814817455 -0.43924187324545028 0 0.11218224090091471 -0.43413195555635092 0 0.11854301372872771 -0.43546217015475452 0 0.1100034814817455 -0.43924187324545028 0 0.1088231103494719 -0.43346182153452839 0 0.11218224090091471 -0.43413195555635092 0 0.1088231103494719 -0.43346182153452839 0 0.11218224090091471 -0.43413195555635092 0 0.11016844712562519 -0.42807799270312491 0 0.1158979561714838 -0.41849508247082101 0 0.099963345094662662 -0.40388090671878157 0 0.12138725619122601 -0.40582348381147548 0 0.13650890774812771 -0.41554019669586117 0 0.1158979561714838 -0.41849508247082101 0 0.12138725619122601 -0.40582348381147548 0 0.11016844712562519 -0.42807799270312491 0 0.1158979561714838 -0.41849508247082101 0 0.1027661026895917 -0.41741720495626439 0 0.1158979561714838 -0.41849508247082101 0 0.1027661026895917 -0.41741720495626439 0 0.099963345094662662 -0.40388090671878157 0 0.1158979561714838 -0.41849508247082101 0 0.099963345094662662 -0.40388090671878157 0 0.0920205979410752 -0.41245754993283562 0 0.095780167115111836 -0.42417449295575932 0 0.1027661026895917 -0.41741720495626439 0 0.0920205979410752 -0.41245754993283562 0 0.1027661026895917 -0.41741720495626439 0 0.099963345094662662 -0.40388090671878157 0 0.0920205979410752 -0.41245754993283562 0 0.099963345094662662 -0.40388090671878157 0 0.091384466166640754 -0.39976572055485998 0 0.1131381689462954 -0.39378605836187702 0 0.084848434897030284 -0.3901569419137173 0 0.091384466166640754 -0.39976572055485998 0 0.099963345094662662 -0.40388090671878157 0 0.1131381689462954 -0.39378605836187702 0 0.091384466166640754 -0.39976572055485998 0 0.1131381689462954 -0.39378605836187702 0 0.084848434897030284 -0.3901569419137173 0 0.099963345094662662 -0.40388090671878157 0 0.12138725619122601 -0.40582348381147548 0 0.1131381689462954 -0.39378605836187702 0 0.12517983724594761 -0.38184384705093849 0 0.1118352925336914 -0.38211316024377351 0 0.11609404378980021 -0.3712243242388219 0 0.12517983724594761 -0.38184384705093849 0 0.1131381689462954 -0.39378605836187702 0 0.1118352925336914 -0.38211316024377351 0 0.1131381689462954 -0.39378605836187702 0 0.1001314126044148 -0.38309968547062018 0 0.084848434897030284 -0.3901569419137173 0 0.1118352925336914 -0.38211316024377351 0 0.1001314126044148 -0.38309968547062018 0 0.099415933695794101 -0.37050162789457552 0 0.1131381689462954 -0.39378605836187702 0 0.1118352925336914 -0.38211316024377351 0 0.1001314126044148 -0.38309968547062018 0 0.1001314126044148 -0.38309968547062018 0 0.088366776947027131 -0.37830966834622792 0 0.099415933695794101 -0.37050162789457552 0 0.088366776947027131 -0.37830966834622792 0 0.075482826549249288 -0.38262901299186203 0 0.084592952976450378 -0.36741201234362081 0 0.088366776947027131 -0.37830966834622792 0 0.084848434897030284 -0.3901569419137173 0 0.075482826549249288 -0.38262901299186203 0 0.1001314126044148 -0.38309968547062018 0 0.088366776947027131 -0.37830966834622792 0 0.084848434897030284 -0.3901569419137173 0 0.084848434897030284 -0.3901569419137173 0 0.091384466166640754 -0.39976572055485998 0 0.08089544756948569 -0.40623350771157157 0 0.084848434897030284 -0.3901569419137173 0 0.08089544756948569 -0.40623350771157157 0 0.069040307323794084 -0.39970606145243831 0 0.0920205979410752 -0.41245754993283562 0 0.091384466166640754 -0.39976572055485998 0 0.08089544756948569 -0.40623350771157157 0 0.084848434897030284 -0.3901569419137173 0 0.069040307323794084 -0.39970606145243831 0 0.056558700847764903 -0.3865278254655577 0 0.067661455886976071 -0.41260405535160383 0 0.08089544756948569 -0.40623350771157157 0 0.069040307323794084 -0.39970606145243831 0 0.067661455886976071 -0.41260405535160383 0 0.069040307323794084 -0.39970606145243831 0 0.054529940024465547 -0.40407910031114402 0 0.084848434897030284 -0.3901569419137173 0 0.056558700847764903 -0.3865278254655577 0 0.075482826549249288 -0.38262901299186203 0 0.056558700847764903 -0.3865278254655577 0 0.062186155557695667 -0.37164122596917581 0 0.084848434897030284 -0.3901569419137173 0 0.075482826549249288 -0.38262901299186203 0 0.056558700847764903 -0.3865278254655577 0 0.056558700847764903 -0.3865278254655577 0 0.039089164359802323 -0.37789726012767522 0 0.053015904133274762 -0.37395361750043649 0 0.056558700847764903 -0.3865278254655577 0 0.053015904133274762 -0.37395361750043649 0 0.062186155557695667 -0.37164122596917581 0 0.069040307323794084 -0.39970606145243831 0 0.056558700847764903 -0.3865278254655577 0 0.054529940024465547 -0.40407910031114402 0 0.056558700847764903 -0.3865278254655577 0 0.054529940024465547 -0.40407910031114402 0 0.040185806757932353 -0.39749058754999178 0 0.054529940024465547 -0.40407910031114402 0 0.040185806757932353 -0.39749058754999178 0 0.038889344946956873 -0.41260430460587411 0 0.056558700847764903 -0.3865278254655577 0 0.040185806757932353 -0.39749058754999178 0 0.039089164359802323 -0.37789726012767522 0 0.040185806757932353 -0.39749058754999178 0 0.039089164359802323 -0.37789726012767522 0 0.023948732951768519 -0.39604636181601283 0 0.039089164359802323 -0.37789726012767522 0 0.023948732951768519 -0.39604636181601283 0 0.039089164359802323 -0.37789726012767522 0 0.01820654377677056 -0.3853213777242403 0 0.023948732951768519 -0.39604636181601283 0 0.039089164359802323 -0.37789726012767522 0 0.01820654377677056 -0.3853213777242403 0 0.024632921607404889 -0.37499182360665201 0 0.01820654377677056 -0.3853213777242403 0 0.0064026000298581494 -0.37540694283770731 0 0.024632921607404889 -0.37499182360665201 0 -0.01144646081429648 -0.38965261029225212 0 0.0064026000298581494 -0.37540694283770731 0 0.0080942134445603012 -0.39208442404542598 0 0.01820654377677056 -0.3853213777242403 0 0.0064026000298581494 -0.37540694283770731 0 0.0080942134445603012 -0.39208442404542598 0 0.0080942134445603012 -0.39208442404542598 0 0.023948732951768519 -0.39604636181601283 0 0.0088083015437354986 -0.41419546350435121 0 -0.0044247763618271959 -0.40210583404303157 0 0.0080942134445603012 -0.39208442404542598 0 0.0088083015437354986 -0.41419546350435121 0 0.0080942134445603012 -0.39208442404542598 0 0.0088083015437354986 -0.41419546350435121 0 0.01820654377677056 -0.3853213777242403 0 0.0080942134445603012 -0.39208442404542598 0 0.023948732951768519 -0.39604636181601283 0 0.023948732951768519 -0.39604636181601283 0 0.0088083015437354986 -0.41419546350435121 0 0.040185806757932353 -0.39749058754999178 0 0.023948732951768519 -0.39604636181601283 0 0.027391400023587989 -0.40885979646509069 0 0.027391400023587989 -0.40885979646509069 0 0.0088083015437354986 -0.41419546350435121 0 0.023088723258007319 -0.42236733264752829 0 0.023948732951768519 -0.39604636181601283 0 0.027391400023587989 -0.40885979646509069 0 0.0088083015437354986 -0.41419546350435121 0 0.027391400023587989 -0.40885979646509069 0 0.023088723258007319 -0.42236733264752829 0 0.038889344946956873 -0.41260430460587411 0 -0.0041312503842245059 -0.42970633221166138 0 0.0088083015437354986 -0.41419546350435121 0 0.0097483964575000772 -0.44330458289357078 0 0.0088083015437354986 -0.41419546350435121 0 0.0097483964575000772 -0.44330458289357078 0 0.0088083015437354986 -0.41419546350435121 0 0.023088723258007319 -0.42236733264752829 0 0.0097483964575000772 -0.44330458289357078 0 -0.0041312503842245059 -0.42970633221166138 0 0.0088083015437354986 -0.41419546350435121 0 0.02296839451437082 -0.43706126247908078 0 0.023088723258007319 -0.42236733264752829 0 0.0097483964575000772 -0.44330458289357078 0 0.02296839451437082 -0.43706126247908078 0 0.023088723258007319 -0.42236733264752829 0 0.037801736971113893 -0.42603472511540319 0 0.02296839451437082 -0.43706126247908078 0 0.051894279161875827 -0.43778598279231212 0 0.02296839451437082 -0.43706126247908078 0 0.037801736971113893 -0.42603472511540319 0 0.051894279161875827 -0.43778598279231212 0 0.023088723258007319 -0.42236733264752829 0 0.037801736971113893 -0.42603472511540319 0 0.038889344946956873 -0.41260430460587411 0 0.040185806757932353 -0.39749058754999178 0 0.027391400023587989 -0.40885979646509069 0 0.038889344946956873 -0.41260430460587411 0 0.037801736971113893 -0.42603472511540319 0 0.038889344946956873 -0.41260430460587411 0 0.052167942974358568 -0.42035474305222059 0 0.067661455886976071 -0.41260405535160383 0 0.054529940024465547 -0.40407910031114402 0 0.052167942974358568 -0.42035474305222059 0 0.054529940024465547 -0.40407910031114402 0 0.038889344946956873 -0.41260430460587411 0 0.052167942974358568 -0.42035474305222059 0 0.066712453126269916 -0.4259473449320586 0 0.067661455886976071 -0.41260405535160383 0 0.052167942974358568 -0.42035474305222059 0 0.037801736971113893 -0.42603472511540319 0 0.052167942974358568 -0.42035474305222059 0 0.051894279161875827 -0.43778598279231212 0 0.066712453126269916 -0.4259473449320586 0 0.052167942974358568 -0.42035474305222059 0 0.051894279161875827 -0.43778598279231212 0 0.062831140545445904 -0.45935847994314499 0 0.051894279161875827 -0.43778598279231212 0 0.040252555022761261 -0.45208059092560288 0 0.062831140545445904 -0.45935847994314499 0 0.040252555022761261 -0.45208059092560288 0 0.039373686589725898 -0.46942000820532892 0 0.062831140545445904 -0.45935847994314499 0 0.039373686589725898 -0.46942000820532892 0 0.040252555022761261 -0.45208059092560288 0 0.024195274302387871 -0.45677722120814751 0 0.039373686589725898 -0.46942000820532892 0 0.02296839451437082 -0.43706126247908078 0 0.051894279161875827 -0.43778598279231212 0 0.040252555022761261 -0.45208059092560288 0 0.02296839451437082 -0.43706126247908078 0 0.040252555022761261 -0.45208059092560288 0 0.024195274302387871 -0.45677722120814751 0 0.02296839451437082 -0.43706126247908078 0 0.0097483964575000772 -0.44330458289357078 0 0.024195274302387871 -0.45677722120814751 0 0.0097483964575000772 -0.44330458289357078 0 0.010688491371263259 -0.47241370228279062 0 -0.01246189318989015 -0.46010874199320551 0 0.0097483964575000772 -0.44330458289357078 0 0.010688491371263259 -0.47241370228279062 0 0.0097483964575000772 -0.44330458289357078 0 0.024195274302387871 -0.45677722120814751 0 0.010688491371263259 -0.47241370228279062 0 0.024195274302387871 -0.45677722120814751 0 0.010688491371263259 -0.47241370228279062 0 0.039373686589725898 -0.46942000820532892 0 0.010688491371263259 -0.47241370228279062 0 0.034471892610103187 -0.5 0 0.039373686589725898 -0.46942000820532892 0 -0.01102378916454722 -0.48135915223211512 0 0.010688491371263259 -0.47241370228279062 0 0.0060893594725853761 -0.5 0 0.010688491371263259 -0.47241370228279062 0 0.0060893594725853761 -0.5 0 0.034471892610103187 -0.5 0 0.034471892610103187 -0.5 0 0.039373686589725898 -0.46942000820532892 0 0.057677045661119079 -0.48662306979380399 0 0.062831140545445904 -0.45935847994314499 0 0.039373686589725898 -0.46942000820532892 0 0.057677045661119079 -0.48662306979380399 0 0.062854425747621123 -0.5 0 0.034471892610103187 -0.5 0 0.057677045661119079 -0.48662306979380399 0 0.066634008849752929 -0.49782665568132312 0 0.062854425747621123 -0.5 0 0.057677045661119079 -0.48662306979380399 0 0.085620459045822009 -0.29344495114469399 0 0.093690920098404601 -0.28461131218341679 0 0.088552038535263153 -0.27478252827036592 0 0.085620459045822009 -0.29344495114469399 0 0.074313759281483191 -0.29143496503194172 0 0.077513921639644684 -0.27444034235203152 0 0.085620459045822009 -0.29344495114469399 0 0.077513921639644684 -0.27444034235203152 0 0.085620459045822009 -0.29344495114469399 0 0.077778828115986812 -0.30158111921626668 0 0.074313759281483191 -0.29143496503194172 0 0.085620459045822009 -0.29344495114469399 0 0.093690920098404601 -0.28461131218341679 0 0.095624669124178815 -0.29901523634492638 0 0.085620459045822009 -0.29344495114469399 0 0.093726996451999348 -0.31244955993735662 0 0.085620459045822009 -0.29344495114469399 0 0.093726996451999348 -0.31244955993735662 0 0.077778828115986812 -0.30158111921626668 0 0.085620459045822009 -0.29344495114469399 0 0.093726996451999348 -0.31244955993735662 0 0.095624669124178815 -0.29901523634492638 0 0.093726996451999348 -0.31244955993735662 0 0.077778828115986812 -0.30158111921626668 0 0.079462724575764129 -0.31259601870157472 0 0.077778828115986812 -0.30158111921626668 0 0.066507869567777239 -0.30238976000992179 0 0.074313759281483191 -0.29143496503194172 0 0.077778828115986812 -0.30158111921626668 0 0.066507869567777239 -0.30238976000992179 0 0.079462724575764129 -0.31259601870157472 0 0.066507869567777239 -0.30238976000992179 0 0.079462724575764129 -0.31259601870157472 0 0.075132603423591501 -0.3177071200507956 0 0.074313759281483191 -0.29143496503194172 0 0.064147718038185225 -0.28531865243679438 0 0.077513921639644684 -0.27444034235203152 0 0.066507869567777239 -0.30238976000992179 0 0.074313759281483191 -0.29143496503194172 0 0.064147718038185225 -0.28531865243679438 0 0.064147718038185225 -0.28531865243679438 0 0.063060091295950527 -0.26941549792116942 0 0.077513921639644684 -0.27444034235203152 0 0.063060091295950527 -0.26941549792116942 0 0.077513921639644684 -0.27444034235203152 0 0.069407384233463862 -0.25543573355937038 0 0.077513921639644684 -0.27444034235203152 0 0.069407384233463862 -0.25543573355937038 0 0.069407384233463862 -0.25543573355937038 0 0.086319144832975828 -0.25368007494239792 0 0.076310615083964084 -0.24267254447822559 0 0.069407384233463862 -0.25543573355937038 0 0.088552038535263153 -0.27478252827036592 0 0.069407384233463862 -0.25543573355937038 0 0.086319144832975828 -0.25368007494239792 0 0.088552038535263153 -0.27478252827036592 0 0.086319144832975828 -0.25368007494239792 0 0.088552038535263153 -0.27478252827036592 0 0.096314437859272073 -0.26314694932959598 0 0.085620459045822009 -0.29344495114469399 0 0.077513921639644684 -0.27444034235203152 0 0.088552038535263153 -0.27478252827036592 0 0.077513921639644684 -0.27444034235203152 0 0.069407384233463862 -0.25543573355937038 0 0.088552038535263153 -0.27478252827036592 0 0.088552038535263153 -0.27478252827036592 0 0.1049318813213326 -0.27771953670789029 0 0.096314437859272073 -0.26314694932959598 0 0.096314437859272073 -0.26314694932959598 0 0.1212146058921835 -0.27428469336237271 0 0.1049318813213326 -0.27771953670789029 0 0.096314437859272073 -0.26314694932959598 0 0.1212146058921835 -0.27428469336237271 0 0.096314437859272073 -0.26314694932959598 0 0.112710106436876 -0.2561722663583727 0 0.1002849970824637 -0.2478345159434279 0 0.086319144832975828 -0.25368007494239792 0 0.096314437859272073 -0.26314694932959598 0 0.1002849970824637 -0.2478345159434279 0 0.096314437859272073 -0.26314694932959598 0 0.112710106436876 -0.2561722663583727 0 0.1212146058921835 -0.27428469336237271 0 0.1284018024931908 -0.25439569680934893 0 0.112710106436876 -0.2561722663583727 0 0.11733468885727009 -0.24119947634711811 0 0.1284018024931908 -0.25439569680934893 0 0.112710106436876 -0.2561722663583727 0 0.1212146058921835 -0.27428469336237271 0 0.1049318813213326 -0.27771953670789029 0 0.1212146058921835 -0.27428469336237271 0 0.11539506208011339 -0.28489439950836071 0 0.12773706826987269 -0.29344404498182097 0 0.1212146058921835 -0.27428469336237271 0 0.11539506208011339 -0.28489439950836071 0 0.12773706826987269 -0.29344404498182097 0 0.11539506208011339 -0.28489439950836071 0 0.107696692837065 -0.29412932298135891 0 0.1049318813213326 -0.27771953670789029 0 0.11539506208011339 -0.28489439950836071 0 0.107696692837065 -0.29412932298135891 0 0.088552038535263153 -0.27478252827036592 0 0.107696692837065 -0.29412932298135891 0 0.093690920098404601 -0.28461131218341679 0 0.1094603009004893 -0.30555512211423808 0 0.088552038535263153 -0.27478252827036592 0 0.1049318813213326 -0.27771953670789029 0 0.107696692837065 -0.29412932298135891 0 0.093690920098404601 -0.28461131218341679 0 0.088552038535263153 -0.27478252827036592 0 0.107696692837065 -0.29412932298135891 0 0.093690920098404601 -0.28461131218341679 0 0.095624669124178815 -0.29901523634492638 0 0.1094603009004893 -0.30555512211423808 0 0.093690920098404601 -0.28461131218341679 0 0.107696692837065 -0.29412932298135891 0 0.1094603009004893 -0.30555512211423808 0 0.093726996451999348 -0.31244955993735662 0 0.095624669124178815 -0.29901523634492638 0 0.1094603009004893 -0.30555512211423808 0 0.12684134713886669 -0.31347611769235179 0 0.107696692837065 -0.29412932298135891 0 0.12684134713886669 -0.31347611769235179 0 0.12773706826987269 -0.29344404498182097 0 0.107696692837065 -0.29412932298135891 0 0.12684134713886669 -0.31347611769235179 0 0.107696692837065 -0.29412932298135891 0 0.1094603009004893 -0.30555512211423808 0 0.12522968170257401 -0.32649893204505931 0 0.1094603009004893 -0.30555512211423808 0 0.1077568017925077 -0.3214093119414394 0 0.12522968170257401 -0.32649893204505931 0 0.1094603009004893 -0.30555512211423808 0 0.12684134713886669 -0.31347611769235179 0 0.12522968170257401 -0.32649893204505931 0 0.1094603009004893 -0.30555512211423808 0 0.12522968170257401 -0.32649893204505931 0 0.11029417522024 -0.33328953150375001 0 0.1077568017925077 -0.3214093119414394 0 0.1261821465740697 -0.34229294288840512 0 0.11029417522024 -0.33328953150375001 0 0.1131168444567071 -0.34714674928190548 0 0.1261821465740697 -0.34229294288840512 0 0.12522968170257401 -0.32649893204505931 0 0.11029417522024 -0.33328953150375001 0 0.11029417522024 -0.33328953150375001 0 0.098188531763892556 -0.32586240489618312 0 0.091291045031689042 -0.33652684796950738 0 0.11029417522024 -0.33328953150375001 0 0.1131168444567071 -0.34714674928190548 0 0.091291045031689042 -0.33652684796950738 0 0.1131168444567071 -0.34714674928190548 0 0.091291045031689042 -0.33652684796950738 0 0.093726996451999348 -0.31244955993735662 0 0.1094603009004893 -0.30555512211423808 0 0.1077568017925077 -0.3214093119414394 0 0.093726996451999348 -0.31244955993735662 0 0.098188531763892556 -0.32586240489618312 0 0.1077568017925077 -0.3214093119414394 0 0.11029417522024 -0.33328953150375001 0 0.098188531763892556 -0.32586240489618312 0 0.1077568017925077 -0.3214093119414394 0 0.12725451995619561 -0.36966521274644643 0 0.12517983724594761 -0.38184384705093849 0 0.11609404378980021 -0.3712243242388219 0 0.12725451995619561 -0.36966521274644643 0 0.11609404378980021 -0.3712243242388219 0 0.11997443032266659 -0.36128539168157792 0 0.11609404378980021 -0.3712243242388219 0 0.11997443032266659 -0.36128539168157792 0 0.1084640995289053 -0.36062402154641232 0 0.134942643881725 -0.35776665059430368 0 0.1261821465740697 -0.34229294288840512 0 0.1131168444567071 -0.34714674928190548 0 0.134942643881725 -0.35776665059430368 0 0.11997443032266659 -0.36128539168157792 0 0.1131168444567071 -0.34714674928190548 0 0.134942643881725 -0.35776665059430368 0 0.1131168444567071 -0.34714674928190548 0 0.11997443032266659 -0.36128539168157792 0 0.1131168444567071 -0.34714674928190548 0 0.1084640995289053 -0.36062402154641232 0 0.1131168444567071 -0.34714674928190548 0 0.1084640995289053 -0.36062402154641232 0 0.092483405443695876 -0.3542390349207355 0 0.1131168444567071 -0.34714674928190548 0 0.092483405443695876 -0.3542390349207355 0 0.091291045031689042 -0.33652684796950738 0 0.1084640995289053 -0.36062402154641232 0 0.099415933695794101 -0.37050162789457552 0 0.092483405443695876 -0.3542390349207355 0 0.1118352925336914 -0.38211316024377351 0 0.11609404378980021 -0.3712243242388219 0 0.099415933695794101 -0.37050162789457552 0 0.11609404378980021 -0.3712243242388219 0 0.1084640995289053 -0.36062402154641232 0 0.099415933695794101 -0.37050162789457552 0 0.099415933695794101 -0.37050162789457552 0 0.084592952976450378 -0.36741201234362081 0 0.092483405443695876 -0.3542390349207355 0 0.088366776947027131 -0.37830966834622792 0 0.099415933695794101 -0.37050162789457552 0 0.084592952976450378 -0.36741201234362081 0 0.092483405443695876 -0.3542390349207355 0 0.072491174222091947 -0.35588259533121519 0 0.080304459630772304 -0.34371980464435309 0 0.092483405443695876 -0.3542390349207355 0 0.080304459630772304 -0.34371980464435309 0 0.091291045031689042 -0.33652684796950738 0 0.084592952976450378 -0.36741201234362081 0 0.092483405443695876 -0.3542390349207355 0 0.072491174222091947 -0.35588259533121519 0 0.072491174222091947 -0.35588259533121519 0 0.063777681245096488 -0.33827820414016169 0 0.056763895527111093 -0.34502334960474662 0 0.075482826549249288 -0.38262901299186203 0 0.072491174222091947 -0.35588259533121519 0 0.062186155557695667 -0.37164122596917581 0 0.075482826549249288 -0.38262901299186203 0 0.084592952976450378 -0.36741201234362081 0 0.072491174222091947 -0.35588259533121519 0 0.072491174222091947 -0.35588259533121519 0 0.062186155557695667 -0.37164122596917581 0 0.054229595767836189 -0.35974815843933738 0 0.075482826549249288 -0.38262901299186203 0 0.072491174222091947 -0.35588259533121519 0 0.093726996451999348 -0.31244955993735662 0 0.083420290103074043 -0.32469977907133191 0 0.079462724575764129 -0.31259601870157472 0 0.083420290103074043 -0.32469977907133191 0 0.079462724575764129 -0.31259601870157472 0 0.075132603423591501 -0.3177071200507956 0 0.093726996451999348 -0.31244955993735662 0 0.098188531763892556 -0.32586240489618312 0 0.083420290103074043 -0.32469977907133191 0 0.080304459630772304 -0.34371980464435309 0 0.091291045031689042 -0.33652684796950738 0 0.069499521894934579 -0.32913617767056857 0 0.098188531763892556 -0.32586240489618312 0 0.083420290103074043 -0.32469977907133191 0 0.091291045031689042 -0.33652684796950738 0 0.091291045031689042 -0.33652684796950738 0 0.069142364058012232 -0.32594306174918231 0 0.083420290103074043 -0.32469977907133191 0 0.091291045031689042 -0.33652684796950738 0 0.069142364058012232 -0.32594306174918231 0 0.072491174222091947 -0.35588259533121519 0 0.063777681245096488 -0.33827820414016169 0 0.069499521894934579 -0.32913617767056857 0 0.072491174222091947 -0.35588259533121519 0 0.080304459630772304 -0.34371980464435309 0 0.069499521894934579 -0.32913617767056857 0 0.091291045031689042 -0.33652684796950738 0 0.069499521894934579 -0.32913617767056857 0 0.069142364058012232 -0.32594306174918231 0 0.072491174222091947 -0.35588259533121519 0 0.069499521894934579 -0.32913617767056857 0 0.063777681245096488 -0.33827820414016169 0 0.063082639391203413 -0.33015119873318588 0 0.069499521894934579 -0.32913617767056857 0 0.063082639391203413 -0.33015119873318588 0 0.069499521894934579 -0.32913617767056857 0 0.061805006962569881 -0.32206579975377841 0 0.066507869567777239 -0.30238976000992179 0 0.069142364058012232 -0.32594306174918231 0 0.075132603423591501 -0.3177071200507956 0 0.066507869567777239 -0.30238976000992179 0 0.069142364058012232 -0.32594306174918231 0 0.066507869567777239 -0.30238976000992179 0 0.069142364058012232 -0.32594306174918231 0 0.061805006962569881 -0.32206579975377841 0 0.069499521894934579 -0.32913617767056857 0 0.069142364058012232 -0.32594306174918231 0 0.061805006962569881 -0.32206579975377841 0 0.069499521894934579 -0.32913617767056857 0 0.069142364058012232 -0.32594306174918231 0 0.083420290103074043 -0.32469977907133191 0 0.069142364058012232 -0.32594306174918231 0 0.075132603423591501 -0.3177071200507956 0 0.052883828768792822 -0.3174541629941231 0 0.041101931917878982 -0.32412245022009062 0 0.050054254893027512 -0.30552215780039232 0 0.066507869567777239 -0.30238976000992179 0 0.052883828768792822 -0.3174541629941231 0 0.061805006962569881 -0.32206579975377841 0 0.052883828768792822 -0.3174541629941231 0 0.056722554736689072 -0.33131950934918752 0 0.041101931917878982 -0.32412245022009062 0 0.052883828768792822 -0.3174541629941231 0 0.061805006962569881 -0.32206579975377841 0 0.056722554736689072 -0.33131950934918752 0 0.063082639391203413 -0.33015119873318588 0 0.061805006962569881 -0.32206579975377841 0 0.056722554736689072 -0.33131950934918752 0 0.063777681245096488 -0.33827820414016169 0 0.063082639391203413 -0.33015119873318588 0 0.056722554736689072 -0.33131950934918752 0 0.063777681245096488 -0.33827820414016169 0 0.056722554736689072 -0.33131950934918752 0 0.056763895527111093 -0.34502334960474662 0 0.056722554736689072 -0.33131950934918752 0 0.046239235444002998 -0.33664791469906508 0 0.056763895527111093 -0.34502334960474662 0 0.056722554736689072 -0.33131950934918752 0 0.046239235444002998 -0.33664791469906508 0 0.041101931917878982 -0.32412245022009062 0 0.046239235444002998 -0.33664791469906508 0 0.032066463360537777 -0.33755857837157299 0 0.041101931917878982 -0.32412245022009062 0 0.046239235444002998 -0.33664791469906508 0 0.032066463360537777 -0.33755857837157299 0 0.044321092835177989 -0.34976563747407657 0 0.032066463360537777 -0.33755857837157299 0 0.041101931917878982 -0.32412245022009062 0 0.026829089321596361 -0.31931235954863152 0 0.041101931917878982 -0.32412245022009062 0 0.026829089321596361 -0.31931235954863152 0 0.035107578284499952 -0.29952384007232902 0 0.039089164359802323 -0.37789726012767522 0 0.053015904133274762 -0.37395361750043649 0 0.054229595767836189 -0.35974815843933738 0 0.053015904133274762 -0.37395361750043649 0 0.062186155557695667 -0.37164122596917581 0 0.054229595767836189 -0.35974815843933738 0 0.072491174222091947 -0.35588259533121519 0 0.054229595767836189 -0.35974815843933738 0 0.056763895527111093 -0.34502334960474662 0 0.054229595767836189 -0.35974815843933738 0 0.056763895527111093 -0.34502334960474662 0 0.044321092835177989 -0.34976563747407657 0 0.046239235444002998 -0.33664791469906508 0 0.056763895527111093 -0.34502334960474662 0 0.044321092835177989 -0.34976563747407657 0 0.054229595767836189 -0.35974815843933738 0 0.044321092835177989 -0.34976563747407657 0 0.034366473881108257 -0.36507444486372198 0 0.032066463360537777 -0.33755857837157299 0 0.044321092835177989 -0.34976563747407657 0 0.032441089615130932 -0.35293819867704618 0 0.044321092835177989 -0.34976563747407657 0 0.032441089615130932 -0.35293819867704618 0 0.034366473881108257 -0.36507444486372198 0 0.039089164359802323 -0.37789726012767522 0 0.054229595767836189 -0.35974815843933738 0 0.034366473881108257 -0.36507444486372198 0 0.039089164359802323 -0.37789726012767522 0 0.054229595767836189 -0.35974815843933738 0 0.039089164359802323 -0.37789726012767522 0 0.034366473881108257 -0.36507444486372198 0 0.024632921607404889 -0.37499182360665201 0 0.034366473881108257 -0.36507444486372198 0 0.024632921607404889 -0.37499182360665201 0 0.02239128407936716 -0.35174007121053652 0 0.024632921607404889 -0.37499182360665201 0 0.02239128407936716 -0.35174007121053652 0 0.0044519867552184986 -0.35652166306277228 0 0.032441089615130932 -0.35293819867704618 0 0.034366473881108257 -0.36507444486372198 0 0.02239128407936716 -0.35174007121053652 0 0.032066463360537777 -0.33755857837157299 0 0.032441089615130932 -0.35293819867704618 0 0.02239128407936716 -0.35174007121053652 0 0.02239128407936716 -0.35174007121053652 0 0.0044519867552184986 -0.35652166306277228 0 0.012927593570646 -0.33171198549435688 0 0.0064026000298581494 -0.37540694283770731 0 0.024632921607404889 -0.37499182360665201 0 0.0044519867552184986 -0.35652166306277228 0 0.024632921607404889 -0.37499182360665201 0 0.0044519867552184986 -0.35652166306277228 0 0.026829089321596361 -0.31931235954863152 0 0.012927593570646 -0.33171198549435688 0 0.01345282628654261 -0.31452427875339289 0 0.032066463360537777 -0.33755857837157299 0 0.02239128407936716 -0.35174007121053652 0 0.012927593570646 -0.33171198549435688 0 0.032066463360537777 -0.33755857837157299 0 0.026829089321596361 -0.31931235954863152 0 0.012927593570646 -0.33171198549435688 0 -0.0045930383722408126 -0.33106057767172498 0 0.0044519867552184986 -0.35652166306277228 0 0.012927593570646 -0.33171198549435688 0 -0.0045930383722408126 -0.33106057767172498 0 0.012927593570646 -0.33171198549435688 0 0.001188009823060373 -0.31679446608462342 0 0.012927593570646 -0.33171198549435688 0 0.01345282628654261 -0.31452427875339289 0 0.001188009823060373 -0.31679446608462342 0 0.01345282628654261 -0.31452427875339289 0 0.001188009823060373 -0.31679446608462342 0 0.001763373636564664 -0.30168821179745692 0 0.01345282628654261 -0.31452427875339289 0 0.001763373636564664 -0.30168821179745692 0 0.016640872198588261 -0.30055445620572929 0 -0.0027757212633066561 -0.28308677540222332 0 0.016640872198588261 -0.30055445620572929 0 0.021411867177789898 -0.27844879108924458 0 -0.0027757212633066561 -0.28308677540222332 0 0.001763373636564664 -0.30168821179745692 0 0.016640872198588261 -0.30055445620572929 0 0.016640872198588261 -0.30055445620572929 0 0.035107578284499952 -0.29952384007232902 0 0.021411867177789898 -0.27844879108924458 0 0.026829089321596361 -0.31931235954863152 0 0.016640872198588261 -0.30055445620572929 0 0.035107578284499952 -0.29952384007232902 0 0.026829089321596361 -0.31931235954863152 0 0.01345282628654261 -0.31452427875339289 0 0.016640872198588261 -0.30055445620572929 0 0.041101931917878982 -0.32412245022009062 0 0.035107578284499952 -0.29952384007232902 0 0.050054254893027512 -0.30552215780039232 0 0.035107578284499952 -0.29952384007232902 0 0.050404305882029987 -0.28890252602350908 0 0.050054254893027512 -0.30552215780039232 0 0.035107578284499952 -0.29952384007232902 0 0.038585651540154843 -0.28163528976904378 0 0.021411867177789898 -0.27844879108924458 0 0.035107578284499952 -0.29952384007232902 0 0.038585651540154843 -0.28163528976904378 0 0.050404305882029987 -0.28890252602350908 0 0.038585651540154843 -0.28163528976904378 0 0.050404305882029987 -0.28890252602350908 0 0.050808015964917387 -0.27496449139471901 0 0.066507869567777239 -0.30238976000992179 0 0.064147718038185225 -0.28531865243679438 0 0.050404305882029987 -0.28890252602350908 0 0.064147718038185225 -0.28531865243679438 0 0.050404305882029987 -0.28890252602350908 0 0.050808015964917387 -0.27496449139471901 0 0.066507869567777239 -0.30238976000992179 0 0.052883828768792822 -0.3174541629941231 0 0.050054254893027512 -0.30552215780039232 0 0.066507869567777239 -0.30238976000992179 0 0.050404305882029987 -0.28890252602350908 0 0.050054254893027512 -0.30552215780039232 0 0.069407384233463862 -0.25543573355937038 0 0.051563800112102223 -0.25779356895052941 0 0.058031694591052507 -0.24393993276097539 0 0.063060091295950527 -0.26941549792116942 0 0.069407384233463862 -0.25543573355937038 0 0.051563800112102223 -0.25779356895052941 0 0.063060091295950527 -0.26941549792116942 0 0.051563800112102223 -0.25779356895052941 0 0.050808015964917387 -0.27496449139471901 0 0.064147718038185225 -0.28531865243679438 0 0.063060091295950527 -0.26941549792116942 0 0.050808015964917387 -0.27496449139471901 0 0.051563800112102223 -0.25779356895052941 0 0.050808015964917387 -0.27496449139471901 0 0.038472196115803672 -0.26640391726297058 0 0.038585651540154843 -0.28163528976904378 0 0.038472196115803672 -0.26640391726297058 0 0.021411867177789898 -0.27844879108924458 0 0.038585651540154843 -0.28163528976904378 0 0.050808015964917387 -0.27496449139471901 0 0.038472196115803672 -0.26640391726297058 0 0.051563800112102223 -0.25779356895052941 0 0.038472196115803672 -0.26640391726297058 0 0.035514200733511518 -0.25281883070702721 0 0.051563800112102223 -0.25779356895052941 0 0.035514200733511518 -0.25281883070702721 0 0.043773176109511723 -0.24454306043739371 0 0.038472196115803672 -0.26640391726297058 0 0.035514200733511518 -0.25281883070702721 0 0.025793661615702391 -0.26060215054244779 0 0.025793661615702391 -0.26060215054244779 0 0.021411867177789898 -0.27844879108924458 0 0.0106961603384575 -0.25745202186843219 0 0.035514200733511518 -0.25281883070702721 0 0.025793661615702391 -0.26060215054244779 0 0.02287388371294935 -0.24788719178456481 0 0.025793661615702391 -0.26060215054244779 0 0.0106961603384575 -0.25745202186843219 0 0.02287388371294935 -0.24788719178456481 0 0.038472196115803672 -0.26640391726297058 0 0.025793661615702391 -0.26060215054244779 0 0.021411867177789898 -0.27844879108924458 0 -0.0027757212633066561 -0.28308677540222332 0 -0.004277733196565655 -0.26493900554078142 0 0.021411867177789898 -0.27844879108924458 0 -0.0027757212633066561 -0.28308677540222332 0 0.021411867177789898 -0.27844879108924458 0 -0.004277733196565655 -0.26493900554078142 0 0.021411867177789898 -0.27844879108924458 0 0.0106961603384575 -0.25745202186843219 0 -0.004277733196565655 -0.26493900554078142 0 -0.0051000949063709604 -0.24904007175921131 0 0.0106961603384575 -0.25745202186843219 0 -0.0051000949063709604 -0.24904007175921131 0 0.011654400976862199 -0.2410062268801875 0 0.0028816789089166558 -0.23183637951985259 0 0.0106961603384575 -0.25745202186843219 0 0.011654400976862199 -0.2410062268801875 0 0.02287388371294935 -0.24788719178456481 0 -0.0051000949063709604 -0.24904007175921131 0 0.0106961603384575 -0.25745202186843219 0 0.011654400976862199 -0.2410062268801875 0 0.0028816789089166558 -0.23183637951985259 0 0.01462937057412849 -0.2240538746983283 0 0.004701453699878894 -0.21579903142299711 0 0.011654400976862199 -0.2410062268801875 0 0.0028816789089166558 -0.23183637951985259 0 0.01462937057412849 -0.2240538746983283 0 -0.0071321940753977476 -0.22261446124919521 0 0.0028816789089166558 -0.23183637951985259 0 0.004701453699878894 -0.21579903142299711 0 0.0028816789089166558 -0.23183637951985259 0 0.004701453699878894 -0.21579903142299711 0 0.02364828999517329 -0.2145304100774604 0 0.028017793991622891 -0.21360912792013689 0 0.040775351499507902 -0.22929913682877789 0 0.01462937057412849 -0.2240538746983283 0 0.022707011958577241 -0.23406713982814309 0 0.023074893148630329 -0.2243790069053245 0 0.011654400976862199 -0.2410062268801875 0 0.01462937057412849 -0.2240538746983283 0 0.022707011958577241 -0.23406713982814309 0 0.018809988853569239 -0.21943478388111101 0 0.023074893148630329 -0.2243790069053245 0 0.02364828999517329 -0.2145304100774604 0 0.01462937057412849 -0.2240538746983283 0 0.018809988853569239 -0.21943478388111101 0 0.023074893148630329 -0.2243790069053245 0 0.01462937057412849 -0.2240538746983283 0 0.018809988853569239 -0.21943478388111101 0 0.01388740169634483 -0.2147758438433309 0 0.023074893148630329 -0.2243790069053245 0 0.029529338384813281 -0.22864588643036399 0 0.02364828999517329 -0.2145304100774604 0 0.022707011958577241 -0.23406713982814309 0 0.023074893148630329 -0.2243790069053245 0 0.029529338384813281 -0.22864588643036399 0 0.022707011958577241 -0.23406713982814309 0 0.029529338384813281 -0.22864588643036399 0 0.033110115198594407 -0.23873590212053891 0 0.022707011958577241 -0.23406713982814309 0 0.02287388371294935 -0.24788719178456481 0 0.033110115198594407 -0.23873590212053891 0 0.035514200733511518 -0.25281883070702721 0 0.02287388371294935 -0.24788719178456481 0 0.033110115198594407 -0.23873590212053891 0 0.011654400976862199 -0.2410062268801875 0 0.022707011958577241 -0.23406713982814309 0 0.02287388371294935 -0.24788719178456481 0 0.0073229988707017007 -0.19269582510052111 0 0.0065212284908399872 -0.19976168332614139 0 0.028017793991622891 -0.21360912792013689 0 0.013665005934331211 -0.18750908436963901 0 0.0073229988707017007 -0.19269582510052111 0 0.018491144942704148 -0.1966763665436605 0 -0.001716520374770193 -0.18356086134659491 0 0.0073229988707017007 -0.19269582510052111 0 -0.001716520374770193 -0.18356086134659491 0 -0.0040962595028597214 -0.1906061852318178 0 0.0073229988707017007 -0.19269582510052111 0 -0.0040962595028597214 -0.1906061852318178 0 0.0073229988707017007 -0.19269582510052111 0 0.0065212284908399872 -0.19976168332614139 0 -0.0040962595028597214 -0.1906061852318178 0 0.0065212284908399872 -0.19976168332614139 0 -0.0013413224236437889 -0.20129110548027501 0 -0.0040962595028597214 -0.1906061852318178 0 0.0065212284908399872 -0.19976168332614139 0 0.0073229988707017007 -0.19269582510052111 0 0.0065212284908399872 -0.19976168332614139 0 0.0065212284908399872 -0.19976168332614139 0 0.004701453699878894 -0.21579903142299711 0 0.0065212284908399872 -0.19976168332614139 0 0.02364828999517329 -0.2145304100774604 0 0.0065212284908399872 -0.19976168332614139 0 0.01388740169634483 -0.2147758438433309 0 0.02364828999517329 -0.2145304100774604 0 -0.0013413224236437889 -0.20129110548027501 0 0.0065212284908399872 -0.19976168332614139 0 0.004701453699878894 -0.21579903142299711 0 0.0065212284908399872 -0.19976168332614139 0 0.004701453699878894 -0.21579903142299711 0 0.01388740169634483 -0.2147758438433309 0 0.01462937057412849 -0.2240538746983283 0 0.004701453699878894 -0.21579903142299711 0 0.01388740169634483 -0.2147758438433309 0 0.0073229988707017007 -0.19269582510052111 0 0.028017793991622891 -0.21360912792013689 0 0.0065212284908399872 -0.19976168332614139 0 0.02364828999517329 -0.2145304100774604 0 0.028017793991622891 -0.21360912792013689 0 0.028017793991622891 -0.21360912792013689 0 0.018491144942704148 -0.1966763665436605 0 0.025157987485142079 -0.20180139957009041 0 0.018809988853569239 -0.21943478388111101 0 0.01388740169634483 -0.2147758438433309 0 0.02364828999517329 -0.2145304100774604 0 0.028017793991622891 -0.21360912792013689 0 0.02999013049287064 -0.20546082626940229 0 0.025157987485142079 -0.20180139957009041 0 0.028017793991622891 -0.21360912792013689 0 0.02999013049287064 -0.20546082626940229 0 0.0324070066473977 -0.20951842104896029 0 0.0073229988707017007 -0.19269582510052111 0 0.028017793991622891 -0.21360912792013689 0 0.018491144942704148 -0.1966763665436605 0 0.018491144942704148 -0.1966763665436605 0 0.025157987485142079 -0.20180139957009041 0 0.024045283865786481 -0.19437171675397771 0 0.02999013049287064 -0.20546082626940229 0 0.025157987485142079 -0.20180139957009041 0 0.03035198148479883 -0.19855803240777339 0 0.025157987485142079 -0.20180139957009041 0 0.03035198148479883 -0.19855803240777339 0 0.024045283865786481 -0.19437171675397771 0 0.024045283865786481 -0.19437171675397771 0 0.032136229536427127 -0.1901460159505371 0 0.024805350841866001 -0.1865109080109903 0 0.03035198148479883 -0.19855803240777339 0 0.024045283865786481 -0.19437171675397771 0 0.032136229536427127 -0.1901460159505371 0 0.024045283865786481 -0.19437171675397771 0 0.018761544846157479 -0.19000984924694531 0 0.024805350841866001 -0.1865109080109903 0 0.013665005934331211 -0.18750908436963901 0 0.018491144942704148 -0.1966763665436605 0 0.018761544846157479 -0.19000984924694531 0 0.018491144942704148 -0.1966763665436605 0 0.024045283865786481 -0.19437171675397771 0 0.018761544846157479 -0.19000984924694531 0 0.04384416339129027 -0.19224611530111421 0 0.032136229536427127 -0.1901460159505371 0 0.037122704559522962 -0.1803168735087794 0 0.03035198148479883 -0.19855803240777339 0 0.032136229536427127 -0.1901460159505371 0 0.036730667332170827 -0.1968208791558918 0 0.04384416339129027 -0.19224611530111421 0 0.032136229536427127 -0.1901460159505371 0 0.036730667332170827 -0.1968208791558918 0 0.03035198148479883 -0.19855803240777339 0 0.036730667332170827 -0.1968208791558918 0 0.035345707874588579 -0.20385500525163869 0 0.02999013049287064 -0.20546082626940229 0 0.03035198148479883 -0.19855803240777339 0 0.035345707874588579 -0.20385500525163869 0 0.036730667332170827 -0.1968208791558918 0 0.04131995937114788 -0.2006731440368619 0 0.035345707874588579 -0.20385500525163869 0 0.04384416339129027 -0.19224611530111421 0 0.036730667332170827 -0.1968208791558918 0 0.04131995937114788 -0.2006731440368619 0 0.04384416339129027 -0.19224611530111421 0 0.04131995937114788 -0.2006731440368619 0 0.048988037247861202 -0.20414883441969889 0 0.041691221009828527 -0.2062948860559661 0 0.044739233142967849 -0.21208298822685531 0 0.048988037247861202 -0.20414883441969889 0 0.04131995937114788 -0.2006731440368619 0 0.041691221009828527 -0.2062948860559661 0 0.048988037247861202 -0.20414883441969889 0 0.041691221009828527 -0.2062948860559661 0 0.037407872409975708 -0.21208837551324211 0 0.044739233142967849 -0.21208298822685531 0 0.04131995937114788 -0.2006731440368619 0 0.041691221009828527 -0.2062948860559661 0 0.035345707874588579 -0.20385500525163869 0 0.035345707874588579 -0.20385500525163869 0 0.0324070066473977 -0.20951842104896029 0 0.037407872409975708 -0.21208837551324211 0 0.041691221009828527 -0.2062948860559661 0 0.035345707874588579 -0.20385500525163869 0 0.037407872409975708 -0.21208837551324211 0 0.02999013049287064 -0.20546082626940229 0 0.035345707874588579 -0.20385500525163869 0 0.0324070066473977 -0.20951842104896029 0 0.028017793991622891 -0.21360912792013689 0 0.037407872409975708 -0.21208837551324211 0 0.042425530973735658 -0.22003194801152839 0 0.028017793991622891 -0.21360912792013689 0 0.0324070066473977 -0.20951842104896029 0 0.037407872409975708 -0.21208837551324211 0 0.044739233142967849 -0.21208298822685531 0 0.052370736255902911 -0.2153814678227329 0 0.042425530973735658 -0.22003194801152839 0 0.037407872409975708 -0.21208837551324211 0 0.044739233142967849 -0.21208298822685531 0 0.042425530973735658 -0.22003194801152839 0 0.052370736255902911 -0.2153814678227329 0 0.059716634861676797 -0.20726135210210539 0 0.064925854322850085 -0.21611823019055279 0 0.052370736255902911 -0.2153814678227329 0 0.059716634861676797 -0.20726135210210539 0 0.048988037247861202 -0.20414883441969889 0 0.044739233142967849 -0.21208298822685531 0 0.052370736255902911 -0.2153814678227329 0 0.048988037247861202 -0.20414883441969889 0 0.04384416339129027 -0.19224611530111421 0 0.060476405403509029 -0.1942698559506098 0 0.051330153515782247 -0.17849113508331041 0 0.04384416339129027 -0.19224611530111421 0 0.048988037247861202 -0.20414883441969889 0 0.060476405403509029 -0.1942698559506098 0 0.059716634861676797 -0.20726135210210539 0 0.048988037247861202 -0.20414883441969889 0 0.060476405403509029 -0.1942698559506098 0 0.043773176109511723 -0.24454306043739371 0 0.033110115198594407 -0.23873590212053891 0 0.040775351499507902 -0.22929913682877789 0 0.035514200733511518 -0.25281883070702721 0 0.043773176109511723 -0.24454306043739371 0 0.033110115198594407 -0.23873590212053891 0 0.028017793991622891 -0.21360912792013689 0 0.042425530973735658 -0.22003194801152839 0 0.048712589112542129 -0.2345224307397549 0 0.028017793991622891 -0.21360912792013689 0 0.040775351499507902 -0.22929913682877789 0 0.048712589112542129 -0.2345224307397549 0 0.028017793991622891 -0.21360912792013689 0 0.048712589112542129 -0.2345224307397549 0 0.029529338384813281 -0.22864588643036399 0 0.033110115198594407 -0.23873590212053891 0 0.040775351499507902 -0.22929913682877789 0 0.029529338384813281 -0.22864588643036399 0 0.02364828999517329 -0.2145304100774604 0 0.040775351499507902 -0.22929913682877789 0 0.02364828999517329 -0.2145304100774604 0 0.040775351499507902 -0.22929913682877789 0 0.050068684076850438 -0.2239338487559023 0 0.056765879965221068 -0.22579954844959299 0 0.048712589112542129 -0.2345224307397549 0 0.052370736255902911 -0.2153814678227329 0 0.042425530973735658 -0.22003194801152839 0 0.050068684076850438 -0.2239338487559023 0 0.052370736255902911 -0.2153814678227329 0 0.050068684076850438 -0.2239338487559023 0 0.056765879965221068 -0.22579954844959299 0 0.042425530973735658 -0.22003194801152839 0 0.050068684076850438 -0.2239338487559023 0 0.048712589112542129 -0.2345224307397549 0 0.052370736255902911 -0.2153814678227329 0 0.056765879965221068 -0.22579954844959299 0 0.064925854322850085 -0.21611823019055279 0 0.056765879965221068 -0.22579954844959299 0 0.063086632099344203 -0.24061764100448099 0 0.056765879965221068 -0.22579954844959299 0 0.048712589112542129 -0.2345224307397549 0 0.063086632099344203 -0.24061764100448099 0 0.048712589112542129 -0.2345224307397549 0 0.058031694591052507 -0.24393993276097539 0 0.063086632099344203 -0.24061764100448099 0 0.043773176109511723 -0.24454306043739371 0 0.040775351499507902 -0.22929913682877789 0 0.058031694591052507 -0.24393993276097539 0 0.040775351499507902 -0.22929913682877789 0 0.048712589112542129 -0.2345224307397549 0 0.058031694591052507 -0.24393993276097539 0 0.040775351499507902 -0.22929913682877789 0 0.058031694591052507 -0.24393993276097539 0 0.048712589112542129 -0.2345224307397549 0 0.058031694591052507 -0.24393993276097539 0 0.051563800112102223 -0.25779356895052941 0 0.043773176109511723 -0.24454306043739371 0 0.058031694591052507 -0.24393993276097539 0 0.069407384233463862 -0.25543573355937038 0 0.058031694591052507 -0.24393993276097539 0 0.063086632099344203 -0.24061764100448099 0 0.076310615083964084 -0.24267254447822559 0 0.074956421688934308 -0.22679738145524739 0 0.069407384233463862 -0.25543573355937038 0 0.058031694591052507 -0.24393993276097539 0 0.063086632099344203 -0.24061764100448099 0 0.069407384233463862 -0.25543573355937038 0 0.063086632099344203 -0.24061764100448099 0 0.076310615083964084 -0.24267254447822559 0 0.069407384233463862 -0.25543573355937038 0 0.063086632099344203 -0.24061764100448099 0 0.086319144832975828 -0.25368007494239792 0 0.087783492565102261 -0.2368318914296311 0 0.1002849970824637 -0.2478345159434279 0 0.086319144832975828 -0.25368007494239792 0 0.076310615083964084 -0.24267254447822559 0 0.087783492565102261 -0.2368318914296311 0 0.076310615083964084 -0.24267254447822559 0 0.087783492565102261 -0.2368318914296311 0 0.074956421688934308 -0.22679738145524739 0 0.087783492565102261 -0.2368318914296311 0 0.089008184157288187 -0.21979994207860989 0 0.074956421688934308 -0.22679738145524739 0 0.087783492565102261 -0.2368318914296311 0 0.089008184157288187 -0.21979994207860989 0 0.1033657475248638 -0.230836287473243 0 0.056765879965221068 -0.22579954844959299 0 0.074956421688934308 -0.22679738145524739 0 0.064925854322850085 -0.21611823019055279 0 0.056765879965221068 -0.22579954844959299 0 0.063086632099344203 -0.24061764100448099 0 0.074956421688934308 -0.22679738145524739 0 0.074956421688934308 -0.22679738145524739 0 0.064925854322850085 -0.21611823019055279 0 0.074819742221630695 -0.2073931091056411 0 0.059716634861676797 -0.20726135210210539 0 0.064925854322850085 -0.21611823019055279 0 0.074819742221630695 -0.2073931091056411 0 0.060476405403509029 -0.1942698559506098 0 0.074819742221630695 -0.2073931091056411 0 0.079592796952163397 -0.18888924659286591 0 0.059716634861676797 -0.20726135210210539 0 0.060476405403509029 -0.1942698559506098 0 0.074819742221630695 -0.2073931091056411 0 0.079592796952163397 -0.18888924659286591 0 0.092675461307541507 -0.20263860808969769 0 0.097107010874188521 -0.1865028621063522 0 0.074819742221630695 -0.2073931091056411 0 0.079592796952163397 -0.18888924659286591 0 0.092675461307541507 -0.20263860808969769 0 0.089008184157288187 -0.21979994207860989 0 0.074819742221630695 -0.2073931091056411 0 0.092675461307541507 -0.20263860808969769 0 0.089008184157288187 -0.21979994207860989 0 0.074956421688934308 -0.22679738145524739 0 0.074819742221630695 -0.2073931091056411 0 0.092675461307541507 -0.20263860808969769 0 0.1037395851219249 -0.21383741777744589 0 0.1117854485180534 -0.19940907087727169 0 0.089008184157288187 -0.21979994207860989 0 0.092675461307541507 -0.20263860808969769 0 0.1037395851219249 -0.21383741777744589 0 0.092675461307541507 -0.20263860808969769 0 0.1117854485180534 -0.19940907087727169 0 0.097107010874188521 -0.1865028621063522 0 0.1117854485180534 -0.19940907087727169 0 0.1163428853765546 -0.1739781751317093 0 0.13022061167876001 -0.1966054580212783 0 0.1117854485180534 -0.19940907087727169 0 0.12522972808992511 -0.21829503339356829 0 0.13022061167876001 -0.1966054580212783 0 0.1037395851219249 -0.21383741777744589 0 0.1117854485180534 -0.19940907087727169 0 0.12522972808992511 -0.21829503339356829 0 0.1037395851219249 -0.21383741777744589 0 0.1033657475248638 -0.230836287473243 0 0.12522972808992511 -0.21829503339356829 0 0.11733468885727009 -0.24119947634711811 0 0.1033657475248638 -0.230836287473243 0 0.12522972808992511 -0.21829503339356829 0 0.112710106436876 -0.2561722663583727 0 0.11733468885727009 -0.24119947634711811 0 0.1002849970824637 -0.2478345159434279 0 0.087783492565102261 -0.2368318914296311 0 0.1002849970824637 -0.2478345159434279 0 0.1033657475248638 -0.230836287473243 0 0.11733468885727009 -0.24119947634711811 0 0.1002849970824637 -0.2478345159434279 0 0.1033657475248638 -0.230836287473243 0 0.089008184157288187 -0.21979994207860989 0 0.1037395851219249 -0.21383741777744589 0 0.1033657475248638 -0.230836287473243 0 0.1152953509880221 -0.14742664451427989 0 0.087922885953701749 -0.1644453144253091 0 0.08104222808295973 -0.14656041117322649 0 0.1152953509880221 -0.14742664451427989 0 0.08104222808295973 -0.14656041117322649 0 0.091825808360400649 -0.13071971631881599 0 0.1132019957566571 -0.12895631246466679 0 0.1152953509880221 -0.14742664451427989 0 0.091825808360400649 -0.13071971631881599 0 0.1152953509880221 -0.14742664451427989 0 0.091825808360400649 -0.13071971631881599 0 0.1132019957566571 -0.12895631246466679 0 0.12666681042280259 -0.1148879963719676 0 0.12801254774923829 -0.1367659702484201 0 0.1132019957566571 -0.12895631246466679 0 0.1152953509880221 -0.14742664451427989 0 0.12801254774923829 -0.1367659702484201 0 0.1152953509880221 -0.14742664451427989 0 0.1163428853765546 -0.1739781751317093 0 0.13570756930478459 -0.15697766912763211 0 0.1117854485180534 -0.19940907087727169 0 0.1163428853765546 -0.1739781751317093 0 0.097107010874188521 -0.1865028621063522 0 0.1163428853765546 -0.1739781751317093 0 0.097107010874188521 -0.1865028621063522 0 0.087922885953701749 -0.1644453144253091 0 0.1152953509880221 -0.14742664451427989 0 0.1163428853765546 -0.1739781751317093 0 0.087922885953701749 -0.1644453144253091 0 0.1163428853765546 -0.1739781751317093 0 0.087922885953701749 -0.1644453144253091 0 0.079592796952163397 -0.18888924659286591 0 0.087922885953701749 -0.1644453144253091 0 0.067846621438677354 -0.17762077273883239 0 0.079592796952163397 -0.18888924659286591 0 0.097107010874188521 -0.1865028621063522 0 0.087922885953701749 -0.1644453144253091 0 0.060476405403509029 -0.1942698559506098 0 0.079592796952163397 -0.18888924659286591 0 0.067846621438677354 -0.17762077273883239 0 0.087922885953701749 -0.1644453144253091 0 0.059502886530849189 -0.15491245371890891 0 0.087922885953701749 -0.1644453144253091 0 0.067846621438677354 -0.17762077273883239 0 0.059502886530849189 -0.15491245371890891 0 0.08104222808295973 -0.14656041117322649 0 0.063165984824581689 -0.13679565429396251 0 0.059502886530849189 -0.15491245371890891 0 0.087922885953701749 -0.1644453144253091 0 0.08104222808295973 -0.14656041117322649 0 0.059502886530849189 -0.15491245371890891 0 0.08104222808295973 -0.14656041117322649 0 0.091825808360400649 -0.13071971631881599 0 0.072651104250291351 -0.13027573411947399 0 0.08104222808295973 -0.14656041117322649 0 0.072651104250291351 -0.13027573411947399 0 0.063165984824581689 -0.13679565429396251 0 0.091825808360400649 -0.13071971631881599 0 0.072651104250291351 -0.13027573411947399 0 0.068356265732779142 -0.11401278812335219 0 0.072651104250291351 -0.13027573411947399 0 0.063165984824581689 -0.13679565429396251 0 0.058865234250735553 -0.12329010068801249 0 0.063165984824581689 -0.13679565429396251 0 0.04485173414439024 -0.1340670178301879 0 0.058865234250735553 -0.12329010068801249 0 0.059502886530849189 -0.15491245371890891 0 0.03988914173572445 -0.15156241575472759 0 0.04485173414439024 -0.1340670178301879 0 0.063165984824581689 -0.13679565429396251 0 0.059502886530849189 -0.15491245371890891 0 0.04485173414439024 -0.1340670178301879 0 0.03988914173572445 -0.15156241575472759 0 0.04485173414439024 -0.1340670178301879 0 0.02842055614966784 -0.1428194405803746 0 0.03988914173572445 -0.15156241575472759 0 0.026498592662546491 -0.15916092077607891 0 0.02842055614966784 -0.1428194405803746 0 0.04485173414439024 -0.1340670178301879 0 0.027044046320462822 -0.1303162166611489 0 0.02842055614966784 -0.1428194405803746 0 0.04485173414439024 -0.1340670178301879 0 0.02842055614966784 -0.1428194405803746 0 0.04485173414439024 -0.1340670178301879 0 0.027044046320462822 -0.1303162166611489 0 0.031624226822419298 -0.1180379366099287 0 0.060476405403509029 -0.1942698559506098 0 0.067846621438677354 -0.17762077273883239 0 0.051330153515782247 -0.17849113508331041 0 0.067846621438677354 -0.17762077273883239 0 0.059502886530849189 -0.15491245371890891 0 0.051330153515782247 -0.17849113508331041 0 0.059502886530849189 -0.15491245371890891 0 0.051330153515782247 -0.17849113508331041 0 0.040171939191168488 -0.16685224586808781 0 0.059502886530849189 -0.15491245371890891 0 0.03988914173572445 -0.15156241575472759 0 0.040171939191168488 -0.16685224586808781 0 0.03988914173572445 -0.15156241575472759 0 0.040171939191168488 -0.16685224586808781 0 0.026498592662546491 -0.15916092077607891 0 0.040171939191168488 -0.16685224586808781 0 0.028351172506096169 -0.17093532640219039 0 0.026498592662546491 -0.15916092077607891 0 0.051330153515782247 -0.17849113508331041 0 0.040171939191168488 -0.16685224586808781 0 0.037122704559522962 -0.1803168735087794 0 0.040171939191168488 -0.16685224586808781 0 0.037122704559522962 -0.1803168735087794 0 0.028351172506096169 -0.17093532640219039 0 0.032136229536427127 -0.1901460159505371 0 0.037122704559522962 -0.1803168735087794 0 0.03057542533407687 -0.1837092231098732 0 0.04384416339129027 -0.19224611530111421 0 0.051330153515782247 -0.17849113508331041 0 0.037122704559522962 -0.1803168735087794 0 0.013665005934331211 -0.18750908436963901 0 0.018761544846157479 -0.19000984924694531 0 0.01773518973515963 -0.1819458888957764 0 0.018761544846157479 -0.19000984924694531 0 0.01773518973515963 -0.1819458888957764 0 0.024805350841866001 -0.1865109080109903 0 0.01773518973515963 -0.1819458888957764 0 0.024805350841866001 -0.1865109080109903 0 0.02532193143793102 -0.17898111604158101 0 0.037122704559522962 -0.1803168735087794 0 0.03057542533407687 -0.1837092231098732 0 0.02532193143793102 -0.17898111604158101 0 0.032136229536427127 -0.1901460159505371 0 0.024805350841866001 -0.1865109080109903 0 0.03057542533407687 -0.1837092231098732 0 0.024805350841866001 -0.1865109080109903 0 0.03057542533407687 -0.1837092231098732 0 0.02532193143793102 -0.17898111604158101 0 0.037122704559522962 -0.1803168735087794 0 0.02532193143793102 -0.17898111604158101 0 0.028351172506096169 -0.17093532640219039 0 0.02532193143793102 -0.17898111604158101 0 0.016317567146182151 -0.17198503158244821 0 0.028351172506096169 -0.17093532640219039 0 0.01773518973515963 -0.1819458888957764 0 0.02532193143793102 -0.17898111604158101 0 0.016317567146182151 -0.17198503158244821 0 0.016317567146182151 -0.17198503158244821 0 0.026498592662546491 -0.15916092077607891 0 0.01198937815494599 -0.1515718633305623 0 0.016317567146182151 -0.17198503158244821 0 0.028351172506096169 -0.17093532640219039 0 0.026498592662546491 -0.15916092077607891 0 0.016317567146182151 -0.17198503158244821 0 0.0091511013935732868 -0.17658508619936361 0 0.01198937815494599 -0.1515718633305623 0 -0.002862460002846737 -0.15948301651848881 0 -0.0021769760571534991 -0.1715651156863349 0 0.0091511013935732868 -0.17658508619936361 0 -0.002862460002846737 -0.15948301651848881 0 0.0091511013935732868 -0.17658508619936361 0 0.01198937815494599 -0.1515718633305623 0 0.0091511013935732868 -0.17658508619936361 0 0.01198937815494599 -0.1515718633305623 0 0.0073229988707017007 -0.19269582510052111 0 0.0091511013935732868 -0.17658508619936361 0 -0.001716520374770193 -0.18356086134659491 0 0.0073229988707017007 -0.19269582510052111 0 0.0091511013935732868 -0.17658508619936361 0 0.013665005934331211 -0.18750908436963901 0 0.0073229988707017007 -0.19269582510052111 0 0.0091511013935732868 -0.17658508619936361 0 0.01773518973515963 -0.1819458888957764 0 0.016317567146182151 -0.17198503158244821 0 0.0091511013935732868 -0.17658508619936361 0 0.016317567146182151 -0.17198503158244821 0 0.0091511013935732868 -0.17658508619936361 0 -0.0021769760571534991 -0.1715651156863349 0 -0.001716520374770193 -0.18356086134659491 0 0.0091511013935732868 -0.17658508619936361 0 -0.001716520374770193 -0.18356086134659491 0 0.0091511013935732868 -0.17658508619936361 0 0.013665005934331211 -0.18750908436963901 0 0.01773518973515963 -0.1819458888957764 0 0.0091511013935732868 -0.17658508619936361 0 0.027044046320462822 -0.1303162166611489 0 0.02842055614966784 -0.1428194405803746 0 0.01463486193421327 -0.12825769035520709 0 0.027044046320462822 -0.1303162166611489 0 0.01463486193421327 -0.12825769035520709 0 0.018851700960063399 -0.1164586796996341 0 0.02842055614966784 -0.1428194405803746 0 0.01198937815494599 -0.1515718633305623 0 0.026498592662546491 -0.15916092077607891 0 0.02842055614966784 -0.1428194405803746 0 0.01198937815494599 -0.1515718633305623 0 0.02842055614966784 -0.1428194405803746 0 0.01198937815494599 -0.1515718633305623 0 0.01463486193421327 -0.12825769035520709 0 -0.00021813125033820981 -0.14121417949905171 0 -0.002862460002846737 -0.15948301651848881 0 0.01198937815494599 -0.1515718633305623 0 -0.002862460002846737 -0.15948301651848881 0 0.01198937815494599 -0.1515718633305623 0 0.01198937815494599 -0.1515718633305623 0 0.01463486193421327 -0.12825769035520709 0 -0.00051383012936461261 -0.12115106769845869 0 -0.00021813125033820981 -0.14121417949905171 0 0.01463486193421327 -0.12825769035520709 0 -0.00021813125033820981 -0.14121417949905171 0 0.01198937815494599 -0.1515718633305623 0 0.01463486193421327 -0.12825769035520709 0 -0.00051383012936461261 -0.12115106769845869 0 0.013451089847699819 -0.10345084613446461 0 -0.00051383012936461261 -0.12115106769845869 0 0.01463486193421327 -0.12825769035520709 0 0.018851700960063399 -0.1164586796996341 0 -0.0097443134821825275 -0.10568296153180221 0 -0.00051383012936461261 -0.12115106769845869 0 0.013451089847699819 -0.10345084613446461 0 -0.00051383012936461261 -0.12115106769845869 0 0.018851700960063399 -0.1164586796996341 0 0.013451089847699819 -0.10345084613446461 0 0.018851700960063399 -0.1164586796996341 0 0.028985222770275671 -0.099438690446445585 0 0.031624226822419298 -0.1180379366099287 0 0.027044046320462822 -0.1303162166611489 0 0.018851700960063399 -0.1164586796996341 0 0.031624226822419298 -0.1180379366099287 0 0.018851700960063399 -0.1164586796996341 0 0.028985222770275671 -0.099438690446445585 0 0.013451089847699819 -0.10345084613446461 0 0.028985222770275671 -0.099438690446445585 0 0.02061700423608195 -0.094611564365618003 0 0.013451089847699819 -0.10345084613446461 0 0.02061700423608195 -0.094611564365618003 0 0.013451089847699819 -0.10345084613446461 0 0.014802697373948719 -0.092012585164660182 0 0.013451089847699819 -0.10345084613446461 0 0.0049108475916147332 -0.088758796278125912 0 0.014802697373948719 -0.092012585164660182 0 -0.0097443134821825275 -0.10568296153180221 0 -0.0036165696749490728 -0.094806956262067837 0 0.013451089847699819 -0.10345084613446461 0 -0.0036165696749490728 -0.094806956262067837 0 0.013451089847699819 -0.10345084613446461 0 0.0049108475916147332 -0.088758796278125912 0 -0.001818144037319683 -0.073153901583463868 0 0.02153428953391933 -0.085229880755675613 0 -0.001818144037319683 -0.073153901583463868 0 0.0066886753495183134 -0.082827876461960326 0 0.02153428953391933 -0.085229880755675613 0 -0.001818144037319683 -0.073153901583463868 0 0.02271559553046346 -0.081523215916455991 0 0.02153428953391933 -0.085229880755675613 0 0.0049108475916147332 -0.088758796278125912 0 0.0066886753495183134 -0.082827876461960326 0 0.011498417737940589 -0.086394490079967731 0 -0.001818144037319683 -0.073153901583463868 0 -0.0024121720072170631 -0.081149604640722323 0 0.0066886753495183134 -0.082827876461960326 0 -0.0024121720072170631 -0.081149604640722323 0 0.0049108475916147332 -0.088758796278125912 0 0.0066886753495183134 -0.082827876461960326 0 0.0066886753495183134 -0.082827876461960326 0 0.011498417737940589 -0.086394490079967731 0 0.02153428953391933 -0.085229880755675613 0 0.0049108475916147332 -0.088758796278125912 0 0.014802697373948719 -0.092012585164660182 0 0.011498417737940589 -0.086394490079967731 0 -0.001818144037319683 -0.073153901583463868 0 0.00054446795576909568 -0.065740571905023568 0 0.02271559553046346 -0.081523215916455991 0 0.00054446795576909568 -0.065740571905023568 0 0.02271559553046346 -0.081523215916455991 0 0.00054446795576909568 -0.065740571905023568 0 0.01488547279489217 -0.069058718540469868 0 0.02271559553046346 -0.081523215916455991 0 0.01488547279489217 -0.069058718540469868 0 0.0090327125127275237 -0.06275681988270411 0 0.019352796331291611 -0.059992601805486323 0 0.00054446795576909568 -0.065740571905023568 0 0.01488547279489217 -0.069058718540469868 0 0.0090327125127275237 -0.06275681988270411 0 0.01488547279489217 -0.069058718540469868 0 0.023690219765380272 -0.070729216811861687 0 0.019352796331291611 -0.059992601805486323 0 0.01488547279489217 -0.069058718540469868 0 0.023690219765380272 -0.070729216811861687 0 0.02271559553046346 -0.081523215916455991 0 0.023690219765380272 -0.070729216811861687 0 0.02271559553046346 -0.081523215916455991 0 0.035509877685808738 -0.07724704692715105 0 0.023690219765380272 -0.070729216811861687 0 0.029176346888741499 -0.065530909797946901 0 0.035509877685808738 -0.07724704692715105 0 0.023690219765380272 -0.070729216811861687 0 0.029176346888741499 -0.065530909797946901 0 0.019352796331291611 -0.059992601805486323 0 0.02271559553046346 -0.081523215916455991 0 0.02153428953391933 -0.085229880755675613 0 0.044886723105158143 -0.0973058599278879 0 0.014802697373948719 -0.092012585164660182 0 0.011498417737940589 -0.086394490079967731 0 0.02153428953391933 -0.085229880755675613 0 0.02061700423608195 -0.094611564365618003 0 0.014802697373948719 -0.092012585164660182 0 0.02153428953391933 -0.085229880755675613 0 0.028985222770275671 -0.099438690446445585 0 0.02061700423608195 -0.094611564365618003 0 0.02153428953391933 -0.085229880755675613 0 0.02271559553046346 -0.081523215916455991 0 0.035509877685808738 -0.07724704692715105 0 0.044886723105158143 -0.0973058599278879 0 0.02153428953391933 -0.085229880755675613 0 0.044886723105158143 -0.0973058599278879 0 0.02271559553046346 -0.081523215916455991 0 0.044886723105158143 -0.0973058599278879 0 0.035509877685808738 -0.07724704692715105 0 0.048136730363360532 -0.079684271428667963 0 0.044886723105158143 -0.0973058599278879 0 0.029176346888741499 -0.065530909797946901 0 0.035509877685808738 -0.07724704692715105 0 0.044453650461748567 -0.068708807680085943 0 0.035509877685808738 -0.07724704692715105 0 0.044453650461748567 -0.068708807680085943 0 0.048136730363360532 -0.079684271428667963 0 0.044453650461748567 -0.068708807680085943 0 0.061237722517209783 -0.0704425506612463 0 0.052271857815577603 -0.05034479583743727 0 0.044453650461748567 -0.068708807680085943 0 0.061237722517209783 -0.0704425506612463 0 0.048136730363360532 -0.079684271428667963 0 0.048136730363360532 -0.079684271428667963 0 0.060383405475292848 -0.089209767810746493 0 0.044886723105158143 -0.0973058599278879 0 0.061237722517209783 -0.0704425506612463 0 0.048136730363360532 -0.079684271428667963 0 0.060383405475292848 -0.089209767810746493 0 0.044886723105158143 -0.0973058599278879 0 0.068356265732779142 -0.11401278812335219 0 0.054833584109015017 -0.11262607327662599 0 0.047226113347387258 -0.11589554436725159 0 0.044886723105158143 -0.0973058599278879 0 0.054833584109015017 -0.11262607327662599 0 0.044886723105158143 -0.0973058599278879 0 0.068356265732779142 -0.11401278812335219 0 0.058806846412966941 -0.1045042154494613 0 0.044886723105158143 -0.0973058599278879 0 0.068356265732779142 -0.11401278812335219 0 0.060383405475292848 -0.089209767810746493 0 0.058806846412966941 -0.1045042154494613 0 0.044886723105158143 -0.0973058599278879 0 0.058806846412966941 -0.1045042154494613 0 0.044886723105158143 -0.0973058599278879 0 0.04485173414439024 -0.1340670178301879 0 0.058865234250735553 -0.12329010068801249 0 0.047226113347387258 -0.11589554436725159 0 0.054833584109015017 -0.11262607327662599 0 0.058865234250735553 -0.12329010068801249 0 0.068356265732779142 -0.11401278812335219 0 0.054833584109015017 -0.11262607327662599 0 0.058865234250735553 -0.12329010068801249 0 0.047226113347387258 -0.11589554436725159 0 0.04485173414439024 -0.1340670178301879 0 0.047226113347387258 -0.11589554436725159 0 0.031624226822419298 -0.1180379366099287 0 0.047226113347387258 -0.11589554436725159 0 0.031624226822419298 -0.1180379366099287 0 0.038180571511310088 -0.1076695078378784 0 0.028985222770275671 -0.099438690446445585 0 0.02153428953391933 -0.085229880755675613 0 0.044886723105158143 -0.0973058599278879 0 0.028985222770275671 -0.099438690446445585 0 0.031624226822419298 -0.1180379366099287 0 0.038180571511310088 -0.1076695078378784 0 0.028985222770275671 -0.099438690446445585 0 0.038180571511310088 -0.1076695078378784 0 0.044886723105158143 -0.0973058599278879 0 0.047226113347387258 -0.11589554436725159 0 0.038180571511310088 -0.1076695078378784 0 0.044886723105158143 -0.0973058599278879 0 0.017113146904798579 -0.014484369006268099 0 0.03064400719958554 -0.021002910132810831 0 0.034304151136240253 -0.0046500892954977006 0 0.017113146904798579 -0.014484369006268099 0 0.0122706565695259 -0.0055741078097889859 0 0.034304151136240253 -0.0046500892954977006 0 0.017113146904798579 -0.014484369006268099 0 0.034304151136240253 -0.0046500892954977006 0 -0.0035715171708147128 -0.026317230513622 0 0.017113146904798579 -0.014484369006268099 0 0.0122706565695259 -0.0055741078097889859 0 0.017113146904798579 -0.014484369006268099 0 0.0122706565695259 -0.0055741078097889859 0 -0.0035715171708147128 -0.026317230513622 0 0.017113146904798579 -0.014484369006268099 0 -0.0035715171708147128 -0.026317230513622 0 0.0122706565695259 -0.0055741078097889859 0 -0.0035715171708147128 -0.026317230513622 0 0.017113146904798579 -0.014484369006268099 0 0.01069819564410363 -0.02964713306915228 0 -0.0035715171708147128 -0.026317230513622 0 0.01069819564410363 -0.02964713306915228 0 0.0043718263274121734 -0.036099688687670467 0 0.017113146904798579 -0.014484369006268099 0 0.01069819564410363 -0.02964713306915228 0 0.020157280267794168 -0.031829491110852988 0 0.017113146904798579 -0.014484369006268099 0 0.02853677030723523 -0.035504022382642643 0 0.017113146904798579 -0.014484369006268099 0 0.02853677030723523 -0.035504022382642643 0 0.020157280267794168 -0.031829491110852988 0 0.017113146904798579 -0.014484369006268099 0 0.03064400719958554 -0.021002910132810831 0 0.02853677030723523 -0.035504022382642643 0 0.02629974553772307 -0.036101493452047197 0 0.02853677030723523 -0.035504022382642643 0 0.026904729907228701 -0.043467543494919797 0 0.02629974553772307 -0.036101493452047197 0 0.02853677030723523 -0.035504022382642643 0 0.020157280267794168 -0.031829491110852988 0 0.02629974553772307 -0.036101493452047197 0 0.02853677030723523 -0.035504022382642643 0 0.02853677030723523 -0.035504022382642643 0 0.026904729907228701 -0.043467543494919797 0 0.034334326551922111 -0.046171620429333371 0 0.026904729907228701 -0.043467543494919797 0 0.02253914697090385 -0.040579379115427062 0 0.021195436196661869 -0.048087929875156553 0 0.02629974553772307 -0.036101493452047197 0 0.026904729907228701 -0.043467543494919797 0 0.02253914697090385 -0.040579379115427062 0 0.02253914697090385 -0.040579379115427062 0 0.016458163287629252 -0.039423081961906033 0 0.021195436196661869 -0.048087929875156553 0 0.016458163287629252 -0.039423081961906033 0 0.012323640891488069 -0.049736999701186752 0 0.021195436196661869 -0.048087929875156553 0 0.016458163287629252 -0.039423081961906033 0 0.021363584016012589 -0.03698336141005832 0 0.020157280267794168 -0.031829491110852988 0 0.01069819564410363 -0.02964713306915228 0 0.016458163287629252 -0.039423081961906033 0 0.020157280267794168 -0.031829491110852988 0 0.02629974553772307 -0.036101493452047197 0 0.02253914697090385 -0.040579379115427062 0 0.021363584016012589 -0.03698336141005832 0 0.02253914697090385 -0.040579379115427062 0 0.016458163287629252 -0.039423081961906033 0 0.021363584016012589 -0.03698336141005832 0 0.02629974553772307 -0.036101493452047197 0 0.021363584016012589 -0.03698336141005832 0 0.020157280267794168 -0.031829491110852988 0 0.01069819564410363 -0.02964713306915228 0 0.016458163287629252 -0.039423081961906033 0 0.0043718263274121734 -0.036099688687670467 0 -0.0033234267383674778 -0.042950679409621197 0 0.0062544941311495333 -0.043966463102470897 0 0.0026901866096132711 -0.050198525173678121 0 -0.0033234267383674778 -0.042950679409621197 0 0.0043718263274121734 -0.036099688687670467 0 0.0062544941311495333 -0.043966463102470897 0 0.016458163287629252 -0.039423081961906033 0 0.0043718263274121734 -0.036099688687670467 0 0.0062544941311495333 -0.043966463102470897 0 0.016458163287629252 -0.039423081961906033 0 0.0062544941311495333 -0.043966463102470897 0 0.012323640891488069 -0.049736999701186752 0 0.012323640891488069 -0.049736999701186752 0 0.0026901866096132711 -0.050198525173678121 0 0.0092748904325984302 -0.056793050814120227 0 0.0062544941311495333 -0.043966463102470897 0 0.012323640891488069 -0.049736999701186752 0 0.0026901866096132711 -0.050198525173678121 0 0.00054446795576909568 -0.065740571905023568 0 0.0090327125127275237 -0.06275681988270411 0 0.0026116530460322772 -0.057796347036650757 0 0.0026901866096132711 -0.050198525173678121 0 0.0026116530460322772 -0.057796347036650757 0 0.0092748904325984302 -0.056793050814120227 0 0.0090327125127275237 -0.06275681988270411 0 0.0026116530460322772 -0.057796347036650757 0 0.0092748904325984302 -0.056793050814120227 0 0.012323640891488069 -0.049736999701186752 0 0.0092748904325984302 -0.056793050814120227 0 0.019352796331291611 -0.059992601805486323 0 0.0090327125127275237 -0.06275681988270411 0 0.0092748904325984302 -0.056793050814120227 0 0.019352796331291611 -0.059992601805486323 0 0.019352796331291611 -0.059992601805486323 0 0.021195436196661869 -0.048087929875156553 0 0.028836397690420741 -0.054669063113515839 0 0.012323640891488069 -0.049736999701186752 0 0.019352796331291611 -0.059992601805486323 0 0.021195436196661869 -0.048087929875156553 0 0.026904729907228701 -0.043467543494919797 0 0.021195436196661869 -0.048087929875156553 0 0.028836397690420741 -0.054669063113515839 0 0.026904729907228701 -0.043467543494919797 0 0.028836397690420741 -0.054669063113515839 0 0.034334326551922111 -0.046171620429333371 0 0.029176346888741499 -0.065530909797946901 0 0.019352796331291611 -0.059992601805486323 0 0.028836397690420741 -0.054669063113515839 0 0.028836397690420741 -0.054669063113515839 0 0.052271857815577603 -0.05034479583743727 0 0.034334326551922111 -0.046171620429333371 0 0.029176346888741499 -0.065530909797946901 0 0.052271857815577603 -0.05034479583743727 0 0.029176346888741499 -0.065530909797946901 0 0.044453650461748567 -0.068708807680085943 0 0.052271857815577603 -0.05034479583743727 0 0.029176346888741499 -0.065530909797946901 0 0.028836397690420741 -0.054669063113515839 0 0.052271857815577603 -0.05034479583743727 0 0.061237722517209783 -0.0704425506612463 0 0.052271857815577603 -0.05034479583743727 0 0.070900805939892536 -0.055786727705204112 0 0.052271857815577603 -0.05034479583743727 0 0.06129657965387833 -0.035090017702156931 0 0.048694620788251999 -0.03012020515896666 0 0.02853677030723523 -0.035504022382642643 0 0.042621960450068393 -0.029373159846839181 0 0.048694620788251999 -0.03012020515896666 0 0.02853677030723523 -0.035504022382642643 0 0.034334326551922111 -0.046171620429333371 0 0.048694620788251999 -0.03012020515896666 0 0.02853677030723523 -0.035504022382642643 0 0.048694620788251999 -0.03012020515896666 0 0.052271857815577603 -0.05034479583743727 0 0.034334326551922111 -0.046171620429333371 0 0.048694620788251999 -0.03012020515896666 0 0.02853677030723523 -0.035504022382642643 0 0.034334326551922111 -0.046171620429333371 0 0.042621960450068393 -0.029373159846839181 0 0.034304151136240253 -0.0046500892954977006 0 0.03064400719958554 -0.021002910132810831 0 0.042621960450068393 -0.029373159846839181 0 0.034304151136240253 -0.0046500892954977006 0 0.042621960450068393 -0.029373159846839181 0 0.041063122926013967 -0.014474288935996329 0 0.034304151136240253 -0.0046500892954977006 0 0.03064400719958554 -0.021002910132810831 0 0.02853677030723523 -0.035504022382642643 0 0.042621960450068393 -0.029373159846839181 0 0.046258611461687187 -0.022276101749063349 0 0.042621960450068393 -0.029373159846839181 0 0.041063122926013967 -0.014474288935996329 0 0.045776383501470001 -0.017319118731857971 0 0.046258611461687187 -0.022276101749063349 0 0.041063122926013967 -0.014474288935996329 0 0.046258611461687187 -0.022276101749063349 0 0.042621960450068393 -0.029373159846839181 0 0.048694620788251999 -0.03012020515896666 0 0.048694620788251999 -0.03012020515896666 0 0.056884340209880591 -0.021940062416641429 0 0.068852471269270271 -0.02473638793529603 0 0.048694620788251999 -0.03012020515896666 0 0.068852471269270271 -0.02473638793529603 0 0.06129657965387833 -0.035090017702156931 0 0.048694620788251999 -0.03012020515896666 0 0.068852471269270271 -0.02473638793529603 0 0.046258611461687187 -0.022276101749063349 0 0.048694620788251999 -0.03012020515896666 0 0.056884340209880591 -0.021940062416641429 0 0.056884340209880591 -0.021940062416641429 0 0.067734526826214586 -0.022947941433418339 0 0.06287487338398455 -0.019341839126347089 0 0.060655241958543708 -0.017255524713707421 0 0.057869800338057331 -0.018626519077860091 0 0.06287487338398455 -0.019341839126347089 0 0.060655241958543708 -0.017255524713707421 0 0.056511024414781397 -0.01603263235476093 0 0.059001286620974161 -0.01456932385826238 0 0.060655241958543708 -0.017255524713707421 0 0.062726596036944693 -0.01510286019012845 0 0.06287487338398455 -0.019341839126347089 0 0.060655241958543708 -0.017255524713707421 0 0.059001286620974161 -0.01456932385826238 0 0.062726596036944693 -0.01510286019012845 0 0.056884340209880591 -0.021940062416641429 0 0.057869800338057331 -0.018626519077860091 0 0.06287487338398455 -0.019341839126347089 0 0.056884340209880591 -0.021940062416641429 0 0.054731172339097189 -0.018045863781704571 0 0.057869800338057331 -0.018626519077860091 0 0.060655241958543708 -0.017255524713707421 0 0.057869800338057331 -0.018626519077860091 0 0.056511024414781397 -0.01603263235476093 0 0.054731172339097189 -0.018045863781704571 0 0.057869800338057331 -0.018626519077860091 0 0.056511024414781397 -0.01603263235476093 0 0.054731172339097189 -0.018045863781704571 0 0.056511024414781397 -0.01603263235476093 0 0.052676322128763053 -0.01505181742481526 0 0.054731172339097189 -0.018045863781704571 0 0.049714374604003582 -0.018578287634445131 0 0.052676322128763053 -0.01505181742481526 0 0.056884340209880591 -0.021940062416641429 0 0.054731172339097189 -0.018045863781704571 0 0.049714374604003582 -0.018578287634445131 0 0.046258611461687187 -0.022276101749063349 0 0.056884340209880591 -0.021940062416641429 0 0.049714374604003582 -0.018578287634445131 0 0.049714374604003582 -0.018578287634445131 0 0.049826676976093082 -0.01376233463260536 0 0.052676322128763053 -0.01505181742481526 0 0.045776383501470001 -0.017319118731857971 0 0.046258611461687187 -0.022276101749063349 0 0.049714374604003582 -0.018578287634445131 0 0.045776383501470001 -0.017319118731857971 0 0.049714374604003582 -0.018578287634445131 0 0.04606942501417529 -0.01394779660792706 0 0.049714374604003582 -0.018578287634445131 0 0.049826676976093082 -0.01376233463260536 0 0.04606942501417529 -0.01394779660792706 0 0.049826676976093082 -0.01376233463260536 0 0.048353598728911727 -0.01101130561510393 0 0.04606942501417529 -0.01394779660792706 0 0.049826676976093082 -0.01376233463260536 0 0.048353598728911727 -0.01101130561510393 0 0.051420326703619783 -0.0108349663380074 0 0.048515238899595602 -0.0079586442023750707 0 0.051420326703619783 -0.0108349663380074 0 0.05225148085656809 -0.0067019104907116208 0 0.048515238899595602 -0.0079586442023750707 0 0.048353598728911727 -0.01101130561510393 0 0.0453887564622205 -0.01046460677317068 0 0.048515238899595602 -0.0079586442023750707 0 0.048353598728911727 -0.01101130561510393 0 0.051420326703619783 -0.0108349663380074 0 0.051420326703619783 -0.0108349663380074 0 0.055392256242581428 -0.0086915816225324478 0 0.05225148085656809 -0.0067019104907116208 0 0.051420326703619783 -0.0108349663380074 0 0.055891642723662829 -0.01268864570225446 0 0.055392256242581428 -0.0086915816225324478 0 0.049826676976093082 -0.01376233463260536 0 0.051420326703619783 -0.0108349663380074 0 0.052676322128763053 -0.01505181742481526 0 0.051420326703619783 -0.0108349663380074 0 0.052676322128763053 -0.01505181742481526 0 0.055891642723662829 -0.01268864570225446 0 0.056511024414781397 -0.01603263235476093 0 0.052676322128763053 -0.01505181742481526 0 0.055891642723662829 -0.01268864570225446 0 0.056511024414781397 -0.01603263235476093 0 0.055891642723662829 -0.01268864570225446 0 0.059001286620974161 -0.01456932385826238 0 0.055891642723662829 -0.01268864570225446 0 0.059782040481084743 -0.010885307433545349 0 0.059001286620974161 -0.01456932385826238 0 0.055392256242581428 -0.0086915816225324478 0 0.059782040481084743 -0.010885307433545349 0 0.058711429017939028 -0.0061943734285001134 0 0.055891642723662829 -0.01268864570225446 0 0.055392256242581428 -0.0086915816225324478 0 0.059782040481084743 -0.010885307433545349 0 0.059782040481084743 -0.010885307433545349 0 0.063051716082351453 -0.0071272338021825532 0 0.064097049977326639 -0.01141497262736246 0 0.059782040481084743 -0.010885307433545349 0 0.058711429017939028 -0.0061943734285001134 0 0.063051716082351453 -0.0071272338021825532 0 0.059782040481084743 -0.010885307433545349 0 0.062726596036944693 -0.01510286019012845 0 0.064097049977326639 -0.01141497262736246 0 0.059782040481084743 -0.010885307433545349 0 0.059001286620974161 -0.01456932385826238 0 0.062726596036944693 -0.01510286019012845 0 0.061144204342010108 -0.0032216576268612432 0 0.058711429017939028 -0.0061943734285001134 0 0.057621307896374631 -0.0022194826214428308 0 0.059064100454841291 0.0019859127964279031 0 0.061144204342010108 -0.0032216576268612432 0 0.066051670772587168 -0.0013996614558420869 0 0.059064100454841291 0.0019859127964279031 0 0.061144204342010108 -0.0032216576268612432 0 0.057621307896374631 -0.0022194826214428308 0 0.061144204342010108 -0.0032216576268612432 0 0.058711429017939028 -0.0061943734285001134 0 0.063051716082351453 -0.0071272338021825532 0 0.058711429017939028 -0.0061943734285001134 0 0.054938034639911752 -0.0044211180700760499 0 0.057621307896374631 -0.0022194826214428308 0 0.055392256242581428 -0.0086915816225324478 0 0.058711429017939028 -0.0061943734285001134 0 0.054938034639911752 -0.0044211180700760499 0 0.054570243933502537 0.00025638892382715879 0 0.054938034639911752 -0.0044211180700760499 0 0.057621307896374631 -0.0022194826214428308 0 0.054570243933502537 0.00025638892382715879 0 0.054938034639911752 -0.0044211180700760499 0 0.051732812259684631 -0.0029202261819517902 0 0.051440149982638711 0.00071573179540184361 0 0.054570243933502537 0.00025638892382715879 0 0.051732812259684631 -0.0029202261819517902 0 0.055392256242581428 -0.0086915816225324478 0 0.054938034639911752 -0.0044211180700760499 0 0.05225148085656809 -0.0067019104907116208 0 0.054938034639911752 -0.0044211180700760499 0 0.051732812259684631 -0.0029202261819517902 0 0.05225148085656809 -0.0067019104907116208 0 0.051732812259684631 -0.0029202261819517902 0 0.05225148085656809 -0.0067019104907116208 0 0.049761039220024783 -0.0047506179669398827 0 0.048515238899595602 -0.0079586442023750707 0 0.05225148085656809 -0.0067019104907116208 0 0.049761039220024783 -0.0047506179669398827 0 0.048515238899595602 -0.0079586442023750707 0 0.049761039220024783 -0.0047506179669398827 0 0.046783712454016142 -0.004440235442344803 0 0.051440149982638711 0.00071573179540184361 0 0.051732812259684631 -0.0029202261819517902 0 0.049084708219886461 -0.0010591366939475409 0 0.051732812259684631 -0.0029202261819517902 0 0.049761039220024783 -0.0047506179669398827 0 0.049084708219886461 -0.0010591366939475409 0 0.049761039220024783 -0.0047506179669398827 0 0.049084708219886461 -0.0010591366939475409 0 0.046783712454016142 -0.004440235442344803 0 0.049084708219886461 -0.0010591366939475409 0 0.046267370754784952 -0.001581008668838677 0 0.046783712454016142 -0.004440235442344803 0 0.045577883269561643 0.001356711203132103 0 0.049084708219886461 -0.0010591366939475409 0 0.046267370754784952 -0.001581008668838677 0 0.045577883269561643 0.001356711203132103 0 0.046267370754784952 -0.001581008668838677 0 0.044398023908916742 -0.00047599892084176752 0 0.046267370754784952 -0.001581008668838677 0 0.04490981848498906 -0.0031004115632199008 0 0.044398023908916742 -0.00047599892084176752 0 0.046267370754784952 -0.001581008668838677 0 0.04490981848498906 -0.0031004115632199008 0 0.046783712454016142 -0.004440235442344803 0 0.043282173419621518 -0.0020433983233804119 0 0.04211425813502731 -0.00366996572884837 0 0.043844058310513717 -0.0047823449204898588 0 0.04490981848498906 -0.0031004115632199008 0 0.043282173419621518 -0.0020433983233804119 0 0.043844058310513717 -0.0047823449204898588 0 0.04490981848498906 -0.0031004115632199008 0 0.043282173419621518 -0.0020433983233804119 0 0.044398023908916742 -0.00047599892084176752 0 0.042884969485449703 0.00071947726916594989 0 0.043282173419621518 -0.0020433983233804119 0 0.044398023908916742 -0.00047599892084176752 0 0.042884969485449703 0.00071947726916594989 0 0.043282173419621518 -0.0020433983233804119 0 0.041591041672707017 -0.0010959405660773741 0 0.042884969485449703 0.00071947726916594989 0 0.039943424991382682 0.00017342641415403869 0 0.041591041672707017 -0.0010959405660773741 0 0.043282173419621518 -0.0020433983233804119 0 0.041591041672707017 -0.0010959405660773741 0 0.04211425813502731 -0.00366996572884837 0 0.041591041672707017 -0.0010959405660773741 0 0.04211425813502731 -0.00366996572884837 0 0.040428413982109029 -0.0027164825758079609 0 0.04211425813502731 -0.00366996572884837 0 0.040428413982109029 -0.0027164825758079609 0 0.041143530859242189 -0.005329173617386343 0 0.040428413982109029 -0.0027164825758079609 0 0.039473663055008087 -0.0042780295657500354 0 0.038226370096844098 -0.0026601186837432768 0 0.039943424991382682 0.00017342641415403869 0 0.040428413982109029 -0.0027164825758079609 0 0.038226370096844098 -0.0026601186837432768 0 0.039943424991382682 0.00017342641415403869 0 0.041591041672707017 -0.0010959405660773741 0 0.040428413982109029 -0.0027164825758079609 0 0.04022574293118699 -0.0070962556306693432 0 0.039607926928832693 -0.0091790676658551479 0 0.037768378554715307 -0.0061058974810905622 0 0.04022574293118699 -0.0070962556306693432 0 0.039473663055008087 -0.0042780295657500354 0 0.037768378554715307 -0.0061058974810905622 0 0.04022574293118699 -0.0070962556306693432 0 0.039473663055008087 -0.0042780295657500354 0 0.041143530859242189 -0.005329173617386343 0 0.040428413982109029 -0.0027164825758079609 0 0.039473663055008087 -0.0042780295657500354 0 0.041143530859242189 -0.005329173617386343 0 0.041143530859242189 -0.005329173617386343 0 0.042779120669202378 -0.0064648494056756926 0 0.043844058310513717 -0.0047823449204898588 0 0.04211425813502731 -0.00366996572884837 0 0.041143530859242189 -0.005329173617386343 0 0.043844058310513717 -0.0047823449204898588 0 0.04022574293118699 -0.0070962556306693432 0 0.041143530859242189 -0.005329173617386343 0 0.042779120669202378 -0.0064648494056756926 0 0.04022574293118699 -0.0070962556306693432 0 0.042779120669202378 -0.0064648494056756926 0 0.042280756610599629 -0.0086963015270690898 0 0.042779120669202378 -0.0064648494056756926 0 0.043844058310513717 -0.0047823449204898588 0 0.044931940567691321 -0.0071344970451875317 0 0.042779120669202378 -0.0064648494056756926 0 0.044931940567691321 -0.0071344970451875317 0 0.042280756610599629 -0.0086963015270690898 0 0.043844058310513717 -0.0047823449204898588 0 0.046783712454016142 -0.004440235442344803 0 0.044931940567691321 -0.0071344970451875317 0 0.04490981848498906 -0.0031004115632199008 0 0.043844058310513717 -0.0047823449204898588 0 0.046783712454016142 -0.004440235442344803 0 0.048515238899595602 -0.0079586442023750707 0 0.046783712454016142 -0.004440235442344803 0 0.044931940567691321 -0.0071344970451875317 0 0.048515238899595602 -0.0079586442023750707 0 0.044931940567691321 -0.0071344970451875317 0 0.0453887564622205 -0.01046460677317068 0 0.0453887564622205 -0.01046460677317068 0 0.042280756610599629 -0.0086963015270690898 0 0.042814567728820023 -0.011560040057604011 0 0.044931940567691321 -0.0071344970451875317 0 0.0453887564622205 -0.01046460677317068 0 0.042280756610599629 -0.0086963015270690898 0 0.045776383501470001 -0.017319118731857971 0 0.04606942501417529 -0.01394779660792706 0 0.041063122926013967 -0.014474288935996329 0 0.04606942501417529 -0.01394779660792706 0 0.041063122926013967 -0.014474288935996329 0 0.042814567728820023 -0.011560040057604011 0 0.048353598728911727 -0.01101130561510393 0 0.0453887564622205 -0.01046460677317068 0 0.04606942501417529 -0.01394779660792706 0 0.0453887564622205 -0.01046460677317068 0 0.04606942501417529 -0.01394779660792706 0 0.042814567728820023 -0.011560040057604011 0 0.041063122926013967 -0.014474288935996329 0 0.042814567728820023 -0.011560040057604011 0 0.039607926928832693 -0.0091790676658551479 0 0.042280756610599629 -0.0086963015270690898 0 0.042814567728820023 -0.011560040057604011 0 0.039607926928832693 -0.0091790676658551479 0 0.04022574293118699 -0.0070962556306693432 0 0.042280756610599629 -0.0086963015270690898 0 0.039607926928832693 -0.0091790676658551479 0 0.041063122926013967 -0.014474288935996329 0 0.039607926928832693 -0.0091790676658551479 0 0.034304151136240253 -0.0046500892954977006 0 0.034304151136240253 -0.0046500892954977006 0 0.036760601409293207 -0.00017021607206089449 0 0.038226370096844098 -0.0026601186837432768 0 0.039943424991382682 0.00017342641415403869 0 0.036760601409293207 -0.00017021607206089449 0 0.038226370096844098 -0.0026601186837432768 0 0.039473663055008087 -0.0042780295657500354 0 0.038226370096844098 -0.0026601186837432768 0 0.038048354023545547 -0.0045948630751457163 0 0.034304151136240253 -0.0046500892954977006 0 0.038226370096844098 -0.0026601186837432768 0 0.038048354023545547 -0.0045948630751457163 0 0.039607926928832693 -0.0091790676658551479 0 0.034304151136240253 -0.0046500892954977006 0 0.037768378554715307 -0.0061058974810905622 0 0.039473663055008087 -0.0042780295657500354 0 0.038048354023545547 -0.0045948630751457163 0 0.037768378554715307 -0.0061058974810905622 0 0.034304151136240253 -0.0046500892954977006 0 0.038048354023545547 -0.0045948630751457163 0 0.037768378554715307 -0.0061058974810905622 0 0.080983079341953854 -0.0049042304712999746 0 0.08768456037129746 -0.019706658909340681 0 0.095293300726640384 -0.0026303323679718791 0 0.080983079341953854 -0.0049042304712999746 0 0.073330492630761634 -0.01437381166027475 0 0.08768456037129746 -0.019706658909340681 0 0.073284976120953346 0.0031879796578754439 0 0.080983079341953854 -0.0049042304712999746 0 0.073133913320343205 -0.0043620011616135506 0 0.073284976120953346 0.0031879796578754439 0 0.073133913320343205 -0.0043620011616135506 0 0.066051670772587168 -0.0013996614558420869 0 0.073133913320343205 -0.0043620011616135506 0 0.066051670772587168 -0.0013996614558420869 0 0.06797049077981579 -0.0088887686497702394 0 0.061144204342010108 -0.0032216576268612432 0 0.063051716082351453 -0.0071272338021825532 0 0.066051670772587168 -0.0013996614558420869 0 0.063051716082351453 -0.0071272338021825532 0 0.066051670772587168 -0.0013996614558420869 0 0.06797049077981579 -0.0088887686497702394 0 0.064097049977326639 -0.01141497262736246 0 0.06797049077981579 -0.0088887686497702394 0 0.066954406506436567 -0.0150706930611857 0 0.062726596036944693 -0.01510286019012845 0 0.064097049977326639 -0.01141497262736246 0 0.066954406506436567 -0.0150706930611857 0 0.063051716082351453 -0.0071272338021825532 0 0.064097049977326639 -0.01141497262736246 0 0.06797049077981579 -0.0088887686497702394 0 0.06797049077981579 -0.0088887686497702394 0 0.066954406506436567 -0.0150706930611857 0 0.073330492630761634 -0.01437381166027475 0 0.080983079341953854 -0.0049042304712999746 0 0.073133913320343205 -0.0043620011616135506 0 0.073330492630761634 -0.01437381166027475 0 0.073133913320343205 -0.0043620011616135506 0 0.06797049077981579 -0.0088887686497702394 0 0.073330492630761634 -0.01437381166027475 0 0.068852471269270271 -0.02473638793529603 0 0.08768456037129746 -0.019706658909340681 0 0.075367368742413815 -0.035158681876927562 0 0.073330492630761634 -0.01437381166027475 0 0.068852471269270271 -0.02473638793529603 0 0.08768456037129746 -0.019706658909340681 0 0.073330492630761634 -0.01437381166027475 0 0.067734526826214586 -0.022947941433418339 0 0.068852471269270271 -0.02473638793529603 0 0.066954406506436567 -0.0150706930611857 0 0.073330492630761634 -0.01437381166027475 0 0.067734526826214586 -0.022947941433418339 0 0.066954406506436567 -0.0150706930611857 0 0.067734526826214586 -0.022947941433418339 0 0.06287487338398455 -0.019341839126347089 0 0.056884340209880591 -0.021940062416641429 0 0.067734526826214586 -0.022947941433418339 0 0.068852471269270271 -0.02473638793529603 0 0.062726596036944693 -0.01510286019012845 0 0.066954406506436567 -0.0150706930611857 0 0.06287487338398455 -0.019341839126347089 0 0.067734526826214586 -0.022947941433418339 0 0.068852471269270271 -0.02473638793529603 0 0.068852471269270271 -0.02473638793529603 0 0.075367368742413815 -0.035158681876927562 0 0.08768456037129746 -0.019706658909340681 0 0.090942009107869745 -0.024917805880157899 0 0.075367368742413815 -0.035158681876927562 0 0.068852471269270271 -0.02473638793529603 0 0.08768456037129746 -0.019706658909340681 0 0.090942009107869745 -0.024917805880157899 0 0.075367368742413815 -0.035158681876927562 0 0.089361858802177424 -0.039478299451192571 0 0.075367368742413815 -0.035158681876927562 0 0.08711416874746869 -0.053950781527142243 0 0.089361858802177424 -0.039478299451192571 0 0.08711416874746869 -0.053950781527142243 0 0.1034824900067197 -0.041397128395915993 0 0.075367368742413815 -0.035158681876927562 0 0.08711416874746869 -0.053950781527142243 0 0.090942009107869745 -0.024917805880157899 0 0.089361858802177424 -0.039478299451192571 0 0.075367368742413815 -0.035158681876927562 0 0.052271857815577603 -0.05034479583743727 0 0.06129657965387833 -0.035090017702156931 0 0.075367368742413815 -0.035158681876927562 0 0.052271857815577603 -0.05034479583743727 0 0.075367368742413815 -0.035158681876927562 0 0.06129657965387833 -0.035090017702156931 0 0.068852471269270271 -0.02473638793529603 0 0.075367368742413815 -0.035158681876927562 0 0.052271857815577603 -0.05034479583743727 0 0.075367368742413815 -0.035158681876927562 0 0.070900805939892536 -0.055786727705204112 0 0.075367368742413815 -0.035158681876927562 0 0.070900805939892536 -0.055786727705204112 0 0.08711416874746869 -0.053950781527142243 0 0.070900805939892536 -0.055786727705204112 0 0.08711416874746869 -0.053950781527142243 0 0.080463742915549544 -0.070421200587395386 0 0.08711416874746869 -0.053950781527142243 0 0.1088016876639164 -0.05712503381925936 0 0.09886096875252387 -0.072742881177356722 0 0.08711416874746869 -0.053950781527142243 0 0.1088016876639164 -0.05712503381925936 0 0.1034824900067197 -0.041397128395915993 0 0.1088016876639164 -0.05712503381925936 0 0.12490347535430819 -0.04244780923243234 0 0.1034824900067197 -0.041397128395915993 0 0.1088016876639164 -0.05712503381925936 0 0.12490347535430819 -0.04244780923243234 0 0.12479666283625621 -0.068405031158979418 0 0.12490347535430819 -0.04244780923243234 0 0.1142606425988844 -0.028806579349397472 0 0.12977362870875031 -0.02445184795514314 0 0.12490347535430819 -0.04244780923243234 0 0.1034824900067197 -0.041397128395915993 0 0.1142606425988844 -0.028806579349397472 0 0.090942009107869745 -0.024917805880157899 0 0.089361858802177424 -0.039478299451192571 0 0.1034824900067197 -0.041397128395915993 0 0.090942009107869745 -0.024917805880157899 0 0.1034824900067197 -0.041397128395915993 0 0.1142606425988844 -0.028806579349397472 0 0.090942009107869745 -0.024917805880157899 0 0.1142606425988844 -0.028806579349397472 0 0.1065166494733252 -0.01467692988338746 0 0.08768456037129746 -0.019706658909340681 0 0.090942009107869745 -0.024917805880157899 0 0.1065166494733252 -0.01467692988338746 0 0.08768456037129746 -0.019706658909340681 0 0.1065166494733252 -0.01467692988338746 0 0.090942009107869745 -0.024917805880157899 0 0.1065166494733252 -0.01467692988338746 0 0.1142606425988844 -0.028806579349397472 0 0.1065166494733252 -0.01467692988338746 0 0.12977362870875031 -0.02445184795514314 0 0.1206640635614146 -0.0053745055608071489 0 0.1065166494733252 -0.01467692988338746 0 0.1065166494733252 -0.01467692988338746 0 0.13505410338374099 -0.0070550638502339322 0 0.1206640635614146 -0.0053745055608071489 0 0.1065166494733252 -0.01467692988338746 0 0.13505410338374099 -0.0070550638502339322 0 0.1065166494733252 -0.01467692988338746 0 0.13505410338374099 -0.0070550638502339322 0 0.12977362870875031 -0.02445184795514314 0 0.1085702234887449 0.0020309669460380048 0 0.1206640635614146 -0.0053745055608071489 0 0.1065166494733252 -0.01467692988338746 0 0.1085702234887449 0.0020309669460380048 0 0.1065166494733252 -0.01467692988338746 0 0.095293300726640384 -0.0026303323679718791 0 0.08768456037129746 -0.019706658909340681 0 0.1065166494733252 -0.01467692988338746 0 0.095293300726640384 -0.0026303323679718791 0 0.080545375583657597 -0.1041725303211104 0 0.09322734423696083 -0.1013987076767236 0 0.086221728363336914 -0.1172488560499296 0 0.080545375583657597 -0.1041725303211104 0 0.084335166156216973 -0.09427917845731601 0 0.072210464360319179 -0.096983220224375694 0 0.084335166156216973 -0.09427917845731601 0 0.09322734423696083 -0.1013987076767236 0 0.092328839936476212 -0.08658826599449071 0 0.080545375583657597 -0.1041725303211104 0 0.084335166156216973 -0.09427917845731601 0 0.09322734423696083 -0.1013987076767236 0 0.091825808360400649 -0.13071971631881599 0 0.086221728363336914 -0.1172488560499296 0 0.068356265732779142 -0.11401278812335219 0 0.091825808360400649 -0.13071971631881599 0 0.068356265732779142 -0.11401278812335219 0 0.080545375583657597 -0.1041725303211104 0 0.086221728363336914 -0.1172488560499296 0 0.072726969720775483 -0.1117025709710351 0 0.072651104250291351 -0.13027573411947399 0 0.058865234250735553 -0.12329010068801249 0 0.068356265732779142 -0.11401278812335219 0 0.086221728363336914 -0.1172488560499296 0 0.072726969720775483 -0.1117025709710351 0 0.068356265732779142 -0.11401278812335219 0 0.058806846412966941 -0.1045042154494613 0 0.072726969720775483 -0.1117025709710351 0 0.068356265732779142 -0.11401278812335219 0 0.058806846412966941 -0.1045042154494613 0 0.072726969720775483 -0.1117025709710351 0 0.071072414019429792 -0.1043406342414956 0 0.058806846412966941 -0.1045042154494613 0 0.071072414019429792 -0.1043406342414956 0 0.072210464360319179 -0.096983220224375694 0 0.058806846412966941 -0.1045042154494613 0 0.072726969720775483 -0.1117025709710351 0 0.080545375583657597 -0.1041725303211104 0 0.071072414019429792 -0.1043406342414956 0 0.072210464360319179 -0.096983220224375694 0 0.080545375583657597 -0.1041725303211104 0 0.072726969720775483 -0.1117025709710351 0 0.071072414019429792 -0.1043406342414956 0 0.060383405475292848 -0.089209767810746493 0 0.058806846412966941 -0.1045042154494613 0 0.072210464360319179 -0.096983220224375694 0 0.060383405475292848 -0.089209767810746493 0 0.072210464360319179 -0.096983220224375694 0 0.077021946092742558 -0.086338489172839983 0 0.061237722517209783 -0.0704425506612463 0 0.060383405475292848 -0.089209767810746493 0 0.077021946092742558 -0.086338489172839983 0 0.084335166156216973 -0.09427917845731601 0 0.072210464360319179 -0.096983220224375694 0 0.077021946092742558 -0.086338489172839983 0 0.061237722517209783 -0.0704425506612463 0 0.070900805939892536 -0.055786727705204112 0 0.080463742915549544 -0.070421200587395386 0 0.061237722517209783 -0.0704425506612463 0 0.077021946092742558 -0.086338489172839983 0 0.080463742915549544 -0.070421200587395386 0 0.08711416874746869 -0.053950781527142243 0 0.080463742915549544 -0.070421200587395386 0 0.09886096875252387 -0.072742881177356722 0 0.080463742915549544 -0.070421200587395386 0 0.092328839936476212 -0.08658826599449071 0 0.09886096875252387 -0.072742881177356722 0 0.08711416874746869 -0.053950781527142243 0 0.09886096875252387 -0.072742881177356722 0 0.077021946092742558 -0.086338489172839983 0 0.080463742915549544 -0.070421200587395386 0 0.092328839936476212 -0.08658826599449071 0 0.084335166156216973 -0.09427917845731601 0 0.077021946092742558 -0.086338489172839983 0 0.092328839936476212 -0.08658826599449071 0 0.09886096875252387 -0.072742881177356722 0 0.11060776875757911 -0.091534980827571222 0 0.092328839936476212 -0.08658826599449071 0 0.09886096875252387 -0.072742881177356722 0 0.11060776875757911 -0.091534980827571222 0 0.09322734423696083 -0.1013987076767236 0 0.092328839936476212 -0.08658826599449071 0 0.11060776875757911 -0.091534980827571222 0 0.1088016876639164 -0.05712503381925936 0 0.09886096875252387 -0.072742881177356722 0 0.12479666283625621 -0.068405031158979418 0 0.09886096875252387 -0.072742881177356722 0 0.12479666283625621 -0.068405031158979418 0 0.11060776875757911 -0.091534980827571222 0 0.12479666283625621 -0.068405031158979418 0 0.11060776875757911 -0.091534980827571222 0 0.13593192218240729 -0.088862871851813727 0 0.11060776875757911 -0.091534980827571222 0 0.10420946126282191 -0.1149812348698503 0 0.12666681042280259 -0.1148879963719676 0 0.11060776875757911 -0.091534980827571222 0 0.12666681042280259 -0.1148879963719676 0 0.13593192218240729 -0.088862871851813727 0 0.09322734423696083 -0.1013987076767236 0 0.11060776875757911 -0.091534980827571222 0 0.10420946126282191 -0.1149812348698503 0 0.091825808360400649 -0.13071971631881599 0 0.086221728363336914 -0.1172488560499296 0 0.10420946126282191 -0.1149812348698503 0 0.1132019957566571 -0.12895631246466679 0 0.091825808360400649 -0.13071971631881599 0 0.10420946126282191 -0.1149812348698503 0 0.09322734423696083 -0.1013987076767236 0 0.086221728363336914 -0.1172488560499296 0 0.10420946126282191 -0.1149812348698503 0 0.1132019957566571 -0.12895631246466679 0 0.10420946126282191 -0.1149812348698503 0 0.12666681042280259 -0.1148879963719676 0 0.12666681042280259 -0.1148879963719676 0 0.1503130674830869 -0.10695650818788111 0 0.14888234198181921 -0.1357392333427821 0 0.1503130674830869 -0.10695650818788111 0 0.16578351114589851 -0.1221417877286588 0 0.14888234198181921 -0.1357392333427821 0 0.12666681042280259 -0.1148879963719676 0 0.1503130674830869 -0.10695650818788111 0 0.13593192218240729 -0.088862871851813727 0 0.12479666283625621 -0.068405031158979418 0 0.13593192218240729 -0.088862871851813727 0 0.1494701134419979 -0.064610924285134333 0 0.13593192218240729 -0.088862871851813727 0 0.1494701134419979 -0.064610924285134333 0 0.16155092347560529 -0.083332678459940468 0 0.1503130674830869 -0.10695650818788111 0 0.13593192218240729 -0.088862871851813727 0 0.16155092347560529 -0.083332678459940468 0 0.1494701134419979 -0.064610924285134333 0 0.16155092347560529 -0.083332678459940468 0 0.17189572680083079 -0.058054136643499073 0 0.16155092347560529 -0.083332678459940468 0 0.18515665152110669 -0.075193858518680212 0 0.17189572680083079 -0.058054136643499073 0 0.18515665152110669 -0.075193858518680212 0 0.17189572680083079 -0.058054136643499073 0 0.19621632506442571 -0.057759059181732852 0 0.16155092347560529 -0.083332678459940468 0 0.18515665152110669 -0.075193858518680212 0 0.1783963638818615 -0.1012450325521123 0 0.1783963638818615 -0.1012450325521123 0 0.16578351114589851 -0.1221417877286588 0 0.18630600456307289 -0.12577295684399159 0 0.1503130674830869 -0.10695650818788111 0 0.1783963638818615 -0.1012450325521123 0 0.16578351114589851 -0.1221417877286588 0 0.1503130674830869 -0.10695650818788111 0 0.16155092347560529 -0.083332678459940468 0 0.1783963638818615 -0.1012450325521123 0 0.163591557294157 0.00056680218291868187 0 0.1456097857692818 -0.015521694566750699 0 0.13505410338374099 -0.0070550638502339322 0 0.163591557294157 0.00056680218291868187 0 0.13505410338374099 -0.0070550638502339322 0 0.12169987808444491 0.0072513285582684502 0 0.1206640635614146 -0.0053745055608071489 0 0.13505410338374099 -0.0070550638502339322 0 0.1456097857692818 -0.015521694566750699 0 0.12977362870875031 -0.02445184795514314 0 0.14222620758064261 -0.033553288622734108 0 0.1456097857692818 -0.015521694566750699 0 0.13505410338374099 -0.0070550638502339322 0 0.12977362870875031 -0.02445184795514314 0 0.1456097857692818 -0.015521694566750699 0 0.14222620758064261 -0.033553288622734108 0 0.15688891758083279 -0.029809355500732451 0 0.1551972609504457 -0.044614508756090847 0 0.14222620758064261 -0.033553288622734108 0 0.14107332800271 -0.04958216049235771 0 0.1551972609504457 -0.044614508756090847 0 0.14222620758064261 -0.033553288622734108 0 0.15688891758083279 -0.029809355500732451 0 0.12490347535430819 -0.04244780923243234 0 0.12977362870875031 -0.02445184795514314 0 0.14222620758064261 -0.033553288622734108 0 0.12490347535430819 -0.04244780923243234 0 0.14222620758064261 -0.033553288622734108 0 0.14107332800271 -0.04958216049235771 0 0.12479666283625621 -0.068405031158979418 0 0.1494701134419979 -0.064610924285134333 0 0.14107332800271 -0.04958216049235771 0 0.12490347535430819 -0.04244780923243234 0 0.12479666283625621 -0.068405031158979418 0 0.14107332800271 -0.04958216049235771 0 0.1494701134419979 -0.064610924285134333 0 0.1551972609504457 -0.044614508756090847 0 0.14107332800271 -0.04958216049235771 0 0.1494701134419979 -0.064610924285134333 0 0.1551972609504457 -0.044614508756090847 0 0.17189572680083079 -0.058054136643499073 0 0.17189572680083079 -0.058054136643499073 0 0.1851893271919331 -0.045158550986680077 0 0.19621632506442571 -0.057759059181732852 0 0.1851893271919331 -0.045158550986680077 0 0.17162809768848411 -0.036287805495520332 0 0.19623390951770331 -0.023774123916953171 0 0.17189572680083079 -0.058054136643499073 0 0.1851893271919331 -0.045158550986680077 0 0.17162809768848411 -0.036287805495520332 0 0.1551972609504457 -0.044614508756090847 0 0.17189572680083079 -0.058054136643499073 0 0.17162809768848411 -0.036287805495520332 0 0.1551972609504457 -0.044614508756090847 0 0.17162809768848411 -0.036287805495520332 0 0.15688891758083279 -0.029809355500732451 0 0.1456097857692818 -0.015521694566750699 0 0.17092184764349261 -0.019647909241851939 0 0.1456097857692818 -0.015521694566750699 0 0.17092184764349261 -0.019647909241851939 0 0.15688891758083279 -0.029809355500732451 0 0.17162809768848411 -0.036287805495520332 0 0.17092184764349261 -0.019647909241851939 0 0.15688891758083279 -0.029809355500732451 0 0.17162809768848411 -0.036287805495520332 0 0.17092184764349261 -0.019647909241851939 0 0.19623390951770331 -0.023774123916953171 0 0.17092184764349261 -0.019647909241851939 0 0.19623390951770331 -0.023774123916953171 0 0.17092184764349261 -0.019647909241851939 0 0.18566852940922329 -0.0088860214450327806 0 0.19623390951770331 -0.023774123916953171 0 0.163591557294157 0.00056680218291868187 0 0.17092184764349261 -0.019647909241851939 0 0.18566852940922329 -0.0088860214450327806 0 0.19212901120457321 0.0081886682160713375 0 0.163591557294157 0.00056680218291868187 0 0.18566852940922329 -0.0088860214450327806 0 0.163591557294157 0.00056680218291868187 0 0.1456097857692818 -0.015521694566750699 0 0.17092184764349261 -0.019647909241851939 0 0.18566852940922329 -0.0088860214450327806 0 0.20864284802578281 -0.0065324788891540156 0 0.19623390951770331 -0.023774123916953171 0 0.19212901120457321 0.0081886682160713375 0 0.18566852940922329 -0.0088860214450327806 0 0.20864284802578281 -0.0065324788891540156 0 0.19623390951770331 -0.023774123916953171 0 0.22154597139191409 -0.027900338592054399 0 0.19623390951770331 -0.023774123916953171 0 0.20050840357150401 -0.040768807803306363 0 0.22154597139191409 -0.027900338592054399 0 0.20864284802578281 -0.0065324788891540156 0 0.19623390951770331 -0.023774123916953171 0 0.22154597139191409 -0.027900338592054399 0 0.20050840357150401 -0.040768807803306363 0 0.213465200455912 -0.052567621061818497 0 0.22154597139191409 -0.027900338592054399 0 0.1851893271919331 -0.045158550986680077 0 0.19623390951770331 -0.023774123916953171 0 0.20050840357150401 -0.040768807803306363 0 0.1851893271919331 -0.045158550986680077 0 0.20050840357150401 -0.040768807803306363 0 0.19621632506442571 -0.057759059181732852 0 0.20050840357150401 -0.040768807803306363 0 0.19621632506442571 -0.057759059181732852 0 0.213465200455912 -0.052567621061818497 0 0.19621632506442571 -0.057759059181732852 0 0.213465200455912 -0.052567621061818497 0 0.20661309150214471 -0.071185393621547799 0 0.213465200455912 -0.052567621061818497 0 0.23145906209765199 -0.049728063818740821 0 0.22557396829825299 -0.064385512185646102 0 0.213465200455912 -0.052567621061818497 0 0.23145906209765199 -0.049728063818740821 0 0.23145906209765199 -0.049728063818740821 0 0.24052393531032029 -0.054942700078618442 0 0.22557396829825299 -0.064385512185646102 0 0.24052393531032029 -0.054942700078618442 0 0.22557396829825299 -0.064385512185646102 0 0.24193210565152751 -0.065305200451343373 0 0.24052393531032029 -0.054942700078618442 0 0.249462220344529 -0.049513941626465573 0 0.24193210565152751 -0.065305200451343373 0 0.23145906209765199 -0.049728063818740821 0 0.24052393531032029 -0.054942700078618442 0 0.24945292373939221 -0.046888506575663548 0 0.23145906209765199 -0.049728063818740821 0 0.24945292373939221 -0.046888506575663548 0 0.24052393531032029 -0.054942700078618442 0 0.24945292373939221 -0.046888506575663548 0 0.249462220344529 -0.049513941626465573 0 0.24945292373939221 -0.046888506575663548 0 0.249462220344529 -0.049513941626465573 0 0.23145906209765199 -0.049728063818740821 0 0.24945292373939221 -0.046888506575663548 0 0.2381248104927054 -0.033535920902004919 0 0.24945292373939221 -0.046888506575663548 0 0.24934833894078609 -0.017352929662964419 0 0.24945292373939221 -0.046888506575663548 0 0.2381248104927054 -0.033535920902004919 0 0.24934833894078609 -0.017352929662964419 0 0.23145906209765199 -0.049728063818740821 0 0.2381248104927054 -0.033535920902004919 0 0.22154597139191409 -0.027900338592054399 0 0.213465200455912 -0.052567621061818497 0 0.23145906209765199 -0.049728063818740821 0 0.22154597139191409 -0.027900338592054399 0 0.2381248104927054 -0.033535920902004919 0 0.22154597139191409 -0.027900338592054399 0 0.24934833894078609 -0.017352929662964419 0 0.22154597139191409 -0.027900338592054399 0 0.24934833894078609 -0.017352929662964419 0 0.23561320151629339 -0.0026335918461790988 0 0.24924375414218081 0.01218264724973479 0 0.24934833894078609 -0.017352929662964419 0 0.24924375414218081 0.01218264724973479 0 0.24934833894078609 -0.017352929662964419 0 0.23561320151629339 -0.0026335918461790988 0 0.20864284802578281 -0.0065324788891540156 0 0.22154597139191409 -0.027900338592054399 0 0.23561320151629339 -0.0026335918461790988 0 0.2048480382592244 -0.10561703804644219 0 0.223390071955376 -0.085461119248892797 0 0.224794100967453 -0.10416879855523629 0 0.2048480382592244 -0.10561703804644219 0 0.223390071955376 -0.085461119248892797 0 0.2048480382592244 -0.10561703804644219 0 0.21366435644586451 -0.120007417424299 0 0.224794100967453 -0.10416879855523629 0 0.2048480382592244 -0.10561703804644219 0 0.18630600456307289 -0.12577295684399159 0 0.2048480382592244 -0.10561703804644219 0 0.21366435644586451 -0.120007417424299 0 0.18630600456307289 -0.12577295684399159 0 0.1783963638818615 -0.1012450325521123 0 0.2048480382592244 -0.10561703804644219 0 0.18630600456307289 -0.12577295684399159 0 0.1783963638818615 -0.1012450325521123 0 0.2048480382592244 -0.10561703804644219 0 0.19968084342394271 -0.087740488397535066 0 0.18515665152110669 -0.075193858518680212 0 0.1783963638818615 -0.1012450325521123 0 0.19968084342394271 -0.087740488397535066 0 0.18515665152110669 -0.075193858518680212 0 0.19621632506442571 -0.057759059181732852 0 0.20661309150214471 -0.071185393621547799 0 0.18515665152110669 -0.075193858518680212 0 0.19968084342394271 -0.087740488397535066 0 0.20661309150214471 -0.071185393621547799 0 0.213465200455912 -0.052567621061818497 0 0.20661309150214471 -0.071185393621547799 0 0.22557396829825299 -0.064385512185646102 0 0.20661309150214471 -0.071185393621547799 0 0.223390071955376 -0.085461119248892797 0 0.22557396829825299 -0.064385512185646102 0 0.2048480382592244 -0.10561703804644219 0 0.19968084342394271 -0.087740488397535066 0 0.223390071955376 -0.085461119248892797 0 0.19968084342394271 -0.087740488397535066 0 0.20661309150214471 -0.071185393621547799 0 0.223390071955376 -0.085461119248892797 0 0.223390071955376 -0.085461119248892797 0 0.24409979373027321 -0.08419048956157503 0 0.23285679334907869 -0.09445883998852958 0 0.223390071955376 -0.085461119248892797 0 0.22557396829825299 -0.064385512185646102 0 0.24193210565152751 -0.065305200451343373 0 0.223390071955376 -0.085461119248892797 0 0.24193210565152751 -0.065305200451343373 0 0.25788891384778417 -0.078562395337112748 0 0.24193210565152751 -0.065305200451343373 0 0.24409979373027321 -0.08419048956157503 0 0.223390071955376 -0.085461119248892797 0 0.24193210565152751 -0.065305200451343373 0 0.24409979373027321 -0.08419048956157503 0 0.24409979373027321 -0.08419048956157503 0 0.23914320674321241 -0.1040149525884142 0 0.23285679334907869 -0.09445883998852958 0 0.25014461766983942 -0.1056157606165187 0 0.24409979373027321 -0.08419048956157503 0 0.23914320674321241 -0.1040149525884142 0 0.25014461766983942 -0.1056157606165187 0 0.23914320674321241 -0.1040149525884142 0 0.2462752805337094 -0.1164302520937919 0 0.23914320674321241 -0.1040149525884142 0 0.23285679334907869 -0.09445883998852958 0 0.224794100967453 -0.10416879855523629 0 0.223390071955376 -0.085461119248892797 0 0.23285679334907869 -0.09445883998852958 0 0.224794100967453 -0.10416879855523629 0 0.23914320674321241 -0.1040149525884142 0 0.224794100967453 -0.10416879855523629 0 0.23276065978702179 -0.11765059754847949 0 0.21366435644586451 -0.120007417424299 0 0.23276065978702179 -0.11765059754847949 0 0.22549002802868121 -0.13523141650051079 0 0.21366435644586451 -0.120007417424299 0 0.224794100967453 -0.10416879855523629 0 0.23276065978702179 -0.11765059754847949 0 0.23276065978702179 -0.11765059754847949 0 0.2462752805337094 -0.1164302520937919 0 0.24205581363735401 -0.12861510377613511 0 0.23914320674321241 -0.1040149525884142 0 0.23276065978702179 -0.11765059754847949 0 0.2462752805337094 -0.1164302520937919 0 0.25176187605930839 -0.1237749620808777 0 0.2462752805337094 -0.1164302520937919 0 0.24205581363735401 -0.12861510377613511 0 0.24205581363735401 -0.12861510377613511 0 0.2391989365397568 -0.14131525574514431 0 0.22549002802868121 -0.13523141650051079 0 0.25277327120285892 -0.13174155060927689 0 0.24630144909439439 -0.1366621448626984 0 0.24205581363735401 -0.12861510377613511 0 0.25176187605930839 -0.1237749620808777 0 0.25277327120285892 -0.13174155060927689 0 0.24205581363735401 -0.12861510377613511 0 0.24630144909439439 -0.1366621448626984 0 0.24205581363735401 -0.12861510377613511 0 0.2391989365397568 -0.14131525574514431 0 0.24784948648729269 -0.1473367807090844 0 0.24004608470840699 -0.15461002437933191 0 0.24978916718025401 -0.16190726118607571 0 0.24784948648729269 -0.1473367807090844 0 0.2391989365397568 -0.14131525574514431 0 0.24004608470840699 -0.15461002437933191 0 0.25348559013088362 -0.13826493822524219 0 0.24630144909439439 -0.1366621448626984 0 0.24784948648729269 -0.1473367807090844 0 0.24630144909439439 -0.1366621448626984 0 0.24784948648729269 -0.1473367807090844 0 0.2391989365397568 -0.14131525574514431 0 0.2391989365397568 -0.14131525574514431 0 0.24004608470840699 -0.15461002437933191 0 0.22751609099415659 -0.1500858901442472 0 0.22751609099415659 -0.1500858901442472 0 0.21177334993597691 -0.14952210558037621 0 0.2206039927190046 -0.16256708534647479 0 0.22751609099415659 -0.1500858901442472 0 0.22549002802868121 -0.13523141650051079 0 0.21177334993597691 -0.14952210558037621 0 0.2391989365397568 -0.14131525574514431 0 0.22751609099415659 -0.1500858901442472 0 0.22549002802868121 -0.13523141650051079 0 0.23276065978702179 -0.11765059754847949 0 0.24205581363735401 -0.12861510377613511 0 0.22549002802868121 -0.13523141650051079 0 0.22549002802868121 -0.13523141650051079 0 0.20616796932508941 -0.1348267058079263 0 0.21177334993597691 -0.14952210558037621 0 0.21366435644586451 -0.120007417424299 0 0.22549002802868121 -0.13523141650051079 0 0.20616796932508941 -0.1348267058079263 0 0.20616796932508941 -0.1348267058079263 0 0.21177334993597691 -0.14952210558037621 0 0.19269920577047239 -0.1446439405644884 0 0.21177334993597691 -0.14952210558037621 0 0.19269920577047239 -0.1446439405644884 0 0.2016681834789808 -0.16217040365414109 0 0.21366435644586451 -0.120007417424299 0 0.20616796932508941 -0.1348267058079263 0 0.18630600456307289 -0.12577295684399159 0 0.20616796932508941 -0.1348267058079263 0 0.19269920577047239 -0.1446439405644884 0 0.18630600456307289 -0.12577295684399159 0 0.20074904151738401 -0.17533010588893011 0 0.20057275522871759 -0.1885206899547818 0 0.1802516352578645 -0.17478308873167631 0 0.20074904151738401 -0.17533010588893011 0 0.2016681834789808 -0.16217040365414109 0 0.1802516352578645 -0.17478308873167631 0 0.19269920577047239 -0.1446439405644884 0 0.2016681834789808 -0.16217040365414109 0 0.1802516352578645 -0.17478308873167631 0 0.20074904151738401 -0.17533010588893011 0 0.2016681834789808 -0.16217040365414109 0 0.21393997749994439 -0.17518248218532231 0 0.2016681834789808 -0.16217040365414109 0 0.21393997749994439 -0.17518248218532231 0 0.2016681834789808 -0.16217040365414109 0 0.21393997749994439 -0.17518248218532231 0 0.2206039927190046 -0.16256708534647479 0 0.21177334993597691 -0.14952210558037621 0 0.2016681834789808 -0.16217040365414109 0 0.2206039927190046 -0.16256708534647479 0 0.21393997749994439 -0.17518248218532231 0 0.2194073160147639 -0.18988074059589249 0 0.20057275522871759 -0.1885206899547818 0 0.20074904151738401 -0.17533010588893011 0 0.21393997749994439 -0.17518248218532231 0 0.20057275522871759 -0.1885206899547818 0 0.22347716088692299 -0.17382490049597771 0 0.2331529018078346 -0.16935547373561041 0 0.2262117715209081 -0.1881945607165034 0 0.21393997749994439 -0.17518248218532231 0 0.2194073160147639 -0.18988074059589249 0 0.2262117715209081 -0.1881945607165034 0 0.21393997749994439 -0.17518248218532231 0 0.2262117715209081 -0.1881945607165034 0 0.21393997749994439 -0.17518248218532231 0 0.22347716088692299 -0.17382490049597771 0 0.2262117715209081 -0.1881945607165034 0 0.24004608470840699 -0.15461002437933191 0 0.22751609099415659 -0.1500858901442472 0 0.2331529018078346 -0.16935547373561041 0 0.22751609099415659 -0.1500858901442472 0 0.2206039927190046 -0.16256708534647479 0 0.2331529018078346 -0.16935547373561041 0 0.22347716088692299 -0.17382490049597771 0 0.2206039927190046 -0.16256708534647479 0 0.2331529018078346 -0.16935547373561041 0 0.21393997749994439 -0.17518248218532231 0 0.22347716088692299 -0.17382490049597771 0 0.2206039927190046 -0.16256708534647479 0 0.24004608470840699 -0.15461002437933191 0 0.2331529018078346 -0.16935547373561041 0 0.24978916718025401 -0.16190726118607571 0 0.25422100649276402 -0.18125372490620401 0 0.2331529018078346 -0.16935547373561041 0 0.24978916718025401 -0.16190726118607571 0 0.25422100649276402 -0.18125372490620401 0 0.2331529018078346 -0.16935547373561041 0 0.2262117715209081 -0.1881945607165034 0 0.25422100649276402 -0.18125372490620401 0 0.2262117715209081 -0.1881945607165034 0 0.24577709228845779 -0.20894014118177259 0 0.2262117715209081 -0.1881945607165034 0 0.25422100649276402 -0.18125372490620401 0 0.2473321467029129 -0.19438791307811501 0 0.2262117715209081 -0.1881945607165034 0 0.2473321467029129 -0.19438791307811501 0 0.24577709228845779 -0.20894014118177259 0 0.2262117715209081 -0.1881945607165034 0 0.24577709228845779 -0.20894014118177259 0 0.22722137850880811 -0.2068412868888187 0 0.2390432584826839 -0.22742997107546259 0 0.22722137850880811 -0.2068412868888187 0 0.2194073160147639 -0.18988074059589249 0 0.2262117715209081 -0.1881945607165034 0 0.24577709228845779 -0.20894014118177259 0 0.22722137850880811 -0.2068412868888187 0 0.2262117715209081 -0.1881945607165034 0 0.2194073160147639 -0.18988074059589249 0 0.2262117715209081 -0.1881945607165034 0 0.25728640421358012 -0.23480601073524321 0 0.2359657753849061 -0.24686569655727211 0 0.25728640421358012 -0.23480601073524321 0 0.2359657753849061 -0.24686569655727211 0 0.2390432584826839 -0.22742997107546259 0 0.25728640421358012 -0.23480601073524321 0 0.24577709228845779 -0.20894014118177259 0 0.2390432584826839 -0.22742997107546259 0 0.22722137850880811 -0.2068412868888187 0 0.2390432584826839 -0.22742997107546259 0 0.22022722571427539 -0.22754404956096971 0 0.2359657753849061 -0.24686569655727211 0 0.2390432584826839 -0.22742997107546259 0 0.22022722571427539 -0.22754404956096971 0 0.2359657753849061 -0.24686569655727211 0 0.22022722571427539 -0.22754404956096971 0 0.21515344991645319 -0.24530421796328999 0 0.20270426843027989 -0.25754390902865992 0 0.21515344991645319 -0.24530421796328999 0 0.19522005737280809 -0.2299569689296653 0 0.22022722571427539 -0.22754404956096971 0 0.21515344991645319 -0.24530421796328999 0 0.19522005737280809 -0.2299569689296653 0 0.22022722571427539 -0.22754404956096971 0 0.19522005737280809 -0.2299569689296653 0 0.2082382417191922 -0.2078525269959848 0 0.20270426843027989 -0.25754390902865992 0 0.19522005737280809 -0.2299569689296653 0 0.18477260126701189 -0.24804654939694321 0 0.20270426843027989 -0.25754390902865992 0 0.19522005737280809 -0.2299569689296653 0 0.2194073160147639 -0.18988074059589249 0 0.2082382417191922 -0.2078525269959848 0 0.20057275522871759 -0.1885206899547818 0 0.22722137850880811 -0.2068412868888187 0 0.2194073160147639 -0.18988074059589249 0 0.2082382417191922 -0.2078525269959848 0 0.22722137850880811 -0.2068412868888187 0 0.22022722571427539 -0.22754404956096971 0 0.2082382417191922 -0.2078525269959848 0 0.19522005737280809 -0.2299569689296653 0 0.2082382417191922 -0.2078525269959848 0 0.1877358463153363 -0.20237002883067071 0 0.19522005737280809 -0.2299569689296653 0 0.1877358463153363 -0.20237002883067071 0 0.1877358463153363 -0.20237002883067071 0 0.20057275522871759 -0.1885206899547818 0 0.1802516352578645 -0.17478308873167631 0 0.2082382417191922 -0.2078525269959848 0 0.1877358463153363 -0.20237002883067071 0 0.20057275522871759 -0.1885206899547818 0 0.1877358463153363 -0.20237002883067071 0 0.1802516352578645 -0.17478308873167631 0 0.1646471283011533 -0.187444270672665 0 0.1877358463153363 -0.20237002883067071 0 0.15298211160985969 -0.20783397486573291 0 0.1646471283011533 -0.187444270672665 0 0.1877358463153363 -0.20237002883067071 0 0.17063936040815461 -0.23254049392898379 0 0.15298211160985969 -0.20783397486573291 0 0.1877358463153363 -0.20237002883067071 0 0.1802516352578645 -0.17478308873167631 0 0.19522005737280809 -0.2299569689296653 0 0.18477260126701189 -0.24804654939694321 0 0.17063936040815461 -0.23254049392898379 0 0.17090619971108759 -0.25322506140830192 0 0.18477260126701189 -0.24804654939694321 0 0.17063936040815461 -0.23254049392898379 0 0.19522005737280809 -0.2299569689296653 0 0.1877358463153363 -0.20237002883067071 0 0.17063936040815461 -0.23254049392898379 0 0.17090619971108759 -0.25322506140830192 0 0.17063936040815461 -0.23254049392898379 0 0.1567649187369701 -0.2477814471462626 0 0.17063936040815461 -0.23254049392898379 0 0.1567649187369701 -0.2477814471462626 0 0.14480626874807001 -0.23445706608907391 0 0.1442300507489096 -0.25955745300895983 0 0.1567649187369701 -0.2477814471462626 0 0.14480626874807001 -0.23445706608907391 0 0.14480626874807001 -0.23445706608907391 0 0.15298211160985969 -0.20783397486573291 0 0.12522972808992511 -0.21829503339356829 0 0.17063936040815461 -0.23254049392898379 0 0.14480626874807001 -0.23445706608907391 0 0.15298211160985969 -0.20783397486573291 0 0.11733468885727009 -0.24119947634711811 0 0.14480626874807001 -0.23445706608907391 0 0.12522972808992511 -0.21829503339356829 0 0.1284018024931908 -0.25439569680934893 0 0.11733468885727009 -0.24119947634711811 0 0.14480626874807001 -0.23445706608907391 0 0.1284018024931908 -0.25439569680934893 0 0.1442300507489096 -0.25955745300895983 0 0.14480626874807001 -0.23445706608907391 0 0.15298211160985969 -0.20783397486573291 0 0.1447628847994073 -0.18351103583810949 0 0.1646471283011533 -0.187444270672665 0 0.15298211160985969 -0.20783397486573291 0 0.13022061167876001 -0.1966054580212783 0 0.1447628847994073 -0.18351103583810949 0 0.15298211160985969 -0.20783397486573291 0 0.12522972808992511 -0.21829503339356829 0 0.13022061167876001 -0.1966054580212783 0 0.1163428853765546 -0.1739781751317093 0 0.1447628847994073 -0.18351103583810949 0 0.1163428853765546 -0.1739781751317093 0 0.13022061167876001 -0.1966054580212783 0 0.1447628847994073 -0.18351103583810949 0 0.1447628847994073 -0.18351103583810949 0 0.1646471283011533 -0.187444270672665 0 0.1578326324784233 -0.1643268130829082 0 0.1447628847994073 -0.18351103583810949 0 0.13570756930478459 -0.15697766912763211 0 0.1578326324784233 -0.1643268130829082 0 0.1163428853765546 -0.1739781751317093 0 0.1447628847994073 -0.18351103583810949 0 0.13570756930478459 -0.15697766912763211 0 0.13570756930478459 -0.15697766912763211 0 0.12801254774923829 -0.1367659702484201 0 0.14888234198181921 -0.1357392333427821 0 0.1152953509880221 -0.14742664451427989 0 0.13570756930478459 -0.15697766912763211 0 0.12801254774923829 -0.1367659702484201 0 0.12666681042280259 -0.1148879963719676 0 0.12801254774923829 -0.1367659702484201 0 0.14888234198181921 -0.1357392333427821 0 0.13570756930478459 -0.15697766912763211 0 0.14888234198181921 -0.1357392333427821 0 0.1578326324784233 -0.1643268130829082 0 0.14888234198181921 -0.1357392333427821 0 0.17276742420039279 -0.14719614863268191 0 0.1578326324784233 -0.1643268130829082 0 0.16578351114589851 -0.1221417877286588 0 0.14888234198181921 -0.1357392333427821 0 0.17276742420039279 -0.14719614863268191 0 0.19269920577047239 -0.1446439405644884 0 0.18630600456307289 -0.12577295684399159 0 0.17276742420039279 -0.14719614863268191 0 0.16578351114589851 -0.1221417877286588 0 0.18630600456307289 -0.12577295684399159 0 0.17276742420039279 -0.14719614863268191 0 0.19269920577047239 -0.1446439405644884 0 0.17276742420039279 -0.14719614863268191 0 0.1802516352578645 -0.17478308873167631 0 0.17276742420039279 -0.14719614863268191 0 0.1802516352578645 -0.17478308873167631 0 0.1802516352578645 -0.17478308873167631 0 0.1646471283011533 -0.187444270672665 0 0.1578326324784233 -0.1643268130829082 0 0.17276742420039279 -0.14719614863268191 0 0.1802516352578645 -0.17478308873167631 0 0.1578326324784233 -0.1643268130829082 0 
</DataArray>
</Points>
<Cells>
<DataArray type="UInt32" Name="connectivity" format="ascii">
0 1 2 3 4 5 6 7 8 9 10 11 12 13 14 15 16 17 18 19 20 21 22 23 24 25 26 27 28 29 30 31 32 33 34 35 36 37 38 39 40 41 42 43 44 45 46 47 48 49 50 51 52 53 54 55 56 57 58 59 60 61 62 63 64 65 66 67 68 69 70 71 72 73 74 75 76 77 78 79 80 81 82 83 84 85 86 87 88 89 90 91 92 93 94 95 96 97 98 99 100 101 102 103 104 105 106 107 108 109 110 111 112 113 114 115 116 117 118 119 120 121 122 123 124 125 126 127 128 129 130 131 132 133 134 135 136 137 138 139 140 141 142 143 144 145 146 147 148 149 150 151 152 153 154 155 156 157 158 159 160 161 162 163 164 165 166 167 168 169 170 171 172 173 174 175 176 177 178 179 180 181 182 183 184 185 186 187 188 189 190 191 192 193 194 195 196 197 198 199 200 201 202 203 204 205 206 207 208 209 210 211 212 213 214 215 216 217 218 219 220 221 222 223 224 225 226 227 228 229 230 231 232 233 234 235 236 237 238 239 240 241 242 243 244 245 246 247 248 249 250 251 252 253 254 255 256 257 258 259 260 261 262 263 264 265 266 267 268 269 270 271 272 273 274 275 276 277 278 279 280 281 282 283 284 285 286 287 288 289 290 291 292 293 294 295 296 297 298 299 300 301 302 303 304 305 306 307 308 309 310 311 312 313 314 315 316 317 318 319 320 321 322 323 324 325 326 327 328 329 330 331 332 333 334 335 336 337 338 339 340 341 342 343 344 345 346 347 348 349 350 351 352 353 354 355 356 357 358 359 360 361 362 363 364 365 366 367 368 369 370 371 372 373 374 375 376 377 378 379 380 381 382 383 384 385 386 387 388 389 390 391 392 393 394 395 396 397 398 399 400 401 402 403 404 405 406 407 408 409 410 411 412 413 414 415 416 417 418 419 420 421 422 423 424 425 426 427 428 429 430 431 432 433 434 435 436 437 438 439 440 441 442 443 444 445 446 447 448 449 450 451 452 453 454 455 456 457 458 459 460 461 462 463 464 465 466 467 468 469 470 471 472 473 474 475 476 477 478 479 480 481 482 483 484 485 486 487 488 489 490 491 492 493 494 495 496 497 498 499 500 501 502 503 504 505 506 507 508 509 510 511 512 513 514 515 516 517 518 519 520 521 522 523 524 525 526 527 528 529 530 531 532 533 534 535 536 537 538 539 540 541 542 543 544 545 546 547 548 549 550 551 552 553 554 555 556 557 558 559 560 561 562 563 564 565 566 567 568 569 570 571 572 573 574 575 576 577 578 579 580 581 582 583 584 585 586 587 588 589 590 591 592 593 594 595 596 597 598 599 600 601 602 603 604 605 606 607 608 609 610 611 612 613 614 615 616 617 618 619 620 621 622 623 624 625 626 627 628 629 630 631 632 633 634 635 636 637 638 639 640 641 642 643 644 645 646 647 648 649 650 651 652 653 654 655 656 657 658 659 660 661 662 663 664 665 666 667 668 669 670 671 672 673 674 675 676 677 678 679 680 681 682 683 684 685 686 687 688 689 690 691 692 693 694 695 696 697 698 699 700 701 702 703 704 705 706 707 708 709 710 711 712 713 714 715 716 717 718 719 720 721 722 723 724 725 726 727 728 729 730 731 732 733 734 735 736 737 738 739 740 741 742 743 744 745 746 747 748 749 750 751 752 753 754 755 756 757 758 759 760 761 762 763 764 765 766 767 768 769 770 771 772 773 774 775 776 777 778 779 780 781 782 783 784 785 786 787 788 789 790 791 792 793 794 795 796 797 798 799 800 801 802 803 804 805 806 807 808 809 810 811 812 813 814 815 816 817 818 819 820 821 822 823 824 825 826 827 828 829 830 831 832 833 834 835 836 837 838 839 840 841 842 843 844 845 846 847 848 849 850 851 852 853 854 855 856 857 858 859 860 861 862 863 864 865 866 867 868 869 870 871 872 873 874 875 876 877 878 879 880 881 882 883 884 885 886 887 888 889 890 891 892 893 894 895 896 897 898 899 900 901 902 903 904 905 906 907 908 909 910 911 912 913 914 915 916 917 918 919 920 921 922 923 924 925 926 927 928 929 930 931 932 933 934 935 936 937 938 939 940 941 942 943 944 945 946 947 948 949 950 951 952 953 954 955 956 957 958 959 960 961 962 963 964 965 966 967 968 969 970 971 972 973 974 975 976 977 978 979 980 981 982 983 984 985 986 987 988 989 990 991 992 993 994 995 996 997 998 999 1000 1001 1002 1003 1004 1005 1006 1007 1008 1009 1010 1011 1012 1013 1014 1015 1016 1017 1018 1019 1020 1021 1022 1023 1024 1025 1026 1027 1028 1029 1030 1031 1032 1033 1034 1035 1036 1037 1038 1039 1040 1041 1042 1043 1044 1045 1046 1047 1048 1049 1050 1051 1052 1053 1054 1055 1056 1057 1058 1059 1060 1061 1062 1063 1064 1065 1066 1067 1068 1069 1070 1071 1072 1073 1074 1075 1076 1077 1078 1079 1080 1081 1082 1083 1084 1085 1086 1087 1088 1089 1090 1091 1092 1093 1094 1095 1096 1097 1098 1099 1100 1101 1102 1103 1104 1105 1106 1107 1108 1109 1110 1111 1112 1113 1114 1115 1116 1117 1118 1119 1120 1121 1122 1123 1124 1125 1126 1127 1128 1129 1130 1131 1132 1133 1134 1135 1136 1137 1138 1139 1140 1141 1142 1143 1144 1145 1146 1147 1148 1149 1150 1151 1152 1153 1154 1155 1156 1157 1158 1159 1160 1161 1162 1163 1164 1165 1166 1167 1168 1169 1170 1171 1172 1173 1174 1175 1176 1177 1178 1179 1180 1181 1182 1183 1184 1185 1186 1187 1188 1189 1190 1191 1192 1193 1194 1195 1196 1197 1198 1199 1200 1201 1202 1203 1204 1205 1206 1207 1208 1209 1210 1211 1212 1213 1214 1215 1216 1217 1218 1219 1220 1221 1222 1223 1224 1225 1226 1227 1228 1229 1230 1231 1232 1233 1234 1235 1236 1237 1238 1239 1240 1241 1242 1243 1244 1245 1246 1247 1248 1249 1250 1251 1252 1253 1254 1255 1256 1257 1258 1259 1260 1261 1262 1263 1264 1265 1266 1267 1268 1269 1270 1271 1272 1273 1274 1275 1276 1277 1278 1279 1280 1281 1282 1283 1284 1285 1286 1287 1288 1289 1290 1291 1292 1293 1294 1295 1296 1297 1298 1299 1300 1301 1302 1303 1304 1305 1306 1307 1308 1309 1310 1311 1312 1313 1314 1315 1316 1317 1318 1319 1320 1321 1322 1323 1324 1325 1326 1327 1328 1329 1330 1331 1332 1333 1334 1335 1336 1337 1338 1339 1340 1341 1342 1343 1344 1345 1346 1347 1348 1349 1350 1351 1352 1353 1354 1355 1356 1357 1358 1359 1360 1361 1362 1363 1364 1365 1366 1367 1368 1369 1370 1371 1372 1373 1374 1375 1376 1377 1378 1379 1380 1381 1382 1383 1384 1385 1386 1387 1388 1389 1390 1391 1392 1393 1394 1395 1396 1397 1398 1399 1400 1401 1402 1403 1404 1405 1406 1407 1408 1409 1410 1411 1412 1413 1414 1415 1416 1417 1418 1419 1420 1421 1422 1423 1424 1425 1426 1427 1428 1429 1430 1431 1432 1433 1434 1435 1436 1437 1438 1439 1440 1441 1442 1443 1444 1445 1446 1447 1448 1449 1450 1451 1452 1453 1454 1455 1456 1457 1458 1459 1460 1461 1462 1463 1464 1465 1466 1467 1468 1469 1470 1471 1472 1473 1474 1475 1476 1477 1478 1479 1480 1481 1482 1483 1484 1485 1486 1487 1488 1489 1490 1491 1492 1493 1494 1495 1496 1497 1498 1499 1500 1501 1502 1503 1504 1505 1506 1507 1508 1509 1510 1511 1512 1513 1514 1515 1516 1517 1518 1519 1520 1521 1522 1523 1524 1525 1526 1527 1528 1529 1530 1531 1532 1533 1534 1535 1536 1537 1538 1539 1540 1541 1542 1543 1544 1545 1546 1547 1548 1549 1550 1551 1552 1553 1554 1555 1556 1557 1558 1559 1560 1561 1562 1563 1564 1565 1566 1567 1568 1569 1570 1571 1572 1573 1574 1575 1576 1577 1578 1579 1580 1581 1582 1583 1584 1585 1586 1587 1588 1589 1590 1591 1592 1593 1594 1595 1596 1597 1598 1599 1600 1601 1602 1603 1604 1605 1606 1607 1608 1609 1610 1611 1612 1613 1614 1615 1616 1617 1618 1619 1620 1621 1622 1623 1624 1625 1626 1627 1628 1629 1630 1631 1632 1633 1634 1635 1636 1637 1638 1639 1640 1641 1642 1643 1644 1645 1646 1647 1648 1649 1650 1651 1652 1653 1654 1655 1656 1657 1658 1659 1660 1661 1662 1663 1664 1665 1666 1667 1668 1669 1670 1671 1672 1673 1674 1675 1676 1677 1678 1679 1680 1681 1682 1683 1684 1685 1686 1687 1688 1689 1690 1691 1692 1693 1694 1695 1696 1697 1698 1699 1700 1701 1702 1703 1704 1705 1706 1707 1708 1709 1710 1711 1712 1713 1714 1715 1716 1717 1718 1719 1720 1721 1722 1723 1724 1725 1726 1727 1728 1729 1730 1731 1732 1733 1734 1735 1736 1737 1738 1739 1740 1741 1742 1743 1744 1745 1746 1747 1748 1749 1750 1751 1752 1753 1754 1755 1756 1757 1758 1759 1760 1761 1762 1763 1764 1765 1766 1767 1768 1769 1770 1771 1772 1773 1774 1775 1776 1777 1778 1779 1780 1781 1782 1783 1784 1785 1786 1787 1788 1789 1790 1791 1792 1793 1794 1795 1796 1797 1798 1799 1800 1801 1802 1803 1804 1805 1806 1807 1808 1809 1810 1811 1812 1813 1814 1815 1816 1817 1818 1819 1820 1821 1822 1823 1824 1825 1826 1827 1828 1829 1830 1831 1832 1833 1834 1835 1836 1837 1838 1839 1840 1841 1842 1843 1844 1845 1846 1847 1848 1849 1850 1851 1852 1853 1854 1855 1856 1857 1858 1859 1860 1861 1862 1863 1864 1865 1866 1867 1868 1869 1870 1871 1872 1873 1874 1875 1876 1877 1878 1879 1880 1881 1882 1883 1884 1885 1886 1887 1888 1889 1890 1891 1892 1893 1894 1895 1896 1897 1898 1899 1900 1901 1902 1903 1904 1905 1906 1907 1908 1909 1910 1911 1912 1913 1914 1915 1916 1917 1918 1919 1920 1921 1922 1923 1924 1925 1926 1927 1928 1929 1930 1931 1932 1933 1934 1935 1936 1937 1938 1939 1940 1941 1942 1943 1944 1945 1946 1947 1948 1949 1950 1951 1952 1953 1954 1955 1956 1957 1958 1959 1960 1961 1962 1963 1964 1965 1966 1967 1968 1969 1970 1971 1972 1973 1974 1975 1976 1977 1978 1979 1980 1981 1982 1983 1984 1985 1986 1987 1988 1989 1990 1991 1992 1993 1994 1995 1996 1997 1998 1999 2000 2001 2002 2003 2004 2005 2006 2007 2008 2009 2010 2011 2012 2013 2014 2015 2016 2017 2018 2019 2020 2021 2022 2023 2024 2025 2026 2027 2028 2029 2030 2031 2032 2033 2034 2035 2036 2037 2038 2039 2040 2041 2042 2043 2044 2045 2046 2047 2048 2049 2050 2051 2052 2053 2054 2055 2056 2057 2058 2059 2060 2061 2062 2063 2064 2065 2066 2067 2068 2069 2070 2071 2072 2073 2074 2075 2076 2077 2078 2079 2080 2081 2082 2083 2084 2085 2086 2087 2088 2089 2090 2091 2092 2093 2094 2095 2096 2097 2098 2099 2100 2101 2102 2103 2104 2105 2106 2107 2108 2109 2110 2111 2112 2113 2114 2115 2116 2117 2118 2119 2120 2121 2122 2123 2124 2125 2126 2127 2128 2129 2130 2131 2132 2133 2134 2135 2136 2137 2138 2139 2140 2141 2142 2143 2144 2145 2146 2147 2148 2149 2150 2151 2152 2153 2154 2155 2156 2157 2158 2159 2160 2161 2162 2163 2164 2165 2166 2167 2168 2169 2170 2171 2172 2173 2174 2175 2176 2177 2178 2179 2180 2181 2182 2183 2184 2185 2186 2187 2188 2189 2190 2191 2192 2193 2194 2195 2196 2197 2198 2199 2200 2201 2202 2203 2204 2205 2206 2207 2208 2209 2210 2211 2212 2213 2214 2215 2216 2217 2218 2219 2220 2221 2222 2223 2224 2225 2226 2227 2228 2229 2230 2231 2232 2233 2234 2235 2236 2237 2238 2239 2240 2241 2242 2243 2244 2245 2246 2247 2248 2249 2250 2251 2252 2253 2254 2255 2256 2257 2258 2259 2260 2261 2262 2263 2264 2265 2266 2267 2268 2269 2270 2271 2272 2273 2274 2275 2276 2277 2278 2279 2280 2281 2282 2283 2284 2285 2286 2287 2288 2289 2290 2291 2292 2293 2294 2295 2296 2297 2298 2299 2300 2301 2302 2303 2304 2305 2306 2307 2308 2309 2310 2311 2312 2313 2314 2315 2316 2317 2318 2319 2320 2321 2322 2323 2324 2325 2326 2327 2328 2329 2330 2331 2332 2333 2334 2335 2336 2337 2338 2339 2340 2341 2342 2343 2344 2345 2346 2347 2348 2349 2350 2351 2352 2353 2354 2355 2356 2357 2358 2359 2360 2361 2362 2363 2364 2365 2366 2367 2368 2369 2370 2371 2372 2373 2374 2375 2376 2377 2378 2379 2380 2381 2382 2383 2384 2385 2386 2387 2388 2389 2390 2391 2392 2393 2394 2395 2396 2397 2398 2399 2400 2401 2402 2403 2404 2405 2406 2407 2408 2409 2410 2411 2412 2413 2414 2415 2416 2417 2418 2419 2420 2421 2422 2423 2424 2425 2426 2427 2428 2429 2430 2431 2432 2433 2434 2435 2436 2437 2438 2439 2440 2441 2442 2443 2444 2445 2446 2447 2448 2449 2450 2451 2452 2453 2454 2455 2456 2457 2458 2459 2460 2461 2462 2463 2464 2465 2466 2467 2468 2469 2470 2471 2472 2473 2474 2475 2476 2477 2478 2479 2480 2481 2482 2483 2484 2485 2486 2487 2488 2489 2490 2491 2492 2493 2494 2495 2496 2497 2498 2499 2500 2501 2502 2503 2504 2505 2506 2507 2508 2509 2510 2511 2512 2513 2514 2515 2516 2517 2518 2519 2520 2521 2522 2523 2524 2525 2526 2527 2528 2529 2530 2531 2532 2533 2534 2535 2536 2537 2538 2539 2540 2541 2542 2543 2544 2545 2546 2547 2548 2549 2550 2551 2552 2553 2554 2555 2556 2557 2558 2559 2560 2561 2562 2563 2564 2565 2566 2567 2568 2569 2570 2571 2572 2573 2574 2575 2576 2577 2578 2579 2580 2581 2582 2583 2584 2585 2586 2587 2588 2589 2590 2591 2592 2593 2594 2595 2596 2597 2598 2599 2600 2601 2602 2603 2604 2605 2606 2607 2608 2609 2610 2611 2612 2613 2614 2615 2616 2617 2618 2619 2620 2621 2622 2623 2624 2625 2626 2627 2628 2629 2630 2631 2632 2633 2634 2635 2636 2637 2638 2639 2640 2641 2642 2643 2644 2645 2646 2647 2648 2649 2650 2651 2652 2653 2654 2655 2656 2657 2658 2659 2660 2661 2662 2663 2664 2665 2666 2667 2668 2669 2670 2671 2672 2673 2674 2675 2676 2677 2678 2679 2680 2681 2682 2683 2684 2685 2686 2687 2688 2689 2690 2691 2692 2693 2694 2695 2696 2697 2698 2699 2700 2701 2702 2703 2704 2705 2706 2707 2708 2709 2710 2711 2712 2713 2714 2715 2716 2717 2718 2719 2720 2721 2722 2723 2724 2725 2726 2727 2728 2729 2730 2731 2732 2733 2734 2735 2736 2737 2738 2739 2740 2741 2742 2743 2744 2745 2746 2747 2748 2749 2750 2751 2752 2753 2754 2755 2756 2757 2758 2759 2760 2761 2762 2763 2764 2765 2766 2767 2768 2769 2770 2771 2772 2773 2774 2775 2776 2777 2778 2779 2780 2781 2782 2783 2784 2785 2786 2787 2788 2789 2790 2791 2792 2793 2794 2795 2796 2797 2798 2799 2800 2801 2802 2803 2804 2805 2806 2807 2808 2809 2810 2811 2812 2813 2814 2815 2816 2817 2818 2819 2820 2821 2822 2823 2824 2825 2826 2827 2828 2829 2830 2831 2832 2833 2834 2835 2836 2837 2838 2839 2840 2841 2842 2843 2844 2845 2846 2847 2848 2849 2850 2851 2852 2853 2854 2855 2856 2857 2858 2859 2860 2861 2862 2863 2864 2865 2866 2867 2868 2869 2870 2871 2872 2873 2874 2875 2876 2877 2878 2879 2880 2881 2882 2883 2884 2885 2886 2887 2888 2889 2890 2891 2892 2893 2894 2895 2896 2897 2898 2899 2900 2901 2902 2903 2904 2905 2906 2907 2908 2909 2910 2911 2912 2913 2914 2915 2916 2917 2918 2919 2920 2921 2922 2923 2924 2925 2926 2927 2928 2929 2930 2931 2932 2933 2934 2935 2936 2937 2938 2939 2940 2941 2942 2943 2944 2945 2946 2947 2948 2949 2950 2951 2952 2953 2954 2955 2956 2957 2958 2959 2960 2961 2962 2963 2964 2965 2966 2967 2968 2969 2970 2971 2972 2973 2974 2975 2976 2977 2978 2979 2980 2981 2982 2983 2984 2985 2986 2987 2988 2989 2990 2991 2992 2993 2994 2995 2996 2997 2998 2999 3000 3001 3002 3003 3004 3005 3006 3007 3008 3009 3010 3011 3012 3013 3014 3015 3016 3017 3018 3019 3020 3021 3022 3023 3024 3025 3026 3027 3028 3029 3030 3031 3032 3033 3034 3035 3036 3037 3038 3039 3040 3041 3042 3043 3044 3045 3046 3047 3048 3049 3050 3051 3052 3053 3054 3055 3056 3057 3058 3059 3060 3061 3062 3063 3064 3065 3066 3067 3068 3069 3070 3071 3072 3073 3074 3075 3076 3077 3078 3079 3080 3081 3082 3083 3084 3085 3086 3087 3088 3089 3090 3091 3092 3093 3094 3095 3096 3097 3098 3099 3100 3101 3102 3103 3104 3105 3106 3107 3108 3109 3110 3111 3112 3113 3114 3115 3116 3117 3118 3119 3120 3121 3122 3123 3124 3125 3126 3127 3128 3129 3130 3131 3132 3133 3134 3135 3136 3137 3138 3139 3140 3141 3142 3143 3144 3145 3146 3147 3148 3149 3150 3151 3152 3153 3154 3155 3156 3157 3158 3159 3160 3161 3162 3163 3164 3165 3166 3167 3168 3169 3170 3171 3172 3173 3174 3175 3176 3177 3178 3179 3180 3181 3182 3183 3184 3185 3186 3187 3188 3189 3190 3191 3192 3193 3194 3195 3196 3197 3198 3199 3200 3201 3202 3203 3204 3205 3206 3207 3208 3209 3210 3211 3212 3213 3214 3215 3216 3217 3218 3219 3220 3221 3222 3223 3224 3225 3226 3227 3228 3229 3230 3231 3232 3233 3234 3235 3236 3237 3238 3239 3240 3241 3242 3243 3244 3245 3246 3247 3248 3249 3250 3251 3252 3253 3254 3255 3256 3257 3258 3259 3260 3261 3262 3263 3264 3265 3266 3267 3268 3269 3270 3271 3272 3273 3274 3275 3276 3277 3278 3279 3280 3281 3282 3283 3284 3285 3286 3287 3288 3289 3290 3291 3292 3293 3294 3295 3296 3297 3298 3299 3300 3301 3302 3303 3304 3305 3306 3307 3308 3309 3310 3311 3312 3313 3314 3315 3316 3317 3318 3319 3320 3321 3322 3323 3324 3325 3326 3327 3328 3329 3330 3331 3332 3333 3334 3335 3336 3337 3338 3339 3340 3341 3342 3343 3344 3345 3346 3347 3348 3349 3350 3351 3352 3353 3354 3355 3356 3357 3358 3359 3360 3361 3362 3363 3364 3365 3366 3367 3368 3369 3370 3371 3372 3373 3374 3375 3376 3377 3378 3379 3380 3381 3382 3383 3384 3385 3386 3387 3388 3389 3390 3391 3392 3393 3394 3395 3396 3397 3398 3399 3400 3401 3402 3403 3404 3405 3406 3407 3408 3409 3410 3411 3412 3413 3414 3415 3416 3417 3418 3419 3420 3421 3422 3423 3424 3425 3426 3427 3428 3429 3430 3431 3432 3433 3434 3435 3436 3437 3438 3439 3440 3441 3442 3443 3444 3445 3446 3447 3448 3449 3450 3451 3452 3453 3454 3455 3456 3457 3458 3459 3460 3461 3462 3463 3464 3465 3466 3467 3468 3469 3470 3471 3472 3473 3474 3475 3476 3477 3478 3479 3480 3481 3482 3483 3484 3485 3486 3487 3488 3489 3490 3491 3492 3493 3494 3495 3496 3497 3498 3499 3500 3501 3502 3503 3504 3505 3506 3507 3508 3509 3510 3511 3512 3513 3514 3515 3516 3517 3518 3519 3520 3521 3522 3523 3524 3525 3526 3527 3528 3529 3530 3531 3532 3533 3534 3535 3536 3537 3538 3539 3540 3541 3542 3543 3544 3545 3546 3547 3548 3549 3550 3551 3552 3553 3554 3555 3556 3557 3558 3559 3560 3561 3562 3563 3564 3565 3566 3567 3568 3569 3570 3571 3572 3573 3574 3575 3576 3577 3578 3579 3580 3581 3582 3583 3584 3585 3586 3587 3588 3589 3590 3591 3592 3593 3594 3595 3596 3597 3598 3599 3600 3601 3602 3603 3604 3605 3606 3607 3608 3609 3610 3611 3612 3613 3614 3615 3616 3617 3618 3619 3620 3621 3622 3623 3624 3625 3626 3627 3628 3629 3630 3631 3632 3633 3634 3635 3636 3637 3638 3639 3640 3641 3642 3643 3644 3645 3646 3647 3648 3649 3650 3651 3652 3653 3654 3655 3656 3657 3658 3659 3660 3661 3662 3663 3664 3665 3666 3667 3668 3669 3670 3671 3672 3673 3674 3675 3676 3677 3678 3679 3680 3681 3682 3683 3684 3685 3686 3687 3688 3689 3690 3691 3692 3693 3694 3695 3696 3697 3698 3699 3700 3701 3702 3703 3704 3705 3706 3707 3708 3709 3710 3711 3712 3713 3714 3715 3716 3717 3718 3719 3720 3721 3722 3723 3724 3725 3726 3727 3728 3729 3730 3731 3732 3733 3734 3735 3736 3737 3738 3739 3740 3741 3742 3743 3744 3745 3746 3747 3748 3749 3750 3751 3752 3753 3754 3755 3756 3757 3758 3759 3760 3761 3762 3763 3764 3765 3766 3767 3768 3769 3770 3771 3772 3773 3774 3775 3776 3777 3778 3779 3780 3781 3782 3783 3784 3785 3786 3787 3788 3789 3790 3791 3792 3793 3794 3795 3796 3797 3798 3799 3800 3801 3802 3803 3804 3805 3806 3807 3808 3809 3810 3811 3812 3813 3814 3815 3816 3817 3818 3819 3820 3821 3822 3823 3824 3825 3826 3827 3828 3829 3830 3831 3832 3833 3834 3835 3836 3837 3838 3839 3840 3841 3842 3843 3844 3845 3846 3847 3848 3849 3850 3851 3852 3853 3854 3855 3856 3857 3858 3859 3860 3861 3862 3863 3864 3865 3866 3867 3868 3869 3870 3871 3872 3873 3874 3875 3876 3877 3878 3879 3880 3881 3882 3883 3884 3885 3886 3887 3888 3889 3890 3891 3892 3893 3894 3895 3896 3897 3898 3899 3900 3901 3902 3903 3904 3905 3906 3907 3908 3909 3910 3911 3912 3913 3914 3915 3916 3917 3918 3919 3920 3921 3922 3923 3924 3925 3926 3927 3928 3929 3930 3931 3932 3933 3934 3935 3936 3937 3938 3939 3940 3941 3942 3943 3944 3945 3946 3947 3948 3949 3950 3951 3952 3953 3954 3955 3956 3957 3958 3959 3960 3961 3962 3963 3964 3965 3966 3967 3968 3969 3970 3971 3972 3973 3974 3975 3976 3977 3978 3979 3980 3981 3982 3983 3984 3985 3986 3987 3988 3989 3990 3991 3992 3993 3994 3995 3996 3997 3998 3999 4000 4001 4002 4003 4004 4005 4006 4007 4008 4009 4010 4011 4012 4013 4014 4015 4016 4017 4018 4019 4020 4021 4022 4023 4024 4025 4026 4027 4028 4029 4030 4031 4032 4033 4034 4035 4036 4037 4038 4039 4040 4041 4042 4043 4044 4045 4046 4047 4048 4049 4050 4051 4052 4053 4054 4055 4056 4057 4058 4059 4060 4061 4062 4063 4064 4065 4066 4067 4068 4069 4070 4071 4072 4073 4074 4075 4076 4077 4078 4079 4080 4081 4082 4083 4084 4085 4086 4087 4088 4089 4090 4091 4092 4093 4094 4095 4096 4097 4098 4099 4100 4101 4102 4103 4104 4105 4106 4107 4108 4109 4110 4111 4112 4113 4114 4115 4116 4117 4118 4119 4120 4121 4122 4123 4124 4125 4126 4127 4128 4129 4130 4131 4132 4133 4134 4135 4136 4137 4138 4139 4140 4141 4142 4143 4144 4145 4146 4147 4148 4149 4150 4151 4152 4153 4154 4155 4156 4157 4158 4159 4160 4161 4162 4163 4164 4165 4166 4167 4168 4169 4170 4171 4172 4173 4174 4175 4176 4177 4178 4179 4180 4181 4182 4183 4184 4185 4186 4187 4188 4189 4190 4191 4192 4193 4194 4195 4196 4197 4198 4199 4200 4201 4202 4203 4204 4205 4206 4207 4208 4209 4210 4211 4212 4213 4214 4215 4216 4217 4218 4219 4220 4221 4222 4223 4224 4225 4226 4227 4228 4229 4230 4231 4232 4233 4234 4235 4236 4237 4238 4239 4240 4241 4242 4243 4244 4245 4246 4247 4248 4249 4250 4251 4252 4253 4254 4255 4256 4257 4258 4259 4260 4261 4262 4263 4264 4265 4266 4267 4268 4269 4270 4271 4272 4273 4274 4275 4276 4277 4278 4279 4280 4281 4282 4283 4284 4285 4286 4287 4288 4289 4290 4291 4292 4293 4294 4295 4296 4297 4298 4299 4300 4301 4302 4303 4304 4305 4306 4307 4308 4309 4310 4311 4312 4313 4314 4315 4316 4317 4318 4319 4320 4321 4322 4323 4324 4325 4326 4327 4328 4329 4330 4331 4332 4333 4334 4335 4336 4337 4338 4339 4340 4341 4342 4343 4344 4345 4346 4347 4348 4349 4350 4351 4352 4353 4354 4355 4356 4357 4358 4359 4360 4361 4362 4363 4364 4365 4366 4367 4368 4369 4370 4371 4372 4373 4374 4375 4376 4377 4378 4379 4380 4381 4382 4383 4384 4385 4386 4387 4388 4389 4390 4391 4392 4393 4394 4395 4396 4397 4398 4399 4400 4401 4402 4403 4404 4405 4406 4407 4408 4409 4410 4411 4412 4413 4414 4415 4416 4417 4418 4419 4420 4421 4422 4423 4424 4425 4426 4427 4428 4429 4430 4431 4432 4433 4434 4435 4436 4437 4438 4439 4440 4441 4442 4443 4444 4445 4446 4447 4448 4449 4450 4451 4452 4453 4454 4455 4456 4457 4458 4459 4460 4461 4462 4463 4464 4465 4466 4467 4468 4469 4470 4471 4472 4473 4474 4475 4476 4477 4478 4479 4480 4481 4482 4483 4484 4485 4486 4487 4488 4489 4490 4491 4492 4493 4494 4495 4496 4497 4498 4499 4500 4501 4502 4503 4504 4505 4506 4507 4508 4509 4510 4511 4512 4513 4514 4515 4516 4517 4518 4519 4520 4521 4522 4523 4524 4525 4526 4527 4528 4529 4530 4531 4532 4533 4534 4535 4536 4537 4538 4539 4540 4541 4542 4543 4544 4545 4546 4547 4548 4549 4550 4551 4552 4553 4554 4555 4556 4557 4558 4559 4560 4561 4562 4563 4564 4565 4566 4567 4568 4569 4570 4571 4572 4573 4574 4575 4576 4577 4578 4579 4580 4581 4582 4583 4584 4585 4586 4587 4588 4589 4590 4591 4592 4593 4594 4595 4596 4597 4598 4599 4600 4601 4602 4603 4604 4605 4606 4607 4608 4609 4610 4611 4612 4613 4614 4615 4616 4617 4618 4619 4620 4621 4622 4623 4624 4625 4626 4627 4628 4629 4630 4631 4632 4633 4634 4635 4636 4637 4638 4639 4640 4641 4642 4643 4644 4645 4646 4647 4648 4649 4650 4651 4652 4653 4654 4655 4656 4657 4658 4659 4660 4661 4662 4663 4664 4665 4666 4667 4668 4669 4670 4671 4672 4673 4674 4675 4676 4677 4678 4679 4680 4681 4682 4683 4684 4685 4686 4687 4688 4689 4690 4691 4692 4693 4694 4695 4696 4697 4698 4699 4700 4701 4702 4703 4704 4705 4706 4707 4708 4709 4710 4711 4712 4713 4714 4715 4716 4717 4718 4719 4720 4721 4722 4723 4724 4725 4726 4727 4728 4729 4730 4731 4732 4733 4734 4735 4736 4737 4738 4739 4740 4741 4742 4743 4744 4745 4746 4747 4748 4749 4750 4751 4752 4753 4754 4755 4756 4757 4758 4759 4760 4761 4762 4763 4764 4765 4766 4767 4768 4769 4770 4771 4772 4773 4774 4775 4776 4777 4778 4779 4780 4781 4782 4783 4784 4785 4786 4787 4788 4789 4790 4791 4792 4793 4794 4795 4796 4797 4798 4799 4800 4801 4802 4803 4804 4805 4806 4807 4808 4809 4810 4811 4812 4813 4814 4815 4816 4817 4818 4819 4820 4821 4822 4823 4824 4825 4826 4827 4828 4829 4830 4831 4832 4833 4834 4835 4836 4837 4838 4839 4840 4841 4842 4843 4844 4845 4846 4847 4848 4849 4850 4851 4852 4853 4854 4855 4856 4857 4858 4859 4860 4861 4862 4863 4864 4865 4866 4867 4868 4869 4870 4871 4872 4873 4874 4875 4876 4877 4878 4879 4880 4881 4882 4883 4884 4885 4886 4887 4888 4889 4890 4891 4892 4893 4894 4895 4896 4897 4898 4899 4900 4901 4902 4903 4904 4905 4906 4907 4908 4909 4910 4911 4912 4913 4914 4915 4916 4917 4918 4919 4920 4921 4922 4923 4924 4925 4926 4927 4928 4929 4930 4931 4932 4933 4934 4935 4936 4937 4938 4939 4940 4941 4942 4943 4944 4945 4946 4947 4948 4949 4950 4951 4952 4953 4954 4955 4956 4957 4958 4959 4960 4961 4962 4963 4964 4965 4966 4967 4968 4969 4970 4971 4972 4973 4974 4975 4976 4977 4978 4979 4980 4981 4982 4983 4984 4985 4986 4987 4988 4989 4990 4991 4992 4993 4994 4995 4996 4997 4998 4999 5000 5001 5002 5003 5004 5005 5006 5007 5008 5009 5010 5011 5012 5013 5014 5015 5016 5017 5018 5019 5020 5021 5022 5023 5024 5025 5026 5027 5028 5029 5030 5031 5032 5033 5034 5035 5036 5037 5038 5039 5040 5041 5042 5043 5044 5045 5046 5047 5048 5049 5050 5051 5052 5053 5054 5055 5056 5057 5058 5059 5060 5061 5062 5063 5064 5065 5066 5067 5068 5069 5070 5071 5072 5073 5074 5075 5076 5077 5078 5079 5080 5081 5082 5083 5084 5085 5086 5087 5088 5089 5090 5091 5092 5093 5094 5095 5096 5097 5098 5099 5100 5101 5102 5103 5104 5105 5106 5107 5108 5109 5110 5111 5112 5113 5114 5115 5116 5117 5118 5119 5120 5121 5122 5123 5124 5125 5126 5127 5128 5129 5130 5131 5132 5133 5134 5135 5136 5137 5138 5139 5140 5141 5142 5143 5144 5145 5146 5147 5148 5149 5150 5151 5152 5153 5154 5155 5156 5157 5158 5159 5160 5161 5162 5163 5164 5165 5166 5167 5168 5169 5170 5171 5172 5173 5174 5175 5176 5177 5178 5179 5180 5181 5182 5183 5184 5185 5186 5187 5188 5189 5190 5191 5192 5193 5194 5195 5196 5197 5198 5199 5200 5201 5202 5203 5204 5205 5206 5207 5208 5209 5210 5211 5212 5213 5214 5215 5216 5217 5218 5219 5220 5221 5222 5223 5224 5225 5226 5227 5228 5229 5230 5231 5232 5233 5234 5235 5236 5237 5238 5239 5240 5241 5242 5243 5244 5245 5246 5247 5248 5249 5250 5251 5252 5253 5254 5255 5256 5257 5258 5259 5260 5261 5262 5263 5264 5265 5266 5267 5268 5269 5270 5271 5272 5273 5274 5275 5276 5277 5278 5279 5280 5281 5282 5283 5284 5285 5286 5287 5288 5289 5290 5291 5292 5293 5294 5295 5296 5297 5298 5299 5300 5301 5302 5303 5304 5305 5306 5307 5308 5309 5310 5311 5312 5313 5314 5315 5316 5317 5318 5319 5320 5321 5322 5323 5324 5325 5326 5327 5328 5329 5330 5331 5332 5333 5334 5335 5336 5337 5338 5339 5340 5341 5342 5343 5344 5345 5346 5347 5348 5349 5350 5351 5352 5353 5354 5355 5356 5357 5358 5359 5360 5361 5362 5363 5364 5365 5366 5367 5368 5369 5370 5371 5372 5373 5374 5375 5376 5377 5378 5379 5380 5381 5382 5383 5384 5385 5386 5387 5388 5389 5390 5391 5392 5393 5394 5395 5396 5397 5398 5399 5400 5401 5402 5403 5404 5405 5406 5407 5408 5409 5410 5411 5412 5413 5414 5415 5416 5417 5418 5419 5420 5421 5422 5423 5424 5425 5426 5427 5428 5429 5430 5431 5432 5433 5434 5435 5436 5437 5438 5439 5440 5441 5442 5443 5444 5445 5446 5447 5448 5449 5450 5451 5452 5453 5454 5455 5456 5457 5458 5459 5460 5461 5462 5463 5464 5465 5466 5467 5468 5469 5470 5471 5472 5473 5474 5475 5476 5477 5478 5479 5480 5481 5482 5483 5484 5485 5486 5487 5488 5489 5490 5491 5492 5493 5494 5495 5496 5497 5498 5499 5500 5501 5502 5503 5504 5505 5506 5507 5508 5509 5510 5511 5512 5513 5514 5515 5516 5517 5518 5519 5520 5521 5522 5523 5524 5525 5526 5527 5528 5529 5530 5531 5532 5533 5534 5535 5536 5537 5538 5539 5540 5541 5542 5543 5544 5545 5546 5547 5548 5549 5550 5551 5552 5553 5554 5555 5556 5557 5558 5559 5560 5561 5562 5563 5564 5565 5566 5567 5568 5569 5570 5571 5572 5573 5574 5575 5576 5577 5578 5579 5580 5581 5582 5583 5584 5585 5586 5587 5588 5589 5590 5591 5592 5593 5594 5595 5596 5597 5598 5599 5600 5601 5602 5603 5604 5605 5606 5607 5608 5609 5610 5611 5612 5613 5614 5615 5616 5617 5618 5619 5620 5621 5622 5623 5624 5625 5626 5627 5628 5629 5630 5631 5632 5633 5634 5635 5636 5637 5638 5639 5640 5641 5642 5643 5644 5645 5646 5647 5648 5649 5650 5651 5652 5653 5654 5655 5656 5657 5658 5659 5660 5661 5662 5663 5664 5665 5666 5667 5668 5669 5670 5671 5672 5673 5674 5675 5676 5677 5678 5679 5680 5681 5682 5683 5684 5685 5686 5687 5688 5689 5690 5691 5692 5693 5694 5695 5696 5697 5698 5699 5700 5701 5702 5703 5704 5705 5706 5707 5708 5709 5710 5711 5712 5713 5714 5715 5716 5717 5718 5719 5720 5721 5722 5723 5724 5725 5726 5727 5728 5729 5730 5731 5732 5733 5734 5735 5736 5737 5738 5739 5740 5741 5742 5743 5744 5745 5746 5747 5748 5749 5750 5751 5752 5753 5754 5755 5756 5757 5758 5759 5760 5761 5762 5763 5764 5765 5766 5767 5768 5769 5770 5771 5772 5773 5774 5775 5776 5777 5778 5779 5780 5781 5782 5783 5784 5785 5786 5787 5788 5789 5790 5791 5792 5793 5794 5795 5796 5797 5798 5799 5800 5801 5802 5803 5804 5805 5806 5807 5808 5809 5810 5811 5812 5813 5814 5815 5816 5817 5818 5819 5820 5821 5822 5823 5824 5825 5826 5827 5828 5829 5830 5831 5832 5833 5834 5835 5836 5837 5838 5839 5840 5841 5842 5843 5844 5845 5846 5847 5848 5849 5850 5851 5852 5853 5854 5855 5856 5857 5858 5859 5860 5861 5862 5863 5864 5865 5866 5867 5868 5869 5870 5871 5872 5873 5874 5875 5876 5877 5878 5879 5880 5881 5882 5883 5884 5885 5886 5887 5888 5889 5890 5891 5892 5893 5894 5895 5896 5897 5898 5899 5900 5901 5902 5903 5904 5905 5906 5907 5908 5909 5910 5911 5912 5913 5914 5915 5916 5917 5918 5919 5920 5921 5922 5923 5924 5925 5926 5927 5928 5929 5930 5931 5932 5933 5934 5935 5936 5937 5938 5939 5940 5941 5942 5943 5944 5945 5946 5947 5948 5949 5950 5951 5952 5953 5954 5955 5956 5957 5958 5959 5960 5961 5962 5963 5964 5965 5966 5967 5968 5969 5970 5971 5972 5973 5974 5975 5976 5977 5978 5979 5980 5981 5982 5983 5984 5985 5986 5987 5988 5989 5990 5991 5992 5993 5994 5995 5996 5997 5998 5999 6000 6001 6002 6003 6004 6005 6006 6007 6008 6009 6010 6011 6012 6013 6014 6015 6016 6017 6018 6019 6020 6021 6022 6023 6024 6025 6026 6027 6028 6029 6030 6031 6032 6033 6034 6035 6036 6037 6038 6039 6040 6041 6042 6043 6044 6045 6046 6047 6048 6049 6050 6051 6052 6053 6054 6055 6056 6057 6058 6059 6060 6061 6062 6063 6064 6065 6066 6067 6068 6069 6070 6071 6072 6073 6074 6075 6076 6077 6078 6079 6080 6081 6082 6083 6084 6085 6086 6087 6088 6089 6090 6091 6092 6093 6094 6095 6096 6097 6098 6099 6100 6101 6102 6103 6104 6105 6106 6107 6108 6109 6110 6111 6112 6113 6114 6115 6116 6117 6118 6119 6120 6121 6122 6123 6124 6125 6126 6127 6128 6129 6130 6131 6132 6133 6134 6135 6136 6137 6138 6139 6140 6141 6142 6143 6144 6145 6146 6147 6148 6149 6150 6151 6152 6153 6154 6155 6156 6157 6158 6159 6160 6161 6162 6163 6164 6165 6166 6167 6168 6169 6170 6171 6172 6173 6174 6175 6176 6177 6178 6179 6180 6181 6182 6183 6184 6185 6186 6187 6188 6189 6190 6191 6192 6193 6194 6195 6196 6197 6198 6199 6200 6201 6202 6203 6204 6205 6206 6207 6208 6209 6210 6211 6212 6213 6214 6215 6216 6217 6218 6219 6220 6221 6222 6223 6224 6225 6226 6227 6228 6229 6230 6231 6232 6233 6234 6235 6236 6237 6238 6239 6240 6241 6242 6243 6244 6245 6246 6247 6248 6249 6250 6251 6252 6253 6254 6255 6256 6257 6258 6259 6260 6261 6262 6263 6264 6265 6266 6267 6268 6269 6270 6271 6272 6273 6274 6275 6276 6277 6278 6279 6280 6281 6282 6283 6284 6285 6286 6287 6288 6289 6290 6291 6292 6293 6294 6295 6296 6297 6298 6299 6300 6301 6302 6303 6304 6305 6306 6307 6308 6309 6310 6311 6312 6313 6314 6315 6316 6317 6318 6319 6320 6321 6322 6323 6324 6325 6326 6327 6328 6329 6330 6331 6332 6333 6334 6335 6336 6337 6338 6339 6340 6341 6342 6343 6344 6345 6346 6347 6348 6349 6350 6351 6352 6353 6354 6355 6356 6357 6358 6359 6360 6361 6362 6363 6364 6365 6366 6367 6368 6369 6370 6371 6372 6373 6374 6375 6376 6377 6378 6379 6380 6381 6382 6383 6384 6385 6386 6387 6388 6389 6390 6391 6392 6393 6394 6395 6396 6397 6398 6399 6400 6401 6402 6403 6404 6405 6406 6407 6408 6409 6410 6411 6412 6413 6414 6415 6416 6417 6418 6419 6420 6421 6422 6423 6424 6425 6426 6427 6428 6429 6430 6431 6432 6433 6434 6435 6436 6437 6438 6439 6440 6441 6442 6443 6444 6445 6446 6447 6448 6449 6450 6451 6452 6453 6454 6455 6456 6457 6458 6459 6460 6461 6462 6463 6464 6465 6466 6467 6468 6469 6470 6471 6472 6473 6474 6475 6476 6477 6478 6479 6480 6481 6482 6483 6484 6485 6486 6487 6488 6489 6490 6491 6492 6493 6494 6495 6496 6497 6498 6499 6500 6501 6502 6503 6504 6505 6506 6507 6508 6509 6510 6511 6512 6513 6514 6515 6516 6517 6518 6519 6520 6521 6522 6523 6524 6525 6526 6527 6528 6529 6530 6531 6532 6533 6534 6535 6536 6537 6538 6539 6540 6541 6542 6543 6544 6545 6546 6547 6548 6549 6550 6551 6552 6553 6554 6555 6556 6557 6558 6559 6560 6561 6562 6563 6564 6565 6566 6567 6568 6569 6570 6571 6572 6573 6574 6575 6576 6577 6578 6579 6580 6581 6582 6583 6584 6585 6586 6587 6588 6589 6590 6591 6592 6593 6594 6595 6596 6597 6598 6599 6600 6601 6602 6603 6604 6605 6606 6607 6608 6609 6610 6611 6612 6613 6614 6615 6616 6617 6618 6619 6620 6621 6622 6623 6624 6625 6626 6627 6628 6629 6630 6631 6632 6633 6634 6635 6636 6637 6638 6639 6640 6641 6642 6643 6644 6645 6646 6647 6648 6649 6650 6651 6652 6653 6654 6655 6656 6657 6658 6659 6660 6661 6662 6663 6664 6665 6666 6667 6668 6669 6670 6671 6672 6673 6674 6675 6676 6677 6678 6679 6680 6681 6682 6683 6684 6685 6686 6687 6688 6689 6690 6691 6692 6693 6694 6695 6696 6697 6698 6699 6700 6701 6702 6703 6704 6705 6706 6707 6708 6709 6710 6711 6712 6713 6714 6715 6716 6717 6718 6719 6720 6721 6722 6723 6724 6725 6726 6727 6728 6729 6730 6731 6732 6733 6734 6735 6736 6737 6738 6739 6740 6741 6742 6743 6744 6745 6746 6747 6748 6749 6750 6751 6752 6753 6754 6755 6756 6757 6758 6759 6760 6761 6762 6763 6764 6765 6766 6767 6768 6769 6770 6771 6772 6773 6774 6775 6776 6777 6778 6779 6780 6781 6782 6783 6784 6785 6786 6787 6788 6789 6790 6791 6792 6793 6794 6795 6796 6797 6798 6799 6800 6801 6802 6803 6804 6805 6806 6807 6808 6809 6810 6811 6812 6813 6814 6815 6816 6817 6818 6819 6820 6821 6822 6823 6824 6825 6826 6827 6828 6829 6830 6831 6832 6833 6834 6835 6836 6837 6838 6839 6840 6841 6842 6843 6844 6845 6846 6847 6848 6849 6850 6851 6852 6853 6854 6855 6856 6857 6858 6859 6860 6861 6862 6863 6864 6865 6866 6867 6868 6869 6870 6871 6872 6873 6874 6875 6876 6877 6878 6879 6880 6881 6882 6883 6884 6885 6886 6887 6888 6889 6890 6891 6892 6893 6894 6895 6896 6897 6898 6899 6900 6901 6902 6903 6904 6905 6906 6907 6908 6909 6910 6911 6912 6913 6914 6915 6916 6917 6918 6919 6920 6921 6922 6923 6924 6925 6926 6927 6928 6929 6930 6931 6932 6933 6934 6935 6936 6937 6938 6939 6940 6941 6942 6943 6944 6945 6946 6947 6948 6949 6950 6951 6952 6953 6954 6955 6956 6957 6958 6959 6960 6961 6962 6963 6964 6965 6966 6967 6968 6969 6970 6971 6972 6973 6974 6975 6976 6977 6978 6979 6980 6981 6982 6983 6984 6985 6986 6987 6988 6989 6990 6991 6992 6993 6994 6995 6996 6997 6998 6999 7000 7001 7002 7003 7004 7005 7006 7007 7008 7009 7010 7011 7012 7013 7014 7015 7016 7017 7018 7019 7020 7021 7022 7023 7024 7025 7026 7027 7028 7029 7030 7031 7032 7033 7034 7035 7036 7037 7038 7039 7040 7041 7042 7043 7044 7045 7046 7047 7048 7049 7050 7051 7052 7053 7054 7055 7056 7057 7058 7059 7060 7061 7062 7063 7064 7065 7066 7067 7068 7069 7070 7071 7072 7073 7074 7075 7076 7077 7078 7079 7080 7081 7082 7083 7084 7085 7086 7087 7088 7089 7090 7091 7092 7093 7094 7095 7096 7097 7098 7099 7100 7101 7102 7103 7104 7105 7106 7107 7108 7109 7110 7111 7112 7113 7114 7115 7116 7117 7118 7119 7120 7121 7122 7123 7124 7125 7126 7127 7128 7129 7130 7131 7132 7133 7134 7135 7136 7137 7138 7139 7140 7141 7142 7143 7144 7145 7146 7147 7148 7149 7150 7151 7152 7153 7154 7155 7156 7157 7158 7159 7160 7161 7162 7163 7164 7165 7166 7167 7168 7169 7170 7171 7172 7173 7174 7175 7176 7177 7178 7179 7180 7181 7182 7183 7184 7185 7186 7187 7188 7189 7190 7191 7192 7193 7194 7195 7196 7197 7198 7199 7200 7201 7202 7203 7204 7205 7206 7207 7208 7209 7210 7211 7212 7213 7214 7215 7216 7217 7218 7219 7220 7221 7222 7223 7224 7225 7226 7227 7228 7229 7230 7231 7232 7233 7234 7235 7236 7237 7238 7239 7240 7241 7242 7243 7244 7245 7246 7247 7248 7249 7250 7251 7252 7253 7254 7255 7256 7257 7258 7259 7260 7261 7262 7263 7264 7265 7266 7267 7268 7269 7270 7271 7272 7273 7274 7275 7276 7277 7278 7279 7280 7281 7282 7283 7284 7285 7286 7287 7288 7289 7290 7291 7292 7293 7294 7295 7296 7297 7298 7299 7300 7301 7302 7303 7304 7305 7306 7307 7308 7309 7310 7311 7312 7313 7314 7315 7316 7317 7318 7319 7320 7321 7322 7323 7324 7325 7326 7327 7328 7329 7330 7331 7332 7333 7334 7335 7336 7337 7338 7339 7340 7341 7342 7343 7344 7345 7346 7347 7348 7349 7350 7351 7352 7353 7354 7355 7356 7357 7358 7359 7360 7361 7362 7363 7364 7365 7366 7367 7368 7369 7370 7371 7372 7373 7374 7375 7376 7377 7378 7379 7380 7381 7382 7383 7384 7385 7386 7387 7388 7389 7390 7391 7392 7393 7394 7395 7396 7397 7398 7399 7400 7401 7402 7403 7404 7405 7406 7407 7408 7409 7410 7411 7412 7413 7414 7415 7416 7417 7418 7419 7420 7421 7422 7423 7424 7425 7426 7427 7428 7429 7430 7431 7432 7433 7434 7435 7436 7437 7438 7439 7440 7441 7442 7443 7444 7445 7446 7447 7448 7449 7450 7451 7452 7453 7454 7455 7456 7457 7458 7459 7460 7461 7462 7463 7464 7465 7466 7467 7468 7469 7470 7471 7472 7473 7474 7475 7476 7477 7478 7479 7480 7481 7482 7483 7484 7485 7486 7487 7488 7489 7490 7491 7492 7493 7494 7495 7496 7497 7498 7499 7500 7501 7502 7503 7504 7505 7506 7507 7508 7509 7510 7511 7512 7513 7514 7515 7516 7517 7518 7519 7520 7521 7522 7523 7524 7525 7526 7527 7528 7529 7530 7531 7532 7533 7534 7535 7536 7537 7538 7539 7540 7541 7542 7543 7544 7545 7546 7547 7548 7549 7550 7551 7552 7553 7554 7555 7556 7557 7558 7559 7560 7561 7562 7563 7564 7565 7566 7567 7568 7569 7570 7571 7572 7573 7574 7575 7576 7577 7578 7579 7580 7581 7582 7583 7584 7585 7586 7587 7588 7589 7590 7591 7592 7593 7594 7595 7596 7597 7598 7599 7600 7601 7602 7603 7604 7605 7606 7607 7608 7609 7610 7611 7612 7613 7614 7615 7616 7617 7618 7619 7620 7621 7622 7623 7624 7625 7626 7627 7628 7629 7630 7631 7632 7633 7634 7635 7636 7637 7638 7639 7640 7641 7642 7643 7644 7645 7646 7647 7648 7649 7650 7651 7652 7653 7654 7655 7656 7657 7658 7659 7660 7661 7662 7663 7664 7665 7666 7667 7668 7669 7670 7671 7672 7673 7674 7675 7676 7677 7678 7679 7680 7681 7682 7683 7684 7685 7686 7687 7688 7689 7690 7691 7692 7693 7694 7695 7696 7697 7698 7699 7700 7701 7702 7703 7704 7705 7706 7707 7708 7709 7710 7711 7712 7713 7714 7715 7716 7717 7718 7719 7720 7721 7722 7723 7724 7725 7726 7727 7728 7729 7730 7731 7732 7733 7734 7735 7736 7737 7738 7739 7740 7741 7742 7743 7744 7745 7746 7747 7748 7749 7750 7751 7752 7753 7754 7755 7756 7757 7758 7759 7760 7761 7762 7763 7764 7765 7766 7767 7768 7769 7770 7771 7772 7773 7774 7775 7776 7777 7778 7779 7780 7781 7782 7783 7784 7785 7786 7787 7788 7789 7790 7791 7792 7793 7794 7795 7796 7797 7798 7799 7800 7801 7802 7803 7804 7805 7806 7807 7808 7809 7810 7811 7812 7813 7814 7815 7816 7817 7818 7819 7820 7821 7822 7823 7824 7825 7826 7827 7828 7829 7830 7831 7832 7833 7834 7835 7836 7837 7838 7839 7840 7841 7842 7843 7844 7845 7846 7847 7848 7849 7850 7851 7852 7853 7854 7855 7856 7857 7858 7859 7860 7861 7862 7863 7864 7865 7866 7867 7868 7869 7870 7871 7872 7873 7874 7875 7876 7877 7878 7879 7880 7881 7882 7883 7884 7885 7886 7887 7888 7889 7890 7891 7892 7893 7894 7895 7896 7897 7898 7899 7900 7901 7902 7903 7904 7905 7906 7907 7908 7909 7910 7911 7912 7913 7914 7915 7916 7917 7918 7919 7920 7921 7922 7923 7924 7925 7926 7927 7928 7929 7930 7931 7932 7933 7934 7935 7936 7937 7938 7939 7940 7941 7942 7943 7944 7945 7946 7947 7948 7949 7950 7951 7952 7953 7954 7955 7956 7957 7958 7959 7960 7961 7962 7963 7964 7965 7966 7967 7968 7969 7970 7971 7972 7973 7974 7975 7976 7977 7978 7979 7980 7981 7982 7983 7984 7985 7986 7987 7988 7989 7990 7991 7992 7993 7994 7995 7996 7997 7998 7999 8000 8001 8002 8003 8004 8005 8006 8007 8008 8009 8010 8011 8012 8013 8014 8015 8016 8017 8018 8019 8020 8021 8022 8023 8024 8025 8026 8027 8028 8029 8030 8031 8032 8033 8034 8035 8036 8037 8038 8039 8040 8041 8042 8043 8044 8045 8046 8047 8048 8049 8050 8051 8052 8053 8054 8055 8056 8057 8058 8059 8060 8061 8062 8063 8064 8065 8066 8067 8068 8069 8070 8071 8072 8073 8074 8075 8076 8077 8078 8079 8080 8081 8082 8083 8084 8085 8086 8087 8088 8089 8090 8091 8092 8093 8094 8095 8096 8097 8098 8099 8100 8101 8102 8103 8104 8105 8106 8107 8108 8109 8110 8111 8112 8113 8114 8115 8116 8117 8118 8119 8120 8121 8122 8123 8124 8125 8126 8127 8128 8129 8130 8131 8132 8133 8134 8135 8136 8137 8138 8139 8140 8141 8142 8143 8144 8145 8146 8147 8148 8149 8150 8151 8152 8153 8154 8155 8156 8157 8158 8159 8160 8161 8162 8163 8164 8165 8166 8167 8168 8169 8170 8171 8172 8173 8174 8175 8176 8177 8178 8179 8180 8181 8182 8183 8184 8185 8186 8187 8188 8189 8190 8191 8192 8193 8194 8195 8196 8197 8198 8199 8200 8201 8202 8203 8204 8205 8206 8207 8208 8209 8210 8211 8212 8213 8214 8215 8216 8217 8218 8219 8220 8221 8222 8223 8224 8225 8226 8227 8228 8229 8230 8231 8232 8233 8234 8235 8236 8237 8238 8239 8240 8241 8242 8243 8244 8245 8246 8247 8248 8249 8250 8251 8252 8253 8254 8255 8256 8257 8258 8259 8260 8261 8262 8263 8264 8265 8266 8267 8268 8269 8270 8271 8272 8273 8274 8275 8276 8277 8278 8279 8280 8281 8282 8283 8284 8285 8286 8287 8288 8289 8290 8291 8292 8293 8294 8295 8296 8297 8298 8299 8300 8301 8302 8303 8304 8305 8306 8307 8308 8309 8310 8311 8312 8313 8314 8315 8316 8317 8318 8319 8320 8321 8322 8323 8324 8325 8326 8327 8328 8329 8330 8331 8332 8333 8334 8335 8336 8337 8338 8339 8340 8341 8342 8343 8344 8345 8346 8347 8348 8349 8350 8351 8352 8353 8354 8355 8356 8357 8358 8359 8360 8361 8362 8363 8364 8365 8366 8367 8368 8369 8370 8371 8372 8373 8374 8375 8376 8377 8378 8379 8380 8381 8382 8383 8384 8385 8386 8387 8388 8389 8390 8391 8392 8393 8394 8395 8396 8397 8398 8399 8400 8401 8402 8403 8404 8405 8406 8407 8408 8409 8410 8411 8412 8413 8414 8415 8416 8417 8418 8419 8420 8421 8422 8423 8424 8425 8426 8427 8428 8429 8430 8431 8432 8433 8434 8435 8436 8437 8438 8439 8440 8441 8442 8443 8444 8445 8446 8447 8448 8449 8450 8451 8452 8453 8454 8455 8456 8457 8458 8459 8460 8461 8462 8463 8464 8465 8466 8467 8468 8469 8470 8471 8472 8473 8474 8475 8476 8477 8478 8479 8480 8481 8482 8483 8484 8485 8486 8487 8488 8489 8490 8491 8492 8493 8494 8495 8496 8497 8498 8499 8500 8501 8502 8503 8504 8505 8506 8507 8508 8509 8510 8511 8512 8513 8514 8515 8516 8517 8518 8519 8520 8521 8522 8523 8524 8525 8526 8527 8528 8529 8530 8531 8532 8533 8534 8535 8536 8537 8538 8539 8540 8541 8542 8543 8544 8545 8546 8547 8548 8549 8550 8551 8552 8553 8554 8555 8556 8557 8558 8559 8560 8561 8562 8563 8564 8565 8566 8567 8568 8569 8570 8571 8572 8573 8574 8575 8576 8577 8578 8579 8580 8581 8582 8583 8584 8585 8586 8587 8588 8589 8590 8591 8592 8593 8594 8595 8596 8597 8598 8599 8600 8601 8602 8603 8604 8605 8606 8607 8608 8609 8610 8611 8612 8613 8614 8615 8616 8617 8618 8619 8620 8621 8622 8623 8624 8625 8626 8627 8628 8629 8630 8631 8632 8633 8634 8635 8636 8637 8638 8639 8640 8641 8642 8643 8644 8645 8646 8647 8648 8649 8650 8651 8652 8653 8654 8655 8656 8657 8658 8659 8660 8661 8662 8663 8664 8665 8666 8667 8668 8669 8670 8671 8672 8673 8674 8675 8676 8677 8678 8679 8680 8681 8682 8683 8684 8685 8686 8687 8688 8689 8690 8691 8692 8693 8694 8695 8696 8697 8698 8699 8700 8701 8702 8703 8704 8705 8706 8707 8708 8709 8710 8711 8712 8713 8714 8715 8716 8717 8718 8719 8720 8721 8722 8723 8724 8725 8726 8727 8728 8729 8730 8731 8732 8733 8734 8735 8736 8737 8738 8739 8740 8741 8742 8743 8744 8745 8746 8747 8748 8749 8750 8751 8752 8753 8754 8755 8756 8757 8758 8759 8760 8761 8762 8763 8764 8765 8766 8767 8768 8769 8770 8771 8772 8773 8774 8775 8776 8777 8778 8779 8780 8781 8782 8783 8784 8785 8786 8787 8788 8789 8790 8791 8792 8793 8794 8795 8796 8797 8798 8799 8800 8801 8802 8803 8804 8805 8806 8807 8808 8809 8810 8811 8812 8813 8814 8815 8816 8817 8818 8819 8820 8821 8822 8823 8824 8825 8826 8827 8828 8829 8830 8831 8832 8833 8834 8835 8836 8837 8838 8839 8840 8841 8842 8843 8844 8845 8846 8847 8848 8849 8850 8851 8852 8853 8854 8855 8856 8857 8858 8859 8860 8861 8862 8863 8864 8865 8866 8867 8868 8869 8870 8871 8872 8873 8874 8875 8876 8877 8878 8879 8880 8881 8882 8883 8884 8885 8886 8887 8888 8889 8890 8891 8892 8893 8894 8895 8896 8897 8898 8899 8900 8901 8902 8903 8904 8905 8906 8907 8908 8909 8910 8911 8912 8913 8914 8915 8916 8917 8918 8919 8920 8921 8922 8923 8924 8925 8926 8927 8928 8929 8930 8931 8932 8933 8934 8935 8936 8937 8938 8939 8940 8941 8942 8943 8944 8945 8946 8947 8948 8949 8950 8951 8952 8953 8954 8955 8956 8957 8958 8959 8960 8961 8962 8963 8964 8965 8966 8967 8968 8969 8970 8971 8972 8973 8974 8975 8976 8977 8978 8979 8980 8981 8982 8983 8984 8985 8986 8987 8988 8989 8990 8991 8992 8993 8994 8995 8996 8997 8998 8999 9000 9001 9002 9003 9004 9005 9006 9007 9008 9009 9010 9011 9012 9013 9014 9015 9016 9017 9018 9019 9020 9021 9022 9023 9024 9025 9026 9027 9028 9029 9030 9031 9032 9033 9034 9035 9036 9037 9038 9039 9040 9041 9042 9043 9044 9045 9046 9047 9048 9049 9050 9051 9052 9053 9054 9055 9056 9057 9058 9059 9060 9061 9062 9063 9064 9065 9066 9067 9068 9069 9070 9071 9072 9073 9074 9075 9076 9077 9078 9079 9080 9081 9082 9083 9084 9085 9086 9087 9088 9089 9090 9091 9092 9093 9094 9095 9096 9097 9098 9099 9100 9101 9102 9103 9104 9105 9106 9107 9108 9109 9110 9111 9112 9113 9114 9115 9116 9117 9118 9119 9120 9121 9122 9123 9124 9125 9126 9127 9128 9129 9130 9131 9132 9133 9134 9135 9136 9137 9138 9139 9140 9141 9142 9143 9144 9145 9146 9147 9148 9149 9150 9151 9152 9153 9154 9155 9156 9157 9158 9159 9160 9161 9162 9163 9164 9165 9166 9167 9168 9169 9170 9171 9172 9173 9174 9175 9176 9177 9178 9179 9180 9181 9182 9183 9184 9185 9186 9187 9188 9189 9190 9191 9192 9193 9194 9195 9196 9197 9198 9199 9200 9201 9202 9203 9204 9205 9206 9207 9208 9209 9210 9211 9212 9213 9214 9215 9216 9217 9218 9219 9220 9221 9222 9223 9224 9225 9226 9227 9228 9229 9230 9231 9232 9233 9234 9235 9236 9237 9238 9239 9240 9241 9242 9243 9244 9245 9246 9247 9248 9249 9250 9251 9252 9253 9254 9255 9256 9257 9258 9259 9260 9261 9262 9263 9264 9265 9266 9267 9268 9269 9270 9271 9272 9273 9274 9275 9276 9277 9278 9279 9280 9281 9282 9283 9284 9285 9286 9287 9288 9289 9290 9291 9292 9293 9294 9295 9296 9297 9298 9299 9300 9301 9302 9303 9304 9305 9306 9307 9308 9309 9310 9311 9312 9313 9314 9315 9316 9317 9318 9319 9320 9321 9322 9323 9324 9325 9326 9327 9328 9329 9330 9331 9332 9333 9334 9335 9336 9337 9338 9339 9340 9341 9342 9343 9344 9345 9346 9347 9348 9349 9350 9351 9352 9353 9354 9355 9356 9357 9358 9359 9360 9361 9362 9363 9364 9365 9366 9367 9368 9369 9370 9371 9372 9373 9374 9375 9376 9377 9378 9379 9380 9381 9382 9383 9384 9385 9386 9387 9388 9389 9390 9391 9392 9393 9394 9395 9396 9397 9398 9399 9400 9401 9402 9403 9404 9405 9406 9407 9408 9409 9410 9411 9412 9413 9414 9415 9416 9417 9418 9419 9420 9421 9422 9423 9424 9425 9426 9427 9428 9429 9430 9431 9432 9433 9434 9435 9436 9437 9438 9439 9440 9441 9442 9443 9444 9445 9446 9447 9448 9449 9450 9451 9452 9453 9454 9455 9456 9457 9458 9459 9460 9461 9462 9463 9464 9465 9466 9467 9468 9469 9470 9471 9472 9473 9474 9475 9476 9477 9478 9479 9480 9481 9482 9483 9484 9485 9486 9487 9488 9489 9490 9491 9492 9493 9494 9495 9496 9497 9498 9499 9500 9501 9502 9503 9504 9505 9506 9507 9508 9509 9510 9511 9512 9513 9514 9515 9516 9517 9518 9519 9520 9521 9522 9523 9524 9525 9526 9527 9528 9529 9530 9531 9532 9533 9534 9535 9536 9537 9538 9539 9540 9541 9542 9543 9544 9545 9546 9547 9548 9549 9550 9551 9552 9553 9554 9555 9556 9557 9558 9559 9560 9561 9562 9563 9564 9565 9566 9567 9568 9569 9570 9571 9572 9573 9574 9575 9576 9577 9578 9579 9580 9581 9582 9583 9584 9585 9586 9587 9588 9589 9590 9591 9592 9593 9594 9595 9596 9597 9598 9599 9600 9601 9602 9603 9604 9605 9606 9607 9608 9609 9610 9611 9612 9613 9614 9615 9616 9617 9618 9619 9620 9621 9622 9623 9624 9625 9626 9627 9628 9629 9630 9631 9632 9633 9634 9635 9636 9637 9638 9639 9640 9641 9642 9643 9644 9645 9646 9647 9648 9649 9650 9651 9652 9653 9654 9655 9656 9657 9658 9659 9660 9661 9662 9663 9664 9665 9666 9667 9668 9669 9670 9671 9672 9673 9674 9675 9676 9677 9678 9679 9680 9681 9682 9683 9684 9685 9686 9687 9688 9689 9690 9691 9692 9693 9694 9695 9696 9697 9698 9699 9700 9701 9702 9703 9704 9705 9706 9707 9708 9709 9710 9711 9712 9713 9714 9715 9716 9717 9718 9719 9720 9721 9722 9723 9724 9725 9726 9727 9728 9729 9730 9731 9732 9733 9734 9735 9736 9737 9738 9739 9740 9741 9742 9743 9744 9745 9746 9747 9748 9749 9750 9751 9752 9753 9754 9755 9756 9757 9758 9759 9760 9761 9762 9763 9764 9765 9766 9767 9768 9769 9770 9771 9772 9773 9774 9775 9776 9777 9778 9779 9780 9781 9782 9783 9784 9785 9786 9787 9788 9789 9790 9791 9792 9793 9794 9795 9796 9797 9798 9799 9800 9801 9802 9803 9804 9805 9806 9807 9808 9809 9810 9811 9812 9813 9814 9815 9816 9817 9818 9819 9820 9821 9822 9823 9824 9825 9826 9827 9828 9829 9830 9831 9832 9833 9834 9835 9836 9837 9838 9839 9840 9841 9842 9843 9844 9845 9846 9847 9848 9849 9850 9851 9852 9853 9854 9855 9856 9857 9858 9859 9860 9861 9862 9863 9864 9865 9866 9867 9868 9869 9870 9871 9872 9873 9874 9875 9876 9877 9878 9879 9880 9881 9882 9883 9884 9885 9886 9887 9888 9889 9890 9891 9892 9893 9894 9895 9896 9897 9898 9899 9900 9901 9902 9903 9904 9905 9906 9907 9908 9909 9910 9911 9912 9913 9914 9915 9916 9917 9918 9919 9920 9921 9922 9923 9924 9925 9926 9927 9928 9929 9930 9931 9932 9933 9934 9935 9936 9937 9938 9939 9940 9941 9942 9943 9944 9945 9946 9947 9948 9949 9950 9951 9952 9953 9954 9955 9956 9957 9958 9959 9960 9961 9962 9963 9964 9965 9966 9967 9968 9969 9970 9971 9972 9973 9974 9975 9976 9977 9978 9979 9980 9981 9982 9983 9984 9985 9986 9987 9988 9989 9990 9991 9992 9993 9994 9995 9996 9997 9998 9999 10000 10001 10002 10003 10004 10005 10006 10007 10008 10009 10010 10011 10012 10013 10014 10015 10016 10017 10018 10019 10020 10021 10022 10023 10024 10025 10026 10027 10028 10029 10030 10031 10032 10033 10034 10035 10036 10037 10038 10039 10040 10041 10042 10043 10044 10045 10046 10047 10048 10049 10050 10051 10052 10053 10054 10055 10056 10057 10058 10059 10060 10061 10062 10063 10064 10065 10066 10067 10068 10069 10070 10071 10072 10073 10074 10075 10076 10077 10078 10079 10080 10081 10082 10083 10084 10085 10086 10087 10088 10089 10090 10091 10092 10093 10094 10095 10096 10097 10098 10099 10100 10101 10102 10103 10104 10105 10106 10107 10108 10109 10110 10111 10112 10113 10114 10115 10116 10117 10118 10119 10120 10121 10122 10123 10124 10125 10126 10127 10128 10129 10130 10131 10132 10133 10134 10135 10136 10137 10138 10139 10140 10141 10142 10143 10144 10145 10146 10147 10148 10149 10150 10151 10152 10153 10154 10155 10156 10157 10158 10159 10160 10161 10162 10163 10164 10165 10166 10167 10168 10169 10170 10171 10172 10173 10174 10175 10176 10177 10178 10179 10180 10181 10182 10183 10184 10185 10186 10187 10188 10189 10190 10191 10192 10193 10194 10195 10196 10197 10198 10199 10200 10201 10202 10203 10204 10205 10206 10207 10208 10209 10210 10211 10212 10213 10214 10215 10216 10217 10218 10219 10220 10221 10222 10223 10224 10225 10226 10227 10228 10229 10230 10231 10232 10233 10234 10235 10236 10237 10238 10239 10240 10241 10242 10243 10244 10245 10246 10247 10248 10249 10250 10251 10252 10253 10254 10255 10256 10257 10258 10259 10260 10261 10262 10263 10264 10265 10266 10267 10268 10269 10270 10271 10272 10273 10274 10275 10276 10277 10278 10279 10280 10281 10282 10283 10284 10285 10286 10287 10288 10289 10290 10291 10292 10293 10294 10295 10296 10297 10298 10299 10300 10301 10302 10303 10304 10305 10306 10307 10308 10309 10310 10311 10312 10313 10314 10315 10316 10317 10318 10319 10320 10321 10322 10323 10324 10325 10326 10327 10328 10329 10330 10331 10332 10333 10334 10335 10336 10337 10338 10339 10340 10341 10342 10343 10344 10345 10346 10347 10348 10349 10350 10351 10352 10353 10354 10355 10356 10357 10358 10359 10360 10361 10362 10363 10364 10365 10366 10367 10368 10369 10370 10371 10372 10373 10374 10375 10376 10377 10378 10379 10380 10381 10382 10383 10384 10385 10386 10387 10388 10389 10390 10391 10392 10393 10394 10395 10396 10397 10398 10399 10400 10401 10402 10403 10404 10405 10406 10407 10408 10409 10410 10411 10412 10413 10414 10415 10416 10417 10418 10419 10420 10421 10422 10423 10424 10425 10426 10427 10428 10429 10430 10431 10432 10433 10434 10435 10436 10437 10438 10439 10440 10441 10442 10443 10444 10445 10446 10447 10448 10449 10450 10451 10452 10453 10454 10455 10456 10457 10458 10459 10460 10461 10462 10463 10464 10465 10466 10467 10468 10469 10470 10471 10472 10473 10474 10475 10476 10477 10478 10479 10480 10481 10482 10483 10484 10485 10486 10487 10488 10489 10490 10491 10492 10493 10494 10495 10496 10497 10498 10499 10500 10501 10502 10503 10504 10505 10506 10507 10508 10509 10510 10511 10512 10513 10514 10515 10516 10517 10518 10519 10520 10521 10522 10523 10524 10525 10526 10527 10528 10529 10530 10531 10532 10533 10534 10535 10536 10537 10538 10539 10540 10541 10542 10543 10544 10545 10546 10547 10548 10549 10550 10551 10552 10553 10554 10555 10556 10557 10558 10559 10560 10561 10562 10563 10564 10565 10566 10567 10568 10569 10570 10571 10572 10573 10574 10575 10576 10577 10578 10579 10580 10581 10582 10583 10584 10585 10586 10587 10588 10589 10590 10591 10592 10593 10594 10595 10596 10597 10598 10599 10600 10601 10602 10603 10604 10605 10606 10607 10608 10609 10610 10611 10612 10613 10614 10615 10616 10617 10618 10619 10620 10621 10622 10623 10624 10625 10626 10627 10628 10629 10630 10631 10632 10633 10634 10635 10636 10637 10638 10639 10640 10641 10642 10643 10644 10645 10646 10647 10648 10649 10650 10651 10652 10653 10654 10655 10656 10657 10658 10659 10660 10661 10662 10663 10664 10665 10666 10667 10668 10669 10670 10671 10672 10673 10674 10675 10676 10677 10678 10679 10680 10681 10682 10683 10684 10685 10686 10687 10688 10689 10690 10691 10692 10693 10694 10695 10696 10697 10698 10699 10700 10701 10702 10703 10704 10705 10706 10707 10708 10709 10710 10711 10712 10713 10714 10715 10716 10717 10718 10719 10720 10721 10722 10723 10724 10725 10726 10727 10728 10729 10730 10731 10732 10733 10734 10735 10736 10737 10738 10739 10740 10741 10742 10743 10744 10745 10746 10747 10748 10749 10750 10751 10752 10753 10754 10755 10756 10757 10758 10759 10760 10761 10762 10763 10764 10765 10766 10767 10768 10769 10770 10771 10772 10773 10774 10775 10776 10777 10778 10779 10780 10781 10782 10783 10784 10785 10786 10787 10788 10789 10790 10791 10792 10793 10794 10795 10796 10797 10798 10799 10800 10801 10802 10803 10804 10805 10806 10807 10808 10809 10810 10811 10812 10813 10814 10815 10816 10817 10818 10819 10820 10821 10822 10823 10824 10825 10826 10827 10828 10829 10830 10831 10832 10833 10834 10835 10836 10837 10838 10839 10840 10841 10842 10843 10844 10845 10846 10847 10848 10849 10850 10851 10852 10853 10854 10855 10856 10857 10858 10859 10860 10861 10862 10863 10864 10865 10866 10867 10868 10869 10870 10871 10872 10873 10874 10875 10876 10877 10878 10879 10880 10881 10882 10883 10884 10885 10886 10887 10888 10889 10890 10891 10892 10893 10894 10895 10896 10897 10898 10899 10900 10901 10902 10903 10904 10905 10906 10907 10908 10909 10910 10911 10912 10913 10914 10915 10916 10917 10918 10919 10920 10921 10922 10923 10924 10925 10926 10927 10928 10929 10930 10931 10932 10933 10934 10935 10936 10937 10938 10939 10940 10941 10942 10943 10944 10945 10946 10947 10948 10949 10950 10951 10952 10953 10954 10955 10956 10957 10958 10959 10960 10961 10962 10963 10964 10965 10966 10967 10968 10969 10970 10971 10972 10973 10974 10975 10976 10977 10978 10979 10980 10981 10982 10983 10984 10985 10986 10987 10988 10989 10990 10991 10992 10993 10994 10995 10996 10997 10998 10999 11000 11001 11002 11003 11004 11005 11006 11007 11008 11009 11010 11011 11012 11013 11014 11015 11016 11017 11018 11019 11020 11021 11022 11023 11024 11025 11026 11027 11028 11029 11030 11031 11032 11033 11034 11035 11036 11037 11038 11039 11040 11041 11042 11043 11044 11045 11046 11047 11048 11049 11050 11051 11052 11053 11054 11055 11056 11057 11058 11059 11060 11061 11062 11063 11064 11065 11066 11067 11068 11069 11070 11071 11072 11073 11074 11075 11076 11077 11078 11079 11080 11081 11082 11083 11084 11085 11086 11087 11088 11089 11090 11091 11092 11093 11094 11095 11096 11097 11098 11099 11100 11101 11102 11103 11104 11105 11106 11107 11108 11109 11110 11111 11112 11113 11114 11115 11116 11117 11118 11119 11120 11121 11122 11123 11124 11125 11126 11127 11128 11129 11130 11131 11132 11133 11134 11135 11136 11137 11138 11139 11140 11141 11142 11143 11144 11145 11146 11147 11148 11149 11150 11151 11152 11153 11154 11155 11156 11157 11158 11159 11160 11161 11162 11163 11164 11165 11166 11167 11168 11169 11170 11171 11172 11173 11174 11175 11176 11177 11178 11179 11180 11181 11182 11183 11184 11185 11186 11187 11188 11189 11190 11191 11192 11193 11194 11195 11196 11197 11198 11199 11200 11201 11202 11203 11204 11205 11206 11207 11208 11209 11210 11211 11212 11213 11214 11215 11216 11217 11218 11219 11220 11221 11222 11223 11224 11225 11226 11227 11228 11229 11230 11231 11232 11233 11234 11235 11236 11237 11238 11239 11240 11241 11242 11243 11244 11245 11246 11247 11248 11249 11250 11251 11252 11253 11254 11255 11256 11257 11258 11259 11260 11261 11262 11263 11264 11265 11266 11267 11268 11269 11270 11271 11272 11273 11274 11275 11276 11277 11278 11279 11280 11281 11282 11283 11284 11285 11286 11287 11288 11289 11290 11291 11292 11293 11294 11295 11296 11297 11298 11299 11300 11301 11302 11303 11304 11305 11306 11307 11308 11309 11310 11311 11312 11313 11314 11315 11316 11317 11318 11319 11320 11321 11322 11323 11324 11325 11326 11327 11328 11329 11330 11331 11332 11333 11334 11335 11336 11337 11338 11339 11340 11341 11342 11343 11344 11345 11346 11347 11348 11349 11350 11351 11352 11353 11354 11355 11356 11357 11358 11359 11360 11361 11362 11363 11364 11365 11366 11367 11368 11369 11370 11371 11372 11373 11374 11375 11376 11377 11378 11379 11380 11381 11382 11383 11384 11385 11386 11387 11388 11389 11390 11391 11392 11393 11394 11395 11396 11397 11398 11399 11400 11401 11402 11403 11404 11405 11406 11407 11408 11409 11410 11411 11412 11413 11414 11415 11416 11417 11418 11419 11420 11421 11422 11423 11424 11425 11426 11427 11428 11429 11430 11431 11432 11433 11434 11435 11436 11437 11438 11439 11440 11441 11442 11443 11444 11445 11446 11447 11448 11449 11450 11451 11452 11453 11454 11455 11456 11457 11458 11459 11460 11461 11462 11463 11464 11465 11466 11467 11468 11469 11470 11471 11472 11473 11474 11475 11476 11477 11478 11479 11480 11481 11482 11483 11484 11485 11486 11487 11488 11489 11490 11491 11492 11493 11494 11495 11496 11497 11498 11499 11500 11501 11502 11503 11504 11505 11506 11507 11508 11509 11510 11511 11512 11513 11514 11515 11516 11517 11518 11519 11520 11521 11522 11523 11524 11525 11526 11527 11528 11529 11530 11531 11532 11533 11534 11535 11536 11537 11538 11539 11540 11541 11542 11543 11544 11545 11546 11547 11548 11549 11550 11551 11552 11553 11554 11555 11556 11557 11558 11559 11560 11561 11562 11563 11564 11565 11566 11567 11568 11569 11570 11571 11572 11573 11574 11575 11576 11577 11578 11579 11580 11581 11582 11583 11584 11585 11586 11587 11588 11589 11590 11591 11592 11593 11594 11595 11596 11597 11598 11599 11600 11601 11602 11603 11604 11605 11606 11607 11608 11609 11610 11611 11612 11613 11614 11615 11616 11617 11618 11619 11620 11621 11622 11623 11624 11625 11626 11627 11628 11629 11630 11631 11632 11633 11634 11635 11636 11637 11638 11639 11640 11641 11642 11643 11644 11645 11646 11647 11648 11649 11650 11651 11652 11653 11654 11655 11656 11657 11658 11659 11660 11661 11662 11663 11664 11665 11666 11667 11668 11669 11670 11671 11672 11673 11674 11675 11676 11677 11678 11679 11680 11681 11682 11683 11684 11685 11686 11687 11688 11689 11690 11691 11692 11693 11694 11695 11696 11697 11698 11699 11700 11701 11702 11703 11704 11705 11706 11707 11708 11709 11710 11711 11712 11713 11714 11715 11716 11717 11718 11719 11720 11721 11722 11723 11724 11725 11726 11727 11728 11729 11730 11731 11732 11733 11734 11735 11736 11737 11738 11739 11740 11741 11742 11743 11744 11745 11746 11747 11748 11749 11750 11751 11752 11753 11754 11755 11756 11757 11758 11759 11760 11761 11762 11763 11764 11765 11766 11767 11768 11769 11770 11771 11772 11773 11774 11775 11776 11777 11778 11779 11780 11781 11782 11783 11784 11785 11786 11787 11788 11789 11790 11791 11792 11793 11794 11795 11796 11797 11798 11799 11800 11801 11802 11803 11804 11805 11806 11807 11808 11809 11810 11811 11812 11813 11814 11815 11816 11817 11818 11819 11820 11821 11822 11823 11824 11825 11826 11827 11828 11829 11830 11831 11832 11833 11834 11835 11836 11837 11838 11839 11840 11841 11842 11843 11844 11845 11846 11847 11848 11849 11850 11851 11852 11853 11854 11855 11856 11857 11858 11859 11860 11861 11862 11863 11864 11865 11866 11867 11868 11869 11870 11871 11872 11873 11874 11875 11876 11877 11878 11879 11880 11881 11882 11883 11884 11885 11886 11887 11888 11889 11890 11891 11892 11893 11894 11895 11896 11897 11898 11899 11900 11901 11902 11903 11904 11905 11906 11907 11908 11909 11910 11911 11912 11913 11914 11915 11916 11917 11918 11919 11920 11921 11922 11923 11924 11925 11926 11927 11928 11929 11930 11931 11932 11933 11934 11935 11936 11937 11938 11939 11940 11941 11942 11943 11944 11945 11946 11947 11948 11949 11950 11951 11952 11953 11954 11955 11956 11957 11958 11959 11960 11961 11962 11963 11964 11965 11966 11967 11968 11969 11970 11971 11972 11973 11974 11975 11976 11977 11978 11979 11980 11981 11982 11983 11984 11985 11986 11987 11988 11989 11990 11991 11992 11993 11994 11995 11996 11997 11998 11999 12000 12001 12002 12003 12004 12005 12006 12007 12008 12009 12010 12011 12012 12013 12014 12015 12016 12017 12018 12019 12020 12021 12022 12023 12024 12025 12026 12027 12028 12029 12030 12031 12032 12033 12034 12035 12036 12037 12038 12039 12040 12041 12042 12043 12044 12045 12046 12047 12048 12049 12050 12051 12052 12053 12054 12055 12056 12057 12058 12059 12060 12061 12062 12063 12064 12065 12066 12067 12068 12069 12070 12071 12072 12073 12074 12075 12076 12077 12078 12079 12080 12081 12082 12083 12084 12085 12086 12087 12088 12089 12090 12091 12092 12093 12094 12095 12096 12097 12098 12099 12100 12101 12102 12103 12104 12105 12106 12107 12108 12109 12110 12111 12112 12113 12114 12115 12116 12117 12118 12119 12120 12121 12122 12123 12124 12125 12126 12127 12128 12129 12130 12131 12132 12133 12134 12135 12136 12137 12138 12139 12140 12141 12142 12143 12144 12145 12146 12147 12148 12149 12150 12151 12152 12153 12154 12155 12156 12157 12158 12159 12160 12161 12162 12163 12164 12165 12166 12167 12168 12169 12170 12171 12172 12173 12174 12175 12176 12177 12178 12179 12180 12181 12182 12183 12184 12185 12186 12187 12188 12189 12190 12191 12192 12193 12194 12195 12196 12197 12198 12199 12200 12201 12202 12203 12204 12205 12206 12207 12208 12209 12210 12211 12212 12213 12214 12215 12216 12217 12218 12219 12220 12221 12222 12223 12224 12225 12226 12227 12228 12229 12230 12231 12232 12233 12234 12235 12236 12237 12238 12239 12240 12241 12242 12243 12244 12245 12246 12247 12248 12249 12250 12251 12252 12253 12254 12255 12256 12257 12258 12259 12260 12261 12262 12263 12264 12265 12266 12267 12268 12269 12270 12271 12272 12273 12274 12275 12276 12277 12278 12279 12280 12281 12282 12283 12284 12285 12286 12287 12288 12289 12290 12291 12292 12293 12294 12295 12296 12297 12298 12299 12300 12301 12302 12303 12304 12305 12306 12307 12308 12309 12310 12311 12312 12313 12314 12315 12316 12317 12318 12319 12320 12321 12322 12323 12324 12325 12326 12327 12328 12329 12330 12331 12332 12333 12334 12335 12336 12337 12338 12339 12340 12341 12342 12343 12344 12345 12346 12347 12348 12349 12350 12351 12352 12353 12354 12355 12356 12357 12358 12359 12360 12361 12362 12363 12364 12365 12366 12367 12368 12369 12370 12371 12372 12373 12374 12375 12376 12377 12378 12379 12380 12381 12382 12383 12384 12385 12386 12387 12388 12389 12390 12391 12392 12393 12394 12395 12396 12397 12398 12399 12400 12401 12402 12403 12404 12405 12406 12407 12408 12409 12410 12411 12412 12413 12414 12415 12416 12417 12418 12419 12420 12421 12422 12423 12424 12425 12426 12427 12428 12429 12430 12431 12432 12433 12434 12435 12436 12437 12438 12439 12440 12441 12442 12443 12444 12445 12446 12447 12448 12449 12450 12451 12452 12453 12454 12455 12456 12457 12458 12459 12460 12461 12462 12463 12464 12465 12466 12467 12468 12469 12470 12471 12472 12473 12474 12475 12476 12477 12478 12479 12480 12481 12482 12483 12484 12485 12486 12487 12488 12489 12490 12491 12492 12493 12494 12495 12496 12497 12498 12499 12500 12501 12502 12503 12504 12505 12506 12507 12508 12509 12510 12511 12512 12513 12514 12515 12516 12517 12518 12519 12520 12521 12522 12523 12524 12525 12526 12527 12528 12529 12530 12531 12532 12533 12534 12535 12536 12537 12538 12539 12540 12541 12542 12543 12544 12545 12546 12547 12548 12549 12550 12551 12552 12553 12554 12555 12556 12557 12558 12559 12560 12561 12562 12563 12564 12565 12566 12567 12568 12569 12570 12571 12572 12573 12574 12575 12576 12577 12578 12579 12580 12581 12582 12583 12584 12585 12586 12587 12588 12589 12590 12591 12592 12593 12594 12595 12596 12597 12598 12599 12600 12601 12602 12603 12604 12605 12606 12607 12608 12609 12610 12611 12612 12613 12614 12615 12616 12617 12618 12619 12620 12621 12622 12623 12624 12625 12626 12627 12628 12629 12630 12631 12632 12633 12634 12635 12636 12637 12638 12639 12640 12641 12642 12643 12644 12645 12646 12647 12648 12649 12650 12651 12652 12653 12654 12655 12656 12657 12658 12659 12660 12661 12662 12663 12664 12665 12666 12667 12668 12669 12670 12671 12672 12673 12674 12675 12676 12677 12678 12679 12680 12681 12682 12683 12684 12685 12686 12687 12688 12689 12690 12691 12692 12693 12694 12695 12696 12697 12698 12699 12700 12701 12702 12703 12704 12705 12706 12707 12708 12709 12710 12711 12712 12713 12714 12715 12716 12717 12718 12719 12720 12721 12722 12723 12724 12725 12726 12727 12728 12729 12730 12731 12732 12733 12734 12735 12736 12737 12738 12739 12740 12741 12742 12743 12744 12745 12746 12747 12748 12749 12750 12751 12752 12753 12754 12755 12756 12757 12758 12759 12760 12761 12762 12763 12764 12765 12766 12767 12768 12769 12770 12771 12772 12773 12774 12775 12776 12777 12778 12779 12780 12781 12782 12783 12784 12785 12786 12787 12788 12789 12790 12791 12792 12793 12794 12795 12796 12797 12798 12799 12800 12801 12802 12803 12804 12805 12806 12807 12808 12809 12810 12811 12812 12813 12814 12815 12816 12817 12818 12819 12820 12821 12822 12823 12824 12825 12826 12827 12828 12829 12830 12831 12832 12833 12834 12835 12836 12837 12838 12839 12840 12841 12842 12843 12844 12845 12846 12847 12848 12849 12850 12851 12852 12853 12854 12855 12856 12857 12858 12859 12860 12861 12862 12863 12864 12865 12866 12867 12868 12869 12870 12871 12872 12873 12874 12875 12876 12877 12878 12879 12880 12881 12882 12883 12884 12885 12886 12887 12888 12889 12890 12891 12892 12893 12894 12895 12896 12897 12898 12899 12900 12901 12902 12903 12904 12905 12906 12907 12908 12909 12910 12911 12912 12913 12914 12915 12916 12917 12918 12919 12920 12921 12922 12923 12924 12925 12926 12927 12928 12929 12930 12931 12932 12933 12934 12935 12936 12937 12938 12939 12940 12941 12942 12943 12944 12945 12946 12947 12948 12949 12950 12951 12952 12953 12954 12955 12956 12957 12958 12959 12960 12961 12962 12963 12964 12965 12966 12967 12968 12969 12970 12971 12972 12973 12974 12975 12976 12977 12978 12979 12980 12981 12982 12983 12984 12985 12986 12987 12988 12989 12990 12991 12992 12993 12994 12995 12996 12997 12998 12999 13000 13001 13002 13003 13004 13005 13006 13007 13008 13009 13010 13011 13012 13013 13014 13015 13016 13017 13018 13019 13020 13021 13022 13023 13024 13025 13026 13027 13028 13029 13030 13031 13032 13033 13034 13035 13036 13037 13038 13039 13040 13041 13042 13043 13044 13045 13046 13047 13048 13049 13050 13051 13052 13053 13054 13055 13056 13057 13058 13059 13060 13061 13062 13063 13064 13065 13066 13067 13068 13069 13070 13071 13072 13073 13074 13075 13076 13077 13078 13079 13080 13081 13082 13083 13084 13085 13086 13087 13088 13089 13090 13091 13092 13093 13094 13095 13096 13097 13098 13099 13100 13101 13102 13103 13104 13105 13106 13107 13108 13109 13110 13111 13112 13113 13114 13115 13116 13117 13118 13119 13120 13121 13122 13123 13124 13125 13126 13127 13128 13129 13130 13131 13132 13133 13134 13135 13136 13137 13138 13139 13140 13141 13142 13143 13144 13145 13146 13147 13148 13149 13150 13151 13152 13153 13154 13155 13156 13157 13158 13159 13160 13161 13162 13163 13164 13165 13166 13167 13168 13169 13170 13171 13172 13173 13174 13175 13176 13177 13178 13179 13180 13181 13182 13183 13184 13185 13186 13187 13188 13189 13190 13191 13192 13193 13194 13195 13196 13197 13198 13199 13200 13201 13202 13203 13204 13205 13206 13207 13208 13209 13210 13211 13212 13213 13214 13215 13216 13217 13218 13219 13220 13221 13222 13223 13224 13225 13226 13227 13228 13229 13230 13231 13232 13233 13234 13235 13236 13237 13238 13239 13240 13241 13242 13243 13244 13245 13246 13247 13248 13249 13250 13251 13252 13253 13254 13255 13256 13257 13258 13259 13260 13261 13262 13263 13264 13265 13266 13267 13268 13269 13270 13271 13272 13273 13274 13275 13276 13277 13278 13279 13280 13281 13282 13283 13284 13285 13286 13287 13288 13289 13290 13291 13292 13293 13294 13295 13296 13297 13298 13299 13300 13301 13302 13303 13304 13305 13306 13307 13308 13309 13310 13311 13312 13313 13314 13315 13316 13317 13318 13319 13320 13321 13322 13323 13324 13325 13326 13327 13328 13329 13330 13331 13332 13333 13334 13335 13336 13337 13338 13339 13340 13341 13342 13343 13344 13345 13346 13347 13348 13349 13350 13351 13352 13353 13354 13355 13356 13357 13358 13359 13360 13361 13362 13363 13364 13365 13366 13367 13368 13369 13370 13371 13372 13373 13374 13375 13376 13377 13378 13379 13380 13381 13382 13383 13384 13385 13386 13387 13388 13389 13390 13391 13392 13393 13394 13395 13396 13397 13398 13399 13400 13401 13402 13403 13404 13405 13406 13407 13408 13409 13410 13411 13412 13413 13414 13415 13416 13417 13418 13419 13420 13421 13422 13423 13424 13425 13426 13427 13428 13429 13430 13431 13432 13433 13434 13435 13436 13437 13438 13439 13440 13441 13442 13443 13444 13445 13446 13447 13448 13449 13450 13451 13452 13453 13454 13455 13456 13457 13458 13459 13460 13461 13462 13463 13464 13465 13466 13467 13468 13469 13470 13471 13472 13473 13474 13475 13476 13477 13478 13479 13480 13481 13482 13483 13484 13485 13486 13487 13488 13489 13490 13491 13492 13493 13494 13495 13496 13497 13498 13499 13500 13501 13502 13503 13504 13505 13506 13507 13508 13509 13510 13511 13512 13513 13514 13515 13516 13517 13518 13519 13520 13521 13522 13523 13524 13525 13526 13527 13528 13529 13530 13531 13532 13533 13534 13535 13536 13537 13538 13539 13540 13541 13542 13543 13544 13545 13546 13547 13548 13549 13550 13551 13552 13553 13554 13555 13556 13557 13558 13559 13560 13561 13562 13563 13564 13565 13566 13567 13568 13569 13570 13571 13572 13573 13574 13575 13576 13577 13578 13579 13580 13581 13582 13583 13584 13585 13586 13587 13588 13589 13590 13591 13592 13593 13594 13595 13596 13597 13598 13599 13600 13601 13602 13603 13604 13605 13606 13607 13608 13609 13610 13611 13612 13613 13614 13615 13616 13617 13618 13619 13620 13621 13622 13623 13624 13625 13626 13627 13628 13629 13630 13631 13632 13633 13634 13635 13636 13637 13638 13639 13640 13641 13642 13643 13644 13645 13646 13647 13648 13649 13650 13651 13652 13653 13654 13655 13656 13657 13658 13659 13660 13661 13662 13663 13664 13665 13666 13667 13668 13669 13670 13671 13672 13673 13674 13675 13676 13677 13678 13679 13680 13681 13682 13683 13684 13685 13686 13687 13688 13689 13690 13691 13692 13693 13694 13695 13696 13697 13698 13699 13700 13701 13702 13703 13704 13705 13706 13707 13708 13709 13710 13711 13712 13713 13714 13715 13716 13717 13718 13719 13720 13721 13722 13723 13724 13725 13726 13727 13728 13729 13730 13731 13732 13733 13734 13735 13736 13737 13738 13739 13740 13741 13742 13743 13744 13745 13746 13747 13748 13749 13750 13751 13752 13753 13754 13755 13756 13757 13758 13759 13760 13761 13762 13763 13764 13765 13766 13767 13768 13769 13770 13771 13772 13773 13774 13775 13776 13777 13778 13779 13780 13781 13782 13783 13784 13785 13786 13787 13788 13789 13790 13791 13792 13793 13794 13795 13796 13797 13798 13799 13800 13801 13802 13803 13804 13805 13806 13807 13808 13809 13810 13811 13812 13813 13814 13815 13816 13817 13818 13819 13820 13821 13822 13823 13824 13825 13826 13827 13828 13829 13830 13831 13832 13833 13834 13835 13836 13837 13838 13839 13840 13841 13842 13843 13844 13845 13846 13847 13848 13849 13850 13851 13852 13853 13854 13855 13856 13857 13858 13859 13860 13861 13862 13863 13864 13865 13866 13867 13868 13869 13870 13871 13872 13873 13874 13875 13876 13877 13878 13879 13880 13881 13882 13883 13884 13885 13886 13887 13888 13889 13890 13891 13892 13893 13894 13895 13896 13897 13898 13899 13900 13901 13902 13903 13904 13905 13906 13907 13908 13909 13910 13911 13912 13913 13914 13915 13916 13917 13918 13919 13920 13921 13922 13923 13924 13925 13926 13927 13928 13929 13930 13931 13932 13933 13934 13935 13936 13937 13938 13939 13940 13941 13942 13943 13944 13945 13946 13947 13948 13949 13950 13951 13952 13953 13954 13955 13956 13957 13958 13959 13960 13961 13962 13963 13964 13965 13966 13967 13968 13969 13970 13971 13972 13973 13974 13975 13976 13977 13978 13979 13980 13981 13982 13983 13984 13985 13986 13987 13988 13989 13990 13991 13992 13993 13994 13995 13996 13997 13998 13999 14000 14001 14002 14003 14004 14005 14006 14007 14008 14009 14010 14011 14012 14013 14014 14015 14016 14017 14018 14019 14020 14021 14022 14023 14024 14025 14026 14027 14028 14029 14030 14031 14032 14033 14034 14035 14036 14037 14038 14039 14040 14041 14042 14043 14044 14045 14046 14047 14048 14049 14050 14051 14052 14053 14054 14055 14056 14057 14058 14059 14060 14061 14062 14063 14064 14065 14066 14067 14068 14069 14070 14071 14072 14073 14074 14075 14076 14077 14078 14079 14080 14081 14082 14083 14084 14085 14086 14087 14088 14089 14090 14091 14092 14093 14094 14095 14096 14097 14098 14099 14100 14101 14102 14103 14104 14105 14106 14107 14108 14109 14110 14111 14112 14113 14114 14115 14116 14117 14118 14119 14120 14121 14122 14123 14124 14125 14126 14127 14128 14129 14130 14131 14132 14133 14134 14135 14136 14137 14138 14139 14140 14141 14142 14143 14144 14145 14146 14147 14148 14149 14150 14151 14152 14153 14154 14155 14156 14157 14158 14159 14160 14161 14162 14163 14164 14165 14166 14167 14168 14169 14170 14171 14172 14173 14174 14175 14176 14177 14178 14179 14180 14181 14182 14183 14184 14185 14186 14187 14188 14189 14190 14191 14192 14193 14194 14195 14196 14197 14198 14199 14200 14201 14202 14203 14204 14205 14206 14207 14208 14209 14210 14211 14212 14213 14214 14215 14216 14217 14218 14219 14220 14221 14222 14223 14224 14225 14226 14227 14228 14229 14230 14231 14232 14233 14234 14235 14236 14237 14238 14239 14240 14241 14242 14243 14244 14245 14246 14247 14248 14249 14250 14251 14252 14253 14254 14255 14256 14257 14258 14259 14260 14261 14262 14263 14264 14265 14266 14267 14268 14269 14270 14271 14272 14273 14274 14275 14276 14277 14278 14279 14280 14281 14282 14283 14284 14285 14286 14287 14288 14289 14290 14291 14292 14293 14294 14295 14296 14297 14298 14299 14300 14301 14302 14303 14304 14305 14306 14307 14308 14309 14310 14311 14312 14313 14314 14315 14316 14317 14318 14319 14320 14321 14322 14323 14324 14325 14326 14327 14328 14329 14330 14331 14332 14333 14334 14335 14336 14337 14338 14339 14340 14341 14342 14343 14344 14345 14346 14347 14348 14349 14350 14351 14352 14353 14354 14355 14356 14357 14358 14359 14360 14361 14362 14363 14364 14365 14366 14367 14368 14369 14370 14371 14372 14373 14374 14375 14376 14377 14378 14379 14380 14381 14382 14383 14384 14385 14386 14387 14388 14389 14390 14391 14392 14393 14394 14395 14396 14397 14398 14399 14400 14401 14402 14403 14404 14405 14406 14407 14408 14409 14410 14411 14412 14413 14414 14415 14416 14417 14418 14419 14420 14421 14422 14423 14424 14425 14426 14427 14428 14429 14430 14431 14432 14433 14434 14435 14436 14437 14438 14439 14440 14441 14442 14443 14444 14445 14446 14447 14448 14449 14450 14451 14452 14453 14454 14455 14456 14457 14458 14459 14460 14461 14462 14463 14464 14465 14466 14467 14468 14469 14470 14471 14472 14473 14474 14475 14476 14477 14478 14479 14480 14481 14482 14483 14484 14485 14486 14487 14488 14489 14490 14491 14492 14493 14494 14495 14496 14497 14498 14499 14500 14501 14502 14503 14504 14505 14506 14507 14508 14509 14510 14511 14512 14513 14514 14515 14516 14517 14518 14519 14520 14521 14522 14523 14524 14525 14526 14527 14528 14529 14530 14531 14532 14533 14534 14535 14536 14537 14538 14539 14540 14541 14542 14543 14544 14545 14546 14547 14548 14549 14550 14551 14552 14553 14554 14555 14556 14557 14558 14559 14560 14561 14562 14563 14564 14565 14566 14567 14568 14569 14570 14571 14572 14573 14574 14575 14576 14577 14578 14579 14580 14581 14582 14583 14584 14585 14586 14587 14588 14589 14590 14591 14592 14593 14594 14595 14596 14597 14598 14599 14600 14601 14602 14603 14604 14605 14606 14607 14608 14609 14610 14611 14612 14613 14614 14615 14616 14617 14618 14619 14620 14621 14622 14623 14624 14625 14626 14627 14628 14629 14630 14631 14632 14633 14634 14635 14636 14637 14638 14639 14640 14641 14642 14643 14644 14645 14646 14647 14648 14649 14650 14651 14652 14653 14654 14655 14656 14657 14658 14659 14660 14661 14662 14663 14664 14665 14666 14667 14668 14669 14670 14671 14672 14673 14674 14675 14676 14677 14678 14679 14680 14681 14682 14683 14684 14685 14686 14687 14688 14689 14690 14691 14692 14693 14694 14695 14696 14697 14698 14699 14700 14701 14702 14703 14704 14705 14706 14707 14708 14709 14710 14711 14712 14713 14714 14715 14716 14717 14718 14719 14720 14721 14722 14723 14724 14725 14726 14727 14728 14729 14730 14731 14732 14733 14734 14735 14736 14737 14738 14739 14740 14741 14742 14743 14744 14745 14746 14747 14748 14749 14750 14751 14752 14753 14754 14755 14756 14757 14758 14759 14760 14761 14762 14763 14764 14765 14766 14767 14768 14769 14770 14771 14772 14773 14774 14775 14776 14777 14778 14779 14780 14781 14782 14783 14784 14785 14786 14787 14788 14789 14790 14791 14792 14793 14794 14795 14796 14797 14798 14799 14800 14801 14802 14803 14804 14805 14806 14807 14808 14809 14810 14811 14812 14813 14814 14815 14816 14817 14818 14819 14820 14821 14822 14823 14824 14825 14826 14827 14828 14829 14830 14831 14832 14833 14834 14835 14836 14837 14838 14839 14840 14841 14842 14843 14844 14845 14846 14847 14848 14849 14850 14851 14852 14853 14854 14855 14856 14857 14858 14859 14860 14861 14862 14863 14864 14865 14866 14867 14868 14869 14870 14871 14872 14873 14874 14875 14876 14877 14878 14879 14880 14881 14882 14883 14884 14885 14886 14887 14888 14889 14890 14891 14892 14893 14894 14895 14896 14897 14898 14899 14900 14901 14902 14903 14904 14905 14906 14907 14908 14909 14910 14911 14912 14913 14914 14915 14916 14917 14918 14919 14920 14921 14922 14923 14924 14925 14926 14927 14928 14929 14930 14931 14932 14933 14934 14935 14936 14937 14938 14939 14940 14941 14942 14943 14944 14945 14946 14947 14948 14949 14950 14951 14952 14953 14954 14955 14956 14957 14958 14959 14960 14961 14962 14963 14964 14965 14966 14967 14968 14969 14970 14971 14972 14973 14974 14975 14976 14977 14978 14979 14980 14981 14982 14983 14984 14985 14986 14987 14988 14989 14990 14991 14992 14993 14994 14995 14996 14997 14998 14999 15000 15001 15002 15003 15004 15005 15006 15007 15008 15009 15010 15011 15012 15013 15014 15015 15016 15017 15018 15019 15020 15021 15022 15023 15024 15025 15026 15027 15028 15029 15030 15031 15032 15033 15034 15035 15036 15037 15038 15039 15040 15041 15042 15043 15044 15045 15046 15047 15048 15049 15050 15051 15052 15053 15054 15055 15056 15057 15058 15059 15060 15061 15062 15063 15064 15065 15066 15067 15068 15069 15070 15071 15072 15073 15074 15075 15076 15077 15078 15079 15080 15081 15082 15083 15084 15085 15086 15087 15088 15089 15090 15091 15092 15093 15094 15095 15096 15097 15098 15099 15100 15101 15102 15103 15104 15105 15106 15107 15108 15109 15110 15111 15112 15113 15114 15115 15116 15117 15118 15119 15120 15121 15122 15123 15124 15125 15126 15127 15128 15129 15130 15131 15132 15133 15134 15135 15136 15137 15138 15139 15140 15141 15142 15143 15144 15145 15146 15147 15148 15149 15150 15151 15152 15153 15154 15155 15156 15157 15158 15159 15160 15161 15162 15163 15164 15165 15166 15167 15168 15169 15170 15171 15172 15173 15174 15175 15176 15177 15178 15179 15180 15181 15182 15183 15184 15185 15186 15187 15188 15189 15190 15191 15192 15193 15194 15195 15196 15197 15198 15199 15200 15201 15202 15203 15204 15205 15206 15207 15208 15209 15210 15211 15212 15213 15214 15215 15216 15217 15218 15219 15220 15221 15222 15223 15224 15225 15226 15227 15228 15229 15230 15231 15232 15233 15234 15235 15236 15237 15238 15239 15240 15241 15242 15243 15244 15245 15246 15247 15248 15249 15250 15251 15252 15253 15254 15255 15256 15257 15258 15259 15260 15261 15262 15263 15264 15265 15266 15267 15268 15269 15270 15271 15272 15273 15274 15275 15276 15277 15278 15279 15280 15281 15282 15283 15284 15285 15286 15287 15288 15289 15290 15291 15292 15293 15294 15295 15296 15297 15298 15299 15300 15301 15302 15303 15304 15305 15306 15307 15308 15309 15310 15311 15312 15313 15314 15315 15316 15317 15318 15319 15320 15321 15322 15323 15324 15325 15326 15327 15328 15329 15330 15331 15332 15333 15334 15335 15336 15337 15338 15339 15340 15341 15342 15343 15344 15345 15346 15347 15348 15349 15350 15351 15352 15353 15354 15355 15356 15357 15358 15359 15360 15361 15362 15363 15364 15365 15366 15367 15368 15369 15370 15371 15372 15373 15374 15375 15376 15377 15378 15379 15380 15381 15382 15383 15384 15385 15386 15387 15388 15389 15390 15391 15392 15393 15394 15395 15396 15397 15398 15399 15400 15401 15402 15403 15404 15405 15406 15407 15408 15409 15410 15411 15412 15413 15414 15415 15416 15417 15418 15419 15420 15421 15422 15423 15424 15425 15426 15427 15428 15429 15430 15431 15432 15433 15434 15435 15436 15437 15438 15439 15440 15441 15442 15443 15444 15445 15446 15447 15448 15449 15450 15451 15452 15453 15454 15455 15456 15457 15458 15459 15460 15461 15462 15463 15464 15465 15466 15467 15468 15469 15470 15471 15472 15473 15474 15475 15476 15477 15478 15479 15480 15481 15482 15483 15484 15485 15486 15487 15488 15489 15490 15491 15492 15493 15494 15495 15496 15497 15498 15499 15500 15501 15502 15503 15504 15505 15506 15507 15508 15509 15510 15511 15512 15513 15514 15515 15516 15517 15518 15519 15520 15521 15522 15523 15524 15525 15526 15527 15528 15529 15530 15531 15532 15533 15534 15535 15536 15537 15538 15539 15540 15541 15542 15543 15544 15545 15546 15547 15548 15549 15550 15551 15552 15553 15554 15555 15556 15557 15558 15559 15560 15561 15562 15563 15564 15565 15566 15567 15568 15569 15570 15571 15572 15573 15574 15575 15576 15577 15578 15579 15580 15581 15582 15583 15584 15585 15586 15587 15588 15589 15590 15591 15592 15593 15594 15595 15596 15597 15598 15599 15600 15601 15602 15603 15604 15605 15606 15607 15608 15609 15610 15611 15612 15613 15614 15615 15616 15617 15618 15619 15620 15621 15622 15623 15624 15625 15626 15627 15628 15629 15630 15631 15632 15633 15634 15635 15636 15637 15638 15639 15640 15641 15642 15643 15644 15645 15646 15647 15648 15649 15650 15651 15652 15653 15654 15655 15656 15657 15658 15659 15660 15661 15662 15663 15664 15665 15666 15667 15668 15669 15670 15671 15672 15673 15674 15675 15676 15677 15678 15679 15680 15681 15682 15683 15684 15685 15686 15687 15688 15689 15690 15691 15692 15693 15694 15695 15696 15697 15698 15699 15700 15701 15702 15703 15704 15705 15706 15707 15708 15709 15710 15711 15712 15713 15714 15715 15716 15717 15718 15719 15720 15721 15722 15723 15724 15725 15726 15727 15728 15729 15730 15731 15732 15733 15734 15735 15736 15737 15738 15739 15740 15741 15742 15743 15744 15745 15746 15747 15748 15749 15750 15751 15752 15753 15754 15755 15756 15757 15758 15759 15760 15761 15762 15763 15764 15765 15766 15767 15768 15769 15770 15771 15772 15773 15774 15775 15776 15777 15778 15779 15780 15781 15782 15783 15784 15785 15786 15787 15788 15789 15790 15791 15792 15793 15794 15795 15796 15797 15798 15799 15800 15801 15802 15803 15804 15805 15806 15807 15808 15809 15810 15811 15812 15813 15814 15815 15816 15817 15818 15819 15820 15821 15822 15823 15824 15825 15826 15827 15828 15829 15830 15831 15832 15833 15834 15835 15836 15837 15838 15839 15840 15841 15842 15843 15844 15845 15846 15847 15848 15849 15850 15851 15852 15853 15854 15855 15856 15857 15858 15859 15860 15861 15862 15863 15864 15865 15866 15867 15868 15869 15870 15871 15872 15873 15874 15875 15876 15877 15878 15879 15880 15881 15882 15883 15884 15885 15886 15887 15888 15889 15890 15891 15892 15893 15894 15895 15896 15897 15898 15899 15900 15901 15902 15903 15904 15905 15906 15907 15908 15909 15910 15911 15912 15913 15914 15915 15916 15917 15918 15919 15920 15921 15922 15923 15924 15925 15926 15927 15928 15929 15930 15931 15932 15933 15934 15935 15936 15937 15938 15939 15940 15941 15942 15943 15944 15945 15946 15947 15948 15949 15950 15951 15952 15953 15954 15955 15956 15957 15958 15959 15960 15961 15962 15963 15964 15965 15966 15967 15968 15969 15970 15971 15972 15973 15974 15975 15976 15977 15978 15979 15980 15981 15982 15983 15984 15985 15986 15987 15988 15989 15990 15991 15992 15993 15994 15995 15996 15997 15998 15999 16000 16001 16002 16003 16004 16005 16006 16007 16008 16009 16010 16011 16012 16013 16014 16015 16016 16017 16018 16019 16020 16021 16022 16023 16024 16025 16026 16027 16028 16029 16030 16031 16032 16033 16034 16035 16036 16037 16038 16039 16040 16041 16042 16043 16044 16045 16046 16047 16048 16049 16050 16051 16052 16053 16054 16055 16056 16057 16058 16059 16060 16061 16062 16063 16064 16065 16066 16067 16068 16069 16070 16071 16072 16073 16074 16075 16076 16077 16078 16079 16080 16081 16082 16083 16084 16085 16086 16087 16088 16089 16090 16091 16092 16093 16094 16095 16096 16097 16098 16099 16100 16101 16102 16103 16104 16105 16106 16107 16108 16109 16110 16111 16112 16113 16114 16115 16116 16117 16118 16119 16120 16121 16122 16123 16124 16125 16126 16127 16128 16129 16130 16131 16132 16133 16134 16135 16136 16137 16138 16139 16140 16141 16142 16143 16144 16145 16146 16147 16148 16149 16150 16151 16152 16153 16154 16155 16156 16157 16158 16159 16160 16161 16162 16163 16164 16165 16166 16167 16168 16169 16170 16171 16172 16173 16174 16175 16176 16177 16178 16179 16180 16181 16182 16183 16184 16185 16186 16187 16188 16189 16190 16191 16192 16193 16194 16195 16196 16197 16198 16199 16200 16201 16202 16203 16204 16205 16206 16207 16208 16209 16210 16211 16212 16213 16214 16215 16216 16217 16218 16219 16220 16221 16222 16223 16224 16225 16226 16227 16228 16229 16230 16231 16232 16233 16234 16235 16236 16237 16238 16239 16240 16241 16242 16243 16244 16245 16246 16247 16248 16249 16250 16251 16252 16253 16254 16255 16256 16257 16258 16259 16260 16261 16262 16263 16264 16265 16266 16267 16268 16269 16270 16271 16272 16273 16274 16275 16276 16277 16278 16279 16280 16281 16282 16283 16284 16285 16286 16287 16288 16289 16290 16291 16292 16293 16294 16295 16296 16297 16298 16299 16300 16301 16302 16303 16304 16305 16306 16307 16308 16309 16310 16311 16312 16313 16314 16315 16316 16317 16318 16319 16320 16321 16322 16323 16324 16325 16326 16327 16328 16329 16330 16331 16332 16333 16334 16335 16336 16337 16338 16339 16340 16341 16342 16343 16344 16345 16346 16347 16348 16349 16350 16351 16352 16353 16354 16355 16356 16357 16358 16359 16360 16361 16362 16363 16364 16365 16366 16367 16368 16369 16370 16371 16372 16373 16374 16375 16376 16377 16378 16379 16380 16381 16382 16383 16384 16385 16386 16387 16388 16389 16390 16391 16392 16393 16394 16395 16396 16397 16398 16399 16400 16401 16402 16403 16404 16405 16406 16407 16408 16409 16410 16411 16412 16413 16414 16415 16416 16417 16418 16419 16420 16421 16422 16423 16424 16425 16426 16427 16428 16429 16430 16431 16432 16433 16434 16435 16436 16437 16438 16439 16440 16441 16442 16443 16444 16445 16446 16447 16448 16449 16450 16451 16452 16453 16454 16455 16456 16457 16458 16459 16460 16461 16462 16463 16464 16465 16466 16467 16468 16469 16470 16471 16472 16473 16474 16475 16476 16477 16478 16479 16480 16481 16482 16483 16484 16485 16486 16487 16488 16489 16490 16491 16492 16493 16494 16495 16496 16497 16498 16499 16500 16501 16502 16503 16504 16505 16506 16507 16508 16509 16510 16511 16512 16513 16514 16515 16516 16517 16518 16519 16520 16521 16522 16523 16524 16525 16526 16527 16528 16529 16530 16531 16532 16533 16534 16535 16536 16537 16538 16539 16540 16541 16542 16543 16544 16545 16546 16547 16548 16549 16550 16551 16552 16553 16554 16555 16556 16557 16558 16559 16560 16561 16562 16563 16564 16565 16566 16567 16568 16569 16570 16571 16572 16573 16574 16575 16576 16577 16578 16579 16580 16581 16582 16583 16584 16585 16586 16587 16588 16589 16590 16591 16592 16593 16594 16595 16596 16597 16598 16599 16600 16601 16602 16603 16604 16605 16606 16607 16608 16609 16610 16611 16612 16613 16614 16615 16616 16617 16618 16619 16620 16621 16622 16623 16624 16625 16626 16627 16628 16629 16630 16631 16632 16633 16634 16635 16636 16637 16638 16639 16640 16641 16642 16643 16644 16645 16646 16647 16648 16649 16650 16651 16652 16653 16654 16655 16656 16657 16658 16659 16660 16661 16662 16663 16664 16665 16666 16667 16668 16669 16670 16671 16672 16673 16674 16675 16676 16677 16678 16679 16680 16681 16682 16683 16684 16685 16686 16687 16688 16689 16690 16691 16692 16693 16694 16695 16696 16697 16698 16699 16700 16701 16702 16703 16704 16705 16706 16707 16708 16709 16710 16711 16712 16713 16714 16715 16716 16717 16718 16719 16720 16721 16722 16723 16724 16725 16726 16727 16728 16729 16730 16731 16732 16733 16734 16735 16736 16737 16738 16739 16740 16741 16742 16743 16744 16745 16746 16747 16748 16749 16750 16751 16752 16753 16754 16755 16756 16757 16758 16759 16760 16761 16762 16763 16764 16765 16766 16767 16768 16769 16770 16771 16772 16773 16774 16775 16776 16777 16778 16779 16780 16781 16782 16783 16784 16785 16786 16787 16788 16789 16790 16791 16792 16793 16794 16795 16796 16797 16798 16799 16800 16801 16802 16803 16804 16805 16806 16807 16808 16809 16810 16811 16812 16813 16814 16815 16816 16817 16818 16819 16820 16821 16822 16823 16824 16825 16826 16827 16828 16829 16830 16831 16832 16833 16834 16835 16836 16837 16838 16839 16840 16841 16842 16843 16844 16845 16846 16847 16848 16849 16850 16851 16852 16853 16854 16855 16856 16857 16858 16859 16860 16861 16862 16863 16864 16865 16866 16867 16868 16869 16870 16871 16872 16873 16874 16875 16876 16877 16878 16879 16880 16881 16882 16883 16884 16885 16886 16887 16888 16889 16890 16891 16892 16893 16894 16895 16896 16897 16898 16899 16900 16901 16902 16903 16904 16905 16906 16907 16908 16909 16910 16911 16912 16913 16914 16915 16916 16917 16918 16919 16920 16921 16922 16923 16924 16925 16926 16927 16928 16929 16930 16931 16932 16933 16934 16935 16936 16937 16938 16939 16940 16941 16942 16943 16944 16945 16946 16947 16948 16949 16950 16951 16952 16953 16954 16955 16956 16957 16958 16959 16960 16961 16962 16963 16964 16965 16966 16967 16968 16969 16970 16971 16972 16973 16974 16975 16976 16977 16978 16979 16980 16981 16982 16983 16984 16985 16986 16987 16988 16989 16990 16991 16992 16993 16994 16995 16996 16997 16998 16999 17000 17001 17002 17003 17004 17005 17006 17007 17008 17009 17010 17011 17012 17013 17014 17015 17016 17017 17018 17019 17020 17021 17022 17023 17024 17025 17026 17027 17028 17029 17030 17031 17032 17033 17034 17035 17036 17037 17038 17039 17040 17041 17042 17043 17044 17045 17046 17047 17048 17049 17050 17051 17052 17053 17054 17055 17056 17057 17058 17059 17060 17061 17062 17063 17064 17065 17066 17067 17068 17069 17070 17071 17072 17073 17074 17075 17076 17077 17078 17079 17080 17081 17082 17083 17084 17085 17086 17087 17088 17089 17090 17091 17092 17093 17094 17095 17096 17097 17098 17099 17100 17101 17102 17103 17104 17105 17106 17107 17108 17109 17110 17111 17112 17113 17114 17115 17116 17117 17118 17119 17120 17121 17122 17123 17124 17125 17126 17127 17128 17129 17130 17131 17132 17133 17134 17135 17136 17137 17138 17139 17140 17141 17142 17143 17144 17145 17146 17147 17148 17149 17150 17151 17152 17153 17154 17155 17156 17157 17158 17159 17160 17161 17162 17163 17164 17165 17166 17167 17168 17169 17170 17171 17172 17173 17174 17175 17176 17177 17178 17179 17180 17181 17182 17183 17184 17185 17186 17187 17188 17189 17190 17191 17192 17193 17194 17195 17196 17197 17198 17199 17200 17201 17202 17203 17204 17205 17206 17207 17208 17209 17210 17211 17212 17213 17214 17215 17216 17217 17218 17219 17220 17221 17222 17223 17224 17225 17226 17227 17228 17229 17230 17231 17232 17233 17234 17235 17236 17237 17238 17239 17240 17241 17242 17243 17244 17245 17246 17247 17248 17249 17250 17251 17252 17253 17254 17255 17256 17257 17258 17259 17260 17261 17262 17263 17264 17265 17266 17267 17268 17269 17270 17271 17272 17273 17274 17275 17276 17277 17278 17279 17280 17281 17282 17283 17284 17285 17286 17287 17288 17289 17290 17291 17292 17293 17294 17295 17296 17297 17298 17299 17300 17301 17302 17303 17304 17305 17306 17307 17308 17309 17310 17311 17312 17313 17314 17315 17316 17317 17318 17319 17320 17321 17322 17323 17324 17325 17326 17327 17328 17329 17330 17331 17332 17333 17334 17335 17336 17337 17338 17339 17340 17341 17342 17343 17344 17345 17346 17347 17348 17349 17350 17351 17352 17353 17354 17355 17356 17357 17358 17359 17360 17361 17362 17363 17364 17365 17366 17367 17368 17369 17370 17371 17372 17373 17374 17375 17376 17377 17378 17379 17380 17381 17382 17383 17384 17385 17386 17387 17388 17389 17390 17391 17392 17393 17394 17395 17396 17397 17398 17399 17400 17401 17402 17403 17404 17405 17406 17407 17408 17409 17410 17411 17412 17413 17414 17415 17416 17417 17418 17419 17420 17421 17422 17423 17424 17425 17426 17427 17428 17429 17430 17431 17432 17433 17434 17435 17436 17437 17438 17439 17440 17441 17442 17443 17444 17445 17446 17447 17448 17449 17450 17451 17452 17453 17454 17455 17456 17457 17458 17459 17460 17461 17462 17463 17464 17465 17466 17467 17468 17469 17470 17471 17472 17473 17474 17475 17476 17477 17478 17479 17480 17481 17482 17483 17484 17485 17486 17487 17488 17489 17490 17491 17492 17493 17494 17495 17496 17497 17498 17499 17500 17501 17502 17503 17504 17505 17506 17507 17508 17509 17510 17511 17512 17513 17514 17515 17516 17517 17518 17519 17520 17521 17522 17523 17524 17525 17526 17527 17528 17529 17530 17531 17532 17533 17534 17535 17536 17537 17538 17539 17540 17541 17542 17543 17544 17545 17546 17547 17548 17549 17550 17551 17552 17553 17554 17555 17556 17557 17558 17559 17560 17561 17562 17563 17564 17565 17566 17567 17568 17569 17570 17571 17572 17573 17574 17575 17576 17577 17578 17579 17580 17581 17582 17583 17584 17585 17586 17587 17588 17589 17590 17591 17592 17593 17594 17595 17596 17597 17598 17599 17600 17601 17602 17603 17604 17605 17606 17607 17608 17609 17610 17611 17612 17613 17614 17615 17616 17617 17618 17619 17620 17621 17622 17623 17624 17625 17626 17627 17628 17629 17630 17631 17632 17633 17634 17635 17636 17637 17638 17639 17640 17641 17642 17643 17644 17645 17646 17647 17648 17649 17650 17651 17652 17653 17654 17655 17656 17657 17658 17659 17660 17661 17662 17663 17664 17665 17666 17667 17668 17669 17670 17671 17672 17673 17674 17675 17676 17677 17678 17679 17680 17681 17682 17683 17684 17685 17686 17687 17688 17689 17690 17691 17692 17693 17694 17695 17696 17697 17698 17699 17700 17701 17702 17703 17704 17705 17706 17707 17708 17709 17710 17711 17712 17713 17714 17715 17716 17717 17718 17719 17720 17721 17722 17723 17724 17725 17726 17727 17728 17729 17730 17731 17732 17733 17734 17735 17736 17737 17738 17739 17740 17741 17742 17743 17744 17745 17746 17747 17748 17749 17750 17751 17752 17753 17754 17755 17756 17757 17758 17759 17760 17761 17762 17763 17764 17765 17766 17767 17768 17769 17770 17771 17772 17773 17774 17775 17776 17777 17778 17779 17780 17781 17782 17783 17784 17785 17786 17787 17788 17789 17790 17791 17792 17793 17794 17795 17796 17797 17798 17799 17800 17801 17802 17803 17804 17805 17806 17807 17808 17809 17810 17811 17812 17813 17814 17815 17816 17817 17818 17819 17820 17821 17822 17823 17824 17825 17826 17827 17828 17829 17830 17831 17832 17833 17834 17835 17836 17837 17838 17839 17840 17841 17842 17843 17844 17845 17846 17847 17848 17849 17850 17851 17852 17853 17854 17855 17856 17857 17858 17859 17860 17861 17862 17863 17864 17865 17866 17867 17868 17869 17870 17871 17872 17873 17874 17875 17876 17877 17878 17879 17880 17881 17882 17883 17884 17885 17886 17887 17888 17889 17890 17891 17892 17893 17894 17895 17896 17897 17898 17899 17900 17901 17902 17903 17904 17905 17906 17907 17908 17909 17910 17911 17912 17913 17914 17915 17916 17917 17918 17919 17920 17921 17922 17923 17924 17925 17926 17927 17928 17929 17930 17931 17932 17933 17934 17935 17936 17937 17938 17939 17940 17941 17942 17943 17944 17945 17946 17947 17948 17949 17950 17951 17952 17953 17954 17955 17956 17957 17958 17959 17960 17961 17962 17963 17964 17965 17966 17967 17968 17969 17970 17971 17972 17973 17974 17975 17976 17977 17978 17979 17980 17981 17982 17983 17984 17985 17986 17987 17988 17989 17990 17991 17992 17993 17994 17995 17996 17997 17998 17999 18000 18001 18002 18003 18004 18005 18006 18007 18008 18009 18010 18011 18012 18013 18014 18015 18016 18017 18018 18019 18020 18021 18022 18023 18024 18025 18026 18027 18028 18029 18030 18031 18032 18033 18034 18035 18036 18037 18038 18039 18040 18041 18042 18043 18044 18045 18046 18047 18048 18049 18050 18051 18052 18053 18054 18055 18056 18057 18058 18059 18060 18061 18062 18063 18064 18065 18066 18067 18068 18069 18070 18071 18072 18073 18074 18075 18076 18077 18078 18079 18080 18081 18082 18083 18084 18085 18086 18087 18088 18089 18090 18091 18092 18093 18094 18095 18096 18097 18098 18099 18100 18101 18102 18103 18104 18105 18106 18107 18108 18109 18110 18111 18112 18113 18114 18115 18116 18117 18118 18119 18120 18121 18122 18123 18124 18125 18126 18127 18128 18129 18130 18131 18132 18133 18134 18135 18136 18137 18138 18139 18140 18141 18142 18143 18144 18145 18146 18147 18148 18149 18150 18151 18152 18153 18154 18155 18156 18157 18158 18159 18160 18161 18162 18163 18164 18165 18166 18167 18168 18169 18170 18171 18172 18173 18174 18175 18176 18177 18178 18179 18180 18181 18182 18183 18184 18185 18186 18187 18188 18189 18190 18191 18192 18193 18194 18195 18196 18197 18198 18199 18200 18201 18202 18203 18204 18205 18206 18207 18208 18209 18210 18211 18212 18213 18214 18215 18216 18217 18218 18219 18220 18221 18222 18223 18224 18225 18226 18227 18228 18229 18230 18231 18232 18233 18234 18235 18236 18237 18238 18239 18240 18241 18242 18243 18244 18245 18246 18247 18248 18249 18250 18251 18252 18253 18254 18255 18256 18257 18258 18259 18260 18261 18262 18263 18264 18265 18266 18267 18268 18269 18270 18271 18272 18273 18274 18275 18276 18277 18278 18279 18280 18281 18282 18283 18284 18285 18286 18287 18288 18289 18290 18291 18292 18293 18294 18295 18296 18297 18298 18299 18300 18301 18302 18303 18304 18305 18306 18307 18308 18309 18310 18311 18312 18313 18314 18315 18316 18317 18318 18319 18320 18321 18322 18323 18324 18325 18326 18327 18328 18329 18330 18331 18332 18333 18334 18335 18336 18337 18338 18339 18340 18341 18342 18343 18344 18345 18346 18347 18348 18349 18350 18351 18352 18353 18354 18355 18356 18357 18358 18359 18360 18361 18362 18363 18364 18365 18366 18367 18368 18369 18370 18371 18372 18373 18374 18375 18376 18377 18378 18379 18380 18381 18382 18383 18384 18385 18386 18387 18388 18389 18390 18391 18392 18393 18394 18395 18396 18397 18398 18399 18400 18401 18402 18403 18404 18405 18406 18407 18408 18409 18410 18411 18412 18413 18414 18415 18416 18417 18418 18419 18420 18421 18422 18423 18424 18425 18426 18427 18428 18429 18430 18431 18432 18433 18434 18435 18436 18437 18438 18439 18440 18441 18442 18443 18444 18445 18446 18447 18448 18449 18450 18451 18452 18453 18454 18455 18456 18457 18458 18459 18460 18461 18462 18463 18464 18465 18466 18467 18468 18469 18470 18471 18472 18473 18474 18475 18476 18477 18478 18479 18480 18481 18482 18483 18484 18485 18486 18487 18488 18489 18490 18491 18492 18493 18494 18495 18496 18497 18498 18499 18500 18501 18502 18503 18504 18505 18506 18507 18508 18509 18510 18511 18512 18513 18514 18515 18516 18517 18518 18519 18520 18521 18522 18523 18524 18525 18526 18527 18528 18529 18530 18531 18532 18533 18534 18535 18536 18537 18538 18539 18540 18541 18542 18543 18544 18545 18546 18547 18548 18549 18550 18551 18552 18553 18554 18555 18556 18557 18558 18559 18560 18561 18562 18563 18564 18565 18566 18567 18568 18569 18570 18571 18572 18573 18574 18575 18576 18577 18578 18579 18580 18581 18582 18583 18584 18585 18586 18587 18588 18589 18590 18591 18592 18593 18594 18595 18596 18597 18598 18599 18600 18601 18602 18603 18604 18605 18606 18607 18608 18609 18610 18611 18612 18613 18614 18615 18616 18617 18618 18619 18620 18621 18622 18623 18624 18625 18626 18627 18628 18629 18630 18631 18632 18633 18634 18635 18636 18637 18638 18639 18640 18641 18642 18643 18644 18645 18646 18647 18648 18649 18650 18651 18652 18653 18654 18655 18656 18657 18658 18659 18660 18661 18662 18663 18664 18665 18666 18667 18668 18669 18670 18671 18672 18673 18674 18675 18676 18677 18678 18679 18680 18681 18682 18683 18684 18685 18686 18687 18688 18689 18690 18691 18692 18693 18694 18695 18696 18697 18698 18699 18700 18701 18702 18703 18704 18705 18706 18707 18708 18709 18710 18711 18712 18713 18714 18715 18716 18717 18718 18719 18720 18721 18722 18723 18724 18725 18726 18727 18728 18729 18730 18731 18732 18733 18734 18735 18736 18737 18738 18739 18740 18741 18742 18743 18744 18745 18746 18747 18748 18749 18750 18751 18752 18753 18754 18755 18756 18757 18758 18759 18760 18761 18762 18763 18764 18765 18766 18767 18768 18769 18770 18771 18772 18773 18774 18775 18776 18777 18778 18779 18780 18781 18782 18783 18784 18785 18786 18787 18788 18789 18790 18791 18792 18793 18794 18795 18796 18797 18798 18799 18800 18801 18802 18803 18804 18805 18806 18807 18808 18809 18810 18811 18812 18813 18814 18815 18816 18817 18818 18819 18820 18821 18822 18823 18824 18825 18826 18827 18828 18829 18830 18831 18832 18833 18834 18835 18836 18837 18838 18839 18840 18841 18842 18843 18844 18845 18846 18847 18848 18849 18850 18851 18852 18853 18854 18855 18856 18857 18858 18859 18860 18861 18862 18863 18864 18865 18866 18867 18868 18869 18870 18871 18872 18873 18874 18875 18876 18877 18878 18879 18880 18881 18882 18883 18884 18885 18886 18887 18888 18889 18890 18891 18892 18893 18894 18895 18896 18897 18898 18899 18900 18901 18902 18903 18904 18905 18906 18907 18908 18909 18910 18911 18912 18913 18914 18915 18916 18917 18918 18919 18920 18921 18922 18923 18924 18925 18926 18927 18928 18929 18930 18931 18932 18933 18934 18935 18936 18937 18938 18939 18940 18941 18942 18943 18944 18945 18946 18947 18948 18949 18950 18951 18952 18953 18954 18955 18956 18957 18958 18959 18960 18961 18962 18963 18964 18965 18966 18967 18968 18969 18970 18971 18972 18973 18974 18975 18976 18977 18978 18979 18980 18981 18982 18983 18984 18985 18986 18987 18988 18989 18990 18991 18992 18993 18994 18995 18996 18997 18998 18999 19000 19001 19002 19003 19004 19005 19006 19007 19008 19009 19010 19011 19012 19013 19014 19015 19016 19017 19018 19019 19020 19021 19022 19023 19024 19025 19026 19027 19028 19029 19030 19031 19032 19033 19034 19035 19036 19037 19038 19039 19040 19041 19042 19043 19044 19045 19046 19047 19048 19049 19050 19051 19052 19053 19054 19055 19056 19057 19058 19059 19060 19061 19062 19063 19064 19065 19066 19067 19068 19069 19070 19071 19072 19073 19074 19075 19076 19077 19078 19079 19080 19081 19082 19083 19084 19085 19086 19087 19088 19089 19090 19091 19092 19093 19094 19095 19096 19097 19098 19099 19100 19101 19102 19103 19104 19105 19106 19107 19108 19109 19110 19111 19112 19113 19114 19115 19116 19117 19118 19119 19120 19121 19122 19123 19124 19125 19126 19127 19128 19129 19130 19131 19132 19133 19134 19135 19136 19137 19138 19139 19140 19141 19142 19143 19144 19145 19146 19147 19148 19149 19150 19151 19152 19153 19154 19155 19156 19157 19158 19159 19160 19161 19162 19163 19164 19165 19166 19167 19168 19169 19170 19171 19172 19173 19174 19175 19176 19177 19178 19179 19180 19181 19182 19183 19184 19185 19186 19187 19188 19189 19190 19191 19192 19193 19194 19195 19196 19197 19198 19199 19200 19201 19202 19203 19204 19205 19206 19207 19208 19209 19210 19211 19212 19213 19214 19215 19216 19217 19218 19219 19220 19221 19222 19223 19224 19225 19226 19227 19228 19229 19230 19231 19232 19233 19234 19235 19236 19237 19238 19239 19240 19241 19242 19243 19244 19245 19246 19247 19248 19249 19250 19251 19252 19253 19254 19255 19256 19257 19258 19259 19260 19261 19262 19263 19264 19265 19266 19267 19268 19269 19270 19271 19272 19273 19274 19275 19276 19277 19278 19279 19280 19281 19282 19283 19284 19285 19286 19287 19288 19289 19290 19291 19292 19293 19294 19295 19296 19297 19298 19299 19300 19301 19302 19303 19304 19305 19306 19307 19308 19309 19310 19311 19312 19313 19314 19315 19316 19317 19318 19319 19320 19321 19322 19323 19324 19325 19326 19327 19328 19329 19330 19331 19332 19333 19334 19335 19336 19337 19338 19339 19340 19341 19342 19343 19344 19345 19346 19347 19348 19349 19350 19351 19352 19353 19354 19355 19356 19357 19358 19359 19360 19361 19362 19363 19364 19365 19366 19367 19368 19369 19370 19371 19372 19373 19374 19375 19376 19377 19378 19379 19380 19381 19382 19383 19384 19385 19386 19387 19388 19389 19390 19391 19392 19393 19394 19395 19396 19397 19398 19399 19400 19401 19402 19403 19404 19405 19406 19407 19408 19409 19410 19411 19412 19413 19414 19415 19416 19417 19418 19419 19420 19421 19422 19423 19424 19425 19426 19427 19428 19429 19430 19431 19432 19433 19434 19435 19436 19437 19438 19439 19440 19441 19442 19443 19444 19445 19446 19447 19448 19449 19450 19451 19452 19453 19454 19455 19456 19457 19458 19459 19460 19461 19462 19463 19464 19465 19466 19467 19468 19469 19470 19471 19472 19473 19474 19475 19476 19477 19478 19479 19480 19481 19482 19483 19484 19485 19486 19487 19488 19489 19490 19491 19492 19493 19494 19495 19496 19497 19498 19499 19500 19501 19502 19503 19504 19505 19506 19507 19508 19509 19510 19511 19512 19513 19514 19515 19516 19517 19518 19519 19520 19521 19522 19523 19524 19525 19526 19527 19528 19529 19530 19531 19532 19533 19534 19535 19536 19537 19538 19539 19540 19541 19542 19543 19544 19545 19546 19547 19548 19549 19550 19551 19552 19553 19554 19555 19556 19557 19558 19559 19560 19561 19562 19563 19564 19565 19566 19567 19568 19569 19570 19571 19572 19573 19574 19575 19576 19577 19578 19579 19580 19581 19582 19583 19584 19585 19586 19587 19588 19589 19590 19591 19592 19593 19594 19595 19596 19597 19598 19599 19600 19601 19602 19603 19604 19605 19606 19607 19608 19609 19610 19611 19612 19613 19614 19615 19616 19617 19618 19619 19620 19621 19622 19623 19624 19625 19626 19627 19628 19629 19630 19631 19632 19633 19634 19635 19636 19637 19638 19639 19640 19641 19642 19643 19644 19645 19646 19647 19648 19649 19650 19651 19652 19653 19654 19655 19656 19657 19658 19659 19660 19661 19662 19663 19664 19665 19666 19667 19668 19669 19670 19671 19672 19673 19674 19675 19676 19677 19678 19679 19680 19681 19682 19683 19684 19685 19686 19687 19688 19689 19690 19691 19692 19693 19694 19695 19696 19697 19698 19699 19700 19701 19702 19703 19704 19705 19706 19707 19708 19709 19710 19711 19712 19713 19714 19715 19716 19717 19718 19719 19720 19721 19722 19723 19724 19725 19726 19727 19728 19729 19730 19731 19732 19733 19734 19735 19736 19737 19738 19739 19740 19741 19742 19743 19744 19745 19746 19747 19748 19749 19750 19751 19752 19753 19754 19755 19756 19757 19758 19759 19760 19761 19762 19763 19764 19765 19766 19767 19768 19769 19770 19771 19772 19773 19774 19775 19776 19777 19778 19779 19780 19781 19782 19783 19784 19785 19786 19787 19788 19789 19790 19791 19792 19793 19794 19795 19796 19797 19798 19799 19800 19801 19802 19803 19804 19805 19806 19807 19808 19809 19810 19811 19812 19813 19814 19815 19816 19817 19818 19819 19820 19821 19822 19823 19824 19825 19826 19827 19828 19829 19830 19831 19832 19833 19834 19835 19836 19837 19838 19839 19840 19841 19842 19843 19844 19845 19846 19847 19848 19849 19850 19851 19852 19853 19854 19855 19856 19857 19858 19859 19860 19861 19862 19863 19864 19865 19866 19867 19868 19869 19870 19871 19872 19873 19874 19875 19876 19877 19878 19879 19880 19881 19882 19883 19884 19885 19886 19887 19888 19889 19890 19891 19892 19893 19894 19895 19896 19897 19898 19899 19900 19901 19902 19903 19904 19905 19906 19907 19908 19909 19910 19911 19912 19913 19914 19915 19916 19917 19918 19919 19920 19921 19922 19923 19924 19925 19926 19927 19928 19929 19930 19931 19932 19933 19934 19935 19936 19937 19938 19939 19940 19941 19942 19943 19944 19945 19946 19947 19948 19949 19950 19951 19952 19953 19954 19955 19956 19957 19958 19959 19960 19961 19962 19963 19964 19965 19966 19967 19968 19969 19970 19971 19972 19973 19974 19975 19976 19977 19978 19979 19980 19981 19982 19983 19984 19985 19986 19987 19988 19989 19990 19991 19992 19993 19994 19995 19996 19997 19998 19999 20000 20001 20002 20003 20004 20005 20006 20007 20008 20009 20010 20011 20012 20013 20014 20015 20016 20017 20018 20019 20020 20021 20022 20023 20024 20025 20026 20027 20028 20029 20030 20031 20032 20033 20034 20035 20036 20037 20038 20039 20040 20041 20042 20043 20044 20045 20046 20047 20048 20049 20050 20051 20052 20053 20054 20055 20056 20057 20058 20059 20060 20061 20062 20063 20064 20065 20066 20067 20068 20069 20070 20071 20072 20073 20074 20075 20076 20077 20078 20079 20080 20081 20082 20083 20084 20085 20086 20087 20088 20089 20090 20091 20092 20093 20094 20095 20096 20097 20098 20099 20100 20101 20102 20103 20104 20105 20106 20107 20108 20109 20110 20111 20112 20113 20114 20115 20116 20117 20118 20119 20120 20121 20122 20123 20124 20125 20126 20127 20128 20129 20130 20131 20132 20133 20134 20135 20136 20137 20138 20139 20140 20141 20142 20143 20144 20145 20146 20147 20148 20149 20150 20151 20152 20153 20154 20155 20156 20157 20158 20159 20160 20161 20162 20163 20164 20165 20166 20167 20168 20169 20170 20171 20172 20173 20174 20175 20176 20177 20178 20179 20180 20181 20182 20183 20184 20185 20186 20187 20188 20189 20190 20191 20192 20193 20194 20195 20196 20197 20198 20199 20200 20201 20202 20203 20204 20205 20206 20207 20208 20209 20210 20211 20212 20213 20214 20215 20216 20217 20218 20219 20220 20221 20222 20223 20224 20225 20226 20227 20228 20229 20230 20231 20232 20233 20234 20235 20236 20237 20238 20239 20240 20241 20242 20243 20244 20245 20246 20247 20248 20249 20250 20251 20252 20253 20254 20255 20256 20257 20258 20259 20260 20261 20262 20263 20264 20265 20266 20267 20268 20269 20270 20271 20272 20273 20274 20275 20276 20277 20278 20279 20280 20281 20282 20283 20284 20285 20286 20287 20288 20289 20290 20291 20292 20293 20294 20295 20296 20297 20298 20299 20300 20301 20302 20303 20304 20305 20306 20307 20308 20309 20310 20311 20312 20313 20314 20315 20316 20317 20318 20319 20320 20321 20322 20323 20324 20325 20326 20327 20328 20329 20330 20331 20332 20333 20334 20335 20336 20337 20338 20339 20340 20341 20342 20343 20344 20345 20346 20347 20348 20349 20350 20351 20352 20353 20354 20355 20356 20357 20358 20359 20360 20361 20362 20363 20364 20365 20366 20367 20368 20369 20370 20371 20372 20373 20374 20375 20376 20377 20378 20379 20380 20381 20382 20383 20384 20385 20386 20387 20388 20389 20390 20391 20392 20393 20394 20395 20396 20397 20398 20399 20400 20401 20402 20403 20404 20405 20406 20407 20408 20409 20410 20411 20412 20413 20414 20415 20416 20417 20418 20419 20420 20421 20422 20423 20424 20425 20426 20427 20428 20429 20430 20431 20432 20433 20434 20435 20436 20437 20438 20439 20440 20441 20442 20443 20444 20445 20446 20447 20448 20449 20450 20451 20452 20453 20454 20455 20456 20457 20458 20459 20460 20461 20462 20463 20464 20465 20466 20467 20468 20469 20470 20471 20472 20473 20474 20475 20476 20477 20478 20479 20480 20481 20482 20483 20484 20485 20486 20487 20488 20489 20490 20491 20492 20493 20494 20495 20496 20497 20498 20499 20500 20501 20502 20503 20504 20505 20506 20507 20508 20509 20510 20511 20512 20513 20514 20515 20516 20517 20518 20519 20520 20521 20522 20523 20524 20525 20526 20527 20528 20529 20530 20531 20532 20533 20534 20535 20536 20537 20538 20539 20540 20541 20542 20543 20544 20545 20546 20547 20548 20549 20550 20551 20552 20553 20554 20555 20556 20557 20558 20559 20560 20561 20562 20563 20564 20565 20566 20567 20568 20569 20570 20571 20572 20573 20574 20575 20576 20577 20578 20579 20580 20581 20582 20583 20584 20585 20586 20587 20588 20589 20590 20591 20592 20593 20594 20595 20596 20597 20598 20599 20600 20601 20602 20603 20604 20605 20606 20607 20608 20609 20610 20611 20612 20613 20614 20615 20616 20617 20618 20619 20620 20621 20622 20623 20624 20625 20626 20627 20628 20629 20630 20631 20632 20633 20634 20635 20636 20637 20638 20639 20640 20641 20642 20643 20644 20645 20646 20647 20648 20649 20650 20651 20652 20653 20654 20655 20656 20657 20658 20659 20660 20661 20662 20663 20664 20665 20666 20667 20668 20669 20670 20671 20672 20673 20674 20675 20676 20677 20678 20679 20680 20681 20682 20683 20684 20685 20686 20687 20688 20689 20690 20691 20692 20693 20694 20695 20696 20697 20698 20699 20700 20701 20702 20703 20704 20705 20706 20707 20708 20709 20710 20711 20712 20713 20714 20715 20716 20717 20718 20719 20720 20721 20722 20723 20724 20725 20726 20727 20728 20729 20730 20731 20732 20733 20734 20735 20736 20737 20738 20739 20740 20741 20742 20743 20744 20745 20746 20747 20748 20749 20750 20751 20752 20753 20754 20755 20756 20757 20758 20759 20760 20761 20762 20763 20764 20765 20766 20767 20768 20769 20770 20771 20772 20773 20774 20775 20776 20777 20778 20779 20780 20781 20782 20783 20784 20785 20786 20787 20788 20789 20790 20791 20792 20793 20794 20795 20796 20797 20798 20799 20800 20801 20802 20803 20804 20805 20806 20807 20808 20809 20810 20811 20812 20813 20814 20815 20816 20817 20818 20819 20820 20821 20822 20823 20824 20825 20826 20827 20828 20829 20830 20831 20832 20833 20834 20835 20836 20837 20838 20839 20840 20841 20842 20843 20844 20845 20846 20847 20848 20849 20850 20851 20852 20853 20854 20855 20856 20857 20858 20859 20860 20861 20862 20863 20864 20865 20866 20867 20868 20869 20870 20871 20872 20873 20874 20875 20876 20877 20878 20879 20880 20881 20882 20883 20884 20885 20886 20887 20888 20889 20890 20891 20892 20893 20894 20895 20896 20897 20898 20899 20900 20901 20902 20903 20904 20905 20906 20907 20908 20909 20910 20911 20912 20913 20914 20915 20916 20917 20918 20919 20920 20921 20922 20923 20924 20925 20926 20927 20928 20929 20930 20931 20932 20933 20934 20935 20936 20937 20938 20939 20940 20941 20942 20943 20944 20945 20946 20947 20948 20949 20950 20951 20952 20953 20954 20955 20956 20957 20958 20959 20960 20961 20962 20963 20964 20965 20966 20967 20968 20969 20970 20971 20972 20973 20974 20975 20976 20977 20978 20979 20980 20981 20982 20983 20984 20985 20986 20987 20988 20989 20990 20991 20992 20993 20994 20995 20996 20997 20998 20999 21000 21001 21002 21003 21004 21005 21006 21007 21008 21009 21010 21011 21012 21013 21014 21015 21016 21017 21018 21019 21020 21021 21022 21023 21024 21025 21026 21027 21028 21029 21030 21031 21032 21033 21034 21035 21036 21037 21038 21039 21040 21041 21042 21043 21044 21045 21046 21047 21048 21049 21050 21051 21052 21053 21054 21055 21056 21057 21058 21059 21060 21061 21062 21063 21064 21065 21066 21067 21068 21069 21070 21071 21072 21073 21074 21075 21076 21077 21078 21079 21080 21081 21082 21083 21084 21085 21086 21087 21088 21089 21090 21091 21092 21093 21094 21095 21096 21097 21098 21099 21100 21101 21102 21103 21104 21105 21106 21107 21108 21109 21110 21111 21112 21113 21114 21115 21116 21117 21118 21119 21120 21121 21122 21123 21124 21125 21126 21127 21128 21129 21130 21131 21132 21133 21134 21135 21136 21137 21138 21139 21140 21141 21142 21143 21144 21145 21146 21147 21148 21149 21150 21151 21152 21153 21154 21155 21156 21157 21158 21159 21160 21161 21162 21163 21164 21165 21166 21167 21168 21169 21170 21171 21172 21173 21174 21175 21176 21177 21178 21179 21180 21181 21182 21183 21184 21185 21186 21187 21188 21189 21190 21191 21192 21193 21194 21195 21196 21197 21198 21199 21200 21201 21202 21203 21204 21205 21206 21207 21208 21209 21210 21211 21212 21213 21214 21215 21216 21217 21218 21219 21220 21221 21222 21223 21224 21225 21226 21227 21228 21229 21230 21231 21232 21233 21234 21235 21236 21237 21238 21239 21240 21241 21242 21243 21244 21245 21246 21247 21248 21249 21250 21251 21252 21253 21254 21255 21256 21257 21258 21259 21260 21261 21262 21263 21264 21265 21266 21267 21268 21269 21270 21271 21272 21273 21274 21275 21276 21277 21278 21279 21280 21281 21282 21283 21284 21285 21286 21287 21288 21289 21290 21291 21292 21293 21294 21295 21296 21297 21298 21299 21300 21301 21302 21303 21304 21305 21306 21307 21308 21309 21310 21311 21312 21313 21314 21315 21316 21317 21318 21319 21320 21321 21322 21323 21324 21325 21326 21327 21328 21329 21330 21331 21332 21333 21334 21335 21336 21337 21338 21339 21340 21341 21342 21343 21344 21345 21346 21347 21348 21349 21350 21351 21352 21353 21354 21355 21356 21357 21358 21359 21360 21361 21362 21363 21364 21365 21366 21367 21368 21369 21370 21371 21372 21373 21374 21375 21376 21377 21378 21379 21380 21381 21382 21383 21384 21385 21386 21387 21388 21389 21390 21391 21392 21393 21394 21395 21396 21397 21398 21399 21400 21401 21402 21403 21404 21405 21406 21407 21408 21409 21410 21411 21412 21413 21414 21415 21416 21417 21418 21419 21420 21421 21422 21423 21424 21425 21426 21427 21428 21429 21430 21431 21432 21433 21434 21435 21436 21437 21438 21439 21440 21441 21442 21443 21444 21445 21446 21447 21448 21449 21450 21451 21452 21453 21454 21455 21456 21457 21458 21459 21460 21461 21462 21463 21464 21465 21466 21467 21468 21469 21470 21471 21472 21473 21474 21475 21476 21477 21478 21479 21480 21481 21482 21483 21484 21485 21486 21487 21488 21489 21490 21491 21492 21493 21494 21495 21496 21497 21498 21499 21500 21501 21502 21503 21504 21505 21506 21507 21508 21509 21510 21511 21512 21513 21514 21515 21516 21517 21518 21519 21520 21521 21522 21523 21524 21525 21526 21527 21528 21529 21530 21531 21532 21533 21534 21535 21536 21537 21538 21539 21540 21541 21542 21543 21544 21545 21546 21547 21548 21549 21550 21551 21552 21553 21554 21555 21556 21557 21558 21559 21560 21561 21562 21563 21564 21565 21566 21567 21568 21569 21570 21571 21572 21573 21574 21575 21576 21577 21578 21579 21580 21581 21582 21583 21584 21585 21586 21587 21588 21589 21590 21591 21592 21593 21594 21595 21596 21597 21598 21599 21600 21601 21602 21603 21604 21605 21606 21607 21608 21609 21610 21611 21612 21613 21614 21615 21616 21617 21618 21619 21620 21621 21622 21623 21624 21625 21626 21627 21628 21629 21630 21631 21632 21633 21634 21635 21636 21637 21638 21639 21640 21641 21642 21643 21644 21645 21646 21647 21648 21649 21650 21651 21652 21653 21654 21655 21656 21657 21658 21659 21660 21661 21662 21663 21664 21665 21666 21667 21668 21669 21670 21671 21672 21673 21674 21675 21676 21677 21678 21679 21680 21681 21682 21683 21684 21685 21686 21687 21688 21689 21690 21691 21692 21693 21694 21695 21696 21697 21698 21699 21700 21701 21702 21703 21704 21705 21706 21707 21708 21709 21710 21711 21712 21713 21714 21715 21716 21717 21718 21719 21720 21721 21722 21723 21724 21725 21726 21727 21728 21729 21730 21731 21732 21733 21734 21735 21736 21737 21738 21739 21740 21741 21742 21743 21744 21745 21746 21747 21748 21749 21750 21751 21752 21753 21754 21755 21756 21757 21758 21759 21760 21761 21762 21763 21764 21765 21766 21767 21768 21769 21770 21771 21772 21773 21774 21775 21776 21777 21778 21779 21780 21781 21782 21783 21784 21785 21786 21787 21788 21789 21790 21791 21792 21793 21794 21795 21796 21797 21798 21799 21800 21801 21802 21803 21804 21805 21806 21807 21808 21809 21810 21811 21812 21813 21814 21815 21816 21817 21818 21819 21820 21821 21822 21823 21824 21825 21826 21827 21828 21829 21830 21831 21832 21833 21834 21835 21836 21837 21838 21839 21840 21841 21842 21843 21844 21845 21846 21847 21848 21849 21850 21851 21852 21853 21854 21855 21856 21857 21858 21859 21860 21861 21862 21863 21864 21865 21866 21867 21868 21869 21870 21871 21872 21873 21874 21875 21876 21877 21878 21879 21880 21881 21882 21883 21884 21885 21886 21887 21888 21889 21890 21891 21892 21893 21894 21895 21896 21897 21898 21899 21900 21901 21902 21903 21904 21905 21906 21907 21908 21909 21910 21911 21912 21913 21914 21915 21916 21917 21918 21919 21920 21921 21922 21923 21924 21925 21926 21927 21928 21929 21930 21931 21932 21933 21934 21935 21936 21937 21938 21939 21940 21941 21942 21943 21944 21945 21946 21947 21948 21949 21950 21951 21952 21953 21954 21955 21956 21957 21958 21959 21960 21961 21962 21963 21964 21965 21966 21967 21968 21969 21970 21971 21972 21973 21974 21975 21976 21977 21978 21979 21980 21981 21982 21983 21984 21985 21986 21987 21988 21989 21990 21991 21992 21993 21994 21995 21996 21997 21998 21999 22000 22001 22002 22003 22004 22005 22006 22007 22008 22009 22010 22011 22012 22013 22014 22015 22016 22017 22018 22019 22020 22021 22022 22023 22024 22025 22026 22027 22028 22029 22030 22031 22032 22033 22034 22035 22036 22037 22038 22039 22040 22041 22042 22043 22044 22045 22046 22047 22048 22049 22050 22051 22052 22053 22054 22055 22056 22057 22058 22059 22060 22061 22062 22063 22064 22065 22066 22067 22068 22069 22070 22071 22072 22073 22074 22075 22076 22077 22078 22079 22080 22081 22082 22083 22084 22085 22086 22087 22088 22089 22090 22091 22092 22093 22094 22095 22096 22097 22098 22099 22100 22101 22102 22103 22104 22105 22106 22107 22108 22109 22110 22111 22112 22113 22114 22115 22116 22117 22118 22119 22120 22121 22122 22123 22124 22125 22126 22127 22128 22129 22130 22131 22132 22133 22134 22135 22136 22137 22138 22139 22140 22141 22142 22143 22144 22145 22146 22147 22148 22149 22150 22151 22152 22153 22154 22155 22156 22157 22158 22159 22160 22161 22162 22163 22164 22165 22166 22167 22168 22169 22170 22171 22172 22173 22174 22175 22176 22177 22178 22179 22180 22181 22182 22183 22184 22185 22186 22187 22188 22189 22190 22191 22192 22193 22194 22195 22196 22197 22198 22199 22200 22201 22202 22203 22204 22205 22206 22207 22208 22209 22210 22211 22212 22213 22214 22215 22216 22217 22218 22219 22220 22221 22222 22223 22224 22225 22226 22227 22228 22229 22230 22231 22232 22233 22234 22235 22236 22237 22238 22239 22240 22241 22242 22243 22244 22245 22246 22247 22248 22249 22250 22251 22252 22253 22254 22255 22256 22257 22258 22259 22260 22261 22262 22263 22264 22265 22266 22267 22268 22269 22270 22271 22272 22273 22274 22275 22276 22277 22278 22279 22280 22281 22282 22283 22284 22285 22286 22287 22288 22289 22290 22291 22292 22293 22294 22295 22296 22297 22298 22299 22300 22301 22302 22303 22304 22305 22306 22307 22308 22309 22310 22311 22312 22313 22314 22315 22316 22317 22318 22319 22320 22321 22322 22323 22324 22325 22326 22327 22328 22329 22330 22331 22332 22333 22334 22335 22336 22337 22338 22339 22340 22341 22342 22343 22344 22345 22346 22347 22348 22349 22350 22351 22352 22353 22354 22355 22356 22357 22358 22359 22360 22361 22362 22363 22364 22365 22366 22367 22368 22369 22370 22371 22372 22373 22374 22375 22376 22377 22378 22379 22380 22381 22382 22383 22384 22385 22386 22387 22388 22389 22390 22391 22392 22393 22394 22395 22396 22397 22398 22399 22400 22401 22402 22403 22404 22405 22406 22407 22408 22409 22410 22411 22412 22413 22414 22415 22416 22417 22418 22419 22420 22421 22422 22423 22424 22425 22426 22427 22428 22429 22430 22431 22432 22433 22434 22435 22436 22437 22438 22439 22440 22441 22442 22443 22444 22445 22446 22447 22448 22449 22450 22451 22452 22453 22454 22455 22456 22457 22458 22459 22460 22461 22462 22463 22464 22465 22466 22467 22468 22469 22470 22471 22472 22473 22474 22475 22476 22477 22478 22479 22480 22481 22482 22483 22484 22485 22486 22487 22488 22489 22490 22491 22492 22493 22494 22495 22496 22497 22498 22499 22500 22501 22502 22503 22504 22505 22506 22507 22508 22509 22510 22511 22512 22513 22514 22515 22516 22517 22518 22519 22520 22521 22522 22523 22524 22525 22526 22527 22528 22529 22530 22531 22532 22533 22534 22535 22536 22537 22538 22539 22540 22541 22542 22543 22544 22545 22546 22547 22548 22549 22550 22551 22552 22553 22554 22555 22556 22557 22558 22559 22560 22561 22562 22563 22564 22565 22566 22567 22568 22569 22570 22571 22572 22573 22574 22575 22576 22577 22578 22579 22580 22581 22582 22583 22584 22585 22586 22587 22588 22589 22590 22591 22592 22593 22594 22595 22596 22597 22598 22599 22600 22601 22602 22603 22604 22605 22606 22607 22608 22609 22610 22611 22612 22613 22614 22615 22616 22617 22618 22619 22620 22621 22622 22623 22624 22625 22626 22627 22628 22629 22630 22631 22632 22633 22634 22635 22636 22637 22638 22639 22640 22641 22642 22643 22644 22645 22646 22647 22648 22649 22650 22651 22652 22653 22654 22655 22656 22657 22658 22659 22660 22661 22662 22663 22664 22665 22666 22667 22668 22669 22670 22671 22672 22673 22674 22675 22676 22677 22678 22679 22680 22681 22682 22683 22684 22685 22686 22687 22688 22689 22690 22691 22692 22693 22694 22695 22696 22697 22698 22699 22700 22701 22702 22703 22704 22705 22706 22707 22708 22709 22710 22711 22712 22713 22714 22715 22716 22717 22718 22719 22720 22721 22722 22723 22724 22725 22726 22727 22728 22729 22730 22731 22732 22733 22734 22735 22736 22737 22738 22739 22740 22741 22742 22743 22744 22745 22746 22747 22748 22749 22750 22751 22752 22753 22754 22755 22756 22757 22758 22759 22760 22761 22762 22763 22764 22765 22766 22767 22768 22769 22770 22771 22772 22773 22774 22775 22776 22777 22778 22779 22780 22781 22782 22783 22784 22785 22786 22787 22788 22789 22790 22791 22792 22793 22794 22795 22796 22797 22798 22799 22800 22801 22802 22803 22804 22805 22806 22807 22808 22809 22810 22811 22812 22813 22814 22815 22816 22817 22818 22819 22820 22821 22822 22823 22824 22825 22826 22827 22828 22829 22830 22831 22832 22833 22834 22835 22836 22837 22838 22839 22840 22841 22842 22843 22844 22845 22846 22847 22848 22849 22850 22851 22852 22853 22854 22855 22856 22857 22858 22859 22860 22861 22862 22863 22864 22865 22866 22867 22868 22869 22870 22871 22872 22873 22874 22875 22876 22877 22878 22879 22880 22881 22882 22883 22884 22885 22886 22887 22888 22889 22890 22891 22892 22893 22894 22895 22896 22897 22898 22899 22900 22901 22902 22903 22904 22905 22906 22907 22908 22909 22910 22911 22912 22913 22914 22915 22916 22917 22918 22919 22920 22921 22922 22923 22924 22925 22926 22927 22928 22929 22930 22931 22932 22933 22934 22935 22936 22937 22938 22939 22940 22941 22942 22943 22944 22945 22946 22947 22948 22949 22950 22951 22952 22953 22954 22955 22956 22957 22958 22959 22960 22961 22962 22963 22964 22965 22966 22967 22968 22969 22970 22971 22972 22973 22974 22975 22976 22977 22978 22979 22980 22981 22982 22983 22984 22985 22986 22987 22988 22989 22990 22991 22992 22993 22994 22995 22996 22997 22998 22999 23000 23001 23002 23003 23004 23005 23006 23007 23008 23009 23010 23011 23012 23013 23014 23015 23016 23017 23018 23019 23020 23021 23022 23023 23024 23025 23026 23027 23028 23029 23030 23031 23032 23033 23034 23035 23036 23037 23038 23039 23040 23041 23042 23043 23044 23045 23046 23047 23048 23049 23050 23051 23052 23053 23054 23055 23056 23057 23058 23059 23060 23061 23062 23063 23064 23065 23066 23067 23068 23069 23070 23071 23072 23073 23074 23075 23076 23077 23078 23079 23080 23081 23082 23083 23084 23085 23086 23087 23088 23089 23090 23091 23092 23093 23094 23095 23096 23097 23098 23099 23100 23101 23102 23103 23104 23105 23106 23107 23108 23109 23110 23111 23112 23113 23114 23115 23116 23117 23118 23119 23120 23121 23122 23123 23124 23125 23126 23127 23128 23129 23130 23131 23132 23133 23134 23135 23136 23137 23138 23139 23140 23141 23142 23143 23144 23145 23146 23147 23148 23149 23150 23151 23152 23153 23154 23155 23156 23157 23158 23159 23160 23161 23162 23163 23164 23165 23166 23167 23168 23169 23170 23171 23172 23173 23174 23175 23176 23177 23178 23179 23180 23181 23182 23183 23184 23185 23186 23187 23188 23189 23190 23191 23192 23193 23194 23195 23196 23197 23198 23199 23200 23201 23202 23203 23204 23205 23206 23207 23208 23209 23210 23211 23212 23213 23214 23215 23216 23217 23218 23219 23220 23221 23222 23223 23224 23225 23226 23227 23228 23229 23230 23231 23232 23233 23234 23235 23236 23237 23238 23239 23240 23241 23242 23243 23244 23245 23246 23247 23248 23249 23250 23251 23252 23253 23254 23255 23256 23257 23258 23259 23260 23261 23262 23263 23264 23265 23266 23267 23268 23269 23270 23271 23272 23273 23274 23275 23276 23277 23278 23279 23280 23281 23282 23283 23284 23285 23286 23287 23288 23289 23290 23291 23292 23293 23294 23295 23296 23297 23298 23299 23300 23301 23302 23303 23304 23305 23306 23307 23308 23309 23310 23311 23312 23313 23314 23315 23316 23317 23318 23319 23320 23321 23322 23323 23324 23325 23326 23327 23328 23329 23330 23331 23332 23333 23334 23335 23336 23337 23338 23339 23340 23341 23342 23343 23344 23345 23346 23347 23348 23349 23350 23351 23352 23353 23354 23355 23356 23357 23358 23359 23360 23361 23362 23363 23364 23365 23366 23367 23368 23369 23370 23371 23372 23373 23374 23375 23376 23377 23378 23379 23380 23381 23382 23383 23384 23385 23386 23387 23388 23389 23390 23391 23392 23393 23394 23395 23396 23397 23398 23399 23400 23401 23402 23403 23404 23405 23406 23407 23408 23409 23410 23411 23412 23413 23414 23415 23416 23417 23418 23419 23420 23421 23422 23423 23424 23425 23426 23427 23428 23429 23430 23431 23432 23433 23434 23435 23436 23437 23438 23439 23440 23441 23442 23443 23444 23445 23446 23447 23448 23449 23450 23451 23452 23453 23454 23455 23456 23457 23458 23459 23460 23461 23462 23463 23464 23465 23466 23467 23468 23469 23470 23471 23472 23473 23474 23475 23476 23477 23478 23479 23480 23481 23482 23483 23484 23485 23486 23487 23488 23489 23490 23491 23492 23493 23494 23495 23496 23497 23498 23499 23500 23501 23502 23503 23504 23505 23506 23507 23508 23509 23510 23511 23512 23513 23514 23515 23516 23517 23518 23519 23520 23521 23522 23523 23524 23525 23526 23527 23528 23529 23530 23531 23532 23533 23534 23535 23536 23537 23538 23539 23540 23541 23542 23543 23544 23545 23546 23547 23548 23549 23550 23551 23552 23553 23554 23555 23556 23557 23558 23559 23560 23561 23562 23563 23564 23565 23566 23567 23568 23569 23570 23571 23572 23573 23574 23575 23576 23577 23578 23579 23580 23581 23582 23583 23584 23585 23586 23587 23588 23589 23590 23591 23592 23593 23594 23595 23596 23597 23598 23599 23600 23601 23602 23603 23604 23605 23606 23607 23608 23609 23610 23611 23612 23613 23614 23615 23616 23617 23618 23619 23620 23621 23622 23623 23624 23625 23626 23627 23628 23629 23630 23631 23632 23633 23634 23635 23636 23637 23638 23639 23640 23641 23642 23643 23644 23645 23646 23647 23648 23649 23650 23651 23652 23653 23654 23655 23656 23657 23658 23659 23660 23661 23662 23663 23664 23665 23666 23667 23668 23669 23670 23671 23672 23673 23674 23675 23676 23677 23678 23679 23680 23681 23682 23683 23684 23685 23686 23687 23688 23689 23690 23691 23692 23693 23694 23695 23696 23697 23698 23699 23700 23701 23702 23703 23704 23705 23706 23707 23708 23709 23710 23711 23712 23713 23714 23715 23716 23717 23718 23719 23720 23721 23722 23723 23724 23725 23726 23727 23728 23729 23730 23731 23732 23733 23734 23735 23736 23737 23738 23739 23740 23741 23742 23743 23744 23745 23746 23747 23748 23749 23750 23751 23752 23753 23754 23755 23756 23757 23758 23759 23760 23761 23762 23763 23764 23765 23766 23767 23768 23769 23770 23771 23772 23773 23774 23775 23776 23777 23778 23779 23780 23781 23782 23783 23784 23785 23786 23787 23788 23789 23790 23791 23792 23793 23794 23795 23796 23797 23798 23799 23800 23801 23802 23803 23804 23805 23806 23807 23808 23809 23810 23811 23812 23813 23814 23815 23816 23817 23818 23819 23820 23821 23822 23823 23824 23825 23826 23827 23828 23829 23830 23831 23832 23833 23834 23835 23836 23837 23838 23839 23840 23841 23842 23843 23844 23845 23846 23847 23848 23849 23850 23851 23852 23853 23854 23855 23856 23857 23858 23859 23860 23861 23862 23863 23864 23865 23866 23867 23868 23869 23870 23871 23872 23873 23874 23875 23876 23877 23878 23879 23880 23881 23882 23883 23884 23885 23886 23887 23888 23889 23890 23891 23892 23893 23894 23895 23896 23897 23898 23899 23900 23901 23902 23903 23904 23905 23906 23907 23908 23909 23910 23911 23912 23913 23914 23915 23916 23917 23918 23919 23920 23921 23922 23923 23924 23925 23926 23927 23928 23929 23930 23931 23932 23933 23934 23935 23936 23937 23938 23939 23940 23941 23942 23943 23944 23945 23946 23947 23948 23949 23950 23951 23952 23953 23954 23955 23956 23957 23958 23959 23960 23961 23962 23963 23964 23965 23966 23967 23968 23969 23970 23971 23972 23973 23974 23975 23976 23977 23978 23979 23980 23981 23982 23983 23984 23985 23986 23987 23988 23989 23990 23991 23992 23993 23994 23995 23996 23997 23998 23999 24000 24001 24002 24003 24004 24005 24006 24007 24008 24009 24010 24011 24012 24013 24014 24015 24016 24017 24018 24019 24020 24021 24022 24023 24024 24025 24026 24027 24028 24029 24030 24031 24032 24033 24034 24035 24036 24037 24038 24039 24040 24041 24042 24043 24044 24045 24046 24047 24048 24049 24050 24051 24052 24053 24054 24055 24056 24057 24058 24059 24060 24061 24062 24063 24064 24065 24066 24067 24068 24069 24070 24071 24072 24073 24074 24075 24076 24077 24078 24079 24080 24081 24082 24083 24084 24085 24086 24087 24088 24089 24090 24091 24092 24093 24094 24095 24096 24097 24098 24099 24100 24101 24102 24103 24104 24105 24106 24107 24108 24109 24110 24111 24112 24113 24114 24115 24116 24117 24118 24119 24120 24121 24122 24123 24124 24125 24126 24127 24128 24129 24130 24131 24132 24133 24134 24135 24136 24137 24138 24139 24140 24141 24142 24143 24144 24145 24146 24147 24148 24149 24150 24151 24152 24153 24154 24155 24156 24157 24158 24159 24160 24161 24162 24163 24164 24165 24166 24167 24168 24169 24170 24171 24172 24173 24174 24175 24176 24177 24178 24179 24180 24181 24182 24183 24184 24185 24186 24187 24188 24189 24190 24191 24192 24193 24194 24195 24196 24197 24198 24199 24200 24201 24202 24203 24204 24205 24206 24207 24208 24209 24210 24211 24212 24213 24214 24215 24216 24217 24218 24219 24220 24221 24222 24223 24224 24225 24226 24227 24228 24229 24230 24231 24232 24233 24234 24235 24236 24237 24238 24239 24240 24241 24242 24243 24244 24245 24246 24247 24248 24249 24250 24251 24252 24253 24254 24255 24256 24257 24258 24259 24260 24261 24262 24263 24264 24265 24266 24267 24268 24269 24270 24271 24272 24273 24274 24275 24276 24277 24278 24279 24280 24281 24282 24283 24284 24285 24286 24287 24288 24289 24290 24291 24292 24293 24294 24295 24296 24297 24298 24299 24300 24301 24302 24303 24304 24305 24306 24307 24308 24309 24310 24311 24312 24313 24314 24315 24316 24317 24318 24319 24320 24321 24322 24323 24324 24325 24326 24327 24328 24329 24330 24331 24332 24333 24334 24335 24336 24337 24338 24339 24340 24341 24342 24343 24344 24345 24346 24347 24348 24349 24350 24351 24352 24353 24354 24355 24356 24357 24358 24359 24360 24361 24362 24363 24364 24365 24366 24367 24368 24369 24370 24371 24372 24373 24374 24375 24376 24377 24378 24379 24380 24381 24382 24383 24384 24385 24386 24387 24388 24389 24390 24391 24392 24393 24394 24395 24396 24397 24398 24399 24400 24401 24402 24403 24404 24405 24406 24407 24408 24409 24410 24411 24412 24413 24414 24415 24416 24417 24418 24419 24420 24421 24422 24423 24424 24425 24426 24427 24428 24429 24430 24431 24432 24433 24434 24435 24436 24437 24438 24439 24440 24441 24442 24443 24444 24445 24446 24447 24448 24449 24450 24451 24452 24453 24454 24455 24456 24457 24458 24459 24460 24461 24462 24463 24464 24465 24466 24467 24468 24469 24470 24471 24472 24473 24474 24475 24476 24477 24478 24479 24480 24481 24482 24483 24484 24485 24486 24487 24488 24489 24490 24491 24492 24493 24494 24495 24496 24497 24498 24499 24500 24501 24502 24503 24504 24505 24506 24507 24508 24509 24510 24511 24512 24513 24514 24515 24516 24517 24518 24519 24520 24521 24522 24523 24524 24525 24526 24527 24528 24529 24530 24531 24532 24533 24534 24535 24536 24537 24538 24539 24540 24541 24542 24543 24544 24545 24546 24547 24548 24549 24550 24551 24552 24553 24554 24555 24556 24557 24558 24559 24560 24561 24562 24563 24564 24565 24566 24567 24568 24569 24570 24571 24572 24573 24574 24575 24576 24577 24578 24579 24580 24581 24582 24583 24584 24585 24586 24587 24588 24589 24590 24591 24592 24593 24594 24595 24596 24597 24598 24599 24600 24601 24602 24603 24604 24605 24606 24607 24608 24609 24610 24611 24612 24613 24614 24615 24616 24617 24618 24619 24620 24621 24622 24623 24624 24625 24626 24627 24628 24629 24630 24631 24632 24633 24634 24635 24636 24637 24638 24639 24640 24641 24642 24643 24644 24645 24646 24647 24648 24649 24650 24651 24652 24653 24654 24655 24656 24657 24658 24659 24660 24661 24662 24663 24664 24665 24666 24667 24668 24669 24670 24671 24672 24673 24674 24675 24676 24677 24678 24679 24680 24681 24682 24683 24684 24685 24686 24687 24688 24689 24690 24691 24692 24693 24694 24695 24696 24697 24698 24699 24700 24701 24702 24703 24704 24705 24706 24707 24708 24709 24710 24711 24712 24713 24714 24715 24716 24717 24718 24719 24720 24721 24722 24723 24724 24725 24726 24727 24728 24729 24730 24731 24732 24733 24734 24735 24736 24737 24738 24739 24740 24741 24742 24743 24744 24745 24746 24747 24748 24749 24750 24751 24752 24753 24754 24755 24756 24757 24758 24759 24760 24761 24762 24763 24764 24765 24766 24767 24768 24769 24770 24771 24772 24773 24774 24775 24776 24777 24778 24779 24780 24781 24782 24783 24784 24785 24786 24787 24788 24789 24790 24791 24792 24793 24794 24795 24796 24797 24798 24799 24800 24801 24802 24803 24804 24805 24806 24807 24808 24809 24810 24811 24812 24813 24814 24815 24816 24817 24818 24819 24820 24821 24822 24823 24824 24825 24826 24827 24828 24829 24830 24831 24832 24833 24834 24835 24836 24837 24838 24839 24840 24841 24842 24843 24844 24845 24846 24847 24848 24849 24850 24851 24852 24853 24854 24855 24856 24857 24858 24859 24860 24861 24862 24863 24864 24865 24866 24867 24868 24869 24870 24871 24872 24873 24874 24875 24876 24877 24878 24879 24880 24881 24882 24883 24884 24885 24886 24887 24888 24889 24890 24891 24892 24893 24894 24895 24896 24897 24898 24899 24900 24901 24902 24903 24904 24905 24906 24907 24908 24909 24910 24911 24912 24913 24914 24915 24916 24917 24918 24919 24920 24921 24922 24923 24924 24925 24926 24927 24928 24929 24930 24931 24932 24933 24934 24935 24936 24937 24938 24939 24940 24941 24942 24943 24944 24945 24946 24947 24948 24949 24950 24951 24952 24953 24954 24955 24956 24957 24958 24959 24960 24961 24962 24963 24964 24965 24966 24967 24968 24969 24970 24971 24972 24973 24974 24975 24976 24977 24978 24979 24980 24981 24982 24983 24984 24985 24986 24987 24988 24989 24990 24991 24992 24993 24994 24995 24996 24997 24998 24999 25000 25001 25002 25003 25004 25005 25006 25007 25008 25009 25010 25011 25012 25013 25014 25015 25016 25017 25018 25019 25020 25021 25022 25023 25024 25025 25026 25027 25028 25029 25030 25031 25032 25033 25034 25035 25036 25037 25038 25039 25040 25041 25042 25043 25044 25045 25046 25047 25048 25049 25050 25051 25052 25053 25054 25055 25056 25057 25058 25059 25060 25061 25062 25063 25064 25065 25066 25067 25068 25069 25070 25071 25072 25073 25074 25075 25076 25077 25078 25079 25080 25081 25082 25083 25084 25085 25086 25087 25088 25089 25090 25091 25092 25093 25094 25095 25096 25097 25098 25099 25100 25101 25102 25103 25104 25105 25106 25107 25108 25109 25110 25111 25112 25113 25114 25115 25116 25117 25118 25119 25120 25121 25122 25123 25124 25125 25126 25127 25128 25129 25130 25131 25132 25133 25134 25135 25136 25137 25138 25139 25140 25141 25142 25143 25144 25145 25146 25147 25148 25149 25150 25151 25152 25153 25154 25155 25156 25157 25158 25159 25160 25161 25162 25163 25164 25165 25166 25167 25168 25169 25170 25171 25172 25173 25174 25175 25176 25177 25178 25179 25180 25181 25182 25183 25184 25185 25186 25187 25188 25189 25190 25191 25192 25193 25194 25195 25196 25197 25198 25199 25200 25201 25202 25203 25204 25205 25206 25207 25208 25209 25210 25211 25212 25213 25214 25215 25216 25217 25218 25219 25220 25221 25222 25223 25224 25225 25226 25227 25228 25229 25230 25231 25232 25233 25234 25235 25236 25237 25238 25239 25240 25241 25242 25243 25244 25245 25246 25247 25248 25249 25250 25251 25252 25253 25254 25255 25256 25257 25258 25259 25260 25261 25262 25263 25264 25265 25266 25267 25268 25269 25270 25271 25272 25273 25274 25275 25276 25277 25278 25279 25280 25281 25282 25283 25284 25285 25286 25287 25288 25289 25290 25291 25292 25293 25294 25295 25296 25297 25298 25299 25300 25301 25302 25303 25304 25305 25306 25307 25308 25309 25310 25311 25312 25313 25314 25315 25316 25317 25318 25319 25320 25321 25322 25323 25324 25325 25326 25327 25328 25329 25330 25331 25332 25333 25334 25335 25336 25337 25338 25339 25340 25341 25342 25343 25344 25345 25346 25347 25348 25349 25350 25351 25352 25353 25354 25355 25356 25357 25358 25359 25360 25361 25362 25363 25364 25365 25366 25367 25368 25369 25370 25371 25372 25373 25374 25375 25376 25377 25378 25379 25380 25381 25382 25383 25384 25385 25386 25387 25388 25389 25390 25391 25392 25393 25394 25395 25396 25397 25398 25399 25400 25401 25402 25403 25404 25405 25406 25407 25408 25409 25410 25411 25412 25413 25414 25415 25416 25417 25418 25419 25420 25421 25422 25423 25424 25425 25426 25427 25428 25429 25430 25431 25432 25433 25434 25435 25436 25437 25438 25439 25440 25441 25442 25443 25444 25445 25446 25447 25448 25449 25450 25451 25452 25453 25454 25455 25456 25457 25458 25459 25460 25461 25462 25463 25464 25465 25466 25467 25468 25469 25470 25471 25472 25473 25474 25475 25476 25477 25478 25479 25480 25481 25482 25483 25484 25485 25486 25487 25488 25489 25490 25491 25492 25493 25494 25495 25496 25497 25498 25499 25500 25501 25502 25503 25504 25505 25506 25507 25508 25509 25510 25511 25512 25513 25514 25515 25516 25517 25518 25519 25520 25521 25522 25523 25524 25525 25526 25527 25528 25529 25530 25531 25532 25533 25534 25535 25536 25537 25538 25539 25540 25541 25542 25543 25544 25545 25546 25547 25548 25549 25550 25551 25552 25553 25554 25555 25556 25557 25558 25559 25560 25561 25562 25563 25564 25565 25566 25567 25568 25569 25570 25571 25572 25573 25574 25575 25576 25577 25578 25579 25580 25581 25582 25583 25584 25585 25586 25587 25588 25589 25590 25591 25592 25593 25594 25595 25596 25597 25598 25599 25600 25601 25602 25603 25604 25605 25606 25607 25608 25609 25610 25611 25612 25613 25614 25615 25616 25617 25618 25619 25620 25621 25622 25623 25624 25625 25626 25627 25628 25629 25630 25631 25632 25633 25634 25635 25636 25637 25638 25639 25640 25641 25642 25643 25644 25645 25646 25647 25648 25649 25650 25651 25652 25653 25654 25655 25656 25657 25658 25659 25660 25661 25662 25663 25664 25665 25666 25667 25668 25669 25670 25671 25672 25673 25674 25675 25676 25677 25678 25679 25680 25681 25682 25683 25684 25685 25686 25687 25688 25689 25690 25691 25692 25693 25694 25695 25696 25697 25698 25699 25700 25701 25702 25703 25704 25705 25706 25707 25708 25709 25710 25711 25712 25713 25714 25715 25716 25717 25718 25719 25720 25721 25722 25723 25724 25725 25726 25727 25728 25729 25730 25731 25732 25733 25734 25735 25736 25737 25738 25739 25740 25741 25742 25743 25744 25745 25746 25747 25748 25749 25750 25751 25752 25753 25754 25755 25756 25757 25758 25759 25760 25761 25762 25763 25764 25765 25766 25767 25768 25769 25770 25771 25772 25773 25774 25775 25776 25777 25778 25779 25780 25781 25782 25783 25784 25785 25786 25787 25788 25789 25790 25791 25792 25793 25794 25795 25796 25797 25798 25799 25800 25801 25802 25803 25804 25805 25806 25807 25808 25809 25810 25811 25812 25813 25814 25815 25816 25817 25818 25819 25820 25821 25822 25823 25824 25825 25826 25827 25828 25829 25830 25831 25832 25833 25834 25835 25836 25837 25838 25839 25840 25841 25842 25843 25844 25845 25846 25847 25848 25849 25850 25851 25852 25853 25854 25855 25856 25857 25858 25859 25860 25861 25862 25863 25864 25865 25866 25867 25868 25869 25870 25871 25872 25873 25874 25875 25876 25877 25878 25879 25880 25881 25882 25883 25884 25885 25886 25887 25888 25889 25890 25891 25892 25893 25894 25895 25896 25897 25898 25899 25900 25901 25902 25903 25904 25905 25906 25907 25908 25909 25910 25911 25912 25913 25914 25915 25916 25917 25918 25919 25920 25921 25922 25923 25924 25925 25926 25927 25928 25929 25930 25931 25932 25933 25934 25935 25936 25937 25938 25939 25940 25941 25942 25943 25944 25945 25946 25947 25948 25949 25950 25951 25952 25953 25954 25955 25956 25957 25958 25959 25960 25961 25962 25963 25964 25965 25966 25967 25968 25969 25970 25971 25972 25973 25974 25975 25976 25977 25978 25979 25980 25981 25982 25983 25984 25985 25986 25987 25988 25989 25990 25991 25992 25993 25994 25995 25996 25997 25998 25999 26000 26001 26002 26003 26004 26005 26006 26007 26008 26009 26010 26011 26012 26013 26014 26015 26016 26017 26018 26019 26020 26021 26022 26023 26024 26025 26026 26027 26028 26029 26030 26031 26032 26033 26034 26035 26036 26037 26038 26039 26040 26041 26042 26043 26044 26045 26046 26047 26048 26049 26050 26051 26052 26053 26054 26055 26056 26057 26058 26059 26060 26061 26062 26063 26064 26065 26066 26067 26068 26069 26070 26071 26072 26073 26074 26075 26076 26077 26078 26079 26080 26081 26082 26083 26084 26085 26086 26087 26088 26089 26090 26091 26092 26093 26094 26095 26096 26097 26098 26099 26100 26101 26102 26103 26104 26105 26106 26107 26108 26109 26110 26111 26112 26113 26114 26115 26116 26117 26118 26119 26120 26121 26122 26123 26124 26125 26126 26127 26128 26129 26130 26131 26132 26133 26134 26135 26136 26137 26138 26139 26140 26141 26142 26143 26144 26145 26146 26147 26148 26149 26150 26151 26152 26153 26154 26155 26156 26157 26158 26159 26160 26161 26162 26163 26164 26165 26166 26167 26168 26169 26170 26171 26172 26173 26174 26175 26176 26177 26178 26179 26180 26181 26182 26183 26184 26185 26186 26187 26188 26189 26190 26191 26192 26193 26194 26195 26196 26197 26198 26199 26200 26201 26202 26203 26204 26205 26206 26207 26208 26209 26210 26211 26212 26213 26214 26215 26216 26217 26218 26219 26220 26221 26222 26223 26224 26225 26226 26227 26228 26229 26230 26231 26232 26233 26234 26235 26236 26237 26238 26239 26240 26241 26242 26243 26244 26245 26246 26247 26248 26249 26250 26251 26252 26253 26254 26255 26256 26257 26258 26259 26260 26261 26262 26263 26264 26265 26266 26267 26268 26269 26270 26271 26272 26273 26274 26275 26276 26277 26278 26279 26280 26281 26282 26283 26284 26285 26286 26287 26288 26289 26290 26291 26292 26293 26294 26295 26296 26297 26298 26299 26300 26301 26302 26303 26304 26305 26306 26307 26308 26309 26310 26311 26312 26313 26314 26315 26316 26317 26318 26319 26320 26321 26322 26323 26324 26325 26326 26327 26328 26329 26330 26331 26332 26333 26334 26335 26336 26337 26338 26339 26340 26341 26342 26343 26344 26345 26346 26347 26348 26349 26350 26351 26352 26353 26354 26355 26356 26357 26358 26359 26360 26361 26362 26363 26364 26365 26366 26367 26368 26369 26370 26371 26372 26373 26374 26375 26376 26377 26378 26379 26380 26381 26382 26383 26384 26385 26386 26387 26388 26389 26390 26391 26392 26393 26394 26395 26396 26397 26398 26399 26400 26401 26402 26403 26404 26405 26406 26407 26408 26409 26410 26411 26412 26413 26414 26415 26416 26417 26418 26419 26420 26421 26422 26423 26424 26425 26426 26427 26428 26429 26430 26431 26432 26433 26434 26435 26436 26437 26438 26439 26440 26441 26442 26443 26444 26445 26446 26447 26448 26449 26450 26451 26452 26453 26454 26455 26456 26457 26458 26459 26460 26461 26462 26463 26464 26465 26466 26467 26468 26469 26470 26471 26472 26473 26474 26475 26476 26477 26478 26479 26480 26481 26482 26483 26484 26485 26486 26487 26488 26489 26490 26491 26492 26493 26494 26495 26496 26497 26498 26499 26500 26501 26502 26503 26504 26505 26506 26507 26508 26509 26510 26511 26512 26513 26514 26515 26516 26517 26518 26519 26520 26521 26522 26523 26524 26525 26526 26527 26528 26529 26530 26531 26532 26533 26534 26535 26536 26537 26538 26539 26540 26541 26542 26543 26544 26545 26546 26547 26548 26549 26550 26551 26552 26553 26554 26555 26556 26557 26558 26559 26560 26561 26562 26563 26564 26565 26566 26567 26568 26569 26570 26571 26572 26573 26574 26575 26576 26577 26578 26579 26580 26581 26582 26583 26584 26585 26586 26587 26588 26589 26590 26591 26592 26593 26594 26595 26596 26597 26598 26599 26600 26601 26602 26603 26604 26605 26606 26607 26608 26609 26610 26611 26612 26613 26614 26615 26616 26617 26618 26619 26620 26621 26622 26623 26624 26625 26626 26627 26628 26629 26630 26631 26632 26633 26634 26635 26636 26637 26638 26639 26640 26641 26642 26643 26644 26645 26646 26647 26648 26649 26650 26651 26652 26653 26654 26655 26656 26657 26658 26659 26660 26661 26662 26663 26664 26665 26666 26667 26668 26669 26670 26671 26672 26673 26674 26675 26676 26677 26678 26679 26680 26681 26682 26683 26684 26685 26686 26687 26688 26689 26690 26691 26692 26693 26694 26695 26696 26697 26698 26699 26700 26701 26702 26703 26704 26705 26706 26707 26708 26709 26710 26711 26712 26713 26714 26715 26716 26717 26718 26719 26720 26721 26722 26723 26724 26725 26726 26727 26728 26729 26730 26731 26732 26733 26734 26735 26736 26737 26738 26739 26740 26741 26742 26743 26744 26745 26746 26747 26748 26749 26750 26751 26752 26753 26754 26755 26756 26757 26758 26759 26760 26761 26762 26763 26764 26765 26766 26767 26768 26769 26770 26771 26772 26773 26774 26775 26776 26777 26778 26779 26780 26781 26782 26783 26784 26785 26786 26787 26788 26789 26790 26791 26792 26793 26794 26795 26796 26797 26798 26799 26800 26801 26802 26803 26804 26805 26806 26807 26808 26809 26810 26811 26812 26813 26814 26815 26816 26817 26818 26819 26820 26821 26822 26823 26824 26825 26826 26827 26828 26829 26830 26831 26832 26833 26834 26835 26836 26837 26838 26839 26840 26841 26842 26843 26844 26845 26846 26847 26848 26849 26850 26851 26852 26853 26854 26855 26856 26857 26858 26859 26860 26861 26862 26863 26864 26865 26866 26867 26868 26869 26870 26871 26872 26873 26874 26875 26876 26877 26878 26879 26880 26881 26882 26883 26884 26885 26886 26887 26888 26889 26890 26891 26892 26893 26894 26895 26896 26897 26898 26899 26900 26901 26902 26903 26904 26905 26906 26907 26908 26909 26910 26911 26912 26913 26914 26915 26916 26917 26918 26919 26920 26921 26922 26923 26924 26925 26926 26927 26928 26929 26930 26931 26932 26933 26934 26935 26936 26937 26938 26939 26940 26941 26942 26943 26944 26945 26946 26947 26948 26949 26950 26951 26952 26953 26954 26955 26956 26957 26958 26959 26960 26961 26962 26963 26964 26965 26966 26967 26968 26969 26970 26971 26972 26973 26974 26975 26976 26977 26978 26979 26980 26981 26982 26983 26984 26985 26986 26987 26988 26989 26990 26991 26992 26993 26994 26995 26996 26997 26998 26999 27000 27001 27002 27003 27004 27005 27006 27007 27008 27009 27010 27011 27012 27013 27014 27015 27016 27017 27018 27019 27020 27021 27022 27023 27024 27025 27026 27027 27028 27029 27030 27031 27032 27033 27034 27035 27036 27037 27038 27039 27040 27041 27042 27043 27044 27045 27046 27047 27048 27049 27050 27051 27052 27053 27054 27055 27056 27057 27058 27059 27060 27061 27062 27063 27064 27065 27066 27067 27068 27069 27070 27071 27072 27073 27074 27075 27076 27077 27078 27079 27080 27081 27082 27083 27084 27085 27086 27087 27088 27089 27090 27091 27092 27093 27094 27095 27096 27097 27098 27099 27100 27101 27102 27103 27104 27105 27106 27107 27108 27109 27110 27111 27112 27113 27114 27115 27116 27117 27118 27119 27120 27121 27122 27123 27124 27125 27126 27127 27128 27129 27130 27131 27132 27133 27134 27135 27136 27137 27138 27139 27140 27141 27142 27143 27144 27145 27146 27147 27148 27149 27150 27151 27152 27153 27154 27155 27156 27157 27158 27159 27160 27161 27162 27163 27164 27165 27166 27167 27168 27169 27170 27171 27172 27173 27174 27175 27176 27177 27178 27179 27180 27181 27182 27183 27184 27185 27186 27187 27188 27189 27190 27191 27192 27193 27194 27195 27196 27197 27198 27199 27200 27201 27202 27203 27204 27205 27206 27207 27208 27209 27210 27211 27212 27213 27214 27215 27216 27217 27218 27219 27220 27221 27222 27223 27224 27225 27226 27227 27228 27229 27230 27231 27232 27233 27234 27235 27236 27237 27238 27239 27240 27241 27242 27243 27244 27245 27246 27247 27248 27249 27250 27251 27252 27253 27254 27255 27256 27257 27258 27259 27260 27261 27262 27263 27264 27265 27266 27267 27268 27269 27270 27271 27272 27273 27274 27275 27276 27277 27278 27279 27280 27281 27282 27283 27284 27285 27286 27287 27288 27289 27290 27291 27292 27293 27294 27295 27296 27297 27298 27299 27300 27301 27302 27303 27304 27305 27306 27307 27308 27309 27310 27311 27312 27313 27314 27315 27316 27317 27318 27319 27320 27321 27322 27323 27324 27325 27326 27327 27328 27329 27330 27331 27332 27333 27334 27335 27336 27337 27338 27339 27340 27341 27342 27343 27344 27345 27346 27347 27348 27349 27350 27351 27352 27353 27354 27355 27356 27357 27358 27359 27360 27361 27362 27363 27364 27365 27366 27367 27368 27369 27370 27371 27372 27373 27374 27375 27376 27377 27378 27379 27380 27381 27382 27383 27384 27385 27386 27387 27388 27389 27390 27391 27392 27393 27394 27395 27396 27397 27398 27399 27400 27401 27402 27403 27404 27405 27406 27407 27408 27409 27410 27411 27412 27413 27414 27415 27416 27417 27418 27419 27420 27421 27422 27423 27424 27425 27426 27427 27428 27429 27430 27431 27432 27433 27434 27435 27436 27437 27438 27439 27440 27441 27442 27443 27444 27445 27446 27447 27448 27449 27450 27451 27452 27453 27454 27455 27456 27457 27458 27459 27460 27461 27462 27463 27464 27465 27466 27467 27468 27469 27470 27471 27472 27473 27474 27475 27476 27477 27478 27479 27480 27481 27482 27483 27484 27485 27486 27487 27488 27489 27490 27491 27492 27493 27494 27495 27496 27497 27498 27499 27500 27501 27502 27503 27504 27505 27506 27507 27508 27509 27510 27511 27512 27513 27514 27515 27516 27517 27518 27519 27520 27521 27522 27523 27524 27525 27526 27527 27528 27529 27530 27531 27532 27533 27534 27535 27536 27537 27538 27539 27540 27541 27542 27543 27544 27545 27546 27547 27548 27549 27550 27551 27552 27553 27554 27555 27556 27557 27558 27559 27560 27561 27562 27563 27564 27565 27566 27567 27568 27569 27570 27571 27572 27573 27574 27575 27576 27577 27578 27579 27580 27581 27582 27583 27584 27585 27586 27587 27588 27589 27590 27591 27592 27593 27594 27595 27596 27597 27598 27599 27600 27601 27602 27603 27604 27605 27606 27607 27608 27609 27610 27611 27612 27613 27614 27615 27616 27617 27618 27619 27620 27621 27622 27623 27624 27625 27626 27627 27628 27629 27630 27631 27632 27633 27634 27635 27636 27637 27638 27639 27640 27641 27642 27643 27644 27645 27646 27647 27648 27649 27650 27651 27652 27653 27654 27655 27656 27657 27658 27659 27660 27661 27662 27663 27664 27665 27666 27667 27668 27669 27670 27671 27672 27673 27674 27675 27676 27677 27678 27679 27680 27681 27682 27683 27684 27685 27686 27687 27688 27689 27690 27691 27692 27693 27694 27695 27696 27697 27698 27699 27700 27701 27702 27703 27704 27705 27706 27707 27708 27709 27710 27711 27712 27713 27714 27715 27716 27717 27718 27719 27720 27721 27722 27723 27724 27725 27726 27727 27728 27729 27730 27731 27732 27733 27734 27735 27736 27737 27738 27739 27740 27741 27742 27743 27744 27745 27746 27747 27748 27749 27750 27751 27752 27753 27754 27755 27756 27757 27758 27759 27760 27761 27762 27763 27764 27765 27766 27767 27768 27769 27770 27771 27772 27773 27774 27775 27776 27777 27778 27779 27780 27781 27782 27783 27784 27785 27786 27787 27788 27789 27790 27791 27792 27793 27794 27795 27796 27797 27798 27799 27800 27801 27802 27803 27804 27805 27806 27807 27808 27809 27810 27811 27812 27813 27814 27815 27816 27817 27818 27819 27820 27821 27822 27823 27824 27825 27826 27827 27828 27829 27830 27831 27832 27833 27834 27835 27836 27837 27838 27839 27840 27841 27842 27843 27844 27845 27846 27847 27848 27849 27850 27851 27852 27853 27854 27855 27856 27857 27858 27859 27860 27861 27862 27863 27864 27865 27866 27867 27868 27869 27870 27871 27872 27873 27874 27875 27876 27877 27878 27879 27880 27881 27882 27883 27884 27885 27886 27887 27888 27889 27890 27891 27892 27893 27894 27895 27896 27897 27898 27899 27900 27901 27902 27903 27904 27905 27906 27907 27908 27909 27910 27911 27912 27913 27914 27915 27916 27917 27918 27919 27920 27921 27922 27923 27924 27925 27926 27927 27928 27929 27930 27931 27932 27933 27934 27935 27936 27937 27938 27939 27940 27941 27942 27943 27944 27945 27946 27947 27948 27949 27950 27951 27952 27953 27954 27955 27956 27957 27958 27959 27960 27961 27962 27963 27964 27965 27966 27967 27968 27969 27970 27971 27972 27973 27974 27975 27976 27977 27978 27979 27980 27981 27982 27983 27984 27985 27986 27987 27988 27989 27990 27991 27992 27993 27994 27995 27996 27997 27998 27999 28000 28001 28002 28003 28004 28005 28006 28007 28008 28009 28010 28011 28012 28013 28014 28015 28016 28017 28018 28019 28020 28021 28022 28023 28024 28025 28026 28027 28028 28029 28030 28031 28032 28033 28034 28035 28036 28037 28038 28039 28040 28041 28042 28043 28044 28045 28046 28047 28048 28049 28050 28051 28052 28053 28054 28055 28056 28057 28058 28059 28060 28061 28062 28063 28064 28065 28066 28067 28068 28069 28070 28071 28072 28073 28074 28075 28076 28077 28078 28079 28080 28081 28082 28083 28084 28085 28086 28087 28088 28089 28090 28091 28092 28093 28094 28095 28096 28097 28098 28099 28100 28101 28102 28103 28104 28105 28106 28107 28108 28109 28110 28111 28112 28113 28114 28115 28116 28117 28118 28119 28120 28121 28122 28123 28124 28125 28126 28127 28128 28129 28130 28131 28132 28133 28134 28135 28136 28137 28138 28139 28140 28141 28142 28143 28144 28145 28146 28147 28148 28149 28150 28151 28152 28153 28154 28155 28156 28157 28158 28159 28160 28161 28162 28163 28164 28165 28166 28167 28168 28169 28170 28171 28172 28173 28174 28175 28176 28177 28178 28179 28180 28181 28182 28183 28184 28185 28186 28187 28188 28189 28190 28191 28192 28193 28194 28195 28196 28197 28198 28199 28200 28201 28202 28203 28204 28205 28206 28207 28208 28209 28210 28211 28212 28213 28214 28215 28216 28217 28218 28219 28220 28221 28222 28223 28224 28225 28226 28227 28228 28229 28230 28231 28232 28233 28234 28235 28236 28237 28238 28239 28240 28241 28242 28243 28244 28245 28246 28247 28248 28249 28250 28251 28252 28253 28254 28255 28256 28257 28258 28259 28260 28261 28262 28263 28264 28265 28266 28267 28268 28269 28270 28271 28272 28273 28274 28275 28276 28277 28278 28279 28280 28281 28282 28283 28284 28285 28286 28287 28288 28289 28290 28291 28292 28293 28294 28295 28296 28297 28298 28299 28300 28301 28302 28303 28304 28305 28306 28307 28308 28309 28310 28311 28312 28313 28314 28315 28316 28317 28318 28319 28320 28321 28322 28323 28324 28325 28326 28327 28328 28329 28330 28331 28332 28333 28334 28335 28336 28337 28338 28339 28340 28341 28342 28343 28344 28345 28346 28347 28348 28349 28350 28351 28352 28353 28354 28355 28356 28357 28358 28359 28360 28361 28362 28363 28364 28365 28366 28367 28368 28369 28370 28371 28372 28373 28374 28375 28376 28377 28378 28379 28380 28381 28382 28383 28384 28385 28386 28387 28388 28389 28390 28391 28392 28393 28394 28395 28396 28397 28398 28399 28400 28401 28402 28403 28404 28405 28406 28407 28408 28409 28410 28411 28412 28413 28414 28415 28416 28417 28418 28419 28420 28421 28422 28423 28424 28425 28426 28427 28428 28429 28430 28431 28432 28433 28434 28435 28436 28437 28438 28439 28440 28441 28442 28443 28444 28445 28446 28447 28448 28449 28450 28451 28452 28453 28454 28455 28456 28457 28458 28459 28460 28461 28462 28463 28464 28465 28466 28467 28468 28469 28470 28471 28472 28473 28474 28475 28476 28477 28478 28479 28480 28481 28482 28483 28484 28485 28486 28487 28488 28489 28490 28491 28492 28493 28494 28495 28496 28497 28498 28499 28500 28501 28502 28503 28504 28505 28506 28507 28508 28509 28510 28511 28512 28513 28514 28515 28516 28517 28518 28519 28520 28521 28522 28523 28524 28525 28526 28527 28528 28529 28530 28531 28532 28533 28534 28535 28536 28537 28538 28539 28540 28541 28542 28543 28544 28545 28546 28547 28548 28549 28550 28551 28552 28553 28554 28555 28556 28557 28558 28559 28560 28561 28562 28563 28564 28565 28566 28567 28568 28569 28570 28571 28572 28573 28574 28575 28576 28577 28578 28579 28580 28581 28582 28583 28584 28585 28586 28587 28588 28589 28590 28591 28592 28593 28594 28595 28596 28597 28598 28599 28600 28601 28602 28603 28604 28605 28606 28607 28608 28609 28610 28611 28612 28613 28614 28615 28616 28617 28618 28619 28620 28621 28622 28623 28624 28625 28626 28627 28628 28629 28630 28631 28632 28633 28634 28635 28636 28637 28638 28639 28640 28641 28642 28643 28644 28645 28646 28647 28648 28649 28650 28651 28652 28653 28654 28655 28656 28657 28658 28659 28660 28661 28662 28663 28664 28665 28666 28667 28668 28669 28670 28671 28672 28673 28674 28675 28676 28677 28678 28679 28680 28681 28682 28683 28684 28685 28686 28687 28688 28689 28690 28691 28692 28693 28694 28695 28696 28697 28698 28699 28700 28701 28702 28703 28704 28705 28706 28707 28708 28709 28710 28711 28712 28713 28714 28715 28716 28717 28718 28719 28720 28721 28722 28723 28724 28725 28726 28727 28728 28729 28730 28731 28732 28733 28734 28735 28736 28737 28738 28739 28740 28741 28742 28743 28744 28745 28746 28747 28748 28749 28750 28751 28752 28753 28754 28755 28756 28757 28758 28759 28760 28761 28762 28763 28764 28765 28766 28767 28768 28769 28770 28771 28772 28773 28774 28775 28776 28777 28778 28779 28780 28781 28782 28783 28784 28785 28786 28787 28788 28789 28790 28791 28792 28793 28794 28795 28796 28797 28798 28799 28800 28801 28802 28803 28804 28805 28806 28807 28808 28809 28810 28811 28812 28813 28814 28815 28816 28817 28818 28819 28820 28821 28822 28823 28824 28825 28826 28827 28828 28829 28830 28831 28832 28833 28834 28835 28836 28837 28838 28839 28840 28841 28842 28843 28844 28845 28846 28847 28848 28849 28850 28851 28852 28853 28854 28855 28856 28857 28858 28859 28860 28861 28862 28863 28864 28865 28866 28867 28868 28869 28870 28871 28872 28873 28874 28875 28876 28877 28878 28879 28880 28881 28882 28883 28884 28885 28886 28887 28888 28889 28890 28891 28892 28893 28894 28895 28896 28897 28898 28899 28900 28901 28902 28903 28904 28905 28906 28907 28908 28909 28910 28911 28912 28913 28914 28915 28916 28917 28918 28919 28920 28921 28922 28923 28924 28925 28926 28927 28928 28929 28930 28931 28932 28933 28934 28935 28936 28937 28938 28939 28940 28941 28942 28943 28944 28945 28946 28947 28948 28949 28950 28951 28952 28953 28954 28955 28956 28957 28958 28959 28960 28961 28962 28963 28964 28965 28966 28967 28968 28969 28970 28971 28972 28973 28974 28975 28976 28977 28978 28979 28980 28981 28982 28983 28984 28985 28986 28987 28988 28989 28990 28991 28992 28993 28994 28995 28996 28997 28998 28999 29000 29001 29002 29003 29004 29005 29006 29007 29008 29009 29010 29011 29012 29013 29014 29015 29016 29017 29018 29019 29020 29021 29022 29023 29024 29025 29026 29027 29028 29029 29030 29031 29032 29033 29034 29035 29036 29037 29038 29039 29040 29041 29042 29043 29044 29045 29046 29047 29048 29049 29050 29051 29052 29053 29054 29055 29056 29057 29058 29059 29060 29061 29062 29063 29064 29065 29066 29067 29068 29069 29070 29071 29072 29073 29074 29075 29076 29077 29078 29079 29080 29081 29082 29083 29084 29085 29086 29087 29088 29089 29090 29091 29092 29093 29094 29095 29096 29097 29098 29099 29100 29101 29102 29103 29104 29105 29106 29107 29108 29109 29110 29111 29112 29113 29114 29115 29116 29117 29118 29119 29120 29121 29122 29123 29124 29125 29126 29127 29128 29129 29130 29131 29132 29133 29134 29135 29136 29137 29138 29139 29140 29141 29142 29143 29144 29145 29146 29147 29148 29149 29150 29151 29152 29153 29154 29155 29156 29157 29158 29159 29160 29161 29162 29163 29164 29165 29166 29167 29168 29169 29170 29171 29172 29173 29174 29175 29176 29177 29178 29179 29180 29181 29182 29183 29184 29185 29186 29187 29188 29189 29190 29191 29192 29193 29194 29195 29196 29197 29198 29199 29200 29201 29202 29203 29204 29205 29206 29207 29208 29209 29210 29211 29212 29213 29214 29215 29216 29217 29218 29219 29220 29221 29222 29223 29224 29225 29226 29227 29228 29229 29230 29231 29232 29233 29234 29235 29236 29237 29238 29239 29240 29241 29242 29243 29244 29245 29246 29247 29248 29249 29250 29251 29252 29253 29254 29255 29256 29257 29258 29259 29260 29261 29262 29263 29264 29265 29266 29267 29268 29269 29270 29271 29272 29273 29274 29275 29276 29277 29278 29279 29280 29281 29282 29283 29284 29285 29286 29287 29288 29289 29290 29291 29292 29293 29294 29295 29296 29297 29298 29299 29300 29301 29302 29303 29304 29305 29306 29307 29308 29309 29310 29311 29312 29313 29314 29315 29316 29317 29318 29319 29320 29321 29322 29323 29324 29325 29326 29327 29328 29329 29330 29331 29332 29333 29334 29335 29336 29337 29338 29339 29340 29341 29342 29343 29344 29345 29346 29347 29348 29349 29350 29351 29352 29353 29354 29355 29356 29357 29358 29359 29360 29361 29362 29363 29364 29365 29366 29367 29368 29369 29370 29371 29372 29373 29374 29375 29376 29377 29378 29379 29380 29381 29382 29383 29384 29385 29386 29387 29388 29389 29390 29391 29392 29393 29394 29395 29396 29397 29398 29399 29400 29401 29402 29403 29404 29405 29406 29407 29408 29409 29410 29411 29412 29413 29414 29415 29416 29417 29418 29419 29420 29421 29422 29423 29424 29425 29426 29427 29428 29429 29430 29431 29432 29433 29434 29435 29436 29437 29438 29439 29440 29441 29442 29443 29444 29445 29446 29447 29448 29449 29450 29451 29452 29453 29454 29455 29456 29457 29458 29459 29460 29461 29462 29463 29464 29465 29466 29467 29468 29469 29470 29471 29472 29473 29474 29475 29476 29477 29478 29479 29480 29481 29482 29483 29484 29485 29486 29487 29488 29489 29490 29491 29492 29493 29494 29495 29496 29497 29498 29499 29500 29501 29502 29503 29504 29505 29506 29507 29508 29509 29510 29511 29512 29513 29514 29515 29516 29517 29518 29519 29520 29521 29522 29523 29524 29525 29526 29527 29528 29529 29530 29531 29532 29533 29534 29535 29536 29537 29538 29539 29540 29541 29542 29543 29544 29545 29546 29547 29548 29549 29550 29551 29552 29553 29554 29555 29556 29557 29558 29559 29560 29561 29562 29563 29564 29565 29566 29567 29568 29569 29570 29571 29572 29573 29574 29575 29576 29577 29578 29579 29580 29581 29582 29583 29584 29585 29586 29587 29588 29589 29590 29591 29592 29593 29594 29595 29596 29597 29598 29599 29600 29601 29602 29603 29604 29605 29606 29607 29608 29609 29610 29611 29612 29613 29614 29615 29616 29617 29618 29619 29620 29621 29622 29623 29624 29625 29626 29627 29628 29629 29630 29631 29632 29633 29634 29635 29636 29637 29638 29639 29640 29641 29642 29643 29644 29645 29646 29647 29648 29649 29650 29651 29652 29653 29654 29655 29656 29657 29658 29659 29660 29661 29662 29663 29664 29665 29666 29667 29668 29669 29670 29671 29672 29673 29674 29675 29676 29677 29678 29679 29680 29681 29682 29683 29684 29685 29686 29687 29688 29689 29690 29691 29692 29693 29694 29695 29696 29697 29698 29699 29700 29701 29702 29703 29704 29705 29706 29707 29708 29709 29710 29711 29712 29713 29714 29715 29716 29717 29718 29719 29720 29721 29722 29723 29724 29725 29726 29727 29728 29729 29730 29731 29732 29733 29734 29735 29736 29737 29738 29739 29740 29741 29742 29743 29744 29745 29746 29747 29748 29749 29750 29751 29752 29753 29754 29755 29756 29757 29758 29759 29760 29761 29762 29763 29764 29765 29766 29767 29768 29769 29770 29771 29772 29773 29774 29775 29776 29777 29778 29779 29780 29781 29782 29783 29784 29785 29786 29787 29788 29789 29790 29791 29792 29793 29794 29795 29796 29797 29798 29799 29800 29801 29802 29803 29804 29805 29806 29807 29808 29809 29810 29811 29812 29813 29814 29815 29816 29817 29818 29819 29820 29821 29822 29823 29824 29825 29826 29827 29828 29829 29830 29831 29832 29833 29834 29835 29836 29837 29838 29839 29840 29841 29842 29843 29844 29845 29846 29847 29848 29849 29850 29851 29852 29853 29854 29855 29856 29857 29858 29859 29860 29861 29862 29863 29864 29865 29866 29867 29868 29869 29870 29871 29872 29873 29874 29875 29876 29877 29878 29879 29880 29881 29882 29883 29884 29885 29886 29887 29888 29889 29890 29891 29892 29893 29894 29895 29896 29897 29898 29899 29900 29901 29902 29903 29904 29905 29906 29907 29908 29909 29910 29911 29912 29913 29914 29915 29916 29917 29918 29919 29920 29921 29922 29923 29924 29925 29926 29927 29928 29929 29930 29931 29932 29933 29934 29935 29936 29937 29938 29939 29940 29941 29942 29943 29944 29945 29946 29947 29948 29949 29950 29951 29952 29953 29954 29955 29956 29957 29958 29959 29960 29961 29962 29963 29964 29965 29966 29967 29968 29969 29970 29971 29972 29973 29974 29975 29976 29977 29978 29979 29980 29981 29982 29983 29984 29985 29986 29987 29988 29989 29990 29991 29992 29993 29994 29995 29996 29997 29998 29999 30000 30001 30002 30003 30004 30005 30006 30007 30008 30009 30010 30011 30012 30013 30014 30015 30016 30017 30018 30019 30020 30021 30022 30023 30024 30025 30026 30027 30028 30029 30030 30031 30032 30033 30034 30035 30036 30037 30038 30039 30040 30041 30042 30043 30044 30045 30046 30047 30048 30049 30050 30051 30052 30053 30054 30055 30056 30057 30058 30059 30060 30061 30062 30063 30064 30065 30066 30067 30068 30069 30070 30071 30072 30073 30074 30075 30076 30077 30078 30079 30080 30081 30082 30083 30084 30085 30086 30087 30088 30089 30090 30091 30092 30093 30094 30095 30096 30097 30098 30099 30100 30101 30102 30103 30104 30105 30106 30107 30108 30109 30110 30111 30112 30113 30114 30115 30116 30117 30118 30119 30120 30121 30122 30123 30124 30125 30126 30127 30128 30129 30130 30131 30132 30133 30134 30135 30136 30137 30138 30139 30140 30141 30142 30143 30144 30145 30146 30147 30148 30149 30150 30151 30152 30153 30154 30155 30156 30157 30158 30159 30160 30161 30162 30163 30164 30165 30166 30167 30168 30169 30170 30171 30172 30173 30174 30175 30176 30177 30178 30179 30180 30181 30182 30183 30184 30185 30186 30187 30188 30189 30190 30191 30192 30193 30194 30195 30196 30197 30198 30199 30200 30201 30202 30203 30204 30205 30206 30207 30208 30209 30210 30211 30212 30213 30214 30215 30216 30217 30218 30219 30220 30221 30222 30223 30224 30225 30226 30227 30228 30229 30230 30231 30232 30233 30234 30235 30236 30237 30238 30239 30240 30241 30242 30243 30244 30245 30246 30247 30248 30249 30250 30251 30252 30253 30254 30255 30256 30257 30258 30259 30260 30261 30262 30263 30264 30265 30266 30267 30268 30269 30270 30271 30272 30273 30274 30275 30276 30277 30278 30279 30280 30281 30282 30283 30284 30285 30286 30287 30288 30289 30290 30291 30292 30293 30294 30295 30296 30297 30298 30299 30300 30301 30302 30303 30304 30305 30306 30307 30308 30309 30310 30311 30312 30313 30314 30315 30316 30317 30318 30319 30320 30321 30322 30323 30324 30325 30326 30327 30328 30329 30330 30331 30332 30333 30334 30335 30336 30337 30338 30339 30340 30341 30342 30343 30344 30345 30346 30347 30348 30349 30350 30351 30352 30353 30354 30355 30356 30357 30358 30359 30360 30361 30362 30363 30364 30365 30366 30367 30368 30369 30370 30371 30372 30373 30374 30375 30376 30377 30378 30379 30380 30381 30382 30383 30384 30385 30386 30387 30388 30389 30390 30391 30392 30393 30394 30395 30396 30397 30398 30399 30400 30401 30402 30403 30404 30405 30406 30407 30408 30409 30410 30411 30412 30413 30414 30415 30416 30417 30418 30419 30420 30421 30422 30423 30424 30425 30426 30427 30428 30429 30430 30431 30432 30433 30434 30435 30436 30437 30438 30439 30440 30441 30442 30443 30444 30445 30446 30447 30448 30449 30450 30451 30452 30453 30454 30455 30456 30457 30458 30459 30460 30461 30462 30463 30464 30465 30466 30467 30468 30469 30470 30471 30472 30473 30474 30475 30476 30477 30478 30479 30480 30481 30482 30483 30484 30485 30486 30487 30488 30489 30490 30491 30492 30493 30494 30495 30496 30497 30498 30499 30500 30501 30502 30503 30504 30505 30506 30507 30508 30509 30510 30511 30512 30513 30514 30515 30516 30517 30518 30519 30520 30521 30522 30523 30524 30525 30526 30527 30528 30529 30530 30531 30532 30533 30534 30535 30536 30537 30538 30539 30540 30541 30542 30543 30544 30545 30546 30547 30548 30549 30550 30551 30552 30553 30554 30555 30556 30557 30558 30559 30560 30561 30562 30563 30564 30565 30566 30567 30568 30569 30570 30571 30572 30573 30574 30575 30576 30577 30578 30579 30580 30581 30582 30583 30584 30585 30586 30587 30588 30589 30590 30591 30592 30593 30594 30595 30596 30597 30598 30599 30600 30601 30602 30603 30604 30605 30606 30607 30608 30609 30610 30611 30612 30613 30614 30615 30616 30617 30618 30619 30620 30621 30622 30623 30624 30625 30626 30627 30628 30629 30630 30631 30632 30633 30634 30635 30636 30637 30638 30639 30640 30641 30642 30643 30644 30645 30646 30647 30648 30649 30650 30651 30652 30653 30654 30655 30656 30657 30658 30659 30660 30661 30662 30663 30664 30665 30666 30667 30668 30669 30670 30671 30672 30673 30674 30675 30676 30677 30678 30679 30680 30681 30682 30683 30684 30685 30686 30687 30688 30689 30690 30691 30692 30693 30694 30695 30696 30697 30698 30699 30700 30701 30702 30703 30704 30705 30706 30707 30708 30709 30710 30711 30712 30713 30714 30715 30716 30717 30718 30719 30720 30721 30722 30723 30724 30725 30726 30727 30728 30729 30730 30731 30732 30733 30734 30735 30736 30737 30738 30739 30740 30741 30742 30743 30744 30745 30746 30747 30748 30749 30750 30751 30752 30753 30754 30755 30756 30757 30758 30759 30760 30761 30762 30763 30764 30765 30766 30767 30768 30769 30770 30771 30772 30773 30774 30775 30776 30777 30778 30779 30780 30781 30782 30783 30784 30785 30786 30787 30788 30789 30790 30791 30792 30793 30794 30795 30796 30797 30798 30799 30800 30801 30802 30803 30804 30805 30806 30807 30808 30809 30810 30811 30812 30813 30814 30815 30816 30817 30818 30819 30820 30821 30822 30823 30824 30825 30826 30827 30828 30829 30830 30831 30832 30833 30834 30835 30836 30837 30838 30839 30840 30841 30842 30843 30844 30845 30846 30847 30848 30849 30850 30851 30852 30853 30854 30855 30856 30857 30858 30859 30860 30861 30862 30863 30864 30865 30866 30867 30868 30869 30870 30871 30872 30873 30874 30875 30876 30877 30878 30879 30880 30881 30882 30883 30884 30885 30886 30887 30888 30889 30890 30891 30892 30893 30894 30895 30896 30897 30898 30899 30900 30901 30902 30903 30904 30905 30906 30907 30908 30909 30910 30911 30912 30913 30914 30915 30916 30917 30918 30919 30920 30921 30922 30923 30924 30925 30926 30927 30928 30929 30930 30931 30932 30933 30934 30935 30936 30937 30938 30939 30940 30941 30942 30943 30944 30945 30946 30947 30948 30949 30950 30951 30952 30953 30954 30955 30956 30957 30958 30959 30960 30961 30962 30963 30964 30965 30966 30967 30968 30969 30970 30971 30972 30973 30974 30975 30976 30977 30978 30979 30980 30981 30982 30983 30984 30985 30986 30987 30988 30989 30990 30991 30992 30993 30994 30995 30996 30997 30998 30999 31000 31001 31002 31003 31004 31005 31006 31007 31008 31009 31010 31011 31012 31013 31014 31015 31016 31017 31018 31019 31020 31021 31022 31023 31024 31025 31026 31027 31028 31029 31030 31031 31032 31033 31034 31035 31036 31037 31038 31039 31040 31041 31042 31043 31044 31045 31046 31047 31048 31049 31050 31051 31052 31053 31054 31055 31056 31057 31058 31059 31060 31061 31062 31063 31064 31065 31066 31067 31068 31069 31070 31071 31072 31073 31074 31075 31076 31077 31078 31079 31080 31081 31082 31083 31084 31085 31086 31087 31088 31089 31090 31091 31092 31093 31094 31095 31096 31097 31098 31099 31100 31101 31102 31103 31104 31105 31106 31107 31108 31109 31110 31111 31112 31113 31114 31115 31116 31117 31118 31119 31120 31121 31122 31123 31124 31125 31126 31127 31128 31129 31130 31131 31132 31133 31134 31135 31136 31137 31138 31139 31140 31141 31142 31143 31144 31145 31146 31147 31148 31149 31150 31151 31152 31153 31154 31155 31156 31157 31158 31159 31160 31161 31162 31163 31164 31165 31166 31167 31168 31169 31170 31171 31172 31173 31174 31175 31176 31177 31178 31179 31180 31181 31182 31183 31184 31185 31186 31187 31188 31189 31190 31191 31192 31193 31194 31195 31196 31197 31198 31199 31200 31201 31202 31203 31204 31205 31206 31207 31208 31209 31210 31211 31212 31213 31214 31215 31216 31217 31218 31219 31220 31221 31222 31223 31224 31225 31226 31227 31228 31229 31230 31231 31232 31233 31234 31235 31236 31237 31238 31239 31240 31241 31242 31243 31244 31245 31246 31247 31248 31249 31250 31251 31252 31253 31254 31255 31256 31257 31258 31259 31260 31261 31262 31263 31264 31265 31266 31267 31268 31269 31270 31271 31272 31273 31274 31275 31276 31277 31278 31279 31280 31281 31282 31283 31284 31285 31286 31287 31288 31289 31290 31291 31292 31293 31294 31295 31296 31297 31298 31299 31300 31301 31302 31303 31304 31305 31306 31307 31308 31309 31310 31311 31312 31313 31314 31315 31316 31317 31318 31319 31320 31321 31322 31323 31324 31325 31326 31327 31328 31329 31330 31331 31332 31333 31334 31335 31336 31337 31338 31339 31340 31341 31342 31343 31344 31345 31346 31347 31348 31349 31350 31351 31352 31353 31354 31355 31356 31357 31358 31359 31360 31361 31362 31363 31364 31365 31366 31367 31368 31369 31370 31371 31372 31373 31374 31375 31376 31377 31378 31379 31380 31381 31382 31383 31384 31385 31386 31387 31388 31389 31390 31391 31392 31393 31394 31395 31396 31397 31398 31399 31400 31401 31402 31403 31404 31405 31406 31407 31408 31409 31410 31411 31412 31413 31414 31415 31416 31417 31418 31419 31420 31421 31422 31423 31424 31425 31426 31427 31428 31429 31430 31431 31432 31433 
</DataArray>
<DataArray type="UInt32" Name="offsets" format="ascii">
3 6 9 12 15 18 21 23 26 29 32 35 38 41 44 47 50 53 56 59 61 64 67 70 72 75 78 81 84 87 90 93 96 99 102 105 108 111 114 117 120 123 126 129 132 135 138 141 144 147 150 153 156 159 162 165 168 171 173 176 179 181 184 187 190 193 196 199 202 205 207 210 213 216 219 221 224 227 230 232 235 238 241 244 247 250 253 256 259 262 265 268 271 274 276 279 281 284 287 290 293 296 299 302 305 308 311 314 317 319 322 325 328 331 333 335 338 341 344 347 350 353 356 359 362 365 368 371 374 377 380 383 386 388 391 394 397 399 402 405 408 411 414 417 419 422 425 427 430 433 436 439 441 444 447 450 453 456 458 461 463 466 469 472 475 478 481 484 487 490 493 496 499 502 505 508 511 514 517 520 523 526 528 531 534 537 540 543 546 549 552 555 558 561 564 567 570 573 576 579 582 585 588 591 594 597 600 603 606 609 611 614 617 620 623 625 628 631 634 637 640 643 645 648 650 653 656 659 662 665 668 671 674 677 680 683 686 689 692 695 698 701 704 707 710 713 716 719 722 725 728 731 734 737 740 743 746 749 752 755 758 761 764 767 770 773 776 779 782 785 788 791 794 796 799 801 804 807 810 813 816 819 822 825 827 830 833 836 839 842 845 848 851 854 857 860 863 866 869 872 875 878 881 884 887 890 893 896 899 902 905 908 911 914 917 920 923 926 929 932 934 937 940 942 945 948 951 954 957 960 963 965 968 971 974 977 980 983 986 989 992 994 996 999 1002 1005 1007 1010 1013 1016 1019 1022 1025 1028 1031 1034 1037 1040 1043 1046 1049 1052 1055 1058 1061 1064 1067 1070 1073 1076 1079 1082 1085 1087 1090 1092 1095 1098 1101 1104 1107 1109 1112 1115 1118 1121 1123 1126 1129 1132 1135 1138 1141 1144 1146 1149 1151 1154 1157 1160 1163 1165 1168 1171 1173 1176 1179 1182 1185 1188 1191 1194 1196 1198 1201 1204 1206 1209 1212 1215 1217 1220 1223 1226 1229 1231 1234 1237 1240 1243 1245 1248 1250 1253 1255 1258 1260 1263 1266 1269 1272 1274 1277 1279 1282 1285 1288 1291 1293 1295 1298 1301 1303 1306 1309 1312 1315 1318 1321 1324 1326 1329 1332 1335 1338 1340 1343 1346 1349 1352 1354 1357 1360 1363 1366 1369 1372 1375 1378 1381 1383 1386 1388 1391 1394 1397 1400 1403 1406 1409 1412 1415 1418 1421 1424 1427 1430 1433 1436 1439 1442 1444 1447 1450 1453 1455 1458 1461 1464 1467 1470 1473 1475 1478 1481 1484 1487 1490 1493 1495 1498 1501 1504 1506 1509 1512 1514 1517 1520 1523 1526 1529 1532 1535 1538 1541 1544 1547 1549 1552 1555 1558 1561 1564 1567 1570 1573 1576 1579 1582 1585 1588 1590 1592 1595 1598 1601 1604 1606 1609 1612 1615 1618 1621 1624 1627 1630 1633 1636 1639 1642 1645 1648 1651 1654 1657 1660 1663 1666 1669 1672 1675 1678 1681 1684 1687 1690 1693 1696 1699 1702 1705 1708 1711 1714 1716 1719 1722 1725 1728 1730 1733 1736 1739 1742 1745 1748 1751 1754 1757 1760 1763 1766 1769 1772 1775 1778 1781 1784 1787 1790 1793 1796 1799 1802 1805 1808 1811 1814 1817 1820 1823 1826 1829 1832 1835 1838 1841 1844 1847 1850 1853 1856 1859 1862 1865 1868 1871 1874 1877 1880 1883 1886 1889 1892 1895 1898 1901 1904 1907 1910 1913 1916 1919 1922 1925 1928 1931 1934 1937 1940 1943 1946 1949 1951 1954 1957 1960 1963 1965 1968 1970 1973 1976 1979 1982 1985 1988 1991 1994 1997 2000 2003 2006 2009 2012 2015 2018 2021 2024 2027 2030 2033 2036 2039 2042 2045 2048 2051 2054 2057 2060 2063 2066 2069 2072 2075 2078 2081 2084 2086 2089 2092 2095 2098 2100 2103 2106 2109 2112 2115 2118 2121 2124 2127 2130 2133 2136 2138 2141 2143 2145 2148 2151 2154 2157 2160 2163 2165 2168 2170 2173 2176 2179 2182 2185 2188 2191 2194 2197 2200 2202 2205 2208 2211 2214 2217 2220 2223 2225 2228 2231 2234 2237 2240 2243 2246 2249 2252 2255 2258 2261 2264 2267 2269 2272 2275 2278 2281 2283 2286 2289 2292 2294 2297 2300 2303 2306 2309 2312 2315 2318 2321 2323 2326 2329 2332 2335 2338 2341 2344 2347 2350 2353 2356 2359 2362 2365 2368 2371 2374 2377 2380 2383 2386 2389 2392 2394 2397 2400 2403 2406 2409 2412 2415 2418 2421 2424 2427 2430 2433 2436 2439 2442 2445 2448 2451 2454 2457 2460 2463 2466 2468 2471 2474 2477 2480 2483 2486 2489 2492 2495 2497 2500 2503 2505 2508 2511 2514 2517 2520 2523 2526 2529 2532 2534 2537 2540 2542 2545 2548 2551 2554 2557 2560 2562 2565 2568 2571 2574 2577 2580 2583 2586 2588 2590 2593 2596 2599 2602 2605 2608 2611 2614 2617 2620 2622 2625 2628 2631 2634 2637 2639 2642 2645 2648 2651 2654 2657 2660 2662 2665 2668 2671 2674 2677 2680 2682 2685 2688 2690 2692 2695 2697 2699 2702 2705 2707 2710 2713 2715 2717 2720 2723 2726 2728 2731 2734 2737 2740 2743 2745 2748 2751 2754 2757 2760 2762 2765 2768 2771 2773 2775 2778 2781 2784 2787 2790 2793 2796 2799 2802 2804 2807 2810 2812 2815 2818 2821 2824 2827 2830 2833 2836 2839 2842 2845 2848 2851 2853 2855 2858 2861 2864 2867 2869 2871 2874 2877 2879 2881 2884 2887 2890 2893 2896 2899 2902 2905 2908 2911 2914 2917 2919 2922 2925 2927 2930 2933 2936 2938 2941 2944 2946 2949 2952 2955 2958 2961 2964 2966 2968 2970 2973 2976 2979 2982 2985 2988 2991 2993 2996 2999 3002 3005 3008 3011 3014 3017 3020 3023 3026 3029 3032 3035 3038 3041 3044 3047 3050 3053 3056 3059 3062 3065 3068 3071 3074 3077 3080 3083 3086 3089 3092 3095 3097 3100 3103 3106 3109 3111 3114 3117 3119 3121 3124 3127 3130 3132 3134 3137 3140 3143 3146 3149 3152 3155 3158 3161 3164 3166 3169 3172 3175 3178 3181 3184 3187 3189 3192 3195 3198 3201 3204 3207 3210 3212 3215 3218 3221 3223 3226 3228 3231 3234 3236 3239 3242 3245 3247 3249 3252 3255 3258 3261 3264 3267 3270 3273 3276 3279 3282 3285 3288 3291 3294 3297 3300 3303 3306 3309 3312 3315 3318 3321 3324 3327 3330 3333 3335 3338 3341 3344 3347 3349 3352 3355 3358 3361 3364 3367 3370 3373 3376 3379 3381 3384 3387 3390 3393 3396 3399 3402 3405 3408 3411 3414 3417 3420 3423 3425 3428 3431 3434 3437 3440 3443 3446 3449 3452 3454 3457 3460 3463 3466 3468 3471 3474 3477 3479 3482 3485 3488 3490 3493 3496 3499 3502 3505 3508 3511 3514 3517 3520 3523 3526 3529 3532 3535 3538 3541 3544 3547 3550 3553 3556 3559 3562 3564 3567 3570 3573 3576 3578 3581 3584 3587 3590 3593 3595 3598 3601 3604 3607 3610 3613 3615 3618 3621 3624 3626 3629 3632 3635 3637 3640 3642 3644 3647 3650 3653 3656 3659 3662 3665 3668 3671 3674 3677 3680 3683 3686 3689 3692 3695 3698 3701 3703 3706 3709 3712 3714 3717 3720 3723 3726 3729 3732 3735 3738 3741 3744 3747 3750 3753 3755 3757 3760 3763 3766 3769 3772 3775 3777 3780 3782 3784 3787 3790 3793 3795 3798 3801 3803 3805 3808 3811 3814 3817 3820 3822 3825 3828 3831 3834 3837 3840 3843 3845 3848 3851 3854 3857 3860 3862 3865 3868 3871 3874 3877 3880 3882 3885 3888 3891 3893 3896 3899 3902 3905 3908 3910 3912 3915 3918 3921 3924 3927 3929 3932 3934 3937 3940 3943 3946 3948 3951 3954 3957 3960 3963 3966 3969 3972 3975 3978 3981 3984 3987 3990 3993 3996 3999 4002 4005 4008 4011 4014 4017 4020 4023 4026 4029 4032 4035 4038 4041 4044 4046 4049 4051 4053 4056 4059 4062 4065 4068 4071 4074 4077 4079 4081 4084 4087 4090 4093 4095 4097 4100 4103 4105 4108 4111 4113 4116 4119 4121 4124 4127 4130 4132 4135 4138 4141 4143 4146 4149 4152 4155 4158 4160 4162 4165 4168 4171 4174 4177 4180 4183 4186 4189 4192 4194 4197 4199 4202 4205 4208 4211 4214 4216 4219 4222 4225 4227 4230 4232 4235 4238 4241 4244 4247 4250 4252 4255 4257 4260 4263 4266 4268 4270 4272 4274 4276 4279 4282 4285 4288 4291 4293 4296 4299 4302 4305 4308 4311 4314 4317 4320 4323 4325 4328 4331 4334 4337 4340 4342 4344 4347 4350 4353 4356 4358 4361 4364 4367 4370 4373 4376 4379 4382 4385 4388 4390 4393 4395 4398 4401 4404 4407 4410 4413 4416 4419 4422 4424 4426 4429 4431 4434 4437 4440 4443 4446 4449 4452 4455 4458 4460 4463 4466 4469 4471 4474 4477 4480 4483 4486 4489 4492 4494 4497 4500 4503 4506 4509 4512 4515 4518 4521 4524 4527 4530 4533 4536 4539 4542 4545 4548 4551 4553 4556 4559 4562 4565 4568 4571 4574 4577 4580 4582 4585 4588 4591 4594 4597 4600 4603 4606 4608 4611 4614 4617 4619 4622 4625 4628 4631 4634 4637 4640 4643 4646 4649 4652 4655 4658 4661 4664 4667 4670 4673 4676 4679 4682 4685 4688 4690 4693 4696 4699 4702 4705 4708 4711 4714 4717 4720 4723 4726 4728 4731 4734 4736 4738 4741 4743 4746 4749 4751 4754 4756 4759 4762 4765 4767 4770 4772 4774 4777 4780 4783 4785 4788 4791 4794 4797 4799 4802 4804 4807 4810 4812 4815 4818 4821 4824 4827 4830 4833 4836 4839 4842 4845 4848 4850 4852 4855 4858 4861 4864 4867 4870 4873 4876 4879 4882 4885 4888 4891 4893 4896 4899 4902 4905 4907 4910 4913 4916 4919 4922 4925 4928 4931 4934 4937 4940 4943 4946 4949 4952 4954 4957 4960 4963 4965 4968 4971 4974 4977 4980 4983 4986 4989 4992 4995 4998 5001 5004 5007 5010 5013 5016 5019 5022 5025 5028 5031 5034 5037 5039 5042 5045 5048 5051 5054 5057 5060 5062 5065 5068 5071 5074 5077 5080 5083 5086 5089 5092 5094 5097 5100 5103 5106 5109 5112 5115 5118 5121 5124 5127 5129 5132 5135 5138 5141 5144 5147 5150 5153 5156 5159 5162 5165 5168 5170 5173 5176 5179 5182 5185 5188 5191 5194 5197 5200 5203 5206 5209 5212 5215 5218 5221 5224 5227 5230 5233 5236 5239 5242 5245 5248 5251 5254 5257 5260 5263 5266 5269 5272 5275 5278 5281 5283 5286 5289 5292 5294 5297 5300 5303 5306 5309 5312 5314 5317 5320 5323 5326 5329 5332 5335 5338 5341 5344 5347 5350 5353 5356 5359 5362 5365 5368 5370 5373 5376 5378 5381 5384 5387 5390 5393 5396 5399 5402 5405 5408 5411 5414 5417 5419 5422 5425 5427 5430 5433 5436 5439 5442 5445 5448 5451 5454 5457 5460 5463 5466 5469 5472 5475 5478 5481 5484 5487 5490 5493 5496 5499 5502 5504 5506 5509 5512 5515 5518 5521 5524 5527 5530 5533 5536 5539 5542 5545 5548 5551 5554 5557 5560 5563 5566 5569 5572 5575 5578 5581 5584 5587 5590 5593 5595 5598 5600 5603 5606 5609 5611 5614 5616 5619 5622 5625 5628 5631 5634 5637 5640 5643 5646 5649 5652 5655 5658 5661 5664 5667 5670 5673 5676 5679 5682 5685 5688 5691 5694 5697 5700 5703 5706 5709 5712 5715 5718 5721 5724 5727 5730 5733 5735 5738 5741 5744 5747 5750 5753 5756 5759 5762 5765 5768 5771 5774 5777 5780 5783 5786 5789 5792 5795 5798 5801 5804 5807 5810 5812 5815 5818 5821 5824 5827 5830 5832 5835 5837 5839 5842 5845 5847 5850 5853 5856 5859 5862 5865 5868 5871 5874 5876 5879 5882 5885 5888 5891 5894 5897 5900 5903 5906 5909 5912 5915 5918 5921 5924 5927 5930 5933 5936 5938 5941 5944 5947 5950 5953 5956 5959 5962 5964 5967 5970 5973 5976 5978 5981 5984 5986 5989 5992 5995 5997 6000 6003 6006 6009 6012 6015 6017 6020 6023 6025 6028 6031 6034 6037 6040 6043 6046 6049 6051 6054 6057 6060 6063 6066 6069 6072 6075 6078 6081 6084 6087 6090 6093 6096 6099 6102 6105 6108 6111 6114 6117 6120 6123 6126 6129 6131 6134 6137 6140 6143 6146 6149 6152 6155 6158 6161 6164 6167 6170 6173 6176 6179 6182 6185 6188 6191 6194 6197 6200 6202 6205 6208 6211 6214 6217 6220 6223 6226 6229 6232 6234 6237 6240 6242 6245 6248 6251 6254 6257 6260 6263 6266 6269 6272 6275 6278 6281 6284 6287 6290 6293 6296 6299 6302 6305 6308 6311 6314 6317 6320 6323 6326 6329 6332 6335 6337 6340 6343 6346 6349 6352 6355 6357 6360 6362 6365 6368 6370 6373 6376 6379 6382 6385 6388 6391 6394 6397 6400 6403 6406 6409 6412 6415 6418 6421 6424 6426 6429 6431 6433 6436 6439 6442 6445 6448 6450 6453 6456 6459 6462 6465 6468 6471 6473 6476 6479 6481 6484 6487 6490 6493 6496 6499 6502 6504 6507 6510 6513 6516 6519 6522 6525 6528 6530 6533 6536 6539 6541 6543 6546 6549 6552 6554 6557 6560 6562 6565 6567 6570 6573 6576 6579 6581 6583 6586 6589 6592 6595 6598 6601 6604 6607 6609 6612 6614 6616 6619 6622 6625 6628 6631 6634 6637 6640 6643 6646 6649 6651 6654 6657 6660 6663 6666 6669 6672 6675 6677 6680 6683 6686 6688 6691 6694 6697 6700 6702 6704 6707 6710 6712 6715 6718 6721 6723 6726 6729 6732 6735 6737 6740 6742 6745 6747 6749 6752 6755 6757 6760 6763 6766 6769 6772 6774 6777 6780 6783 6786 6789 6791 6794 6796 6799 6802 6805 6808 6811 6814 6816 6819 6821 6824 6827 6830 6833 6836 6839 6842 6844 6847 6850 6853 6856 6859 6861 6864 6867 6870 6872 6874 6876 6879 6881 6884 6887 6890 6892 6894 6897 6899 6902 6905 6908 6911 6914 6917 6920 6923 6926 6929 6932 6935 6938 6941 6943 6946 6949 6952 6954 6956 6959 6962 6965 6968 6971 6974 6977 6980 6982 6985 6988 6991 6993 6996 6999 7001 7004 7007 7010 7012 7014 7017 7020 7023 7026 7029 7032 7034 7037 7040 7043 7046 7048 7051 7054 7057 7059 7062 7065 7068 7071 7073 7076 7079 7082 7085 7088 7091 7094 7097 7100 7103 7106 7108 7111 7114 7116 7119 7122 7124 7127 7129 7132 7135 7138 7141 7144 7147 7150 7153 7156 7158 7161 7164 7167 7170 7173 7176 7179 7182 7185 7188 7190 7193 7196 7199 7202 7205 7208 7211 7214 7217 7220 7223 7226 7228 7231 7234 7237 7240 7243 7246 7249 7252 7255 7258 7261 7264 7267 7270 7273 7276 7279 7282 7285 7288 7291 7294 7297 7300 7303 7306 7309 7312 7315 7318 7320 7323 7326 7328 7331 7333 7336 7339 7342 7345 7348 7351 7353 7356 7359 7362 7365 7368 7370 7373 7376 7378 7381 7384 7387 7389 7392 7395 7398 7401 7404 7407 7410 7413 7416 7419 7422 7425 7428 7431 7434 7437 7439 7442 7445 7448 7450 7453 7455 7457 7460 7463 7466 7469 7471 7474 7477 7480 7483 7486 7488 7491 7494 7497 7500 7503 7506 7509 7512 7515 7518 7521 7523 7526 7529 7532 7535 7538 7541 7544 7547 7550 7553 7556 7558 7561 7564 7567 7570 7572 7575 7578 7581 7584 7587 7590 7593 7596 7599 7602 7605 7608 7611 7614 7617 7620 7623 7626 7629 7632 7635 7638 7640 7643 7646 7649 7652 7655 7658 7661 7664 7667 7670 7673 7676 7679 7682 7685 7688 7691 7694 7696 7699 7702 7705 7707 7710 7713 7716 7719 7722 7725 7728 7731 7734 7737 7740 7743 7746 7749 7751 7754 7756 7759 7761 7764 7767 7770 7773 7776 7779 7782 7784 7787 7790 7793 7795 7798 7801 7804 7807 7810 7813 7816 7819 7822 7825 7828 7831 7834 7837 7840 7843 7846 7848 7851 7854 7857 7859 7862 7865 7867 7869 7872 7875 7878 7881 7883 7886 7889 7892 7895 7898 7901 7904 7907 7910 7913 7916 7919 7921 7924 7927 7930 7933 7936 7939 7942 7945 7948 7951 7953 7956 7958 7961 7964 7967 7969 7972 7974 7977 7980 7983 7985 7988 7991 7993 7996 7999 8002 8005 8007 8010 8013 8016 8019 8021 8024 8027 8030 8032 8034 8037 8039 8042 8044 8047 8050 8052 8055 8058 8061 8064 8067 8070 8073 8076 8079 8082 8084 8086 8089 8092 8095 8098 8101 8103 8106 8108 8111 8114 8116 8119 8122 8125 8127 8130 8132 8134 8137 8139 8142 8145 8147 8149 8152 8155 8157 8160 8163 8165 8168 8171 8174 8177 8180 8183 8186 8189 8191 8194 8197 8200 8203 8206 8208 8211 8214 8217 8220 8223 8226 8229 8232 8234 8236 8239 8242 8245 8247 8249 8252 8254 8257 8260 8263 8265 8268 8270 8273 8276 8279 8282 8284 8287 8289 8291 8294 8297 8300 8303 8306 8309 8312 8315 8317 8320 8323 8326 8329 8332 8335 8338 8341 8344 8346 8349 8352 8355 8358 8361 8364 8367 8370 8372 8375 8377 8380 8383 8386 8389 8391 8394 8397 8400 8403 8406 8409 8411 8414 8417 8420 8423 8426 8428 8431 8433 8436 8439 8442 8445 8448 8451 8454 8457 8460 8463 8465 8468 8471 8474 8477 8480 8483 8485 8488 8491 8494 8497 8500 8503 8506 8509 8512 8515 8518 8520 8523 8526 8529 8532 8535 8537 8539 8542 8545 8547 8550 8553 8556 8558 8561 8563 8566 8569 8572 8575 8578 8581 8584 8587 8590 8593 8596 8598 8600 8603 8606 8609 8612 8614 8617 8620 8623 8626 8628 8631 8634 8636 8639 8642 8645 8648 8651 8654 8657 8660 8663 8666 8669 8672 8675 8678 8681 8684 8686 8689 8692 8695 8698 8701 8703 8706 8709 8711 8714 8717 8720 8722 8725 8728 8731 8733 8736 8739 8742 8745 8748 8751 8754 8757 8760 8763 8766 8769 8772 8774 8777 8780 8783 8786 8788 8791 8794 8797 8800 8803 8806 8809 8812 8815 8817 8820 8823 8826 8828 8831 8834 8837 8840 8843 8845 8848 8851 8854 8857 8860 8863 8866 8869 8872 8875 8878 8881 8884 8887 8890 8893 8896 8899 8902 8905 8908 8911 8914 8917 8919 8922 8925 8928 8931 8934 8937 8940 8942 8945 8948 8951 8954 8957 8959 8962 8965 8968 8971 8974 8977 8980 8983 8986 8988 8991 8994 8996 8999 9002 9005 9008 9011 9014 9017 9020 9023 9026 9029 9031 9034 9037 9040 9043 9046 9049 9052 9055 9058 9060 9063 9066 9069 9072 9075 9078 9081 9083 9086 9089 9092 9095 9098 9101 9104 9107 9110 9113 9116 9119 9122 9125 9127 9130 9133 9136 9139 9142 9145 9148 9151 9154 9157 9159 9162 9165 9168 9171 9174 9177 9180 9183 9186 9189 9192 9195 9198 9201 9204 9207 9210 9213 9216 9219 9222 9225 9228 9230 9233 9236 9239 9242 9245 9248 9251 9254 9257 9260 9263 9266 9269 9272 9275 9278 9280 9283 9285 9288 9291 9294 9297 9299 9302 9305 9308 9311 9314 9317 9320 9323 9326 9329 9332 9335 9338 9341 9344 9347 9350 9353 9356 9359 9362 9365 9368 9371 9374 9377 9380 9383 9386 9389 9392 9395 9398 9400 9403 9406 9409 9412 9415 9418 9421 9424 9427 9430 9432 9435 9438 9441 9444 9447 9450 9453 9456 9459 9461 9464 9467 9470 9473 9476 9478 9481 9484 9487 9490 9492 9495 9498 9501 9504 9507 9510 9513 9516 9519 9521 9524 9527 9530 9533 9536 9539 9542 9545 9547 9550 9553 9556 9559 9562 9565 9568 9571 9574 9577 9580 9583 9586 9589 9592 9595 9598 9601 9604 9606 9609 9612 9614 9617 9620 9622 9625 9628 9631 9634 9637 9640 9643 9645 9648 9651 9654 9656 9659 9662 9665 9668 9671 9674 9677 9680 9683 9686 9688 9691 9694 9697 9700 9703 9705 9708 9710 9713 9716 9719 9722 9725 9728 9731 9733 9736 9738 9741 9744 9747 9750 9753 9756 9759 9762 9765 9768 9771 9774 9777 9779 9782 9785 9788 9791 9794 9797 9799 9802 9805 9807 9810 9813 9815 9818 9821 9824 9827 9830 9833 9836 9839 9842 9845 9848 9851 9854 9856 9859 9862 9865 9868 9871 9874 9877 9880 9883 9886 9888 9891 9893 9896 9899 9902 9905 9908 9911 9914 9917 9920 9923 9926 9929 9932 9934 9937 9939 9942 9945 9947 9950 9953 9956 9959 9962 9965 9967 9969 9972 9975 9978 9980 9983 9986 9989 9992 9995 9998 10001 10003 10006 10009 10012 10015 10018 10021 10024 10027 10030 10033 10036 10039 10042 10045 10048 10051 10054 10057 10060 10063 10066 10069 10072 10075 10078 10080 10083 10086 10089 10091 10094 10097 10100 10103 10106 10109 10112 10115 10118 10121 10124 10127 10130 10133 10136 10139 10142 10144 10147 10150 10153 10156 10159 10162 10165 10168 10171 10173 10176 10179 10182 10185 10188 10191 10194 10197 10200 10203 10206 10209 10211 10214 10217 10220 10223 10226 10229 10232 10235 10238 10241 10244 10246 10249 10252 10255 10258 10261 10264 10267 10270 10273 10276 10279 10282 10285 10288 10291 10293 10296 10299 10302 10305 10308 10311 10314 10316 10319 10322 10325 10328 10331 10334 10337 10340 10343 10346 10349 10352 10355 10358 10361 10364 10367 10370 10373 10376 10378 10381 10384 10387 10390 10393 10396 10398 10401 10404 10407 10410 10413 10416 10419 10422 10425 10428 10431 10434 10436 10439 10442 10445 10448 10451 10454 10457 10459 10462 10464 10466 10469 10472 10475 10478 10481 10484 10487 10490 10493 10496 10499 10502 10505 10508 10511 10514 10516 10519 10522 10525 10528 10531 10534 10537 10540 10543 10546 10548 10551 10554 10556 10559 10562 10565 10568 10571 10574 10577 10580 10583 10586 10589 10592 10595 10598 10601 10604 10607 10610 10612 10615 10618 10621 10624 10627 10630 10633 10636 10639 10642 10645 10648 10651 10654 10657 10660 10663 10666 10669 10672 10675 10678 10681 10683 10686 10689 10692 10695 10698 10701 10703 10706 10709 10711 10714 10717 10720 10723 10726 10729 10731 10734 10736 10738 10741 10743 10746 10749 10752 10755 10757 10759 10762 10764 10766 10769 10772 10774 10776 10778 10781 10784 10786 10789 10792 10795 10798 10801 10804 10807 10810 10813 10816 10819 10822 10825 10828 10830 10833 10836 10839 10841 10844 10847 10850 10852 10854 10857 10859 10862 10865 10868 10871 10874 10877 10879 10882 10885 10887 10890 10893 10896 10899 10901 10903 10906 10909 10912 10915 10918 10921 10924 10927 10930 10933 10936 10939 10942 10945 10948 10951 10954 10957 10960 10963 10966 10969 10971 10974 10977 10979 10982 10985 10988 10991 10994 10997 11000 11002 11005 11008 11011 11014 11016 11019 11022 11025 11028 11031 11033 11036 11038 11041 11044 11047 11050 11053 11055 11058 11061 11063 11066 11068 11071 11074 11077 11080 11083 11086 11088 11091 11093 11096 11099 11102 11105 11108 11111 11114 11117 11120 11123 11126 11129 11132 11134 11137 11139 11142 11145 11148 11151 11154 11157 11160 11163 11166 11169 11172 11175 11178 11181 11183 11185 11188 11191 11194 11197 11200 11203 11206 11208 11211 11214 11217 11220 11222 11225 11228 11231 11233 11236 11238 11241 11244 11247 11250 11253 11256 11258 11261 11263 11266 11268 11271 11273 11276 11278 11280 11282 11285 11288 11290 11293 11296 11299 11302 11305 11308 11310 11313 11316 11319 11321 11324 11327 11330 11332 11335 11338 11341 11344 11347 11350 11352 11355 11358 11360 11363 11366 11369 11372 11375 11377 11380 11382 11385 11388 11390 11393 11396 11399 11402 11405 11408 11411 11414 11417 11420 11423 11426 11429 11432 11435 11438 11440 11443 11446 11449 11452 11455 11458 11461 11464 11467 11470 11473 11476 11479 11482 11485 11488 11491 11494 11497 11500 11503 11506 11509 11512 11515 11518 11521 11524 11527 11530 11533 11536 11539 11542 11545 11548 11551 11554 11557 11559 11562 11565 11568 11571 11574 11577 11580 11583 11585 11587 11589 11591 11593 11596 11598 11601 11604 11607 11609 11612 11615 11618 11621 11623 11626 11628 11631 11634 11636 11639 11641 11644 11646 11649 11652 11655 11657 11660 11663 11666 11669 11671 11674 11677 11680 11682 11685 11688 11691 11694 11697 11700 11703 11706 11709 11711 11714 11717 11720 11723 11726 11728 11731 11734 11737 11740 11743 11745 11748 11751 11754 11757 11760 11763 11766 11769 11772 11775 11778 11781 11784 11787 11790 11793 11795 11798 11801 11804 11807 11810 11813 11816 11818 11820 11823 11826 11828 11831 11834 11837 11839 11841 11844 11847 11849 11852 11855 11857 11860 11863 11866 11869 11872 11875 11878 11881 11884 11887 11890 11893 11896 11899 11901 11903 11905 11908 11911 11914 11916 11919 11921 11924 11927 11930 11933 11936 11939 11941 11944 11947 11950 11952 11955 11958 11961 11963 11965 11968 11971 11973 11976 11979 11981 11984 11987 11989 11991 11994 11997 11999 12002 12005 12008 12011 12013 12015 12018 12020 12023 12025 12028 12031 12034 12037 12040 12043 12046 12049 12052 12055 12058 12061 12064 12067 12070 12073 12076 12079 12082 12085 12088 12091 12094 12097 12099 12102 12105 12108 12111 12114 12117 12120 12123 12126 12129 12132 12135 12138 12141 12144 12147 12150 12153 12156 12159 12162 12164 12167 12170 12173 12176 12179 12182 12185 12188 12190 12193 12196 12199 12202 12205 12208 12211 12214 12217 12220 12223 12226 12228 12231 12234 12237 12239 12242 12245 12248 12251 12253 12256 12259 12262 12264 12267 12270 12273 12276 12279 12282 12285 12288 12291 12294 12297 12300 12302 12305 12308 12311 12314 12317 12320 12323 12326 12329 12332 12334 12337 12340 12343 12346 12349 12352 12355 12358 12361 12364 12367 12369 12372 12375 12378 12380 12383 12386 12388 12391 12394 12397 12400 12403 12406 12409 12412 12415 12418 12421 12424 12427 12430 12432 12435 12437 12440 12443 12446 12449 12452 12455 12458 12461 12464 12467 12470 12473 12476 12479 12482 12485 12488 12491 12494 12497 12500 12502 12505 12508 12510 12513 12516 12519 12522 12525 12528 12531 12534 12537 12540 12543 12546 12549 12552 12555 12558 12561 12564 12567 12570 12573 12576 12578 12581 12584 12587 12590 12593 12596 12599 12602 12605 12608 12611 12613 12616 12619 12622 12625 12628 12631 12633 12636 12639 12641 12644 12647 12650 12652 12655 12657 12660 12663 12666 12669 12672 12674 12676 12679 12681 12684 12686 12689 12692 12694 12696 12699 12701 12704 12707 12710 12713 12716 12719 12722 12724 12727 12730 12732 12735 12738 12740 12742 12745 12748 12751 12754 12757 12759 12762 12765 12767 12769 12772 12775 12778 12781 12784 12787 12789 12792 12795 12798 12801 12804 12806 12809 12812 12815 12818 12821 12823 12826 12829 12831 12834 12837 12840 12843 12845 12848 12851 12854 12857 12860 12863 12866 12869 12872 12875 12878 12881 12884 12887 12890 12893 12896 12899 12901 12904 12907 12909 12912 12915 12918 12921 12924 12927 12930 12933 12936 12939 12942 12944 12947 12950 12953 12956 12959 12962 12965 12967 12970 12972 12975 12978 12981 12984 12986 12989 12992 12995 12998 13001 13004 13007 13010 13013 13016 13019 13022 13025 13027 13030 13033 13036 13039 13042 13045 13047 13050 13053 13056 13059 13062 13065 13068 13071 13074 13077 13080 13083 13086 13089 13092 13095 13098 13101 13104 13107 13110 13113 13115 13118 13121 13124 13127 13130 13133 13135 13138 13141 13144 13147 13150 13153 13155 13158 13161 13164 13167 13169 13172 13175 13178 13180 13183 13186 13188 13191 13194 13197 13200 13202 13205 13208 13211 13214 13217 13219 13222 13224 13227 13230 13233 13235 13237 13239 13242 13245 13248 13251 13254 13257 13260 13263 13266 13269 13272 13275 13278 13281 13284 13287 13290 13293 13296 13299 13302 13305 13308 13311 13314 13317 13320 13323 13326 13329 13332 13335 13338 13341 13344 13347 13350 13353 13356 13359 13362 13365 13368 13371 13374 13377 13380 13383 13386 13389 13392 13395 13398 13401 13404 13407 13410 13413 13416 13419 13422 13425 13428 13431 13434 13437 13440 13443 13446 13449 13452 13455 13458 13461 13463 13466 13469 13472 13475 13478 13481 13484 13487 13490 13493 13496 13499 13502 13505 13508 13511 13514 13517 13520 13523 13525 13528 13531 13534 13537 13540 13543 13546 13549 13552 13554 13557 13560 13562 13565 13568 13571 13574 13577 13580 13583 13585 13588 13591 13594 13597 13600 13603 13606 13609 13612 13614 13617 13620 13623 13626 13629 13632 13635 13638 13641 13644 13647 13650 13653 13655 13658 13661 13664 13666 13669 13672 13675 13678 13681 13684 13687 13690 13693 13696 13698 13701 13704 13707 13710 13713 13716 13719 13722 13725 13728 13731 13733 13736 13739 13742 13745 13747 13750 13753 13756 13759 13762 13764 13767 13770 13773 13775 13778 13781 13784 13787 13790 13793 13796 13799 13802 13805 13808 13811 13814 13817 13820 13823 13826 13829 13832 13835 13838 13840 13843 13846 13849 13851 13854 13857 13859 13862 13865 13868 13870 13873 13876 13879 13882 13885 13888 13891 13894 13897 13900 13902 13905 13907 13910 13913 13915 13918 13921 13924 13926 13929 13932 13935 13937 13939 13942 13945 13947 13950 13953 13956 13959 13962 13965 13968 13971 13974 13977 13980 13983 13986 13989 13992 13995 13998 14001 14004 14007 14009 14011 14014 14017 14020 14023 14026 14029 14032 14035 14038 14041 14044 14047 14050 14053 14056 14058 14061 14064 14067 14070 14073 14075 14078 14081 14084 14087 14090 14092 14095 14098 14101 14104 14107 14110 14113 14115 14118 14121 14124 14126 14129 14132 14135 14138 14141 14144 14147 14149 14152 14155 14158 14161 14164 14167 14170 14173 14176 14179 14182 14185 14188 14191 14194 14197 14200 14203 14206 14209 14212 14215 14218 14221 14224 14227 14230 14233 14235 14238 14241 14243 14245 14248 14251 14254 14257 14260 14263 14266 14269 14271 14274 14277 14280 14283 14286 14289 14292 14295 14298 14301 14304 14307 14310 14312 14315 14318 14320 14323 14326 14329 14332 14335 14338 14341 14344 14347 14350 14353 14356 14359 14362 14365 14368 14371 14374 14377 14380 14383 14386 14388 14391 14394 14397 14400 14403 14406 14408 14411 14414 14417 14420 14423 14426 14429 14432 14435 14438 14441 14444 14447 14450 14453 14456 14459 14462 14465 14468 14471 14474 14477 14480 14483 14486 14489 14492 14495 14498 14500 14503 14506 14508 14511 14514 14517 14520 14523 14526 14529 14531 14534 14537 14540 14543 14546 14549 14551 14554 14556 14559 14562 14565 14568 14571 14574 14577 14580 14582 14585 14588 14591 14593 14596 14599 14602 14605 14607 14610 14613 14616 14619 14622 14625 14627 14629 14631 14634 14637 14640 14643 14646 14649 14651 14654 14657 14660 14663 14666 14669 14672 14675 14678 14681 14684 14687 14690 14693 14696 14699 14702 14705 14708 14711 14714 14717 14720 14723 14726 14729 14732 14735 14738 14741 14744 14747 14750 14753 14756 14759 14762 14765 14768 14771 14774 14777 14780 14783 14786 14789 14792 14795 14798 14801 14804 14807 14810 14813 14816 14819 14822 14825 14828 14831 14834 14837 14840 14843 14846 14849 14852 14855 14858 14861 14864 14867 14870 14873 14876 14879 14882 14885 14888 14891 14894 14897 14900 14903 14906 14909 14912 14915 14918 14921 14924 14927 14930 14933 14936 14939 14942 14945 14948 14951 14954 14957 14960 14963 14966 14969 14972 14975 14978 14981 14984 14987 14990 14993 14996 14999 15002 15005 15008 15011 15014 15017 15020 15023 15026 15029 15031 15034 15037 15040 15042 15045 15048 15050 15052 15055 15058 15061 15064 15067 15070 15073 15075 15078 15081 15084 15087 15089 15092 15094 15097 15100 15103 15106 15109 15112 15115 15117 15120 15123 15126 15128 15131 15134 15137 15140 15142 15145 15148 15150 15153 15155 15158 15160 15163 15165 15168 15171 15174 15177 15180 15183 15186 15189 15192 15195 15198 15201 15204 15207 15210 15213 15216 15219 15222 15225 15228 15231 15234 15237 15239 15241 15244 15247 15249 15252 15255 15257 15260 15263 15266 15269 15272 15275 15278 15280 15282 15285 15288 15291 15294 15297 15300 15303 15306 15309 15312 15315 15318 15321 15324 15327 15329 15332 15334 15337 15340 15343 15346 15349 15352 15355 15357 15359 15362 15365 15368 15371 15374 15377 15380 15383 15386 15389 15392 15394 15397 15399 15402 15405 15408 15410 15412 15415 15418 15420 15423 15426 15429 15432 15435 15438 15441 15444 15447 15450 15453 15456 15459 15462 15465 15468 15471 15474 15477 15480 15483 15486 15488 15491 15494 15496 15499 15502 15505 15508 15511 15514 15517 15519 15522 15525 15528 15530 15533 15536 15539 15542 15545 15547 15550 15552 15555 15558 15561 15564 15567 15570 15573 15576 15579 15582 15584 15587 15589 15592 15595 15598 15601 15604 15607 15610 15612 15615 15618 15620 15623 15626 15629 15632 15635 15638 15641 15643 15646 15648 15651 15654 15656 15659 15661 15664 15667 15670 15673 15675 15678 15680 15683 15686 15689 15692 15695 15698 15700 15703 15705 15708 15710 15713 15716 15718 15721 15724 15727 15730 15733 15735 15738 15740 15743 15746 15749 15752 15754 15757 15759 15762 15765 15768 15771 15773 15776 15779 15782 15785 15788 15791 15794 15797 15800 15803 15806 15809 15812 15815 15818 15821 15824 15827 15830 15833 15836 15839 15841 15844 15847 15850 15853 15856 15859 15862 15865 15868 15871 15873 15876 15878 15881 15884 15887 15889 15892 15895 15898 15901 15904 15907 15910 15913 15916 15919 15921 15924 15926 15928 15931 15934 15937 15939 15942 15945 15947 15950 15953 15956 15959 15961 15963 15965 15968 15971 15974 15976 15979 15982 15985 15988 15991 15994 15997 16000 16003 16006 16009 16012 16015 16018 16021 16024 16026 16029 16032 16035 16038 16041 16044 16047 16049 16052 16055 16058 16061 16064 16067 16070 16073 16076 16079 16082 16085 16088 16090 16093 16096 16099 16102 16105 16107 16110 16113 16116 16119 16121 16124 16127 16130 16133 16136 16139 16142 16145 16148 16151 16154 16157 16160 16163 16166 16169 16172 16175 16178 16181 16184 16187 16190 16193 16196 16199 16202 16205 16208 16211 16214 16217 16220 16223 16226 16229 16232 16235 16238 16241 16244 16247 16250 16253 16256 16259 16262 16265 16268 16271 16274 16277 16280 16283 16286 16289 16292 16295 16298 16300 16303 16305 16307 16310 16313 16315 16318 16320 16323 16326 16329 16332 16335 16338 16340 16343 16346 16349 16352 16355 16358 16361 16364 16367 16370 16373 16376 16379 16382 16385 16388 16391 16394 16397 16400 16403 16405 16408 16411 16414 16417 16420 16423 16425 16428 16431 16434 16437 16440 16443 16446 16449 16452 16455 16458 16460 16463 16466 16469 16472 16475 16478 16481 16484 16487 16490 16493 16496 16499 16502 16505 16508 16511 16514 16517 16520 16523 16526 16529 16532 16535 16538 16541 16544 16547 16550 16553 16556 16559 16562 16564 16566 16569 16571 16574 16576 16579 16582 16585 16588 16591 16594 16597 16600 16602 16605 16608 16610 16613 16616 16618 16621 16624 16627 16630 16633 16636 16639 16642 16645 16648 16651 16654 16657 16659 16662 16664 16667 16670 16673 16675 16678 16680 16682 16684 16687 16690 16693 16695 16697 16700 16703 16706 16709 16712 16715 16718 16720 16723 16726 16729 16732 16734 16736 16739 16741 16744 16746 16749 16752 16755 16758 16761 16763 16765 16767 16770 16773 16776 16778 16781 16783 16785 16788 16790 16792 16795 16798 16801 16804 16807 16809 16812 16815 16817 16820 16823 16825 16827 16830 16833 16836 16839 16842 16844 16847 16850 16853 16856 16859 16861 16864 16867 16870 16873 16875 16878 16881 16884 16887 16889 16892 16895 16898 16901 16904 16906 16909 16912 16915 16917 16920 16923 16926 16929 16931 16934 16937 16939 16942 16944 16947 16949 16952 16954 16957 16960 16963 16966 16969 16972 16974 16977 16980 16983 16986 16989 16992 16995 16998 17000 17003 17006 17009 17011 17013 17016 17019 17022 17025 17028 17030 17033 17036 17039 17042 17045 17048 17050 17053 17056 17059 17062 17065 17068 17071 17074 17077 17080 17083 17086 17089 17092 17095 17098 17101 17104 17107 17110 17112 17115 17118 17121 17124 17127 17130 17133 17136 17139 17142 17145 17148 17151 17154 17157 17160 17163 17166 17169 17172 17175 17177 17180 17183 17186 17188 17191 17194 17197 17199 17202 17205 17208 17211 17214 17217 17220 17223 17225 17228 17231 17234 17237 17240 17243 17245 17248 17250 17253 17256 17258 17261 17264 17267 17269 17272 17275 17278 17280 17283 17286 17289 17292 17295 17297 17300 17303 17306 17308 17311 17314 17317 17320 17323 17326 17329 17332 17335 17338 17341 17344 17346 17349 17352 17355 17358 17360 17363 17366 17369 17372 17375 17378 17381 17384 17387 17390 17393 17395 17398 17401 17403 17406 17409 17412 17414 17417 17419 17422 17425 17428 17431 17434 17437 17440 17442 17445 17448 17451 17454 17457 17460 17463 17466 17469 17472 17475 17478 17481 17484 17487 17490 17493 17496 17499 17502 17505 17507 17510 17513 17516 17519 17521 17524 17527 17530 17532 17535 17538 17541 17544 17547 17550 17552 17555 17558 17561 17563 17566 17569 17572 17575 17578 17581 17584 17587 17590 17593 17596 17599 17601 17604 17607 17609 17611 17614 17617 17620 17622 17625 17628 17630 17633 17636 17639 17642 17644 17647 17650 17653 17656 17659 17661 17663 17666 17669 17672 17674 17677 17680 17683 17686 17689 17691 17694 17697 17700 17703 17706 17709 17712 17715 17718 17721 17724 17727 17730 17733 17736 17739 17742 17745 17748 17751 17754 17757 17760 17763 17766 17769 17772 17775 17778 17781 17784 17786 17789 17792 17795 17798 17801 17804 17807 17810 17813 17816 17819 17821 17824 17827 17830 17833 17836 17839 17842 17844 17847 17850 17853 17856 17859 17862 17864 17867 17870 17873 17876 17878 17881 17884 17887 17889 17892 17895 17898 17900 17903 17906 17909 17911 17914 17916 17919 17922 17925 17927 17929 17932 17934 17936 17939 17941 17944 17946 17949 17952 17955 17957 17960 17963 17966 17969 17972 17975 17978 17981 17984 17987 17989 17991 17994 17997 18000 18003 18006 18009 18011 18014 18016 18019 18022 18025 18027 18029 18032 18035 18038 18041 18044 18047 18049 18051 18053 18056 18059 18062 18065 18068 18071 18074 18077 18080 18083 18086 18089 18092 18095 18098 18101 18104 18107 18110 18113 18116 18118 18121 18124 18127 18130 18133 18136 18138 18140 18143 18146 18149 18152 18155 18158 18161 18164 18167 18170 18173 18176 18179 18182 18185 18188 18191 18194 18197 18199 18201 18204 18207 18210 18213 18215 18217 18220 18222 18224 18227 18230 18232 18235 18238 18240 18242 18244 18247 18250 18253 18256 18259 18262 18265 18268 18271 18273 18276 18279 18282 18285 18287 18290 18293 18295 18298 18301 18304 18307 18310 18312 18315 18318 18321 18323 18326 18329 18332 18335 18338 18341 18344 18347 18350 18353 18356 18359 18362 18364 18367 18370 18373 18376 18378 18381 18384 18387 18389 18392 18395 18398 18401 18404 18407 18410 18413 18416 18419 18422 18425 18427 18430 18432 18435 18438 18440 18443 18445 18448 18451 18454 18457 18460 18462 18465 18468 18471 18474 18477 18480 18483 18486 18489 18492 18495 18498 18501 18504 18507 18510 18513 18516 18519 18522 18525 18528 18531 18534 18537 18540 18543 18545 18548 18551 18554 18556 18559 18562 18565 18568 18571 18574 18577 18580 18582 18585 18588 18590 18593 18596 18599 18601 18604 18607 18610 18613 18616 18619 18622 18625 18628 18631 18634 18637 18640 18643 18646 18649 18652 18655 18658 18661 18664 18666 18669 18672 18674 18676 18679 18681 18684 18687 18689 18692 18695 18697 18700 18703 18706 18709 18712 18715 18718 18720 18723 18726 18729 18732 18735 18738 18741 18744 18747 18750 18752 18754 18757 18760 18763 18766 18769 18772 18775 18778 18781 18784 18787 18790 18793 18796 18799 18802 18805 18808 18811 18814 18817 18820 18823 18826 18829 18831 18834 18837 18840 18843 18846 18849 18852 18855 18858 18861 18863 18866 18869 18872 18875 18878 18881 18884 18887 18890 18893 18896 18899 18902 18905 18907 18909 18912 18915 18918 18921 18924 18927 18930 18933 18936 18939 18942 18945 18948 18951 18954 18957 18960 18963 18966 18969 18972 18975 18977 18979 18982 18985 18987 18989 18992 18995 18998 19001 19004 19007 19010 19013 19016 19019 19022 19024 19027 19030 19033 19036 19039 19042 19045 19048 19051 19053 19056 19059 19062 19065 19068 19071 19073 19076 19078 19081 19084 19087 19090 19092 19095 19097 19099 19102 19104 19106 19109 19112 19115 19118 19121 19124 19127 19130 19133 19136 19139 19142 19145 19148 19151 19154 19157 19159 19162 19165 19167 19170 19172 19175 19178 19181 19184 19187 19189 19192 19194 19197 19199 19202 19205 19207 19210 19212 19215 19218 19221 19224 19227 19230 19233 19236 19239 19241 19244 19247 19250 19253 19256 19259 19262 19265 19268 19271 19274 19277 19280 19283 19286 19289 19292 19295 19298 19301 19304 19306 19309 19312 19315 19318 19321 19324 19327 19330 19332 19335 19338 19341 19344 19347 19350 19353 19356 19358 19361 19364 19367 19370 19373 19376 19379 19382 19385 19388 19391 19393 19396 19399 19402 19405 19408 19410 19413 19416 19419 19422 19425 19428 19431 19433 19435 19438 19441 19444 19447 19450 19453 19456 19459 19462 19464 19467 19470 19473 19476 19479 19482 19485 19488 19491 19494 19496 19499 19502 19505 19508 19511 19514 19517 19520 19523 19526 19529 19531 19534 19537 19540 19543 19545 19548 19550 19552 19555 19558 19561 19564 19567 19570 19572 19575 19578 19581 19584 19586 19589 19592 19595 19598 19601 19604 19607 19610 19613 19615 19618 19620 19623 19626 19629 19632 19635 19638 19640 19643 19646 19648 19650 19653 19656 19658 19661 19663 19666 19668 19671 19674 19677 19680 19683 19685 19688 19691 19693 19696 19699 19702 19705 19708 19711 19713 19716 19719 19722 19724 19727 19729 19732 19735 19737 19740 19743 19746 19749 19752 19754 19757 19760 19763 19766 19769 19772 19775 19778 19781 19784 19787 19789 19791 19794 19797 19800 19803 19806 19809 19811 19814 19817 19820 19823 19826 19829 19832 19835 19838 19841 19844 19847 19850 19853 19856 19858 19861 19864 19866 19869 19872 19875 19878 19881 19884 19887 19890 19893 19896 19899 19902 19905 19908 19911 19914 19917 19920 19923 19926 19929 19932 19935 19938 19941 19944 19947 19950 19953 19956 19959 19962 19965 19968 19971 19974 19977 19980 19983 19986 19989 19992 19994 19997 20000 20003 20006 20009 20012 20015 20018 20021 20024 20027 20030 20033 20036 20039 20042 20045 20048 20051 20054 20057 20060 20063 20066 20068 20071 20074 20077 20080 20082 20085 20088 20091 20093 20096 20099 20102 20105 20108 20111 20114 20117 20120 20123 20126 20129 20132 20135 20138 20141 20144 20147 20150 20153 20156 20159 20162 20165 20168 20171 20174 20177 20180 20183 20186 20189 20192 20195 20198 20200 20203 20206 20209 20212 20215 20218 20221 20224 20226 20229 20232 20235 20238 20240 20243 20246 20249 20252 20255 20258 20261 20264 20267 20270 20273 20276 20279 20282 20285 20288 20291 20294 20297 20300 20303 20305 20308 20311 20314 20317 20319 20322 20325 20328 20331 20334 20337 20340 20343 20346 20349 20352 20355 20358 20361 20364 20366 20369 20371 20374 20377 20380 20383 20386 20389 20392 20395 20397 20400 20403 20406 20409 20412 20414 20417 20420 20423 20426 20429 20432 20435 20438 20441 20444 20447 20450 20453 20455 20458 20461 20463 20466 20469 20472 20474 20477 20480 20483 20486 20489 20492 20495 20497 20500 20503 20506 20509 20512 20515 20518 20521 20524 20527 20530 20533 20536 20539 20542 20545 20548 20551 20554 20557 20560 20563 20566 20569 20572 20575 20577 20580 20583 20586 20588 20591 20594 20597 20600 20603 20606 20609 20612 20615 20618 20621 20624 20627 20630 20633 20636 20639 20642 20645 20648 20651 20654 20657 20660 20663 20666 20669 20672 20675 20678 20681 20684 20687 20689 20692 20695 20698 20701 20704 20707 20710 20713 20716 20719 20722 20725 20728 20730 20733 20736 20739 20742 20745 20748 20751 20754 20757 20760 20762 20765 20768 20771 20774 20776 20779 20782 20785 20788 20791 20793 20796 20799 20802 20805 20808 20811 20814 20817 20820 20823 20826 20829 20832 20835 20838 20841 20844 20846 20849 20852 20855 20858 20861 20864 20867 20870 20873 20876 20879 20882 20885 20888 20891 20894 20897 20900 20903 20905 20908 20911 20914 20917 20920 20923 20926 20929 20931 20934 20937 20940 20943 20946 20948 20951 20954 20957 20960 20963 20966 20968 20971 20974 20977 20980 20983 20986 20989 20992 20995 20998 21001 21004 21007 21010 21013 21015 21017 21020 21023 21026 21029 21031 21034 21037 21040 21043 21045 21048 21051 21054 21057 21060 21063 21066 21069 21072 21075 21077 21080 21083 21085 21088 21090 21092 21095 21098 21101 21104 21106 21108 21111 21114 21117 21120 21123 21126 21129 21131 21134 21137 21140 21143 21145 21148 21151 21153 21156 21158 21160 21163 21166 21169 21171 21174 21177 21180 21182 21185 21188 21191 21194 21197 21200 21203 21206 21209 21212 21215 21218 21221 21223 21226 21228 21230 21233 21236 21239 21241 21244 21246 21249 21252 21254 21256 21259 21262 21265 21267 21269 21272 21275 21278 21281 21284 21287 21289 21292 21294 21297 21300 21303 21305 21308 21310 21313 21316 21319 21321 21324 21326 21329 21332 21335 21337 21340 21343 21345 21348 21351 21354 21356 21359 21362 21364 21367 21370 21373 21376 21379 21382 21385 21387 21389 21392 21395 21398 21401 21403 21406 21409 21412 21415 21418 21420 21423 21425 21428 21431 21434 21436 21438 21441 21444 21447 21450 21453 21456 21459 21462 21465 21467 21470 21473 21476 21479 21482 21484 21487 21490 21493 21496 21498 21501 21504 21507 21509 21512 21515 21518 21521 21523 21526 21529 21532 21535 21537 21540 21543 21546 21549 21552 21555 21558 21561 21564 21567 21570 21573 21576 21579 21582 21585 21588 21591 21594 21597 21599 21602 21605 21607 21610 21613 21615 21618 21620 21623 21626 21628 21630 21633 21636 21639 21642 21645 21648 21651 21654 21657 21659 21662 21665 21668 21671 21674 21677 21680 21683 21686 21689 21692 21695 21698 21701 21704 21707 21710 21713 21716 21719 21721 21724 21727 21730 21733 21736 21739 21742 21745 21748 21751 21754 21757 21760 21763 21766 21769 21771 21774 21777 21780 21783 21786 21789 21792 21795 21798 21800 21803 21806 21809 21812 21815 21818 21821 21824 21827 21830 21833 21836 21839 21842 21845 21848 21851 21853 21856 21859 21861 21864 21866 21869 21872 21875 21878 21881 21884 21887 21890 21893 21895 21898 21901 21904 21907 21910 21913 21916 21919 21921 21924 21927 21930 21933 21936 21939 21942 21945 21948 21951 21954 21957 21960 21963 21966 21969 21972 21975 21977 21980 21982 21985 21988 21991 21994 21996 21999 22002 22005 22008 22010 22013 22016 22019 22022 22025 22028 22031 22034 22037 22040 22043 22046 22049 22052 22055 22058 22060 22063 22066 22068 22070 22073 22076 22079 22082 22085 22088 22091 22093 22095 22098 22101 22104 22107 22109 22112 22115 22118 22121 22124 22127 22130 22133 22136 22139 22141 22144 22147 22150 22153 22156 22159 22162 22165 22167 22170 22173 22176 22179 22182 22185 22188 22191 22194 22196 22199 22202 22204 22207 22210 22212 22215 22218 22221 22224 22227 22230 22232 22235 22237 22240 22243 22246 22249 22251 22254 22257 22260 22262 22265 22268 22271 22274 22277 22279 22282 22285 22288 22291 22294 22297 22300 22303 22306 22308 22311 22314 22316 22319 22322 22325 22328 22331 22334 22337 22340 22343 22346 22349 22352 22355 22358 22361 22364 22367 22370 22373 22376 22378 22381 22384 22387 22390 22393 22396 22399 22402 22405 22408 22411 22413 22416 22419 22422 22425 22428 22431 22434 22437 22440 22442 22445 22448 22451 22454 22457 22460 22463 22466 22469 22472 22475 22478 22481 22484 22487 22490 22493 22496 22498 22501 22504 22507 22509 22511 22514 22517 22520 22523 22525 22527 22530 22533 22535 22538 22541 22544 22547 22550 22553 22555 22558 22561 22564 22567 22570 22573 22576 22579 22582 22585 22588 22591 22594 22597 22600 22603 22606 22609 22612 22615 22617 22620 22623 22626 22629 22632 22635 22638 22641 22644 22647 22649 22652 22654 22657 22660 22663 22666 22669 22672 22674 22677 22680 22683 22686 22689 22691 22694 22697 22700 22702 22705 22708 22711 22714 22716 22719 22722 22725 22727 22730 22733 22736 22739 22742 22745 22748 22751 22754 22757 22760 22763 22765 22768 22771 22774 22777 22780 22783 22785 22787 22790 22793 22796 22799 22802 22805 22808 22810 22813 22815 22818 22821 22823 22826 22829 22832 22835 22838 22841 22844 22847 22850 22853 22856 22859 22862 22865 22868 22871 22874 22877 22880 22882 22885 22888 22891 22894 22897 22900 22902 22905 22908 22911 22914 22917 22920 22923 22926 22929 22932 22935 22937 22940 22943 22946 22949 22951 22954 22957 22960 22962 22965 22968 22971 22974 22976 22979 22982 22984 22986 22989 22992 22995 22998 23001 23003 23006 23009 23012 23015 23018 23020 23022 23024 23027 23030 23033 23036 23039 23041 23043 23046 23048 23050 23053 23055 23058 23061 23064 23067 23070 23073 23076 23079 23082 23085 23088 23090 23093 23096 23099 23102 23104 23107 23110 23113 23115 23118 23120 23123 23125 23127 23130 23133 23136 23138 23141 23143 23145 23147 23150 23153 23156 23158 23161 23163 23166 23168 23171 23174 23177 23179 23182 23185 23188 23191 23194 23197 23200 23203 23206 23209 23212 23215 23218 23221 23224 23227 23230 23233 23236 23239 23242 23245 23248 23251 23254 23257 23260 23263 23265 23268 23271 23274 23277 23280 23283 23285 23288 23291 23294 23297 23300 23303 23306 23309 23312 23315 23318 23321 23324 23327 23330 23333 23336 23339 23342 23345 23348 23351 23354 23357 23360 23363 23366 23369 23372 23375 23378 23381 23384 23387 23390 23393 23396 23399 23402 23405 23408 23411 23414 23417 23420 23423 23426 23429 23432 23435 23437 23440 23443 23446 23449 23452 23455 23458 23461 23464 23467 23470 23473 23476 23479 23482 23485 23488 23491 23494 23497 23500 23503 23506 23509 23511 23513 23516 23519 23522 23525 23528 23531 23534 23537 23540 23543 23546 23549 23552 23555 23558 23561 23564 23567 23570 23573 23576 23579 23582 23584 23587 23590 23593 23596 23599 23602 23605 23608 23611 23614 23617 23620 23623 23626 23629 23632 23634 23636 23639 23642 23645 23648 23651 23653 23655 23657 23660 23663 23666 23668 23670 23673 23676 23679 23682 23685 23688 23691 23694 23697 23700 23703 23706 23709 23712 23715 23718 23720 23723 23725 23728 23731 23733 23736 23739 23742 23745 23748 23751 23754 23757 23760 23763 23766 23769 23772 23775 23778 23781 23784 23787 23790 23793 23796 23799 23802 23805 23808 23811 23814 23817 23820 23823 23826 23829 23832 23835 23838 23840 23843 23846 23849 23852 23855 23858 23861 23864 23867 23870 23873 23876 23879 23882 23885 23887 23890 23893 23896 23899 23902 23905 23908 23911 23914 23917 23920 23923 23926 23929 23931 23934 23937 23940 23943 23946 23949 23952 23955 23958 23961 23964 23967 23970 23973 23976 23979 23982 23985 23988 23991 23994 23997 24000 24003 24006 24009 24012 24015 24018 24021 24024 24026 24029 24032 24035 24038 24041 24044 24046 24049 24052 24055 24058 24061 24064 24067 24070 24072 24075 24077 24080 24083 24086 24089 24092 24095 24098 24101 24103 24106 24109 24112 24115 24118 24121 24124 24127 24130 24133 24136 24139 24142 24145 24148 24151 24154 24157 24160 24163 24166 24169 24172 24175 24178 24181 24184 24187 24190 24193 24195 24198 24201 24204 24207 24210 24213 24216 24219 24222 24225 24228 24231 24234 24236 24238 24241 24244 24246 24248 24251 24254 24257 24260 24263 24265 24268 24271 24274 24277 24280 24283 24285 24288 24291 24294 24297 24300 24302 24305 24307 24310 24312 24315 24318 24320 24323 24326 24329 24332 24335 24338 24341 24343 24346 24348 24351 24354 24356 24359 24362 24365 24368 24370 24373 24376 24379 24381 24384 24387 24390 24393 24396 24398 24401 24403 24406 24409 24411 24414 24417 24420 24422 24425 24427 24430 24433 24436 24439 24442 24445 24448 24450 24453 24456 24458 24460 24463 24465 24467 24470 24473 24476 24478 24481 24483 24485 24487 24490 24493 24496 24499 24502 24504 24507 24510 24513 24516 24519 24522 24524 24527 24530 24533 24535 24538 24540 24543 24546 24549 24552 24555 24558 24561 24564 24567 24570 24573 24576 24579 24582 24585 24588 24591 24593 24596 24599 24601 24604 24607 24610 24613 24616 24619 24622 24625 24628 24630 24633 24636 24639 24642 24645 24648 24651 24654 24656 24659 24662 24665 24667 24670 24672 24675 24678 24680 24683 24686 24689 24692 24694 24697 24700 24703 24706 24709 24712 24715 24717 24720 24722 24725 24728 24731 24734 24737 24740 24743 24745 24748 24751 24754 24756 24759 24761 24764 24767 24769 24771 24774 24777 24780 24783 24786 24788 24791 24794 24797 24800 24803 24806 24809 24812 24815 24818 24821 24824 24827 24830 24833 24836 24839 24842 24844 24846 24849 24852 24855 24858 24861 24864 24866 24869 24872 24874 24876 24879 24882 24884 24887 24889 24892 24895 24897 24900 24903 24906 24908 24911 24914 24916 24919 24922 24925 24928 24930 24933 24936 24939 24942 24945 24948 24950 24953 24956 24959 24962 24964 24966 24969 24971 24973 24976 24979 24982 24985 24988 24991 24994 24997 25000 25003 25006 25009 25012 25015 25018 25021 25024 25027 25030 25033 25036 25039 25042 25045 25048 25051 25054 25057 25060 25063 25065 25068 25071 25073 25076 25079 25082 25085 25088 25091 25094 25097 25100 25103 25105 25108 25111 25114 25117 25120 25123 25126 25129 25131 25134 25137 25140 25143 25146 25149 25152 25154 25157 25160 25163 25165 25168 25171 25174 25176 25179 25181 25184 25187 25190 25193 25196 25199 25201 25204 25206 25209 25212 25215 25217 25220 25223 25226 25229 25232 25235 25238 25241 25244 25247 25250 25253 25256 25259 25262 25265 25268 25271 25273 25275 25277 25280 25282 25285 25288 25291 25294 25297 25300 25302 25305 25307 25310 25313 25316 25319 25321 25324 25327 25329 25331 25334 25337 25340 25343 25346 25348 25351 25353 25356 25359 25362 25364 25367 25370 25372 25374 25377 25380 25383 25386 25388 25391 25394 25396 25399 25402 25405 25407 25410 25413 25416 25418 25421 25423 25426 25429 25432 25435 25438 25441 25444 25447 25449 25452 25455 25458 25461 25464 25467 25470 25473 25475 25478 25481 25484 25487 25489 25492 25494 25497 25500 25502 25505 25508 25510 25513 25516 25519 25522 25524 25527 25530 25533 25536 25539 25542 25545 25548 25551 25554 25557 25560 25563 25566 25569 25572 25575 25578 25581 25584 25587 25590 25592 25595 25598 25601 25604 25607 25610 25613 25616 25619 25622 25625 25628 25631 25634 25637 25640 25643 25646 25649 25652 25655 25658 25661 25664 25667 25670 25673 25676 25679 25682 25685 25688 25690 25693 25695 25697 25700 25703 25706 25709 25712 25715 25718 25720 25723 25726 25729 25732 25735 25738 25740 25743 25746 25749 25751 25754 25757 25760 25763 25766 25769 25772 25775 25778 25781 25784 25786 25789 25792 25794 25797 25800 25803 25806 25808 25811 25814 25816 25819 25822 25825 25828 25831 25834 25837 25839 25842 25845 25848 25851 25854 25857 25860 25863 25866 25869 25872 25874 25877 25880 25883 25886 25889 25892 25895 25898 25901 25904 25907 25910 25913 25915 25918 25921 25924 25926 25929 25932 25935 25938 25941 25944 25947 25950 25953 25956 25959 25962 25965 25968 25971 25974 25977 25980 25983 25986 25989 25992 25995 25998 26001 26004 26007 26010 26013 26016 26019 26022 26025 26028 26031 26033 26036 26039 26042 26045 26048 26050 26053 26056 26058 26061 26064 26067 26069 26071 26074 26077 26080 26083 26086 26089 26091 26094 26097 26100 26103 26106 26109 26112 26115 26118 26121 26124 26127 26130 26133 26136 26139 26142 26145 26148 26151 26154 26157 26160 26163 26165 26168 26171 26174 26177 26180 26183 26185 26188 26191 26193 26196 26199 26202 26205 26208 26211 26213 26216 26218 26221 26224 26227 26229 26232 26235 26237 26240 26243 26246 26249 26251 26254 26257 26260 26262 26265 26268 26270 26272 26275 26278 26280 26283 26286 26288 26290 26293 26295 26298 26301 26304 26306 26308 26310 26313 26316 26319 26321 26324 26327 26330 26332 26335 26338 26341 26344 26346 26349 26352 26355 26358 26361 26364 26367 26370 26373 26376 26379 26382 26385 26388 26390 26393 26395 26398 26401 26404 26407 26410 26412 26415 26418 26421 26424 26427 26430 26433 26435 26437 26440 26443 26446 26449 26452 26455 26458 26460 26463 26465 26467 26469 26472 26475 26478 26481 26484 26487 26490 26492 26495 26498 26500 26503 26505 26508 26510 26513 26516 26518 26521 26524 26527 26530 26533 26536 26539 26542 26545 26548 26551 26554 26557 26560 26563 26565 26568 26571 26574 26577 26580 26583 26586 26589 26592 26595 26598 26600 26603 26606 26609 26612 26614 26617 26620 26623 26626 26629 26632 26635 26638 26641 26644 26646 26649 26652 26654 26657 26660 26662 26665 26668 26671 26674 26676 26679 26682 26685 26687 26689 26692 26695 26698 26701 26704 26707 26709 26712 26715 26718 26721 26724 26727 26730 26733 26736 26739 26742 26745 26748 26751 26754 26756 26759 26762 26765 26767 26770 26773 26776 26779 26782 26785 26788 26790 26793 26796 26799 26802 26804 26806 26809 26812 26815 26818 26821 26824 26827 26830 26833 26836 26839 26842 26845 26848 26850 26853 26856 26859 26861 26864 26867 26870 26873 26876 26878 26881 26883 26886 26889 26892 26895 26898 26901 26904 26907 26909 26911 26914 26916 26918 26921 26924 26927 26930 26933 26935 26937 26939 26942 26944 26947 26949 26952 26955 26957 26960 26963 26966 26969 26972 26975 26978 26981 26984 26987 26990 26993 26996 26999 27002 27005 27008 27011 27014 27017 27019 27022 27025 27028 27031 27034 27037 27040 27043 27046 27049 27052 27055 27058 27061 27063 27066 27069 27072 27075 27078 27081 27084 27087 27090 27093 27096 27099 27102 27105 27108 27111 27113 27116 27119 27122 27125 27127 27130 27133 27136 27139 27142 27145 27148 27150 27153 27155 27158 27161 27163 27166 27169 27172 27175 27177 27180 27182 27185 27188 27190 27193 27196 27199 27202 27205 27208 27211 27214 27217 27220 27223 27226 27229 27232 27234 27237 27240 27243 27246 27249 27252 27255 27258 27261 27264 27267 27270 27273 27275 27278 27281 27284 27286 27289 27291 27294 27297 27299 27302 27305 27308 27310 27313 27316 27319 27322 27325 27328 27331 27334 27337 27340 27343 27346 27349 27352 27355 27358 27360 27363 27366 27369 27372 27374 27377 27380 27382 27385 27388 27391 27394 27397 27400 27403 27405 27408 27411 27414 27417 27420 27423 27426 27429 27432 27435 27438 27441 27444 27447 27450 27453 27456 27459 27462 27465 27468 27471 27473 27476 27479 27482 27484 27487 27490 27493 27496 27499 27502 27505 27508 27511 27514 27517 27520 27523 27526 27529 27532 27534 27537 27540 27543 27546 27549 27552 27555 27558 27561 27564 27567 27570 27573 27575 27578 27581 27584 27587 27590 27593 27596 27599 27602 27605 27608 27610 27613 27616 27619 27622 27625 27628 27631 27633 27636 27639 27642 27645 27647 27649 27652 27655 27658 27661 27664 27667 27670 27673 27676 27679 27682 27685 27688 27691 27694 27697 27700 27703 27706 27709 27712 27715 27718 27720 27723 27726 27729 27732 27735 27738 27741 27743 27746 27748 27751 27754 27757 27759 27762 27765 27768 27771 27774 27776 27779 27782 27785 27787 27790 27793 27796 27798 27801 27804 27807 27810 27813 27816 27819 27822 27825 27827 27830 27833 27836 27839 27842 27845 27848 27851 27854 27857 27860 27863 27866 27869 27872 27875 27877 27880 27883 27886 27889 27891 27894 27897 27900 27902 27905 27907 27909 27912 27915 27918 27921 27924 27927 27930 27933 27936 27939 27942 27945 27948 27951 27954 27957 27960 27963 27966 27969 27972 27975 27978 27981 27984 27986 27989 27992 27995 27997 28000 28002 28005 28007 28010 28013 28015 28018 28021 28024 28026 28029 28032 28035 28038 28041 28044 28047 28049 28052 28055 28057 28059 28061 28064 28067 28069 28072 28075 28078 28081 28083 28085 28088 28090 28093 28096 28099 28102 28105 28107 28110 28113 28116 28119 28122 28124 28127 28130 28133 28135 28138 28141 28144 28147 28150 28153 28156 28159 28162 28165 28167 28170 28173 28176 28179 28181 28183 28186 28189 28192 28195 28197 28200 28202 28205 28207 28210 28213 28216 28219 28222 28225 28228 28231 28234 28237 28240 28243 28246 28249 28252 28255 28257 28260 28263 28266 28269 28272 28275 28278 28281 28283 28286 28289 28292 28294 28297 28300 28303 28306 28309 28311 28314 28317 28319 28322 28325 28328 28331 28334 28336 28339 28342 28344 28347 28350 28352 28354 28356 28359 28361 28364 28367 28370 28372 28375 28378 28381 28384 28387 28390 28393 28396 28399 28402 28405 28408 28410 28413 28415 28418 28421 28424 28427 28430 28433 28436 28439 28442 28445 28448 28451 28454 28457 28460 28463 28466 28468 28471 28474 28477 28480 28483 28486 28488 28491 28494 28496 28499 28502 28505 28508 28511 28514 28517 28520 28523 28525 28527 28530 28533 28536 28539 28542 28545 28547 28550 28553 28555 28558 28561 28564 28567 28570 28573 28576 28579 28582 28585 28588 28591 28594 28597 28600 28603 28605 28608 28610 28613 28616 28619 28622 28625 28628 28631 28634 28637 28640 28642 28645 28648 28651 28654 28657 28659 28662 28665 28668 28671 28674 28677 28680 28683 28686 28689 28692 28695 28698 28701 28704 28707 28709 28712 28715 28718 28721 28724 28727 28730 28733 28736 28738 28741 28744 28747 28750 28753 28756 28759 28761 28764 28766 28769 28772 28775 28778 28781 28783 28786 28788 28791 28794 28796 28799 28802 28805 28808 28811 28814 28817 28820 28823 28826 28829 28831 28834 28837 28840 28843 28845 28848 28851 28854 28857 28860 28863 28866 28869 28872 28875 28878 28881 28883 28886 28889 28891 28894 28897 28900 28903 28906 28909 28912 28915 28918 28921 28923 28926 28928 28931 28934 28937 28940 28943 28945 28948 28951 28954 28957 28960 28963 28966 28969 28972 28975 28977 28979 28982 28985 28988 28991 28994 28996 28999 29002 29005 29007 29010 29013 29016 29019 29022 29025 29027 29030 29033 29036 29039 29042 29045 29048 29051 29053 29056 29059 29062 29065 29068 29071 29074 29077 29080 29083 29086 29089 29092 29095 29098 29100 29103 29106 29109 29112 29115 29117 29120 29123 29126 29129 29131 29134 29137 29140 29142 29145 29148 29150 29153 29156 29159 29162 29165 29168 29171 29174 29177 29180 29183 29186 29189 29192 29195 29198 29201 29204 29207 29210 29213 29216 29219 29221 29224 29227 29230 29233 29236 29239 29242 29244 29247 29250 29253 29256 29259 29262 29265 29268 29271 29274 29277 29280 29283 29286 29289 29292 29295 29298 29301 29304 29307 29310 29313 29316 29319 29322 29325 29328 29331 29334 29337 29340 29343 29346 29349 29352 29355 29357 29360 29363 29366 29369 29372 29375 29378 29381 29383 29386 29389 29392 29395 29398 29401 29404 29407 29410 29413 29416 29419 29422 29425 29427 29430 29433 29435 29438 29440 29442 29444 29447 29450 29453 29456 29458 29461 29464 29467 29470 29473 29476 29479 29482 29485 29488 29491 29494 29497 29500 29503 29506 29509 29512 29515 29518 29521 29524 29527 29530 29533 29536 29539 29542 29545 29548 29551 29554 29557 29560 29563 29566 29569 29572 29575 29578 29581 29584 29587 29589 29592 29595 29597 29600 29603 29606 29609 29612 29614 29617 29620 29623 29626 29628 29630 29633 29635 29638 29641 29644 29646 29649 29652 29655 29658 29661 29664 29667 29670 29673 29676 29679 29682 29685 29688 29691 29694 29697 29700 29703 29706 29709 29712 29715 29718 29721 29724 29727 29730 29733 29736 29738 29741 29744 29747 29750 29753 29756 29758 29761 29764 29767 29769 29772 29775 29778 29781 29784 29787 29790 29793 29796 29799 29802 29805 29808 29810 29813 29816 29819 29822 29825 29828 29831 29834 29837 29840 29843 29846 29849 29852 29855 29858 29861 29864 29867 29870 29873 29876 29879 29882 29885 29887 29889 29892 29895 29898 29900 29903 29905 29908 29911 29914 29916 29919 29922 29925 29927 29929 29932 29935 29937 29940 29943 29946 29949 29952 29955 29958 29961 29964 29967 29970 29972 29975 29978 29981 29984 29987 29990 29993 29996 29998 30001 30004 30007 30010 30013 30016 30019 30022 30025 30028 30031 30034 30037 30039 30041 30044 30047 30050 30053 30056 30059 30062 30064 30067 30070 30073 30076 30078 30081 30084 30087 30090 30093 30096 30099 30102 30105 30108 30111 30113 30116 30118 30120 30122 30125 30128 30131 30133 30136 30139 30142 30145 30147 30150 30153 30156 30159 30162 30165 30168 30171 30174 30177 30180 30183 30186 30189 30192 30195 30198 30201 30204 30207 30210 30213 30216 30219 30222 30225 30228 30231 30233 30236 30239 30242 30245 30248 30251 30253 30256 30258 30260 30263 30266 30269 30272 30275 30278 30281 30283 30286 30289 30292 30295 30298 30301 30304 30307 30310 30313 30316 30319 30322 30325 30328 30331 30334 30337 30340 30343 30346 30349 30352 30355 30358 30361 30364 30367 30370 30373 30376 30379 30382 30385 30388 30391 30394 30397 30400 30403 30406 30409 30412 30415 30418 30421 30424 30427 30430 30433 30436 30439 30442 30445 30448 30451 30454 30457 30460 30463 30466 30469 30472 30475 30478 30481 30484 30487 30490 30493 30496 30499 30502 30505 30508 30511 30514 30517 30520 30523 30526 30529 30532 30535 30538 30541 30544 30547 30550 30553 30556 30559 30562 30565 30568 30571 30574 30577 30580 30583 30586 30589 30592 30595 30598 30601 30604 30607 30610 30613 30616 30619 30622 30625 30628 30631 30634 30637 30640 30643 30646 30649 30651 30653 30656 30658 30660 30663 30666 30668 30671 30674 30676 30679 30682 30685 30688 30691 30694 30697 30700 30703 30706 30709 30712 30715 30718 30720 30722 30725 30727 30729 30732 30735 30738 30741 30744 30747 30750 30753 30756 30759 30761 30764 30767 30770 30773 30776 30779 30781 30784 30787 30790 30793 30796 30799 30802 30805 30808 30811 30813 30816 30819 30821 30824 30827 30830 30833 30836 30839 30842 30845 30848 30851 30854 30857 30860 30863 30866 30869 30872 30875 30878 30881 30884 30887 30890 30893 30896 30899 30901 30904 30907 30910 30913 30916 30919 30922 30925 30928 30931 30934 30937 30940 30943 30946 30949 30952 30954 30957 30960 30963 30965 30968 30971 30974 30977 30980 30983 30985 30988 30991 30994 30997 31000 31003 31006 31009 31011 31014 31017 31020 31023 31025 31028 31030 31033 31035 31038 31041 31044 31047 31050 31052 31055 31058 31061 31063 31066 31068 31071 31074 31077 31080 31083 31086 31089 31092 31095 31098 31101 31104 31106 31109 31112 31115 31118 31121 31124 31127 31130 31133 31136 31139 31142 31145 31148 31151 31154 31157 31160 31163 31166 31169 31172 31175 31178 31181 31184 31187 31190 31193 31196 31199 31202 31205 31208 31211 31214 31216 31219 31222 31225 31228 31231 31234 31236 31239 31242 31245 31248 31251 31254 31257 31260 31262 31264 31267 31270 31273 31276 31279 31281 31283 31286 31289 31292 31295 31298 31301 31304 31307 31310 31312 31315 31318 31321 31324 31326 31329 31332 31335 31338 31341 31343 31346 31349 31352 31355 31358 31361 31364 31367 31370 31373 31376 31379 31382 31385 31387 31390 31393 31396 31399 31402 31405 31408 31411 31414 31417 31420 31423 31426 31428 31431 31434 
</DataArray>
<DataArray type="UInt32" Name="types" format="ascii">
5 5 5 5 5 5 5 3 5 5 5 5 5 5 5 5 5 5 5 5 3 5 5 5 3 5 5 5 5 5 5 5 5 5 5 5 5 5 5 5 5 5 5 5 5 5 5 5 5 5 5 5 5 5 5 5 5 5 3 5 5 3 5 5 5 5 5 5 5 5 3 5 5 5 5 3 5 5 5 3 5 5 5 5 5 5 5 5 5 5 5 5 5 5 3 5 3 5 5 5 5 5 5 5 5 5 5 5 5 3 5 5 5 5 3 3 5 5 5 5 5 5 5 5 5 5 5 5 5 5 5 5 5 3 5 5 5 3 5 5 5 5 5 5 3 5 5 3 5 5 5 5 3 5 5 5 5 5 3 5 3 5 5 5 5 5 5 5 5 5 5 5 5 5 5 5 5 5 5 5 5 5 3 5 5 5 5 5 5 5 5 5 5 5 5 5 5 5 5 5 5 5 5 5 5 5 5 5 5 5 3 5 5 5 5 3 5 5 5 5 5 5 3 5 3 5 5 5 5 5 5 5 5 5 5 5 5 5 5 5 5 5 5 5 5 5 5 5 5 5 5 5 5 5 5 5 5 5 5 5 5 5 5 5 5 5 5 5 5 5 5 5 5 3 5 3 5 5 5 5 5 5 5 5 3 5 5 5 5 5 5 5 5 5 5 5 5 5 5 5 5 5 5 5 5 5 5 5 5 5 5 5 5 5 5 5 5 5 5 5 3 5 5 3 5 5 5 5 5 5 5 3 5 5 5 5 5 5 5 5 5 3 3 5 5 5 3 5 5 5 5 5 5 5 5 5 5 5 5 5 5 5 5 5 5 5 5 5 5 5 5 5 5 3 5 3 5 5 5 5 5 3 5 5 5 5 3 5 5 5 5 5 5 5 3 5 3 5 5 5 5 3 5 5 3 5 5 5 5 5 5 5 3 3 5 5 3 5 5 5 3 5 5 5 5 3 5 5 5 5 3 5 3 5 3 5 3 5 5 5 5 3 5 3 5 5 5 5 3 3 5 5 3 5 5 5 5 5 5 5 3 5 5 5 5 3 5 5 5 5 3 5 5 5 5 5 5 5 5 5 3 5 3 5 5 5 5 5 5 5 5 5 5 5 5 5 5 5 5 5 5 3 5 5 5 3 5 5 5 5 5 5 3 5 5 5 5 5 5 3 5 5 5 3 5 5 3 5 5 5 5 5 5 5 5 5 5 5 3 5 5 5 5 5 5 5 5 5 5 5 5 5 3 3 5 5 5 5 3 5 5 5 5 5 5 5 5 5 5 5 5 5 5 5 5 5 5 5 5 5 5 5 5 5 5 5 5 5 5 5 5 5 5 5 5 3 5 5 5 5 3 5 5 5 5 5 5 5 5 5 5 5 5 5 5 5 5 5 5 5 5 5 5 5 5 5 5 5 5 5 5 5 5 5 5 5 5 5 5 5 5 5 5 5 5 5 5 5 5 5 5 5 5 5 5 5 5 5 5 5 5 5 5 5 5 5 5 5 5 5 5 5 5 5 3 5 5 5 5 3 5 3 5 5 5 5 5 5 5 5 5 5 5 5 5 5 5 5 5 5 5 5 5 5 5 5 5 5 5 5 5 5 5 5 5 5 5 5 5 5 3 5 5 5 5 3 5 5 5 5 5 5 5 5 5 5 5 5 3 5 3 3 5 5 5 5 5 5 3 5 3 5 5 5 5 5 5 5 5 5 5 3 5 5 5 5 5 5 5 3 5 5 5 5 5 5 5 5 5 5 5 5 5 5 3 5 5 5 5 3 5 5 5 3 5 5 5 5 5 5 5 5 5 3 5 5 5 5 5 5 5 5 5 5 5 5 5 5 5 5 5 5 5 5 5 5 5 3 5 5 5 5 5 5 5 5 5 5 5 5 5 5 5 5 5 5 5 5 5 5 5 5 3 5 5 5 5 5 5 5 5 5 3 5 5 3 5 5 5 5 5 5 5 5 5 3 5 5 3 5 5 5 5 5 5 3 5 5 5 5 5 5 5 5 3 3 5 5 5 5 5 5 5 5 5 5 3 5 5 5 5 5 3 5 5 5 5 5 5 5 3 5 5 5 5 5 5 3 5 5 3 3 5 3 3 5 5 3 5 5 3 3 5 5 5 3 5 5 5 5 5 3 5 5 5 5 5 3 5 5 5 3 3 5 5 5 5 5 5 5 5 5 3 5 5 3 5 5 5 5 5 5 5 5 5 5 5 5 5 3 3 5 5 5 5 3 3 5 5 3 3 5 5 5 5 5 5 5 5 5 5 5 5 3 5 5 3 5 5 5 3 5 5 3 5 5 5 5 5 5 3 3 3 5 5 5 5 5 5 5 3 5 5 5 5 5 5 5 5 5 5 5 5 5 5 5 5 5 5 5 5 5 5 5 5 5 5 5 5 5 5 5 5 5 5 3 5 5 5 5 3 5 5 3 3 5 5 5 3 3 5 5 5 5 5 5 5 5 5 5 3 5 5 5 5 5 5 5 3 5 5 5 5 5 5 5 3 5 5 5 3 5 3 5 5 3 5 5 5 3 3 5 5 5 5 5 5 5 5 5 5 5 5 5 5 5 5 5 5 5 5 5 5 5 5 5 5 5 5 3 5 5 5 5 3 5 5 5 5 5 5 5 5 5 5 3 5 5 5 5 5 5 5 5 5 5 5 5 5 5 3 5 5 5 5 5 5 5 5 5 3 5 5 5 5 3 5 5 5 3 5 5 5 3 5 5 5 5 5 5 5 5 5 5 5 5 5 5 5 5 5 5 5 5 5 5 5 5 3 5 5 5 5 3 5 5 5 5 5 3 5 5 5 5 5 5 3 5 5 5 3 5 5 5 3 5 3 3 5 5 5 5 5 5 5 5 5 5 5 5 5 5 5 5 5 5 5 3 5 5 5 3 5 5 5 5 5 5 5 5 5 5 5 5 5 3 3 5 5 5 5 5 5 3 5 3 3 5 5 5 3 5 5 3 3 5 5 5 5 5 3 5 5 5 5 5 5 5 3 5 5 5 5 5 3 5 5 5 5 5 5 3 5 5 5 3 5 5 5 5 5 3 3 5 5 5 5 5 3 5 3 5 5 5 5 3 5 5 5 5 5 5 5 5 5 5 5 5 5 5 5 5 5 5 5 5 5 5 5 5 5 5 5 5 5 5 5 5 3 5 3 3 5 5 5 5 5 5 5 5 3 3 5 5 5 5 3 3 5 5 3 5 5 3 5 5 3 5 5 5 3 5 5 5 3 5 5 5 5 5 3 3 5 5 5 5 5 5 5 5 5 5 3 5 3 5 5 5 5 5 3 5 5 5 3 5 3 5 5 5 5 5 5 3 5 3 5 5 5 3 3 3 3 3 5 5 5 5 5 3 5 5 5 5 5 5 5 5 5 5 3 5 5 5 5 5 3 3 5 5 5 5 3 5 5 5 5 5 5 5 5 5 5 3 5 3 5 5 5 5 5 5 5 5 5 3 3 5 3 5 5 5 5 5 5 5 5 5 3 5 5 5 3 5 5 5 5 5 5 5 3 5 5 5 5 5 5 5 5 5 5 5 5 5 5 5 5 5 5 5 3 5 5 5 5 5 5 5 5 5 3 5 5 5 5 5 5 5 5 3 5 5 5 3 5 5 5 5 5 5 5 5 5 5 5 5 5 5 5 5 5 5 5 5 5 5 5 3 5 5 5 5 5 5 5 5 5 5 5 5 3 5 5 3 3 5 3 5 5 3 5 3 5 5 5 3 5 3 3 5 5 5 3 5 5 5 5 3 5 3 5 5 3 5 5 5 5 5 5 5 5 5 5 5 5 3 3 5 5 5 5 5 5 5 5 5 5 5 5 5 3 5 5 5 5 3 5 5 5 5 5 5 5 5 5 5 5 5 5 5 5 3 5 5 5 3 5 5 5 5 5 5 5 5 5 5 5 5 5 5 5 5 5 5 5 5 5 5 5 5 3 5 5 5 5 5 5 5 3 5 5 5 5 5 5 5 5 5 5 3 5 5 5 5 5 5 5 5 5 5 5 3 5 5 5 5 5 5 5 5 5 5 5 5 5 3 5 5 5 5 5 5 5 5 5 5 5 5 5 5 5 5 5 5 5 5 5 5 5 5 5 5 5 5 5 5 5 5 5 5 5 5 5 3 5 5 5 3 5 5 5 5 5 5 3 5 5 5 5 5 5 5 5 5 5 5 5 5 5 5 5 5 5 3 5 5 3 5 5 5 5 5 5 5 5 5 5 5 5 5 3 5 5 3 5 5 5 5 5 5 5 5 5 5 5 5 5 5 5 5 5 5 5 5 5 5 5 5 5 3 3 5 5 5 5 5 5 5 5 5 5 5 5 5 5 5 5 5 5 5 5 5 5 5 5 5 5 5 5 5 3 5 3 5 5 5 3 5 3 5 5 5 5 5 5 5 5 5 5 5 5 5 5 5 5 5 5 5 5 5 5 5 5 5 5 5 5 5 5 5 5 5 5 5 5 5 5 5 3 5 5 5 5 5 5 5 5 5 5 5 5 5 5 5 5 5 5 5 5 5 5 5 5 5 3 5 5 5 5 5 5 3 5 3 3 5 5 3 5 5 5 5 5 5 5 5 5 3 5 5 5 5 5 5 5 5 5 5 5 5 5 5 5 5 5 5 5 5 3 5 5 5 5 5 5 5 5 3 5 5 5 5 3 5 5 3 5 5 5 3 5 5 5 5 5 5 3 5 5 3 5 5 5 5 5 5 5 5 3 5 5 5 5 5 5 5 5 5 5 5 5 5 5 5 5 5 5 5 5 5 5 5 5 5 5 3 5 5 5 5 5 5 5 5 5 5 5 5 5 5 5 5 5 5 5 5 5 5 5 3 5 5 5 5 5 5 5 5 5 5 3 5 5 3 5 5 5 5 5 5 5 5 5 5 5 5 5 5 5 5 5 5 5 5 5 5 5 5 5 5 5 5 5 5 5 3 5 5 5 5 5 5 3 5 3 5 5 3 5 5 5 5 5 5 5 5 5 5 5 5 5 5 5 5 5 5 3 5 3 3 5 5 5 5 5 3 5 5 5 5 5 5 5 3 5 5 3 5 5 5 5 5 5 5 3 5 5 5 5 5 5 5 5 3 5 5 5 3 3 5 5 5 3 5 5 3 5 3 5 5 5 5 3 3 5 5 5 5 5 5 5 5 3 5 3 3 5 5 5 5 5 5 5 5 5 5 5 3 5 5 5 5 5 5 5 5 3 5 5 5 3 5 5 5 5 3 3 5 5 3 5 5 5 3 5 5 5 5 3 5 3 5 3 3 5 5 3 5 5 5 5 5 3 5 5 5 5 5 3 5 3 5 5 5 5 5 5 3 5 3 5 5 5 5 5 5 5 3 5 5 5 5 5 3 5 5 5 3 3 3 5 3 5 5 5 3 3 5 3 5 5 5 5 5 5 5 5 5 5 5 5 5 5 3 5 5 5 3 3 5 5 5 5 5 5 5 5 3 5 5 5 3 5 5 3 5 5 5 3 3 5 5 5 5 5 5 3 5 5 5 5 3 5 5 5 3 5 5 5 5 3 5 5 5 5 5 5 5 5 5 5 5 3 5 5 3 5 5 3 5 3 5 5 5 5 5 5 5 5 5 3 5 5 5 5 5 5 5 5 5 5 3 5 5 5 5 5 5 5 5 5 5 5 5 3 5 5 5 5 5 5 5 5 5 5 5 5 5 5 5 5 5 5 5 5 5 5 5 5 5 5 5 5 5 5 3 5 5 3 5 3 5 5 5 5 5 5 3 5 5 5 5 5 3 5 5 3 5 5 5 3 5 5 5 5 5 5 5 5 5 5 5 5 5 5 5 5 3 5 5 5 3 5 3 3 5 5 5 5 3 5 5 5 5 5 3 5 5 5 5 5 5 5 5 5 5 5 3 5 5 5 5 5 5 5 5 5 5 5 3 5 5 5 5 3 5 5 5 5 5 5 5 5 5 5 5 5 5 5 5 5 5 5 5 5 5 5 3 5 5 5 5 5 5 5 5 5 5 5 5 5 5 5 5 5 5 3 5 5 5 3 5 5 5 5 5 5 5 5 5 5 5 5 5 5 3 5 3 5 3 5 5 5 5 5 5 5 3 5 5 5 3 5 5 5 5 5 5 5 5 5 5 5 5 5 5 5 5 5 3 5 5 5 3 5 5 3 3 5 5 5 5 3 5 5 5 5 5 5 5 5 5 5 5 5 3 5 5 5 5 5 5 5 5 5 5 3 5 3 5 5 5 3 5 3 5 5 5 3 5 5 3 5 5 5 5 3 5 5 5 5 3 5 5 5 3 3 5 3 5 3 5 5 3 5 5 5 5 5 5 5 5 5 5 3 3 5 5 5 5 5 3 5 3 5 5 3 5 5 5 3 5 3 3 5 3 5 5 3 3 5 5 3 5 5 3 5 5 5 5 5 5 5 5 3 5 5 5 5 5 3 5 5 5 5 5 5 5 5 3 3 5 5 5 3 3 5 3 5 5 5 3 5 3 5 5 5 5 3 5 3 3 5 5 5 5 5 5 5 5 3 5 5 5 5 5 5 5 5 5 3 5 5 5 5 5 5 5 5 3 5 3 5 5 5 5 3 5 5 5 5 5 5 3 5 5 5 5 5 3 5 3 5 5 5 5 5 5 5 5 5 5 3 5 5 5 5 5 5 3 5 5 5 5 5 5 5 5 5 5 5 3 5 5 5 5 5 3 3 5 5 3 5 5 5 3 5 3 5 5 5 5 5 5 5 5 5 5 5 3 3 5 5 5 5 3 5 5 5 5 3 5 5 3 5 5 5 5 5 5 5 5 5 5 5 5 5 5 5 5 3 5 5 5 5 5 3 5 5 3 5 5 5 3 5 5 5 3 5 5 5 5 5 5 5 5 5 5 5 5 5 3 5 5 5 5 3 5 5 5 5 5 5 5 5 5 3 5 5 5 3 5 5 5 5 5 3 5 5 5 5 5 5 5 5 5 5 5 5 5 5 5 5 5 5 5 5 5 5 5 5 3 5 5 5 5 5 5 5 3 5 5 5 5 5 3 5 5 5 5 5 5 5 5 5 3 5 5 3 5 5 5 5 5 5 5 5 5 5 5 3 5 5 5 5 5 5 5 5 5 3 5 5 5 5 5 5 5 3 5 5 5 5 5 5 5 5 5 5 5 5 5 5 3 5 5 5 5 5 5 5 5 5 5 3 5 5 5 5 5 5 5 5 5 5 5 5 5 5 5 5 5 5 5 5 5 5 5 3 5 5 5 5 5 5 5 5 5 5 5 5 5 5 5 5 3 5 3 5 5 5 5 3 5 5 5 5 5 5 5 5 5 5 5 5 5 5 5 5 5 5 5 5 5 5 5 5 5 5 5 5 5 5 5 5 5 3 5 5 5 5 5 5 5 5 5 5 3 5 5 5 5 5 5 5 5 5 3 5 5 5 5 5 3 5 5 5 5 3 5 5 5 5 5 5 5 5 5 3 5 5 5 5 5 5 5 5 3 5 5 5 5 5 5 5 5 5 5 5 5 5 5 5 5 5 5 5 3 5 5 3 5 5 3 5 5 5 5 5 5 5 3 5 5 5 3 5 5 5 5 5 5 5 5 5 5 3 5 5 5 5 5 3 5 3 5 5 5 5 5 5 5 3 5 3 5 5 5 5 5 5 5 5 5 5 5 5 5 3 5 5 5 5 5 5 3 5 5 3 5 5 3 5 5 5 5 5 5 5 5 5 5 5 5 5 3 5 5 5 5 5 5 5 5 5 5 3 5 3 5 5 5 5 5 5 5 5 5 5 5 5 5 3 5 3 5 5 3 5 5 5 5 5 5 3 3 5 5 5 3 5 5 5 5 5 5 5 3 5 5 5 5 5 5 5 5 5 5 5 5 5 5 5 5 5 5 5 5 5 5 5 5 5 3 5 5 5 3 5 5 5 5 5 5 5 5 5 5 5 5 5 5 5 5 5 3 5 5 5 5 5 5 5 5 5 3 5 5 5 5 5 5 5 5 5 5 5 5 3 5 5 5 5 5 5 5 5 5 5 5 3 5 5 5 5 5 5 5 5 5 5 5 5 5 5 5 3 5 5 5 5 5 5 5 3 5 5 5 5 5 5 5 5 5 5 5 5 5 5 5 5 5 5 5 5 3 5 5 5 5 5 5 3 5 5 5 5 5 5 5 5 5 5 5 5 3 5 5 5 5 5 5 5 3 5 3 3 5 5 5 5 5 5 5 5 5 5 5 5 5 5 5 5 3 5 5 5 5 5 5 5 5 5 5 3 5 5 3 5 5 5 5 5 5 5 5 5 5 5 5 5 5 5 5 5 5 3 5 5 5 5 5 5 5 5 5 5 5 5 5 5 5 5 5 5 5 5 5 5 5 3 5 5 5 5 5 5 3 5 5 3 5 5 5 5 5 5 3 5 3 3 5 3 5 5 5 5 3 3 5 3 3 5 5 3 3 3 5 5 3 5 5 5 5 5 5 5 5 5 5 5 5 5 5 3 5 5 5 3 5 5 5 3 3 5 3 5 5 5 5 5 5 3 5 5 3 5 5 5 5 3 3 5 5 5 5 5 5 5 5 5 5 5 5 5 5 5 5 5 5 5 5 5 5 3 5 5 3 5 5 5 5 5 5 5 3 5 5 5 5 3 5 5 5 5 5 3 5 3 5 5 5 5 5 3 5 5 3 5 3 5 5 5 5 5 5 3 5 3 5 5 5 5 5 5 5 5 5 5 5 5 5 3 5 3 5 5 5 5 5 5 5 5 5 5 5 5 5 5 3 3 5 5 5 5 5 5 5 3 5 5 5 5 3 5 5 5 3 5 3 5 5 5 5 5 5 3 5 3 5 3 5 3 5 3 3 3 5 5 3 5 5 5 5 5 5 3 5 5 5 3 5 5 5 3 5 5 5 5 5 5 3 5 5 3 5 5 5 5 5 3 5 3 5 5 3 5 5 5 5 5 5 5 5 5 5 5 5 5 5 5 5 3 5 5 5 5 5 5 5 5 5 5 5 5 5 5 5 5 5 5 5 5 5 5 5 5 5 5 5 5 5 5 5 5 5 5 5 5 5 5 5 3 5 5 5 5 5 5 5 5 3 3 3 3 3 5 3 5 5 5 3 5 5 5 5 3 5 3 5 5 3 5 3 5 3 5 5 5 3 5 5 5 5 3 5 5 5 3 5 5 5 5 5 5 5 5 5 3 5 5 5 5 5 3 5 5 5 5 5 3 5 5 5 5 5 5 5 5 5 5 5 5 5 5 5 5 3 5 5 5 5 5 5 5 3 3 5 5 3 5 5 5 3 3 5 5 3 5 5 3 5 5 5 5 5 5 5 5 5 5 5 5 5 5 3 3 3 5 5 5 3 5 3 5 5 5 5 5 5 3 5 5 5 3 5 5 5 3 3 5 5 3 5 5 3 5 5 3 3 5 5 3 5 5 5 5 3 3 5 3 5 3 5 5 5 5 5 5 5 5 5 5 5 5 5 5 5 5 5 5 5 5 5 5 5 5 3 5 5 5 5 5 5 5 5 5 5 5 5 5 5 5 5 5 5 5 5 5 3 5 5 5 5 5 5 5 5 3 5 5 5 5 5 5 5 5 5 5 5 5 3 5 5 5 3 5 5 5 5 3 5 5 5 3 5 5 5 5 5 5 5 5 5 5 5 5 3 5 5 5 5 5 5 5 5 5 5 3 5 5 5 5 5 5 5 5 5 5 5 3 5 5 5 3 5 5 3 5 5 5 5 5 5 5 5 5 5 5 5 5 5 3 5 3 5 5 5 5 5 5 5 5 5 5 5 5 5 5 5 5 5 5 5 5 5 3 5 5 3 5 5 5 5 5 5 5 5 5 5 5 5 5 5 5 5 5 5 5 5 5 5 3 5 5 5 5 5 5 5 5 5 5 5 3 5 5 5 5 5 5 3 5 5 3 5 5 5 3 5 3 5 5 5 5 5 3 3 5 3 5 3 5 5 3 3 5 3 5 5 5 5 5 5 5 3 5 5 3 5 5 3 3 5 5 5 5 5 3 5 5 3 3 5 5 5 5 5 5 3 5 5 5 5 5 3 5 5 5 5 5 3 5 5 3 5 5 5 5 3 5 5 5 5 5 5 5 5 5 5 5 5 5 5 5 5 5 5 3 5 5 3 5 5 5 5 5 5 5 5 5 5 5 3 5 5 5 5 5 5 5 3 5 3 5 5 5 5 3 5 5 5 5 5 5 5 5 5 5 5 5 5 3 5 5 5 5 5 5 3 5 5 5 5 5 5 5 5 5 5 5 5 5 5 5 5 5 5 5 5 5 5 3 5 5 5 5 5 5 3 5 5 5 5 5 5 3 5 5 5 5 3 5 5 5 3 5 5 3 5 5 5 5 3 5 5 5 5 5 3 5 3 5 5 5 3 3 3 5 5 5 5 5 5 5 5 5 5 5 5 5 5 5 5 5 5 5 5 5 5 5 5 5 5 5 5 5 5 5 5 5 5 5 5 5 5 5 5 5 5 5 5 5 5 5 5 5 5 5 5 5 5 5 5 5 5 5 5 5 5 5 5 5 5 5 5 5 5 5 5 5 5 3 5 5 5 5 5 5 5 5 5 5 5 5 5 5 5 5 5 5 5 5 3 5 5 5 5 5 5 5 5 5 3 5 5 3 5 5 5 5 5 5 5 3 5 5 5 5 5 5 5 5 5 3 5 5 5 5 5 5 5 5 5 5 5 5 5 3 5 5 5 3 5 5 5 5 5 5 5 5 5 5 3 5 5 5 5 5 5 5 5 5 5 5 3 5 5 5 5 3 5 5 5 5 5 3 5 5 5 3 5 5 5 5 5 5 5 5 5 5 5 5 5 5 5 5 5 5 5 5 5 3 5 5 5 3 5 5 3 5 5 5 3 5 5 5 5 5 5 5 5 5 5 3 5 3 5 5 3 5 5 5 3 5 5 5 3 3 5 5 3 5 5 5 5 5 5 5 5 5 5 5 5 5 5 5 5 5 5 5 5 3 3 5 5 5 5 5 5 5 5 5 5 5 5 5 5 5 3 5 5 5 5 5 3 5 5 5 5 5 3 5 5 5 5 5 5 5 3 5 5 5 3 5 5 5 5 5 5 5 3 5 5 5 5 5 5 5 5 5 5 5 5 5 5 5 5 5 5 5 5 5 5 5 5 5 5 5 5 3 5 5 3 3 5 5 5 5 5 5 5 5 3 5 5 5 5 5 5 5 5 5 5 5 5 5 3 5 5 3 5 5 5 5 5 5 5 5 5 5 5 5 5 5 5 5 5 5 5 5 5 5 3 5 5 5 5 5 5 3 5 5 5 5 5 5 5 5 5 5 5 5 5 5 5 5 5 5 5 5 5 5 5 5 5 5 5 5 5 5 3 5 5 3 5 5 5 5 5 5 5 3 5 5 5 5 5 5 3 5 3 5 5 5 5 5 5 5 5 3 5 5 5 3 5 5 5 5 3 5 5 5 5 5 5 3 3 3 5 5 5 5 5 5 3 5 5 5 5 5 5 5 5 5 5 5 5 5 5 5 5 5 5 5 5 5 5 5 5 5 5 5 5 5 5 5 5 5 5 5 5 5 5 5 5 5 5 5 5 5 5 5 5 5 5 5 5 5 5 5 5 5 5 5 5 5 5 5 5 5 5 5 5 5 5 5 5 5 5 5 5 5 5 5 5 5 5 5 5 5 5 5 5 5 5 5 5 5 5 5 5 5 5 5 5 5 5 5 5 5 5 5 5 5 5 5 5 5 5 5 5 5 5 5 5 5 5 5 5 5 5 3 5 5 5 3 5 5 3 3 5 5 5 5 5 5 5 3 5 5 5 5 3 5 3 5 5 5 5 5 5 5 3 5 5 5 3 5 5 5 5 3 5 5 3 5 3 5 3 5 3 5 5 5 5 5 5 5 5 5 5 5 5 5 5 5 5 5 5 5 5 5 5 5 5 3 3 5 5 3 5 5 3 5 5 5 5 5 5 5 3 3 5 5 5 5 5 5 5 5 5 5 5 5 5 5 5 3 5 3 5 5 5 5 5 5 5 3 3 5 5 5 5 5 5 5 5 5 5 5 3 5 3 5 5 5 3 3 5 5 3 5 5 5 5 5 5 5 5 5 5 5 5 5 5 5 5 5 5 5 5 5 5 3 5 5 3 5 5 5 5 5 5 5 3 5 5 5 3 5 5 5 5 5 3 5 3 5 5 5 5 5 5 5 5 5 5 3 5 3 5 5 5 5 5 5 5 3 5 5 3 5 5 5 5 5 5 5 3 5 3 5 5 3 5 3 5 5 5 5 3 5 3 5 5 5 5 5 5 3 5 3 5 3 5 5 3 5 5 5 5 5 3 5 3 5 5 5 5 3 5 3 5 5 5 5 3 5 5 5 5 5 5 5 5 5 5 5 5 5 5 5 5 5 5 5 5 5 5 3 5 5 5 5 5 5 5 5 5 5 3 5 3 5 5 5 3 5 5 5 5 5 5 5 5 5 5 3 5 3 3 5 5 5 3 5 5 3 5 5 5 5 3 3 3 5 5 5 3 5 5 5 5 5 5 5 5 5 5 5 5 5 5 5 5 3 5 5 5 5 5 5 5 3 5 5 5 5 5 5 5 5 5 5 5 5 5 3 5 5 5 5 5 3 5 5 5 5 3 5 5 5 5 5 5 5 5 5 5 5 5 5 5 5 5 5 5 5 5 5 5 5 5 5 5 5 5 5 5 5 5 5 5 5 5 5 5 5 5 5 5 5 5 5 5 5 5 5 5 5 5 5 5 5 5 5 5 5 3 5 3 3 5 5 3 5 3 5 5 5 5 5 5 3 5 5 5 5 5 5 5 5 5 5 5 5 5 5 5 5 5 5 5 5 5 3 5 5 5 5 5 5 3 5 5 5 5 5 5 5 5 5 5 5 3 5 5 5 5 5 5 5 5 5 5 5 5 5 5 5 5 5 5 5 5 5 5 5 5 5 5 5 5 5 5 5 5 5 5 3 3 5 3 5 3 5 5 5 5 5 5 5 5 3 5 5 3 5 5 3 5 5 5 5 5 5 5 5 5 5 5 5 5 3 5 3 5 5 5 3 5 3 3 3 5 5 5 3 3 5 5 5 5 5 5 5 3 5 5 5 5 3 3 5 3 5 3 5 5 5 5 5 3 3 3 5 5 5 3 5 3 3 5 3 3 5 5 5 5 5 3 5 5 3 5 5 3 3 5 5 5 5 5 3 5 5 5 5 5 3 5 5 5 5 3 5 5 5 5 3 5 5 5 5 5 3 5 5 5 3 5 5 5 5 3 5 5 3 5 3 5 3 5 3 5 5 5 5 5 5 3 5 5 5 5 5 5 5 5 3 5 5 5 3 3 5 5 5 5 5 3 5 5 5 5 5 5 3 5 5 5 5 5 5 5 5 5 5 5 5 5 5 5 5 5 5 5 5 3 5 5 5 5 5 5 5 5 5 5 5 5 5 5 5 5 5 5 5 5 5 3 5 5 5 3 5 5 5 3 5 5 5 5 5 5 5 5 3 5 5 5 5 5 5 3 5 3 5 5 3 5 5 5 3 5 5 5 3 5 5 5 5 5 3 5 5 5 3 5 5 5 5 5 5 5 5 5 5 5 5 3 5 5 5 5 3 5 5 5 5 5 5 5 5 5 5 5 3 5 5 3 5 5 5 3 5 3 5 5 5 5 5 5 5 3 5 5 5 5 5 5 5 5 5 5 5 5 5 5 5 5 5 5 5 5 5 3 5 5 5 5 3 5 5 5 3 5 5 5 5 5 5 3 5 5 5 3 5 5 5 5 5 5 5 5 5 5 5 5 3 5 5 3 3 5 5 5 3 5 5 3 5 5 5 5 3 5 5 5 5 5 3 3 5 5 5 3 5 5 5 5 5 3 5 5 5 5 5 5 5 5 5 5 5 5 5 5 5 5 5 5 5 5 5 5 5 5 5 5 5 5 5 5 5 3 5 5 5 5 5 5 5 5 5 5 5 3 5 5 5 5 5 5 5 3 5 5 5 5 5 5 3 5 5 5 5 3 5 5 5 3 5 5 5 3 5 5 5 3 5 3 5 5 5 3 3 5 3 3 5 3 5 3 5 5 5 3 5 5 5 5 5 5 5 5 5 5 3 3 5 5 5 5 5 5 3 5 3 5 5 5 3 3 5 5 5 5 5 5 3 3 3 5 5 5 5 5 5 5 5 5 5 5 5 5 5 5 5 5 5 5 5 5 3 5 5 5 5 5 5 3 3 5 5 5 5 5 5 5 5 5 5 5 5 5 5 5 5 5 5 5 3 3 5 5 5 5 3 3 5 3 3 5 5 3 5 5 3 3 3 5 5 5 5 5 5 5 5 5 3 5 5 5 5 3 5 5 3 5 5 5 5 5 3 5 5 5 3 5 5 5 5 5 5 5 5 5 5 5 5 5 3 5 5 5 5 3 5 5 5 3 5 5 5 5 5 5 5 5 5 5 5 5 3 5 3 5 5 3 5 3 5 5 5 5 5 3 5 5 5 5 5 5 5 5 5 5 5 5 5 5 5 5 5 5 5 5 5 5 5 5 5 5 5 3 5 5 5 3 5 5 5 5 5 5 5 5 3 5 5 3 5 5 5 3 5 5 5 5 5 5 5 5 5 5 5 5 5 5 5 5 5 5 5 5 5 3 5 5 3 3 5 3 5 5 3 5 5 3 5 5 5 5 5 5 5 3 5 5 5 5 5 5 5 5 5 5 3 3 5 5 5 5 5 5 5 5 5 5 5 5 5 5 5 5 5 5 5 5 5 5 5 5 5 3 5 5 5 5 5 5 5 5 5 5 3 5 5 5 5 5 5 5 5 5 5 5 5 5 5 3 3 5 5 5 5 5 5 5 5 5 5 5 5 5 5 5 5 5 5 5 5 5 5 3 3 5 5 3 3 5 5 5 5 5 5 5 5 5 5 5 3 5 5 5 5 5 5 5 5 5 3 5 5 5 5 5 5 3 5 3 5 5 5 5 3 5 3 3 5 3 3 5 5 5 5 5 5 5 5 5 5 5 5 5 5 5 5 5 3 5 5 3 5 3 5 5 5 5 5 3 5 3 5 3 5 5 3 5 3 5 5 5 5 5 5 5 5 5 3 5 5 5 5 5 5 5 5 5 5 5 5 5 5 5 5 5 5 5 5 5 3 5 5 5 5 5 5 5 5 3 5 5 5 5 5 5 5 5 3 5 5 5 5 5 5 5 5 5 5 5 3 5 5 5 5 5 3 5 5 5 5 5 5 5 3 3 5 5 5 5 5 5 5 5 5 3 5 5 5 5 5 5 5 5 5 5 3 5 5 5 5 5 5 5 5 5 5 5 3 5 5 5 5 3 5 3 3 5 5 5 5 5 5 3 5 5 5 5 3 5 5 5 5 5 5 5 5 5 3 5 3 5 5 5 5 5 5 3 5 5 3 3 5 5 3 5 3 5 3 5 5 5 5 5 3 5 5 3 5 5 5 5 5 5 3 5 5 5 3 5 3 5 5 3 5 5 5 5 5 3 5 5 5 5 5 5 5 5 5 5 5 3 3 5 5 5 5 5 5 3 5 5 5 5 5 5 5 5 5 5 5 5 5 5 5 3 5 5 3 5 5 5 5 5 5 5 5 5 5 5 5 5 5 5 5 5 5 5 5 5 5 5 5 5 5 5 5 5 5 5 5 5 5 5 5 5 5 5 5 5 5 3 5 5 5 5 5 5 5 5 5 5 5 5 5 5 5 5 5 5 5 5 5 5 5 5 3 5 5 5 5 3 5 5 5 3 5 5 5 5 5 5 5 5 5 5 5 5 5 5 5 5 5 5 5 5 5 5 5 5 5 5 5 5 5 5 5 5 5 5 5 3 5 5 5 5 5 5 5 5 3 5 5 5 5 3 5 5 5 5 5 5 5 5 5 5 5 5 5 5 5 5 5 5 5 5 5 3 5 5 5 5 3 5 5 5 5 5 5 5 5 5 5 5 5 5 5 5 3 5 3 5 5 5 5 5 5 5 5 3 5 5 5 5 5 3 5 5 5 5 5 5 5 5 5 5 5 5 5 3 5 5 3 5 5 5 3 5 5 5 5 5 5 5 3 5 5 5 5 5 5 5 5 5 5 5 5 5 5 5 5 5 5 5 5 5 5 5 5 5 5 3 5 5 5 3 5 5 5 5 5 5 5 5 5 5 5 5 5 5 5 5 5 5 5 5 5 5 5 5 5 5 5 5 5 5 5 5 5 3 5 5 5 5 5 5 5 5 5 5 5 5 5 3 5 5 5 5 5 5 5 5 5 5 3 5 5 5 5 3 5 5 5 5 5 3 5 5 5 5 5 5 5 5 5 5 5 5 5 5 5 5 5 3 5 5 5 5 5 5 5 5 5 5 5 5 5 5 5 5 5 5 5 3 5 5 5 5 5 5 5 5 3 5 5 5 5 5 3 5 5 5 5 5 5 3 5 5 5 5 5 5 5 5 5 5 5 5 5 5 5 3 3 5 5 5 5 3 5 5 5 5 3 5 5 5 5 5 5 5 5 5 5 3 5 5 3 5 3 3 5 5 5 5 3 3 5 5 5 5 5 5 5 3 5 5 5 5 3 5 5 3 5 3 3 5 5 5 3 5 5 5 3 5 5 5 5 5 5 5 5 5 5 5 5 5 3 5 3 3 5 5 5 3 5 3 5 5 3 3 5 5 5 3 3 5 5 5 5 5 5 3 5 3 5 5 5 3 5 3 5 5 5 3 5 3 5 5 5 3 5 5 3 5 5 5 3 5 5 3 5 5 5 5 5 5 5 3 3 5 5 5 5 3 5 5 5 5 5 3 5 3 5 5 5 3 3 5 5 5 5 5 5 5 5 5 3 5 5 5 5 5 3 5 5 5 5 3 5 5 5 3 5 5 5 5 3 5 5 5 5 3 5 5 5 5 5 5 5 5 5 5 5 5 5 5 5 5 5 5 5 5 3 5 5 3 5 5 3 5 3 5 5 3 3 5 5 5 5 5 5 5 5 5 3 5 5 5 5 5 5 5 5 5 5 5 5 5 5 5 5 5 5 5 5 3 5 5 5 5 5 5 5 5 5 5 5 5 5 5 5 5 3 5 5 5 5 5 5 5 5 5 3 5 5 5 5 5 5 5 5 5 5 5 5 5 5 5 5 5 3 5 5 3 5 3 5 5 5 5 5 5 5 5 5 3 5 5 5 5 5 5 5 5 3 5 5 5 5 5 5 5 5 5 5 5 5 5 5 5 5 5 5 3 5 3 5 5 5 5 3 5 5 5 5 3 5 5 5 5 5 5 5 5 5 5 5 5 5 5 5 5 3 5 5 3 3 5 5 5 5 5 5 5 3 3 5 5 5 5 3 5 5 5 5 5 5 5 5 5 5 3 5 5 5 5 5 5 5 5 3 5 5 5 5 5 5 5 5 5 3 5 5 3 5 5 3 5 5 5 5 5 5 3 5 3 5 5 5 5 3 5 5 5 3 5 5 5 5 5 3 5 5 5 5 5 5 5 5 5 3 5 5 3 5 5 5 5 5 5 5 5 5 5 5 5 5 5 5 5 5 5 5 5 3 5 5 5 5 5 5 5 5 5 5 5 3 5 5 5 5 5 5 5 5 5 3 5 5 5 5 5 5 5 5 5 5 5 5 5 5 5 5 5 5 3 5 5 5 3 3 5 5 5 5 3 3 5 5 3 5 5 5 5 5 5 3 5 5 5 5 5 5 5 5 5 5 5 5 5 5 5 5 5 5 5 5 3 5 5 5 5 5 5 5 5 5 5 3 5 3 5 5 5 5 5 5 3 5 5 5 5 5 3 5 5 5 3 5 5 5 5 3 5 5 5 3 5 5 5 5 5 5 5 5 5 5 5 5 3 5 5 5 5 5 5 3 3 5 5 5 5 5 5 5 3 5 3 5 5 3 5 5 5 5 5 5 5 5 5 5 5 5 5 5 5 5 5 5 5 3 5 5 5 5 5 5 3 5 5 5 5 5 5 5 5 5 5 5 3 5 5 5 5 3 5 5 5 3 5 5 5 5 3 5 5 3 3 5 5 5 5 5 3 5 5 5 5 5 3 3 3 5 5 5 5 5 3 3 5 3 3 5 3 5 5 5 5 5 5 5 5 5 5 5 3 5 5 5 5 3 5 5 5 3 5 3 5 3 3 5 5 5 3 5 3 3 3 5 5 5 3 5 3 5 3 5 5 5 3 5 5 5 5 5 5 5 5 5 5 5 5 5 5 5 5 5 5 5 5 5 5 5 5 5 5 5 5 3 5 5 5 5 5 5 3 5 5 5 5 5 5 5 5 5 5 5 5 5 5 5 5 5 5 5 5 5 5 5 5 5 5 5 5 5 5 5 5 5 5 5 5 5 5 5 5 5 5 5 5 5 5 5 5 5 5 3 5 5 5 5 5 5 5 5 5 5 5 5 5 5 5 5 5 5 5 5 5 5 5 5 3 3 5 5 5 5 5 5 5 5 5 5 5 5 5 5 5 5 5 5 5 5 5 5 5 3 5 5 5 5 5 5 5 5 5 5 5 5 5 5 5 5 3 3 5 5 5 5 5 3 3 3 5 5 5 3 3 5 5 5 5 5 5 5 5 5 5 5 5 5 5 5 5 3 5 3 5 5 3 5 5 5 5 5 5 5 5 5 5 5 5 5 5 5 5 5 5 5 5 5 5 5 5 5 5 5 5 5 5 5 5 5 5 5 3 5 5 5 5 5 5 5 5 5 5 5 5 5 5 5 3 5 5 5 5 5 5 5 5 5 5 5 5 5 5 3 5 5 5 5 5 5 5 5 5 5 5 5 5 5 5 5 5 5 5 5 5 5 5 5 5 5 5 5 5 5 5 3 5 5 5 5 5 5 3 5 5 5 5 5 5 5 5 3 5 3 5 5 5 5 5 5 5 5 3 5 5 5 5 5 5 5 5 5 5 5 5 5 5 5 5 5 5 5 5 5 5 5 5 5 5 5 5 5 5 3 5 5 5 5 5 5 5 5 5 5 5 5 5 3 3 5 5 3 3 5 5 5 5 5 3 5 5 5 5 5 5 3 5 5 5 5 5 3 5 3 5 3 5 5 3 5 5 5 5 5 5 5 3 5 3 5 5 3 5 5 5 5 3 5 5 5 3 5 5 5 5 5 3 5 3 5 5 3 5 5 5 3 5 3 5 5 5 5 5 5 5 3 5 5 3 3 5 3 3 5 5 5 3 5 3 3 3 5 5 5 5 5 3 5 5 5 5 5 5 3 5 5 5 3 5 3 5 5 5 5 5 5 5 5 5 5 5 5 5 5 5 5 5 3 5 5 3 5 5 5 5 5 5 5 5 5 3 5 5 5 5 5 5 5 5 3 5 5 5 3 5 3 5 5 3 5 5 5 5 3 5 5 5 5 5 5 5 3 5 3 5 5 5 5 5 5 5 3 5 5 5 3 5 3 5 5 3 3 5 5 5 5 5 3 5 5 5 5 5 5 5 5 5 5 5 5 5 5 5 5 5 5 3 3 5 5 5 5 5 5 3 5 5 3 3 5 5 3 5 3 5 5 3 5 5 5 3 5 5 3 5 5 5 5 3 5 5 5 5 5 5 3 5 5 5 5 3 3 5 3 3 5 5 5 5 5 5 5 5 5 5 5 5 5 5 5 5 5 5 5 5 5 5 5 5 5 5 5 5 5 5 3 5 5 3 5 5 5 5 5 5 5 5 5 5 3 5 5 5 5 5 5 5 5 3 5 5 5 5 5 5 5 3 5 5 5 3 5 5 5 3 5 3 5 5 5 5 5 5 3 5 3 5 5 5 3 5 5 5 5 5 5 5 5 5 5 5 5 5 5 5 5 5 5 3 3 3 5 3 5 5 5 5 5 5 3 5 3 5 5 5 5 3 5 5 3 3 5 5 5 5 5 3 5 3 5 5 5 3 5 5 3 3 5 5 5 5 3 5 5 3 5 5 5 3 5 5 5 3 5 3 5 5 5 5 5 5 5 5 3 5 5 5 5 5 5 5 5 3 5 5 5 5 3 5 3 5 5 3 5 5 3 5 5 5 5 3 5 5 5 5 5 5 5 5 5 5 5 5 5 5 5 5 5 5 5 5 5 5 3 5 5 5 5 5 5 5 5 5 5 5 5 5 5 5 5 5 5 5 5 5 5 5 5 5 5 5 5 5 5 5 5 3 5 3 3 5 5 5 5 5 5 5 3 5 5 5 5 5 5 3 5 5 5 3 5 5 5 5 5 5 5 5 5 5 5 3 5 5 3 5 5 5 5 3 5 5 3 5 5 5 5 5 5 5 3 5 5 5 5 5 5 5 5 5 5 5 3 5 5 5 5 5 5 5 5 5 5 5 5 5 3 5 5 5 3 5 5 5 5 5 5 5 5 5 5 5 5 5 5 5 5 5 5 5 5 5 5 5 5 5 5 5 5 5 5 5 5 5 5 5 3 5 5 5 5 5 3 5 5 3 5 5 5 3 3 5 5 5 5 5 5 3 5 5 5 5 5 5 5 5 5 5 5 5 5 5 5 5 5 5 5 5 5 5 5 5 3 5 5 5 5 5 5 3 5 5 3 5 5 5 5 5 5 3 5 3 5 5 5 3 5 5 3 5 5 5 5 3 5 5 5 3 5 5 3 3 5 5 3 5 5 3 3 5 3 5 5 5 3 3 3 5 5 5 3 5 5 5 3 5 5 5 5 3 5 5 5 5 5 5 5 5 5 5 5 5 5 5 3 5 3 5 5 5 5 5 3 5 5 5 5 5 5 5 3 3 5 5 5 5 5 5 5 3 5 3 3 3 5 5 5 5 5 5 5 3 5 5 3 5 3 5 3 5 5 3 5 5 5 5 5 5 5 5 5 5 5 5 5 5 5 3 5 5 5 5 5 5 5 5 5 5 5 3 5 5 5 5 3 5 5 5 5 5 5 5 5 5 5 3 5 5 3 5 5 3 5 5 5 5 3 5 5 5 3 3 5 5 5 5 5 5 3 5 5 5 5 5 5 5 5 5 5 5 5 5 5 5 3 5 5 5 3 5 5 5 5 5 5 5 3 5 5 5 5 3 3 5 5 5 5 5 5 5 5 5 5 5 5 5 5 3 5 5 5 3 5 5 5 5 5 3 5 3 5 5 5 5 5 5 5 5 3 3 5 3 3 5 5 5 5 5 3 3 3 5 3 5 3 5 5 3 5 5 5 5 5 5 5 5 5 5 5 5 5 5 5 5 5 5 5 5 3 5 5 5 5 5 5 5 5 5 5 5 5 5 5 3 5 5 5 5 5 5 5 5 5 5 5 5 5 5 5 5 3 5 5 5 5 3 5 5 5 5 5 5 5 3 5 3 5 5 3 5 5 5 5 3 5 3 5 5 3 5 5 5 5 5 5 5 5 5 5 5 5 5 5 3 5 5 5 5 5 5 5 5 5 5 5 5 5 3 5 5 5 3 5 3 5 5 3 5 5 5 3 5 5 5 5 5 5 5 5 5 5 5 5 5 5 5 5 3 5 5 5 5 3 5 5 3 5 5 5 5 5 5 5 3 5 5 5 5 5 5 5 5 5 5 5 5 5 5 5 5 5 5 5 5 5 5 3 5 5 5 3 5 5 5 5 5 5 5 5 5 5 5 5 5 5 5 5 3 5 5 5 5 5 5 5 5 5 5 5 5 5 3 5 5 5 5 5 5 5 5 5 5 5 3 5 5 5 5 5 5 5 3 5 5 5 5 3 3 5 5 5 5 5 5 5 5 5 5 5 5 5 5 5 5 5 5 5 5 5 5 5 3 5 5 5 5 5 5 5 3 5 3 5 5 5 3 5 5 5 5 5 3 5 5 5 3 5 5 5 3 5 5 5 5 5 5 5 5 5 3 5 5 5 5 5 5 5 5 5 5 5 5 5 5 5 5 3 5 5 5 5 3 5 5 5 3 5 3 3 5 5 5 5 5 5 5 5 5 5 5 5 5 5 5 5 5 5 5 5 5 5 5 5 5 3 5 5 5 3 5 3 5 3 5 5 3 5 5 5 3 5 5 5 5 5 5 5 3 5 5 3 3 3 5 5 3 5 5 5 5 3 3 5 3 5 5 5 5 5 3 5 5 5 5 5 3 5 5 5 3 5 5 5 5 5 5 5 5 5 5 3 5 5 5 5 3 3 5 5 5 5 3 5 3 5 3 5 5 5 5 5 5 5 5 5 5 5 5 5 5 5 5 3 5 5 5 5 5 5 5 5 3 5 5 5 3 5 5 5 5 5 3 5 5 3 5 5 5 5 5 3 5 5 3 5 5 3 3 3 5 3 5 5 5 3 5 5 5 5 5 5 5 5 5 5 5 5 3 5 3 5 5 5 5 5 5 5 5 5 5 5 5 5 5 5 5 5 3 5 5 5 5 5 5 3 5 5 3 5 5 5 5 5 5 5 5 5 3 3 5 5 5 5 5 5 3 5 5 3 5 5 5 5 5 5 5 5 5 5 5 5 5 5 5 5 3 5 3 5 5 5 5 5 5 5 5 5 5 3 5 5 5 5 5 3 5 5 5 5 5 5 5 5 5 5 5 5 5 5 5 5 3 5 5 5 5 5 5 5 5 5 3 5 5 5 5 5 5 5 3 5 3 5 5 5 5 5 3 5 3 5 5 3 5 5 5 5 5 5 5 5 5 5 5 3 5 5 5 5 3 5 5 5 5 5 5 5 5 5 5 5 5 3 5 5 3 5 5 5 5 5 5 5 5 5 5 3 5 3 5 5 5 5 5 3 5 5 5 5 5 5 5 5 5 5 3 3 5 5 5 5 5 3 5 5 5 3 5 5 5 5 5 5 3 5 5 5 5 5 5 5 5 3 5 5 5 5 5 5 5 5 5 5 5 5 5 5 5 3 5 5 5 5 5 3 5 5 5 5 3 5 5 5 3 5 5 3 5 5 5 5 5 5 5 5 5 5 5 5 5 5 5 5 5 5 5 5 5 5 5 3 5 5 5 5 5 5 5 3 5 5 5 5 5 5 5 5 5 5 5 5 5 5 5 5 5 5 5 5 5 5 5 5 5 5 5 5 5 5 5 5 5 5 5 5 5 3 5 5 5 5 5 5 5 5 3 5 5 5 5 5 5 5 5 5 5 5 5 5 5 3 5 5 3 5 3 3 3 5 5 5 5 3 5 5 5 5 5 5 5 5 5 5 5 5 5 5 5 5 5 5 5 5 5 5 5 5 5 5 5 5 5 5 5 5 5 5 5 5 5 5 5 5 5 5 5 3 5 5 3 5 5 5 5 5 3 5 5 5 5 3 3 5 3 5 5 5 3 5 5 5 5 5 5 5 5 5 5 5 5 5 5 5 5 5 5 5 5 5 5 5 5 5 5 5 5 5 5 3 5 5 5 5 5 5 3 5 5 5 3 5 5 5 5 5 5 5 5 5 5 5 5 5 3 5 5 5 5 5 5 5 5 5 5 5 5 5 5 5 5 5 5 5 5 5 5 5 5 5 3 3 5 5 5 3 5 3 5 5 5 3 5 5 5 3 3 5 5 3 5 5 5 5 5 5 5 5 5 5 5 3 5 5 5 5 5 5 5 5 3 5 5 5 5 5 5 5 5 5 5 5 5 5 3 3 5 5 5 5 5 5 5 3 5 5 5 5 3 5 5 5 5 5 5 5 5 5 5 5 3 5 3 3 3 5 5 5 3 5 5 5 5 3 5 5 5 5 5 5 5 5 5 5 5 5 5 5 5 5 5 5 5 5 5 5 5 5 5 5 5 5 3 5 5 5 5 5 5 3 5 3 3 5 5 5 5 5 5 5 3 5 5 5 5 5 5 5 5 5 5 5 5 5 5 5 5 5 5 5 5 5 5 5 5 5 5 5 5 5 5 5 5 5 5 5 5 5 5 5 5 5 5 5 5 5 5 5 5 5 5 5 5 5 5 5 5 5 5 5 5 5 5 5 5 5 5 5 5 5 5 5 5 5 5 5 5 5 5 5 5 5 5 5 5 5 5 5 5 5 5 5 5 5 5 5 5 5 5 5 5 5 5 5 5 5 5 5 5 5 5 5 5 5 5 5 5 5 5 5 5 5 5 3 3 5 3 3 5 5 3 5 5 3 5 5 5 5 5 5 5 5 5 5 5 5 5 5 3 3 5 3 3 5 5 5 5 5 5 5 5 5 5 3 5 5 5 5 5 5 3 5 5 5 5 5 5 5 5 5 5 3 5 5 3 5 5 5 5 5 5 5 5 5 5 5 5 5 5 5 5 5 5 5 5 5 5 5 5 5 5 3 5 5 5 5 5 5 5 5 5 5 5 5 5 5 5 5 5 3 5 5 5 3 5 5 5 5 5 5 3 5 5 5 5 5 5 5 5 3 5 5 5 5 3 5 3 5 3 5 5 5 5 5 3 5 5 5 3 5 3 5 5 5 5 5 5 5 5 5 5 5 5 3 5 5 5 5 5 5 5 5 5 5 5 5 5 5 5 5 5 5 5 5 5 5 5 5 5 5 5 5 5 5 5 5 5 5 5 5 3 5 5 5 5 5 5 3 5 5 5 5 5 5 5 5 3 3 5 5 5 5 5 3 3 5 5 5 5 5 5 5 5 5 3 5 5 5 5 3 5 5 5 5 5 3 5 5 5 5 5 5 5 5 5 5 5 5 5 5 3 5 5 5 5 5 5 5 5 5 5 5 5 5 3 5 5 
</DataArray>
</Cells>
<PointData Scalars="" Vectors="displacement," Tensors="">
<DataArray type="Float64" Name="displacement" NumberOfComponents="3" format="ascii">
0.034995547037207364 0.034997546201749268 0 0.032494425655132671 0.032092769448520859 0 0.03126080665302803 0.033885312535934208 0 0.034995547037207364 0.034997546201749268 0 0.029156810245864757 0.034996317579108725 0 0.03126080665302803 0.033885312535934208 0 0.034995547037207364 0.034997546201749268 0 0.032494425655132671 0.032092769448520859 0 0.033594450164826185 0.028859811868733397 0 0.029156810245864757 0.034996317579108725 0 0.030114552428562081 0.03462420994377341 0 0.03126080665302803 0.033885312535934208 0 0.029156810245864757 0.034996317579108725 0 0.027532778888791496 0.035141341693883159 0 0.024884547558244041 0.034998295421551313 0 0.029156810245864757 0.034996317579108725 0 0.027532778888791496 0.035141341693883159 0 0.030114552428562081 0.03462420994377341 0 0.027532778888791496 0.035141341693883159 0 0.027728430258823988 0.035365565687689837 0 0.030114552428562081 0.03462420994377341 0 0.030211231592771504 0.034499207834897842 0 0.030334235055191495 0.034346499924759563 0 0.030114552428562081 0.03462420994377341 0 0.031306840200598034 0.032345422302896533 0 0.032250554982884795 0.031959720823315232 0 0.027728430258823988 0.035365565687689837 0 0.030114552428562081 0.03462420994377341 0 0.028512141816459623 0.036899947634298394 0 0.027728430258823988 0.035365565687689837 0 0.028512141816459623 0.036899947634298394 0 0.026897147674613566 0.036137913061926048 0 0.030114552428562081 0.03462420994377341 0 0.03126080665302803 0.033885312535934208 0 0.031306840200598034 0.032345422302896533 0 0.032494425655132671 0.032092769448520859 0 0.03126080665302803 0.033885312535934208 0 0.031306840200598034 0.032345422302896533 0 0.032494425655132671 0.032092769448520859 0 0.031306840200598034 0.032345422302896533 0 0.032211777834604001 0.030020858193063941 0 0.031306840200598034 0.032345422302896533 0 0.032211777834604001 0.030020858193063941 0 0.031865341639469302 0.030473107456627818 0 0.032211777834604001 0.030020858193063941 0 0.031865341639469302 0.030473107456627818 0 0.031982081643849428 0.029455230928104491 0 0.028512141816459623 0.036899947634298394 0 0.026897147674613566 0.036137913061926048 0 0.027548240467807579 0.037329223896589679 0 0.031306840200598034 0.032345422302896533 0 0.032250554982884795 0.031959720823315232 0 0.031865341639469302 0.030473107456627818 0 0.031865341639469302 0.030473107456627818 0 0.032522912805153403 0.029988278723815157 0 0.031936025773322954 0.029609035965986619 0 0.032250554982884795 0.031959720823315232 0 0.031865341639469302 0.030473107456627818 0 0.032522912805153403 0.029988278723815157 0 0.030334235055191495 0.034346499924759563 0 0.03014095415437577 0.033636577482768139 0 0.028512141816459623 0.036899947634298394 0 0.027813859067423282 0.037343947993925174 0 0.027548240467807579 0.037329223896589679 0 0.032522912805153403 0.029988278723815157 0 0.031883327597975762 0.029204439595744387 0 0.031647535487142206 0.0287513914511607 0 0.027813859067423282 0.037343947993925174 0 0.027701785924747608 0.036760552568244023 0 0.027966109188139205 0.036963934851710616 0 0.03014095415437577 0.033636577482768139 0 0.029667338186668966 0.033058212492392228 0 0.032522912805153403 0.029988278723815157 0 0.031883327597975762 0.029204439595744387 0 0.031936025773322954 0.029609035965986619 0 0.031865341639469302 0.030473107456627818 0 0.031936025773322954 0.029609035965986619 0 0.031982081643849428 0.029455230928104491 0 0.031936025773322954 0.029609035965986619 0 0.03177025432836502 0.02904312567775728 0 0.031982081643849428 0.029455230928104491 0 0.031883327597975762 0.029204439595744387 0 0.03177025432836502 0.02904312567775728 0 0.031525364085734343 0.028748842767623232 0 0.031883327597975762 0.029204439595744387 0 0.031936025773322954 0.029609035965986619 0 0.03177025432836502 0.02904312567775728 0 0.03177025432836502 0.02904312567775728 0 0.031498002119289811 0.02853930350952227 0 0.031525364085734343 0.028748842767623232 0 0.031498002119289811 0.02853930350952227 0 0.031525364085734343 0.028748842767623232 0 0.031021717315484566 0.028460504949832915 0 0.031647535487142206 0.0287513914511607 0 0.03024811003328692 0.028333576462507497 0 0.031014936607250188 0.028498318315040839 0 0.031883327597975762 0.029204439595744387 0 0.031525364085734343 0.028748842767623232 0 0.031647535487142206 0.0287513914511607 0 0.031525364085734343 0.028748842767623232 0 0.031014936607250188 0.028498318315040839 0 0.031021717315484566 0.028460504949832915 0 0.031525364085734343 0.028748842767623232 0 0.031647535487142206 0.0287513914511607 0 0.031014936607250188 0.028498318315040839 0 0.032211777834604001 0.030020858193063941 0 0.032112513126185828 0.028607710620508826 0 0.03276227812571729 0.028853263631124726 0 0.03177025432836502 0.02904312567775728 0 0.031982081643849428 0.029455230928104491 0 0.032112513126185828 0.028607710620508826 0 0.032211777834604001 0.030020858193063941 0 0.031982081643849428 0.029455230928104491 0 0.032112513126185828 0.028607710620508826 0 0.031498002119289811 0.02853930350952227 0 0.032112513126185828 0.028607710620508826 0 0.031643245335221143 0.028369436125693828 0 0.03177025432836502 0.02904312567775728 0 0.031498002119289811 0.02853930350952227 0 0.032112513126185828 0.028607710620508826 0 0.032112513126185828 0.028607710620508826 0 0.033161000780804827 0.027968588723336574 0 0.03276227812571729 0.028853263631124726 0 0.034995547037207364 0.034997546201749268 0 0.033594450164826185 0.028859811868733397 0 0.034994268297158543 0.026605877587370558 0 0.033161000780804827 0.027968588723336574 0 0.03276227812571729 0.028853263631124726 0 0.033594450164826185 0.028859811868733397 0 0.033161000780804827 0.027968588723336574 0 0.033594450164826185 0.028859811868733397 0 0.034689613602938943 0.026522248217398993 0 0.032211777834604001 0.030020858193063941 0 0.03276227812571729 0.028853263631124726 0 0.033594450164826185 0.028859811868733397 0 0.033594450164826185 0.028859811868733397 0 0.034994268297158543 0.026605877587370558 0 0.034689613602938943 0.026522248217398993 0 0.032494425655132671 0.032092769448520859 0 0.032211777834604001 0.030020858193063941 0 0.033594450164826185 0.028859811868733397 0 0.018416213990931397 0.03610395088068892 0 0.017702110850628429 0.036695847373075227 0 0.017242541211181069 0.035587217974410147 0 0.019257755894610248 0.036971978633748001 0 0.018416213990931397 0.03610395088068892 0 0.017702110850628429 0.036695847373075227 0 0.019257755894610248 0.036971978633748001 0 0.018416213990931397 0.03610395088068892 0 0.019519463611197843 0.036354643407517012 0 0.018416213990931397 0.03610395088068892 0 0.019038822107565582 0.035661158020983331 0 0.019519463611197843 0.036354643407517012 0 0.018416213990931397 0.03610395088068892 0 0.017987376190810145 0.035531496087121667 0 0.019038822107565582 0.035661158020983331 0 0.018416213990931397 0.03610395088068892 0 0.017987376190810145 0.035531496087121667 0 0.017242541211181069 0.035587217974410147 0 0.017987376190810145 0.035531496087121667 0 0.01768252185055752 0.03499947112821674 0 0.016923502668937287 0.035377064627162301 0 0.017987376190810145 0.035531496087121667 0 0.01768252185055752 0.03499947112821674 0 0.019490888693316857 0.034999205945347382 0 0.017987376190810145 0.035531496087121667 0 0.019490888693316857 0.034999205945347382 0 0.019038822107565582 0.035661158020983331 0 0.019038822107565582 0.035661158020983331 0 0.019652220556437117 0.035271495661408199 0 0.020556121750899773 0.035840949039595789 0 0.020116144076731807 0.035576707337674089 0 0.021043156118490631 0.03638047525260131 0 0.019493359541190757 0.034999740939716611 0 0.020546996392627477 0.03592734089293359 0 0.022117660364048521 0.035873568974938735 0 0.019490888693316857 0.034999205945347382 0 0.019038822107565582 0.035661158020983331 0 0.019652220556437117 0.035271495661408199 0 0.019492812369039689 0.035000039033458878 0 0.020116144076731807 0.035576707337674089 0 0.021523039518914884 0.036818124706245181 0 0.022403556484029662 0.036611583787512197 0 0.022117660364048521 0.035873568974938735 0 0.020546996392627477 0.03592734089293359 0 0.021523039518914884 0.036818124706245181 0 0.022117660364048521 0.035873568974938735 0 0.019038822107565582 0.035661158020983331 0 0.020556121750899773 0.035840949039595789 0 0.019519463611197843 0.036354643407517012 0 0.020556121750899773 0.035840949039595789 0 0.019519463611197843 0.036354643407517012 0 0.020584978675560042 0.03685266706473387 0 0.019257755894610248 0.036971978633748001 0 0.020584978675560042 0.03685266706473387 0 0.020509247312943939 0.037724632636144596 0 0.019257755894610248 0.036971978633748001 0 0.019519463611197843 0.036354643407517012 0 0.020584978675560042 0.03685266706473387 0 0.021126693405370045 0.037473494735057303 0 0.020584978675560042 0.03685266706473387 0 0.020509247312943939 0.037724632636144596 0 0.021523039518914884 0.036818124706245181 0 0.022236360989029258 0.037323142405827729 0 0.021934816967221889 0.037397496050701792 0 0.021043156118490631 0.03638047525260131 0 0.021853518881280263 0.037340968105070441 0 0.020556121750899773 0.035840949039595789 0 0.020584978675560042 0.03685266706473387 0 0.021934816967221889 0.037397496050701792 0 0.021126693405370045 0.037473494735057303 0 0.021934816967221889 0.037397496050701792 0 0.021407511613154039 0.037871653259328467 0 0.021126693405370045 0.037473494735057303 0 0.020584978675560042 0.03685266706473387 0 0.021934816967221889 0.037397496050701792 0 0.019493359541190757 0.034999740939716611 0 0.022117660364048521 0.035873568974938735 0 0.024884547558244041 0.034998295421551313 0 0.022264961694733982 0.03786544558391762 0 0.024419017269193394 0.036789141438679077 0 0.022236360989029258 0.037323142405827729 0 0.024334577935824643 0.037952200694591445 0 0.022779293104264478 0.039214756694537944 0 0.022236360989029258 0.037323142405827729 0 0.021934816967221889 0.037397496050701792 0 0.02230866054044681 0.03789475263398092 0 0.022236360989029258 0.037323142405827729 0 0.024334577935824643 0.037952200694591445 0 0.023626756008280538 0.036835816251352675 0 0.026290797077521216 0.036834458580089914 0 0.024419017269193394 0.036789141438679077 0 0.027854840703751865 0.035995660249013114 0 0.027325680292725373 0.035491555718126559 0 0.028251994539478239 0.035285832623102455 0 0.024334577935824643 0.037952200694591445 0 0.023626756008280538 0.036835816251352675 0 0.026150731465097426 0.036323332682876935 0 0.023626756008280538 0.036835816251352675 0 0.023687801914843782 0.036002030459072104 0 0.026150731465097426 0.036323332682876935 0 0.023626756008280538 0.036835816251352675 0 0.022403556484029662 0.036611583787512197 0 0.023687801914843782 0.036002030459072104 0 0.021523039518914884 0.036818124706245181 0 0.022236360989029258 0.037323142405827729 0 0.022403556484029662 0.036611583787512197 0 0.022236360989029258 0.037323142405827729 0 0.023626756008280538 0.036835816251352675 0 0.022403556484029662 0.036611583787512197 0 0.022117660364048521 0.035873568974938735 0 0.023687801914843782 0.036002030459072104 0 0.024884547558244041 0.034998295421551313 0 0.022403556484029662 0.036611583787512197 0 0.022117660364048521 0.035873568974938735 0 0.023687801914843782 0.036002030459072104 0 0.023687801914843782 0.036002030459072104 0 0.024884547558244041 0.034998295421551313 0 0.026150731465097426 0.036323332682876935 0 0.027532778888791496 0.035141341693883159 0 0.024884547558244041 0.034998295421551313 0 0.026150731465097426 0.036323332682876935 0 0.027532778888791496 0.035141341693883159 0 0.027728430258823988 0.035365565687689837 0 0.026150731465097426 0.036323332682876935 0 0.027728430258823988 0.035365565687689837 0 0.026150731465097426 0.036323332682876935 0 0.026897147674613566 0.036137913061926048 0 0.026150731465097426 0.036323332682876935 0 0.026897147674613566 0.036137913061926048 0 0.027325680292725373 0.035491555718126559 0 0.027854840703751865 0.035995660249013114 0 0.026150731465097426 0.036323332682876935 0 0.027325680292725373 0.035491555718126559 0 0.026290797077521216 0.036834458580089914 0 0.026184652247992116 0.0364414982610681 0 0.026897147674613566 0.036137913061926048 0 0.026942175370353549 0.034890874551956309 0 0.027325680292725373 0.035491555718126559 0 0.026892472657934818 0.03611162824158453 0 0.026947050050682531 0.035698675570122289 0 0.026897147674613566 0.036137913061926048 0 0.026942175370353549 0.034890874551956309 0 0.026281155886579602 0.034402854710391277 0 0.027325680292725373 0.035491555718126559 0 0.027487900242331584 0.034121454923056849 0 0.028156967283188047 0.034481418841852692 0 0.026942175370353549 0.034890874551956309 0 0.027325680292725373 0.035491555718126559 0 0.027487900242331584 0.034121454923056849 0 0.026942175370353549 0.034890874551956309 0 0.027487900242331584 0.034121454923056849 0 0.026949536975082306 0.033938836522606833 0 0.027487900242331584 0.034121454923056849 0 0.028209030652806399 0.033469033628265449 0 0.028156967283188047 0.034481418841852692 0 0.027487900242331584 0.034121454923056849 0 0.027745132752952241 0.033249798803074077 0 0.028209030652806399 0.033469033628265449 0 0.027487900242331584 0.034121454923056849 0 0.026949536975082306 0.033938836522606833 0 0.027271876235408075 0.033340689757999573 0 0.027487900242331584 0.034121454923056849 0 0.027271876235408075 0.033340689757999573 0 0.027745132752952241 0.033249798803074077 0 0.026949536975082306 0.033938836522606833 0 0.026748264364031972 0.032838927847425294 0 0.027271876235408075 0.033340689757999573 0 0.026949536975082306 0.033938836522606833 0 0.026281155886579602 0.034402854710391277 0 0.026748264364031972 0.032838927847425294 0 0.027813859067423282 0.037343947993925174 0 0.027548240467807579 0.037329223896589679 0 0.027966109188139205 0.036963934851710616 0 0.026942175370353549 0.034890874551956309 0 0.026949536975082306 0.033938836522606833 0 0.026281155886579602 0.034402854710391277 0 0.026947050050682531 0.035698675570122289 0 0.026991807164618058 0.034983562561975864 0 0.026281155886579602 0.034402854710391277 0 0.026748264364031972 0.032838927847425294 0 0.02627832581744104 0.032140908351305668 0 0.026748264364031972 0.032838927847425294 0 0.02627832581744104 0.032140908351305668 0 0.027323519286419993 0.032177399266150493 0 0.027701785924747608 0.036760552568244023 0 0.027966109188139205 0.036963934851710616 0 0.028112036490744299 0.03547370649543409 0 0.02627832581744104 0.032140908351305668 0 0.027044888479449299 0.030980608749074309 0 0.026750790191231201 0.029857538985943559 0 0.026991807164618058 0.034983562561975864 0 0.028608763953821576 0.030711305497818992 0 0.029667338186668966 0.033058212492392228 0 0.028608763953821576 0.030711305497818992 0 0.02627832581744104 0.032140908351305668 0 0.027100689518596652 0.031593502446804422 0 0.027323519286419993 0.032177399266150493 0 0.02627832581744104 0.032140908351305668 0 0.027100689518596652 0.031593502446804422 0 0.027044888479449299 0.030980608749074309 0 0.027887784688740685 0.031962070299834319 0 0.028176159697030551 0.032613571862722769 0 0.028681801128665269 0.031190916366594636 0 0.027100689518596652 0.031593502446804422 0 0.027044888479449299 0.030980608749074309 0 0.027706205833979758 0.03110429143942646 0 0.027044888479449299 0.030980608749074309 0 0.027706205833979758 0.03110429143942646 0 0.027434257212247834 0.030149040748883551 0 0.027706205833979758 0.03110429143942646 0 0.027887784688740685 0.031962070299834319 0 0.027323519286419993 0.032177399266150493 0 0.027100689518596652 0.031593502446804422 0 0.027706205833979758 0.03110429143942646 0 0.027323519286419993 0.032177399266150493 0 0.027706205833979758 0.03110429143942646 0 0.027887784688740685 0.031962070299834319 0 0.028681801128665269 0.031190916366594636 0 0.027887784688740685 0.031962070299834319 0 0.028176159697030551 0.032613571862722769 0 0.027539124375414711 0.032715527653229645 0 0.026748264364031972 0.032838927847425294 0 0.027323519286419993 0.032177399266150493 0 0.027539124375414711 0.032715527653229645 0 0.027887784688740685 0.031962070299834319 0 0.027323519286419993 0.032177399266150493 0 0.027539124375414711 0.032715527653229645 0 0.026748264364031972 0.032838927847425294 0 0.027539124375414711 0.032715527653229645 0 0.027271876235408075 0.033340689757999573 0 0.027539124375414711 0.032715527653229645 0 0.027271876235408075 0.033340689757999573 0 0.027745132752952241 0.033249798803074077 0 0.028176159697030551 0.032613571862722769 0 0.027745132752952241 0.033249798803074077 0 0.028209030652806399 0.033469033628265449 0 0.028176159697030551 0.032613571862722769 0 0.027539124375414711 0.032715527653229645 0 0.027745132752952241 0.033249798803074077 0 0.028176159697030551 0.032613571862722769 0 0.028808401593533543 0.033021654825279564 0 0.028681801128665269 0.031190916366594636 0 0.02500601376715799 0.030999083655456346 0 0.025148308972663558 0.030969956338148648 0 0.024891875618882755 0.031122485335666753 0 0.026309790083564804 0.032638895993044523 0 0.026967497726806056 0.03097806783361131 0 0.028932014066711077 0.033092652695677925 0 0.028808401593533543 0.033021654825279564 0 0.028209030652806399 0.033469033628265449 0 0.028176159697030551 0.032613571862722769 0 0.028808401593533543 0.033021654825279564 0 0.028209030652806399 0.033469033628265449 0 0.028967756287687843 0.03309156712529733 0 0.028808401593533543 0.033021654825279564 0 0.028681801128665269 0.031190916366594636 0 0.026309790083564804 0.032638895993044523 0 0.026731893893848568 0.032773433786602149 0 0.025148308972663558 0.030969956338148648 0 0.024891875618882755 0.031122485335666753 0 0.025352516331537005 0.030771254807747141 0 0.024891875618882755 0.031122485335666753 0 0.02448811247078431 0.031295795844143416 0 0.025352516331537005 0.030771254807747141 0 0.02500601376715799 0.030999083655456346 0 0.024891875618882755 0.031122485335666753 0 0.024538499952459311 0.031178344772988385 0 0.02500601376715799 0.030999083655456346 0 0.024538499952459311 0.031178344772988385 0 0.024108113720882816 0.03080919644916601 0 0.024891875618882755 0.031122485335666753 0 0.024538499952459311 0.031178344772988385 0 0.02448811247078431 0.031295795844143416 0 0.024304849705511406 0.034451452989257024 0 0.024368033380810537 0.03473127424233885 0 0.024536793195720091 0.034558715020610357 0 0.026309790083564804 0.032638895993044523 0 0.022700191069560158 0.034101773649832419 0 0.028932014066711077 0.033092652695677925 0 0.028156967283188047 0.034481418841852692 0 0.029164009580112338 0.035208248763064276 0 0.028932014066711077 0.033092652695677925 0 0.028209030652806399 0.033469033628265449 0 0.028156967283188047 0.034481418841852692 0 0.026309790083564804 0.032638895993044523 0 0.024419017269193394 0.036789141438679077 0 0.028156967283188047 0.034481418841852692 0 0.028251994539478239 0.035285832623102455 0 0.029164009580112338 0.035208248763064276 0 0.027325680292725373 0.035491555718126559 0 0.028156967283188047 0.034481418841852692 0 0.028251994539478239 0.035285832623102455 0 0.027854840703751865 0.035995660249013114 0 0.028251994539478239 0.035285832623102455 0 0.029164009580112338 0.035208248763064276 0 0.02230866054044681 0.03789475263398092 0 0.021407511613154039 0.037871653259328467 0 0.021066363100374134 0.038990570528543676 0 0.024419017269193394 0.036789141438679077 0 0.022700191069560158 0.034101773649832419 0 0.021934816967221889 0.037397496050701792 0 0.02230866054044681 0.03789475263398092 0 0.021407511613154039 0.037871653259328467 0 0.021407511613154039 0.037871653259328467 0 0.020509247312943939 0.037724632636144596 0 0.021066363100374134 0.038990570528543676 0 0.021126693405370045 0.037473494735057303 0 0.021407511613154039 0.037871653259328467 0 0.020509247312943939 0.037724632636144596 0 0.019257755894610248 0.036971978633748001 0 0.020509247312943939 0.037724632636144596 0 0.0192378755745133 0.038113970015252414 0 0.020509247312943939 0.037724632636144596 0 0.021066363100374134 0.038990570528543676 0 0.0192378755745133 0.038113970015252414 0 0.022700191069560158 0.034101773649832419 0 0.020840114189903711 0.035076287494538047 0 0.023522938119726184 0.03140744505124686 0 0.023372362379951318 0.031537191433313967 0 0.022436553988527366 0.031689565288911405 0 0.022700191069560158 0.034101773649832419 0 0.024137412475340039 0.031113599332993878 0 0.024538499952459311 0.031178344772988385 0 0.024108113720882816 0.03080919644916601 0 0.024004360726446339 0.031389714148593185 0 0.024004360726446339 0.031389714148593185 0 0.02448811247078431 0.031295795844143416 0 0.023597181228720166 0.031645293389644176 0 0.024108113720882816 0.03080919644916601 0 0.024004360726446339 0.031389714148593185 0 0.023372362379951318 0.031537191433313967 0 0.024538499952459311 0.031178344772988385 0 0.024004360726446339 0.031389714148593185 0 0.02448811247078431 0.031295795844143416 0 0.02448811247078431 0.031295795844143416 0 0.023703686098719749 0.03163488499382943 0 0.024694499439845967 0.031145182665604784 0 0.02448811247078431 0.031295795844143416 0 0.023703686098719749 0.03163488499382943 0 0.023597181228720166 0.031645293389644176 0 0.023703686098719749 0.03163488499382943 0 0.023597181228720166 0.031645293389644176 0 0.022870117838690425 0.031998177239854209 0 0.023372362379951318 0.031537191433313967 0 0.022870117838690425 0.031998177239854209 0 0.022049647643395582 0.032281236341061302 0 0.023597181228720166 0.031645293389644176 0 0.023372362379951318 0.031537191433313967 0 0.022870117838690425 0.031998177239854209 0 0.024004360726446339 0.031389714148593185 0 0.023597181228720166 0.031645293389644176 0 0.023372362379951318 0.031537191433313967 0 0.022870117838690425 0.031998177239854209 0 0.021848655736702281 0.032576097647335461 0 0.022049647643395582 0.032281236341061302 0 0.022870117838690425 0.031998177239854209 0 0.022472380958673724 0.032233603850757436 0 0.021848655736702281 0.032576097647335461 0 0.023703686098719749 0.03163488499382943 0 0.022870117838690425 0.031998177239854209 0 0.022472380958673724 0.032233603850757436 0 0.022472380958673724 0.032233603850757436 0 0.022357851868354813 0.031952180472307135 0 0.021033621744746048 0.033212781003179224 0 0.022472380958673724 0.032233603850757436 0 0.021848655736702281 0.032576097647335461 0 0.021033621744746048 0.033212781003179224 0 0.021848655736702281 0.032576097647335461 0 0.020825003218633967 0.032955745653372552 0 0.022049647643395582 0.032281236341061302 0 0.021848655736702281 0.032576097647335461 0 0.020825003218633967 0.032955745653372552 0 0.021033621744746048 0.033212781003179224 0 0.020825003218633967 0.032955745653372552 0 0.022049647643395582 0.032281236341061302 0 0.020152853195561562 0.032641815484321685 0 0.022049647643395582 0.032281236341061302 0 0.022436553988527366 0.031689565288911405 0 0.020152853195561562 0.032641815484321685 0 0.023372362379951318 0.031537191433313967 0 0.022049647643395582 0.032281236341061302 0 0.022436553988527366 0.031689565288911405 0 0.019257755894610248 0.036971978633748001 0 0.0192378755745133 0.038113970015252414 0 0.017702110850628429 0.036695847373075227 0 0.020840114189903711 0.035076287494538047 0 0.019083153637285338 0.034739206747248882 0 0.024365668549422171 0.03131001740787219 0 0.02441236958466687 0.031168575868825106 0 0.025483993975060352 0.030864971070717982 0 0.024365668549422171 0.03131001740787219 0 0.025483993975060352 0.030864971070717982 0 0.025523867865124086 0.031527407753372753 0 0.024365668549422171 0.03131001740787219 0 0.02441236958466687 0.031168575868825106 0 0.02338231852591599 0.031388232176210333 0 0.02338231852591599 0.031388232176210333 0 0.023432993671852788 0.031593232407251495 0 0.022357851868354813 0.031952180472307135 0 0.022472380958673724 0.032233603850757436 0 0.023432993671852788 0.031593232407251495 0 0.022357851868354813 0.031952180472307135 0 0.023703686098719749 0.03163488499382943 0 0.022472380958673724 0.032233603850757436 0 0.023432993671852788 0.031593232407251495 0 0.02441236958466687 0.031168575868825106 0 0.02338231852591599 0.031388232176210333 0 0.023432993671852788 0.031593232407251495 0 0.02441236958466687 0.031168575868825106 0 0.023432993671852788 0.031593232407251495 0 0.024453562173591698 0.03119599051916367 0 0.02441236958466687 0.031168575868825106 0 0.024453562173591698 0.03119599051916367 0 0.02529789557235284 0.03074406291864314 0 0.023703686098719749 0.03163488499382943 0 0.023432993671852788 0.031593232407251495 0 0.024453562173591698 0.03119599051916367 0 0.023703686098719749 0.03163488499382943 0 0.024453562173591698 0.03119599051916367 0 0.024694499439845967 0.031145182665604784 0 0.024453562173591698 0.03119599051916367 0 0.024694499439845967 0.031145182665604784 0 0.02524456104896541 0.030765837651974087 0 0.024453562173591698 0.03119599051916367 0 0.02524456104896541 0.030765837651974087 0 0.02529789557235284 0.03074406291864314 0 0.02441236958466687 0.031168575868825106 0 0.02529789557235284 0.03074406291864314 0 0.025483993975060352 0.030864971070717982 0 0.025483993975060352 0.030864971070717982 0 0.026091357585066203 0.030176678333271006 0 0.026111459268003116 0.030234434597864332 0 0.02529789557235284 0.03074406291864314 0 0.025483993975060352 0.030864971070717982 0 0.026091357585066203 0.030176678333271006 0 0.026091357585066203 0.030176678333271006 0 0.026798085803397851 0.029655360713463304 0 0.026573667081700676 0.029772546471008948 0 0.026798085803397851 0.029655360713463304 0 0.026573667081700676 0.029772546471008948 0 0.027649162527573719 0.029370211073535362 0 0.026573667081700676 0.029772546471008948 0 0.025917628784381155 0.030218065432132367 0 0.026270220233075809 0.029903578501367413 0 0.026573667081700676 0.029772546471008948 0 0.026270220233075809 0.029903578501367413 0 0.027323468491437946 0.029321470150376196 0 0.02529789557235284 0.03074406291864314 0 0.026091357585066203 0.030176678333271006 0 0.025917628784381155 0.030218065432132367 0 0.02524456104896541 0.030765837651974087 0 0.02529789557235284 0.03074406291864314 0 0.025917628784381155 0.030218065432132367 0 0.026091357585066203 0.030176678333271006 0 0.026573667081700676 0.029772546471008948 0 0.025917628784381155 0.030218065432132367 0 0.02524456104896541 0.030765837651974087 0 0.025917628784381155 0.030218065432132367 0 0.025352516331537005 0.030771254807747141 0 0.02448811247078431 0.031295795844143416 0 0.024694499439845967 0.031145182665604784 0 0.025352516331537005 0.030771254807747141 0 0.024694499439845967 0.031145182665604784 0 0.02524456104896541 0.030765837651974087 0 0.025352516331537005 0.030771254807747141 0 0.025148308972663558 0.030969956338148648 0 0.025352516331537005 0.030771254807747141 0 0.025707714389192046 0.030345498225994517 0 0.026967497726806056 0.03097806783361131 0 0.026977124932148686 0.030021171606871698 0 0.025917628784381155 0.030218065432132367 0 0.025352516331537005 0.030771254807747141 0 0.026270220233075809 0.029903578501367413 0 0.025352516331537005 0.030771254807747141 0 0.026270220233075809 0.029903578501367413 0 0.025707714389192046 0.030345498225994517 0 0.027706453944395425 0.029362453833290961 0 0.028061828091114821 0.029010497451570617 0 0.027323468491437946 0.029321470150376196 0 0.027706453944395425 0.029362453833290961 0 0.028114253962738034 0.029459434697687272 0 0.027323468491437946 0.029321470150376196 0 0.026977124932148686 0.030021171606871698 0 0.027247736127413102 0.0295232890962055 0 0.026270220233075809 0.029903578501367413 0 0.025707714389192046 0.030345498225994517 0 0.027323468491437946 0.029321470150376196 0 0.027706205833979758 0.03110429143942646 0 0.028681801128665269 0.031190916366594636 0 0.028114253962738034 0.029459434697687272 0 0.027706205833979758 0.03110429143942646 0 0.028114253962738034 0.029459434697687272 0 0.027434257212247834 0.030149040748883551 0 0.027706453944395425 0.029362453833290961 0 0.028114253962738034 0.029459434697687272 0 0.027434257212247834 0.030149040748883551 0 0.027044888479449299 0.030980608749074309 0 0.027434257212247834 0.030149040748883551 0 0.026750790191231201 0.029857538985943559 0 0.027706453944395425 0.029362453833290961 0 0.027434257212247834 0.030149040748883551 0 0.026750790191231201 0.029857538985943559 0 0.028608763953821576 0.030711305497818992 0 0.029259891586212967 0.027768247394143131 0 0.03024811003328692 0.028333576462507497 0 0.029340542096159734 0.028320827985395682 0 0.030487823812362539 0.028364809277564056 0 0.028608763953821576 0.030711305497818992 0 0.028155748062477701 0.028389380174937015 0 0.027706453944395425 0.029362453833290961 0 0.026750790191231201 0.029857538985943559 0 0.028061828091114821 0.029010497451570617 0 0.029733620665470667 0.027155766909462507 0 0.029340542096159734 0.028320827985395682 0 0.028061828091114821 0.029010497451570617 0 0.029340542096159734 0.028320827985395682 0 0.029043536642890982 0.028858737841807439 0 0.029945484066050174 0.028560169143290341 0 0.029340542096159734 0.028320827985395682 0 0.028061828091114821 0.029010497451570617 0 0.029043536642890982 0.028858737841807439 0 0.029043536642890982 0.028858737841807439 0 0.028268852241028472 0.029172315216299691 0 0.029384138980864231 0.028914392963119252 0 0.028268852241028472 0.029172315216299691 0 0.02871707217832923 0.029098806756136922 0 0.029384138980864231 0.028914392963119252 0 0.028061828091114821 0.029010497451570617 0 0.028268852241028472 0.029172315216299691 0 0.027323468491437946 0.029321470150376196 0 0.028061828091114821 0.029010497451570617 0 0.029043536642890982 0.028858737841807439 0 0.028268852241028472 0.029172315216299691 0 0.026573667081700676 0.029772546471008948 0 0.027323468491437946 0.029321470150376196 0 0.027649162527573719 0.029370211073535362 0 0.028268852241028472 0.029172315216299691 0 0.027323468491437946 0.029321470150376196 0 0.027649162527573719 0.029370211073535362 0 0.027649162527573719 0.029370211073535362 0 0.02871707217832923 0.029098806756136922 0 0.028509912866998686 0.028924279229086712 0 0.028268852241028472 0.029172315216299691 0 0.027649162527573719 0.029370211073535362 0 0.02871707217832923 0.029098806756136922 0 0.027649162527573719 0.029370211073535362 0 0.028509912866998686 0.028924279229086712 0 0.02794388995895106 0.028888765027098546 0 0.028509912866998686 0.028924279229086712 0 0.02794388995895106 0.028888765027098546 0 0.028472397825781016 0.028088198230000101 0 0.026798085803397851 0.029655360713463304 0 0.027649162527573719 0.029370211073535362 0 0.027271750735341854 0.029233583018777473 0 0.027649162527573719 0.029370211073535362 0 0.02794388995895106 0.028888765027098546 0 0.027271750735341854 0.029233583018777473 0 0.02794388995895106 0.028888765027098546 0 0.027654835615681935 0.028669057120663186 0 0.027271750735341854 0.029233583018777473 0 0.027654835615681935 0.028669057120663186 0 0.027164587446801624 0.028936498531089892 0 0.027271750735341854 0.029233583018777473 0 0.027654835615681935 0.028669057120663186 0 0.028472397825781016 0.028088198230000101 0 0.027960449058411871 0.028286545454318524 0 0.02794388995895106 0.028888765027098546 0 0.027654835615681935 0.028669057120663186 0 0.028472397825781016 0.028088198230000101 0 0.027960449058411871 0.028286545454318524 0 0.02811309862794836 0.028206969613171592 0 0.027671530822143648 0.02789759852758774 0 0.027960449058411871 0.028286545454318524 0 0.027537215795542438 0.028473134419911346 0 0.027671530822143648 0.02789759852758774 0 0.027537215795542438 0.028473134419911346 0 0.0273020313105692 0.028482165498102237 0 0.027671530822143648 0.02789759852758774 0 0.027654835615681935 0.028669057120663186 0 0.027960449058411871 0.028286545454318524 0 0.027537215795542438 0.028473134419911346 0 0.027654835615681935 0.028669057120663186 0 0.027537215795542438 0.028473134419911346 0 0.027164587446801624 0.028936498531089892 0 0.027164587446801624 0.028936498531089892 0 0.0273020313105692 0.028482165498102237 0 0.027053324465534774 0.028700511860651822 0 0.027537215795542438 0.028473134419911346 0 0.027164587446801624 0.028936498531089892 0 0.0273020313105692 0.028482165498102237 0 0.0273020313105692 0.028482165498102237 0 0.027671530822143648 0.02789759852758774 0 0.027482454401471269 0.027840106898549186 0 0.0273020313105692 0.028482165498102237 0 0.027053324465534774 0.028700511860651822 0 0.027482454401471269 0.027840106898549186 0 0.027053324465534774 0.028700511860651822 0 0.027482454401471269 0.027840106898549186 0 0.027399460563402735 0.027733254017290012 0 0.027053324465534774 0.028700511860651822 0 0.026830491062128155 0.029258189316170313 0 0.026476558861277442 0.029697712757385884 0 0.027164587446801624 0.028936498531089892 0 0.027053324465534774 0.028700511860651822 0 0.026830491062128155 0.029258189316170313 0 0.027164587446801624 0.028936498531089892 0 0.026830491062128155 0.029258189316170313 0 0.026655405055016092 0.029628797756786895 0 0.026830491062128155 0.029258189316170313 0 0.026655405055016092 0.029628797756786895 0 0.026476558861277442 0.029697712757385884 0 0.027164587446801624 0.028936498531089892 0 0.027271750735341854 0.029233583018777473 0 0.026655405055016092 0.029628797756786895 0 0.026798085803397851 0.029655360713463304 0 0.027271750735341854 0.029233583018777473 0 0.026655405055016092 0.029628797756786895 0 0.026091357585066203 0.030176678333271006 0 0.026655405055016092 0.029628797756786895 0 0.026111459268003116 0.030234434597864332 0 0.026091357585066203 0.030176678333271006 0 0.026798085803397851 0.029655360713463304 0 0.026655405055016092 0.029628797756786895 0 0.025483993975060352 0.030864971070717982 0 0.026111459268003116 0.030234434597864332 0 0.026014737077784962 0.030492157614755089 0 0.026014737077784962 0.030492157614755089 0 0.026476558861277442 0.029697712757385884 0 0.026561367539920628 0.029736718831663584 0 0.026655405055016092 0.029628797756786895 0 0.026111459268003116 0.030234434597864332 0 0.026476558861277442 0.029697712757385884 0 0.026111459268003116 0.030234434597864332 0 0.026014737077784962 0.030492157614755089 0 0.026476558861277442 0.029697712757385884 0 0.027053324465534774 0.028700511860651822 0 0.026476558861277442 0.029697712757385884 0 0.027052579449324883 0.028585980929387897 0 0.027053324465534774 0.028700511860651822 0 0.027052579449324883 0.028585980929387897 0 0.027399460563402735 0.027733254017290012 0 0.027052579449324883 0.028585980929387897 0 0.026561367539920628 0.029736718831663584 0 0.027390887887646195 0.028577572030452112 0 0.026476558861277442 0.029697712757385884 0 0.027052579449324883 0.028585980929387897 0 0.026561367539920628 0.029736718831663584 0 0.026561367539920628 0.029736718831663584 0 0.027390887887646195 0.028577572030452112 0 0.027565834931085147 0.029592707460454351 0 0.027390887887646195 0.028577572030452112 0 0.027565834931085147 0.029592707460454351 0 0.028173430787525371 0.028376812862217039 0 0.026243876332393598 0.031326776595501767 0 0.025435940027763143 0.03415448271137355 0 0.024739781798429269 0.034157595374629049 0 0.025523867865124086 0.031527407753372753 0 0.023590456064325568 0.032617279474923135 0 0.026243876332393598 0.031326776595501767 0 0.025607330127265199 0.031701780589030754 0 0.026561367539920628 0.029736718831663584 0 0.027565834931085147 0.029592707460454351 0 0.025523867865124086 0.031527407753372753 0 0.026014737077784962 0.030492157614755089 0 0.026561367539920628 0.029736718831663584 0 0.025523867865124086 0.031527407753372753 0 0.025483993975060352 0.030864971070717982 0 0.026014737077784962 0.030492157614755089 0 0.025523867865124086 0.031527407753372753 0 0.024365668549422171 0.03131001740787219 0 0.025523867865124086 0.031527407753372753 0 0.023590456064325568 0.032617279474923135 0 0.034994268297158543 0.026605877587370558 0 0.035153926524577439 0.024106096242408084 0 0.034999039586696819 0.020030238013795824 0 0.035591282528526683 0.023954325390217603 0 0.03447697255055996 0.022943329104255391 0 0.035701229675886861 0.022906290883899907 0 0.035591282528526683 0.023954325390217603 0 0.035153926524577439 0.024106096242408084 0 0.035701229675886861 0.022906290883899907 0 0.034994268297158543 0.026605877587370558 0 0.035153926524577439 0.024106096242408084 0 0.034689613602938943 0.026522248217398993 0 0.034187417951558788 0.026387711823383765 0 0.034571952322052485 0.02655021173091272 0 0.035591282528526683 0.023954325390217603 0 0.035153926524577439 0.024106096242408084 0 0.034689613602938943 0.026522248217398993 0 0.032992042741783856 0.028823003497469985 0 0.034689613602938943 0.026522248217398993 0 0.033024961675945923 0.027782894276033129 0 0.032992042741783856 0.028823003497469985 0 0.033024961675945923 0.027782894276033129 0 0.031770129314047685 0.028644853306332676 0 0.033161000780804827 0.027968588723336574 0 0.033024961675945923 0.027782894276033129 0 0.032164444620774599 0.02816297148072246 0 0.033161000780804827 0.027968588723336574 0 0.034689613602938943 0.026522248217398993 0 0.033024961675945923 0.027782894276033129 0 0.032112513126185828 0.028607710620508826 0 0.033161000780804827 0.027968588723336574 0 0.032164444620774599 0.02816297148072246 0 0.032112513126185828 0.028607710620508826 0 0.032164444620774599 0.02816297148072246 0 0.031643245335221143 0.028369436125693828 0 0.031643245335221143 0.028369436125693828 0 0.031282992499590538 0.02849744723041581 0 0.031040471412980174 0.028440254927994214 0 0.032164444620774599 0.02816297148072246 0 0.031643245335221143 0.028369436125693828 0 0.031282992499590538 0.02849744723041581 0 0.031282992499590538 0.02849744723041581 0 0.030398256244581295 0.028682576943954957 0 0.030942882270779935 0.028779969837858441 0 0.031282992499590538 0.02849744723041581 0 0.031770129314047685 0.028644853306332676 0 0.030942882270779935 0.028779969837858441 0 0.033024961675945923 0.027782894276033129 0 0.032164444620774599 0.02816297148072246 0 0.031770129314047685 0.028644853306332676 0 0.032164444620774599 0.02816297148072246 0 0.031282992499590538 0.02849744723041581 0 0.031770129314047685 0.028644853306332676 0 0.03024811003328692 0.028333576462507497 0 0.030487823812362539 0.028364809277564056 0 0.031014936607250188 0.028498318315040839 0 0.030487823812362539 0.028364809277564056 0 0.031014936607250188 0.028498318315040839 0 0.031021717315484566 0.028460504949832915 0 0.030487823812362539 0.028364809277564056 0 0.031021717315484566 0.028460504949832915 0 0.030568247621208699 0.028455417261384078 0 0.031021717315484566 0.028460504949832915 0 0.031040471412980174 0.028440254927994214 0 0.030568247621208699 0.028455417261384078 0 0.031498002119289811 0.02853930350952227 0 0.031021717315484566 0.028460504949832915 0 0.031040471412980174 0.028440254927994214 0 0.031498002119289811 0.02853930350952227 0 0.031643245335221143 0.028369436125693828 0 0.031040471412980174 0.028440254927994214 0 0.031282992499590538 0.02849744723041581 0 0.031040471412980174 0.028440254927994214 0 0.030398256244581295 0.028682576943954957 0 0.031040471412980174 0.028440254927994214 0 0.030398256244581295 0.028682576943954957 0 0.030568247621208699 0.028455417261384078 0 0.030398256244581295 0.028682576943954957 0 0.029945484066050174 0.028560169143290341 0 0.029384138980864231 0.028914392963119252 0 0.030487823812362539 0.028364809277564056 0 0.030568247621208699 0.028455417261384078 0 0.029945484066050174 0.028560169143290341 0 0.030398256244581295 0.028682576943954957 0 0.030568247621208699 0.028455417261384078 0 0.029945484066050174 0.028560169143290341 0 0.029043536642890982 0.028858737841807439 0 0.029945484066050174 0.028560169143290341 0 0.029384138980864231 0.028914392963119252 0 0.029340542096159734 0.028320827985395682 0 0.030487823812362539 0.028364809277564056 0 0.029945484066050174 0.028560169143290341 0 0.030398256244581295 0.028682576943954957 0 0.029665947204136265 0.028924416528572985 0 0.029384138980864231 0.028914392963119252 0 0.02871707217832923 0.029098806756136922 0 0.029665947204136265 0.028924416528572985 0 0.029384138980864231 0.028914392963119252 0 0.030398256244581295 0.028682576943954957 0 0.029665947204136265 0.028924416528572985 0 0.030147621864088436 0.028943725629482078 0 0.030398256244581295 0.028682576943954957 0 0.030147621864088436 0.028943725629482078 0 0.030942882270779935 0.028779969837858441 0 0.029665947204136265 0.028924416528572985 0 0.030147621864088436 0.028943725629482078 0 0.029365918075270492 0.028680121253965813 0 0.030147621864088436 0.028943725629482078 0 0.029872853111626262 0.028935468255660263 0 0.029365918075270492 0.028680121253965813 0 0.02871707217832923 0.029098806756136922 0 0.028509912866998686 0.028924279229086712 0 0.029365918075270492 0.028680121253965813 0 0.02871707217832923 0.029098806756136922 0 0.029665947204136265 0.028924416528572985 0 0.029365918075270492 0.028680121253965813 0 0.031770129314047685 0.028644853306332676 0 0.030942882270779935 0.028779969837858441 0 0.031391106823922134 0.029241294746992889 0 0.034187417951558788 0.026387711823383765 0 0.032899486239576878 0.026114516434658917 0 0.032992042741783856 0.028823003497469985 0 0.031770129314047685 0.028644853306332676 0 0.031391106823922134 0.029241294746992889 0 0.030147621864088436 0.028943725629482078 0 0.030942882270779935 0.028779969837858441 0 0.031391106823922134 0.029241294746992889 0 0.032899486239576878 0.026114516434658917 0 0.030989079651590583 0.026325207395091067 0 0.030147621864088436 0.028943725629482078 0 0.031391106823922134 0.029241294746992889 0 0.029872853111626262 0.028935468255660263 0 0.03447697255055996 0.022943329104255391 0 0.034303246261822677 0.023700313910616069 0 0.031966372382074261 0.023677959111218807 0 0.034303246261822677 0.023700313910616069 0 0.031966372382074261 0.023677959111218807 0 0.031757012991986286 0.02621047517666766 0 0.031966372382074261 0.023677959111218807 0 0.031757012991986286 0.02621047517666766 0 0.029277547416797538 0.027125589858809192 0 0.034303246261822677 0.023700313910616069 0 0.031757012991986286 0.02621047517666766 0 0.034908972140613968 0.02564392009877578 0 0.028509912866998686 0.028924279229086712 0 0.028472397825781016 0.028088198230000101 0 0.029365918075270492 0.028680121253965813 0 0.028472397825781016 0.028088198230000101 0 0.029365918075270492 0.028680121253965813 0 0.029277547416797538 0.027125589858809192 0 0.030989079651590583 0.026325207395091067 0 0.029533871150724644 0.027018135144842893 0 0.029872853111626262 0.028935468255660263 0 0.029365918075270492 0.028680121253965813 0 0.029277547416797538 0.027125589858809192 0 0.031757012991986286 0.02621047517666766 0 0.029277547416797538 0.027125589858809192 0 0.028964467332254135 0.027795453955871744 0 0.028472397825781016 0.028088198230000101 0 0.029277547416797538 0.027125589858809192 0 0.028964467332254135 0.027795453955871744 0 0.028472397825781016 0.028088198230000101 0 0.027960449058411871 0.028286545454318524 0 0.028964467332254135 0.027795453955871744 0 0.028964467332254135 0.027795453955871744 0 0.032094150127521662 0.02811291990371877 0 0.029357221296636281 0.028875910572839825 0 0.028964467332254135 0.027795453955871744 0 0.02811309862794836 0.028206969613171592 0 0.029357221296636281 0.028875910572839825 0 0.027960449058411871 0.028286545454318524 0 0.028964467332254135 0.027795453955871744 0 0.02811309862794836 0.028206969613171592 0 0.031757012991986286 0.02621047517666766 0 0.032094150127521662 0.02811291990371877 0 0.034908972140613968 0.02564392009877578 0 0.031757012991986286 0.02621047517666766 0 0.028964467332254135 0.027795453955871744 0 0.032094150127521662 0.02811291990371877 0 0.034331127542908707 0.023271825549843354 0 0.032300323232027646 0.023643102323873139 0 0.034331127542908707 0.023271825549843354 0 0.035774324709309337 0.022495049774179262 0 0.034999039586696819 0.020030238013795824 0 0.035994618231468732 0.018362345813688907 0 0.034999662310504713 0.015314755790612039 0 0.036660431857052922 0.018439744662194207 0 0.037082190722968478 0.019393116348209821 0 0.0368181538406585 0.018429030254054908 0 0.037082190722968478 0.019393116348209821 0 0.035994618231468732 0.018362345813688907 0 0.0368181538406585 0.018429030254054908 0 0.035774324709309337 0.022495049774179262 0 0.035848926972620827 0.021624384692380965 0 0.037082190722968478 0.019393116348209821 0 0.03597065426956679 0.021316370234510919 0 0.035994618231468732 0.018362345813688907 0 0.034303246261822677 0.023700313910616069 0 0.034908972140613968 0.02564392009877578 0 0.035470239381637451 0.02305816340890797 0 0.035470239381637451 0.02305816340890797 0 0.035701229675886861 0.022906290883899907 0 0.03597065426956679 0.021316370234510919 0 0.034908972140613968 0.02564392009877578 0 0.035470239381637451 0.02305816340890797 0 0.03597065426956679 0.021316370234510919 0 0.03447697255055996 0.022943329104255391 0 0.034303246261822677 0.023700313910616069 0 0.035701229675886861 0.022906290883899907 0 0.034303246261822677 0.023700313910616069 0 0.035470239381637451 0.02305816340890797 0 0.035701229675886861 0.022906290883899907 0 0.035701229675886861 0.022906290883899907 0 0.034999039586696819 0.020030238013795824 0 0.03597065426956679 0.021316370234510919 0 0.035153926524577439 0.024106096242408084 0 0.035701229675886861 0.022906290883899907 0 0.034999039586696819 0.020030238013795824 0 0.034999039586696819 0.020030238013795824 0 0.03597065426956679 0.021316370234510919 0 0.035994618231468732 0.018362345813688907 0 0.035994618231468732 0.018362345813688907 0 0.035995315952435374 0.016569315214497071 0 0.034999662310504713 0.015314755790612039 0 0.035994618231468732 0.018362345813688907 0 0.035995315952435374 0.016569315214497071 0 0.036438316231918434 0.017675180226451669 0 0.0368181538406585 0.018429030254054908 0 0.036660583271495795 0.0180541431834573 0 0.036592103518635725 0.018559026319336702 0 0.0368181538406585 0.018429030254054908 0 0.036438316231918434 0.017675180226451669 0 0.036660583271495795 0.0180541431834573 0 0.035994618231468732 0.018362345813688907 0 0.0368181538406585 0.018429030254054908 0 0.036438316231918434 0.017675180226451669 0 0.036438316231918434 0.017675180226451669 0 0.036660583271495795 0.0180541431834573 0 0.036522961397183258 0.017218012234287251 0 0.035995315952435374 0.016569315214497071 0 0.036438316231918434 0.017675180226451669 0 0.036522961397183258 0.017218012234287251 0 0.036660583271495795 0.0180541431834573 0 0.036477952537128495 0.018207317339565939 0 0.036504393018833292 0.018507772933231442 0 0.036660583271495795 0.0180541431834573 0 0.036477952537128495 0.018207317339565939 0 0.036522961397183258 0.017218012234287251 0 0.036660583271495795 0.0180541431834573 0 0.036504393018833292 0.018507772933231442 0 0.036592103518635725 0.018559026319336702 0 0.036477952537128495 0.018207317339565939 0 0.036522961397183258 0.017218012234287251 0 0.036508185830138776 0.017642054851933882 0 0.036522961397183258 0.017218012234287251 0 0.036609875527615743 0.016846870017381149 0 0.036508185830138776 0.017642054851933882 0 0.036522961397183258 0.017218012234287251 0 0.036609875527615743 0.016846870017381149 0 0.036156944249679718 0.016201506426261503 0 0.037489715602031855 0.013394136963651512 0 0.036289078971236413 0.013426804620144598 0 0.037007536907133771 0.012743716215742554 0 0.036609875527615743 0.016846870017381149 0 0.036156944249679718 0.016201506426261503 0 0.036303494733110439 0.016176800225124289 0 0.036609875527615743 0.016846870017381149 0 0.036700868298512677 0.016486178294292067 0 0.036303494733110439 0.016176800225124289 0 0.036609875527615743 0.016846870017381149 0 0.036600945075099207 0.017295339840689643 0 0.036508185830138776 0.017642054851933882 0 0.036275682337578725 0.016791295656046548 0 0.036142023537306757 0.016778893248986293 0 0.036477952537128495 0.018207317339565939 0 0.036508185830138776 0.017642054851933882 0 0.03617759554123938 0.018955495273442903 0 0.036142023537306757 0.016778893248986293 0 0.034766950109164668 0.019560655031850036 0 0.036600945075099207 0.017295339840689643 0 0.036508185830138776 0.017642054851933882 0 0.03617759554123938 0.018955495273442903 0 0.034999662310504713 0.015314755790612039 0 0.035660806883904744 0.015324823868944858 0 0.034999961756176326 0.013518859937516283 0 0.035995315952435374 0.016569315214497071 0 0.034999662310504713 0.015314755790612039 0 0.035660806883904744 0.015324823868944858 0 0.035995315952435374 0.016569315214497071 0 0.036522961397183258 0.017218012234287251 0 0.036156944249679718 0.016201506426261503 0 0.035995315952435374 0.016569315214497071 0 0.035660806883904744 0.015324823868944858 0 0.036156944249679718 0.016201506426261503 0 0.036142023537306757 0.016778893248986293 0 0.036171643906664212 0.014225247327816251 0 0.035660806883904744 0.015324823868944858 0 0.036156944249679718 0.016201506426261503 0 0.0359418863212334 0.015262297448860684 0 0.036700868298512677 0.016486178294292067 0 0.036303494733110439 0.016176800225124289 0 0.0359418863212334 0.015262297448860684 0 0.036156944249679718 0.016201506426261503 0 0.036303494733110439 0.016176800225124289 0 0.0359418863212334 0.015262297448860684 0 0.035660806883904744 0.015324823868944858 0 0.0359418863212334 0.015262297448860684 0 0.034999961756176326 0.013518859937516283 0 0.036171643906664212 0.014225247327816251 0 0.034915190225866387 0.013744059122243526 0 0.036289078971236413 0.013426804620144598 0 0.034999812997520571 0.013516227320054367 0 0.036102653441962722 0.012415611145351065 0 0.034999812997520571 0.013516227320054367 0 0.035000141394154756 0.011932624167556596 0 0.036102653441962722 0.012415611145351065 0 0.035000141394154756 0.011932624167556596 0 0.036392480646642057 0.011161372882908232 0 0.036102653441962722 0.012415611145351065 0 0.035000141394154756 0.011932624167556596 0 0.036392480646642057 0.011161372882908232 0 0.03569133485499789 0.010106043650726391 0 0.036392480646642057 0.011161372882908232 0 0.036102653441962722 0.012415611145351065 0 0.037094870942643222 0.011922367922000529 0 0.036102653441962722 0.012415611145351065 0 0.037007536907133771 0.012743716215742554 0 0.037094870942643222 0.011922367922000529 0 0.036289078971236413 0.013426804620144598 0 0.036102653441962722 0.012415611145351065 0 0.037007536907133771 0.012743716215742554 0 0.036142023537306757 0.016778893248986293 0 0.03551729587217043 0.01452450247278856 0 0.037489715602031855 0.013394136963651512 0 0.037007536907133771 0.012743716215742554 0 0.037849786348996044 0.012346862074318093 0 0.038074708853518914 0.012220117449970825 0 0.03551729587217043 0.01452450247278856 0 0.037007536907133771 0.012743716215742554 0 0.038128772364803595 0.012202234104483491 0 0.037094870942643222 0.011922367922000529 0 0.033508820786756474 0.019143866950353493 0 0.034019216499274377 0.019224975008392688 0 0.034070390019706021 0.019793909569710628 0 0.033320005639885276 0.019711050263484322 0 0.033508820786756474 0.019143866950353493 0 0.034070390019706021 0.019793909569710628 0 0.034110078166786621 0.012702671344201692 0 0.034638380208301685 0.011968155827170484 0 0.03502184409375874 0.012221918229735316 0 0.03551729587217043 0.01452450247278856 0 0.035769287703391314 0.008506595727569741 0 0.034110078166786621 0.012702671344201692 0 0.034638380208301685 0.011968155827170484 0 0.034420185022990442 0.011823287513897392 0 0.038128772364803595 0.012202234104483491 0 0.037599039010508518 0.011077762250003009 0 0.038779202666322204 0.01048973534890189 0 0.03551729587217043 0.01452450247278856 0 0.033037432373563089 0.014223203562530507 0 0.033508820786756474 0.019143866950353493 0 0.034279030111097349 0.018725403047142809 0 0.034019216499274377 0.019224975008392688 0 0.036392480646642057 0.011161372882908232 0 0.037094870942643222 0.011922367922000529 0 0.037599039010508518 0.011077762250003009 0 0.038128772364803595 0.012202234104483491 0 0.037094870942643222 0.011922367922000529 0 0.037599039010508518 0.011077762250003009 0 0.036392480646642057 0.011161372882908232 0 0.037599039010508518 0.011077762250003009 0 0.037417012975010849 0.0095960213708423461 0 0.037599039010508518 0.011077762250003009 0 0.037417012975010849 0.0095960213708423461 0 0.038779202666322204 0.01048973534890189 0 0.035595377003842507 0.0082498168814154685 0 0.036104452722213451 0.0085612112672381023 0 0.036000774024102115 0.0080557991044446428 0 0.034253405495089269 0.0040235415625371508 0 0.034203093257837248 0.0039978642394715045 0 0.034304688358804777 0.0037499672993029842 0 0.03682745104509829 0.0091387320012442184 0 0.035769287703391314 0.008506595727569741 0 0.033968386492426152 0.0087611653196846481 0 0.035769287703391314 0.008506595727569741 0 0.036000774024102115 0.0080557991044446428 0 0.03641323126176424 0.0076705928748958402 0 0.036069699006602056 0.0069877415920024883 0 0.036104452722213451 0.0085612112672381023 0 0.036000774024102115 0.0080557991044446428 0 0.03641323126176424 0.0076705928748958402 0 0.035769287703391314 0.008506595727569741 0 0.035348913479069599 0.0052706969313785993 0 0.035595377003842507 0.0082498168814154685 0 0.036000774024102115 0.0080557991044446428 0 0.035608573249162848 0.007234111449393954 0 0.037417012975010849 0.0095960213708423461 0 0.035544176596564926 0.0084281128146126774 0 0.03569133485499789 0.010106043650726391 0 0.035595377003842507 0.0082498168814154685 0 0.035544176596564926 0.0084281128146126774 0 0.035357238940321015 0.0075961729017074682 0 0.03682745104509829 0.0091387320012442184 0 0.035486682754092579 0.0083644206397650335 0 0.035000141394154756 0.011932624167556596 0 0.034998121575849847 0.009505985681549086 0 0.03569133485499789 0.010106043650726391 0 0.035544176596564926 0.0084281128146126774 0 0.034998121575849847 0.009505985681549086 0 0.034843390886954102 0.0073920863676697071 0 0.035544176596564926 0.0084281128146126774 0 0.034998121575849847 0.009505985681549086 0 0.03569133485499789 0.010106043650726391 0 0.036392480646642057 0.011161372882908232 0 0.037417012975010849 0.0095960213708423461 0 0.03569133485499789 0.010106043650726391 0 0.034483012717363953 0.0084268893960261892 0 0.033648059361866461 0.01122345235770332 0 0.036596612572661447 0.012033945220998467 0 0.033238218055845793 0.013804361014367399 0 0.035176259685184903 0.014628410514267285 0 0.035247722088379091 0.0080743982950288468 0 0.034298929911233123 0.0077876707615604553 0 0.034081397300648734 0.0086874136530560482 0 0.036596612572661447 0.012033945220998467 0 0.035176259685184903 0.014628410514267285 0 0.036449218528047445 0.016616232432382857 0 0.032638854728966313 0.0063995735504485795 0 0.032109999532365791 0.0059007545884798701 0 0.031992915277587471 0.0077191420077235041 0 0.034483012717363953 0.0084268893960261892 0 0.034325250304730277 0.01173633966769151 0 0.032638854728966313 0.0063995735504485795 0 0.032109999532365791 0.0059007545884798701 0 0.032806335570257417 0.0056001752630012603 0 0.034483012717363953 0.0084268893960261892 0 0.034141164771964119 0.0049232901143727815 0 0.032806335570257417 0.0056001752630012603 0 0.032265323565385723 0.0048865674738690868 0 0.033610902802313027 0.00432857611742039 0 0.034483012717363953 0.0084268893960261892 0 0.033064094960457688 0.006788668671339401 0 0.03221014143558306 0.0059123748655424092 0 0.032806335570257417 0.0056001752630012603 0 0.032265323565385723 0.0048865674738690868 0 0.034141164771964119 0.0049232901143727815 0 0.034419774706482838 0.0057796481985432193 0 0.034436197119100974 0.0037296563193184862 0 0.03442275964722729 0.0037061343666491696 0 0.034408461229991957 0.0036585657219712206 0 0.03434383053549972 0.0036433292641235224 0 0.034436197119100974 0.0037296563193184862 0 0.034408461229991957 0.0036585657219712206 0 0.035247722088379091 0.0080743982950288468 0 0.035270439277206932 0.007217856383071446 0 0.034298929911233123 0.0077876707615604553 0 0.034436197119100974 0.0037296563193184862 0 0.034393165407010866 0.0038774148909676356 0 0.03442275964722729 0.0037061343666491696 0 0.034419774706482838 0.0057796481985432193 0 0.033882609554031509 0.0059480351884463531 0 0.034304688358804777 0.0037499672993029842 0 0.034393165407010866 0.0038774148909676356 0 0.03442275964722729 0.0037061343666491696 0 0.033968386492426152 0.0087611653196846481 0 0.033882609554031509 0.0059480351884463531 0 0.034253405495089269 0.0040235415625371508 0 0.034304688358804777 0.0037499672993029842 0 0.034393165407010866 0.0038774148909676356 0 0.032390379115621579 0.0089345949317890458 0 0.033347090333306115 0.0083555919931246076 0 0.032943208060795474 0.0092892339975167645 0 0.033347090333306115 0.0083555919931246076 0 0.034081397300648734 0.0086874136530560482 0 0.032943208060795474 0.0092892339975167645 0 0.034298929911233123 0.0077876707615604553 0 0.033347090333306115 0.0083555919931246076 0 0.034081397300648734 0.0086874136530560482 0 0.033648059361866461 0.01122345235770332 0 0.033037432373563089 0.014223203562530507 0 0.033037432373563089 0.014223203562530507 0 0.033947048339150188 0.018467318383992237 0 0.033238218055845793 0.013804361014367399 0 0.029982763029265766 0.015475642060031542 0 0.032827767033506886 0.017295981229819051 0 0.034279030111097349 0.018725403047142809 0 0.034445038924218976 0.019350053803096644 0 0.03491637784210342 0.019117848501153403 0 0.033968386492426152 0.0087611653196846481 0 0.033037432373563089 0.014223203562530507 0 0.034019216499274377 0.019224975008392688 0 0.034445038924218976 0.019350053803096644 0 0.034070390019706021 0.019793909569710628 0 0.034279030111097349 0.018725403047142809 0 0.034019216499274377 0.019224975008392688 0 0.034445038924218976 0.019350053803096644 0 0.034445038924218976 0.019350053803096644 0 0.03491637784210342 0.019117848501153403 0 0.035066765748279799 0.020016324686500681 0 0.032827767033506886 0.017295981229819051 0 0.035663403790760245 0.019131641942099507 0 0.034605885920101248 0.016232203957585335 0 0.03491637784210342 0.019117848501153403 0 0.035171953138153848 0.019980284431795333 0 0.035066765748279799 0.020016324686500681 0 0.03491637784210342 0.019117848501153403 0 0.035663403790760245 0.019131641942099507 0 0.035171953138153848 0.019980284431795333 0 0.035663403790760245 0.019131641942099507 0 0.034605885920101248 0.016232203957585335 0 0.036449218528047445 0.016616232432382857 0 0.033947048339150188 0.018467318383992237 0 0.035494427585047492 0.019042539641245131 0 0.033238218055845793 0.013804361014367399 0 0.032827767033506886 0.017295981229819051 0 0.034605885920101248 0.016232203957585335 0 0.034605885920101248 0.016232203957585335 0 0.035176259685184903 0.014628410514267285 0 0.036449218528047445 0.016616232432382857 0 0.033238218055845793 0.013804361014367399 0 0.034605885920101248 0.016232203957585335 0 0.035176259685184903 0.014628410514267285 0 0.032638854728966313 0.0063995735504485795 0 0.031992915277587471 0.0077191420077235041 0 0.032984409318556278 0.0067859872495928761 0 0.034325250304730277 0.01173633966769151 0 0.033042055385330178 0.017461339299990681 0 0.031992915277587471 0.0077191420077235041 0 0.031955612875751924 0.0093240232638641934 0 0.032923743791918765 0.0083872299775350299 0 0.035663403790760245 0.019131641942099507 0 0.036449218528047445 0.016616232432382857 0 0.036025286515329047 0.02069794149638492 0 0.035847540666041053 0.020592838267144094 0 0.035183923537437226 0.020902129782790449 0 0.034596977474762876 0.022467091545801798 0 0.035847540666041053 0.020592838267144094 0 0.035603053675995637 0.02056680950551544 0 0.035183923537437226 0.020902129782790449 0 0.033042055385330178 0.017461339299990681 0 0.033935991585402864 0.017845082809509218 0 0.035663403790760245 0.019131641942099507 0 0.036025286515329047 0.02069794149638492 0 0.035603053675995637 0.02056680950551544 0 0.035663403790760245 0.019131641942099507 0 0.035603053675995637 0.02056680950551544 0 0.035171953138153848 0.019980284431795333 0 0.035171953138153848 0.019980284431795333 0 0.035106905606878749 0.020793868399863295 0 0.035066765748279799 0.020016324686500681 0 0.035603053675995637 0.02056680950551544 0 0.035171953138153848 0.019980284431795333 0 0.035183923537437226 0.020902129782790449 0 0.035171953138153848 0.019980284431795333 0 0.035183923537437226 0.020902129782790449 0 0.035106905606878749 0.020793868399863295 0 0.035106905606878749 0.020793868399863295 0 0.034596977474762876 0.022467091545801798 0 0.035301546649679737 0.02020833323772191 0 0.035183923537437226 0.020902129782790449 0 0.035106905606878749 0.020793868399863295 0 0.034596977474762876 0.022467091545801798 0 0.034268261913532487 0.025354489523887001 0 0.034596977474762876 0.022467091545801798 0 0.031835920277357356 0.023185589526858376 0 0.034596977474762876 0.022467091545801798 0 0.034060353607882933 0.020686770630278215 0 0.031835920277357356 0.023185589526858376 0 0.033042055385330178 0.017461339299990681 0 0.03431141659575087 0.023572261976873326 0 0.034445038924218976 0.019350053803096644 0 0.034070390019706021 0.019793909569710628 0 0.035066765748279799 0.020016324686500681 0 0.034766950109164668 0.019560655031850036 0 0.035161309320341658 0.019855542725742425 0 0.03617759554123938 0.018955495273442903 0 0.035066765748279799 0.020016324686500681 0 0.035771994113363487 0.019428809720512138 0 0.035106905606878749 0.020793868399863295 0 0.035066765748279799 0.020016324686500681 0 0.035771994113363487 0.019428809720512138 0 0.035106905606878749 0.020793868399863295 0 0.036088485857947675 0.019205834210155322 0 0.035301546649679737 0.02020833323772191 0 0.035106905606878749 0.020793868399863295 0 0.035771994113363487 0.019428809720512138 0 0.036088485857947675 0.019205834210155322 0 0.036477952537128495 0.018207317339565939 0 0.035771994113363487 0.019428809720512138 0 0.036088485857947675 0.019205834210155322 0 0.036477952537128495 0.018207317339565939 0 0.03617759554123938 0.018955495273442903 0 0.035771994113363487 0.019428809720512138 0 0.036088485857947675 0.019205834210155322 0 0.036111730423491181 0.018910681978315389 0 0.036592103518635725 0.018559026319336702 0 0.036477952537128495 0.018207317339565939 0 0.036504393018833292 0.018507772933231442 0 0.036088485857947675 0.019205834210155322 0 0.036504393018833292 0.018507772933231442 0 0.036088485857947675 0.019205834210155322 0 0.036592103518635725 0.018559026319336702 0 0.036088485857947675 0.019205834210155322 0 0.036111730423491181 0.018910681978315389 0 0.035301546649679737 0.02020833323772191 0 0.036660431857052922 0.018439744662194207 0 0.036111730423491181 0.018910681978315389 0 0.035221549068376948 0.01851419636589197 0 0.036660431857052922 0.018439744662194207 0 0.036111730423491181 0.018910681978315389 0 0.036592103518635725 0.018559026319336702 0 0.036660431857052922 0.018439744662194207 0 0.0368181538406585 0.018429030254054908 0 0.036592103518635725 0.018559026319336702 0 0.034060353607882933 0.020686770630278215 0 0.032231996507411702 0.019987680907737355 0 0.031835920277357356 0.023185589526858376 0 0.034060353607882933 0.020686770630278215 0 0.035301546649679737 0.02020833323772191 0 0.035221549068376948 0.01851419636589197 0 0.034596977474762876 0.022467091545801798 0 0.034060353607882933 0.020686770630278215 0 0.035301546649679737 0.02020833323772191 0 0.036111730423491181 0.018910681978315389 0 0.035301546649679737 0.02020833323772191 0 0.035221549068376948 0.01851419636589197 0 0.02811309862794836 0.028206969613171592 0 0.029357221296636281 0.028875910572839825 0 0.027607525086019845 0.027810977170800499 0 0.032300323232027646 0.023643102323873139 0 0.030092206646404059 0.023961774292035495 0 0.034060353607882933 0.020686770630278215 0 0.035221549068376948 0.01851419636589197 0 0.032231996507411702 0.019987680907737355 0 0.02811309862794836 0.028206969613171592 0 0.027607525086019845 0.027810977170800499 0 0.027671530822143648 0.02789759852758774 0 0.032231996507411702 0.019987680907737355 0 0.028060422877856157 0.025360652685576916 0 0.031835920277357356 0.023185589526858376 0 0.030092206646404059 0.023961774292035495 0 0.028350222720104453 0.025087600378012623 0 0.028060422877856157 0.025360652685576916 0 0.027671530822143648 0.02789759852758774 0 0.027731804396131505 0.026773542473846675 0 0.027607525086019845 0.027810977170800499 0 0.028060422877856157 0.025360652685576916 0 0.027671530822143648 0.02789759852758774 0 0.027671530822143648 0.02789759852758774 0 0.027482454401471269 0.027840106898549186 0 0.027731804396131505 0.026773542473846675 0 0.027482454401471269 0.027840106898549186 0 0.027731804396131505 0.026773542473846675 0 0.027399460563402735 0.027733254017290012 0 0.027731804396131505 0.026773542473846675 0 0.027399460563402735 0.027733254017290012 0 0.027487123605197557 0.027166869496339566 0 0.028060422877856157 0.025360652685576916 0 0.027731804396131505 0.026773542473846675 0 0.027639837690183452 0.026490462509124339 0 0.031050737973960425 0.017744355501712765 0 0.03134731029072025 0.018148214837118051 0 0.027731804396131505 0.026773542473846675 0 0.027639837690183452 0.026490462509124339 0 0.027487123605197557 0.027166869496339566 0 0.034493674808737947 0.0090201853427444682 0 0.035102939321550716 0.0083417196132735561 0 0.034569712893183224 0.0082040443517301474 0 0.034493674808737947 0.0090201853427444682 0 0.035443657340089432 0.00897883978002606 0 0.035102939321550716 0.0083417196132735561 0 0.034493674808737947 0.0090201853427444682 0 0.033925791526953249 0.0081684471705419492 0 0.034569712893183224 0.0082040443517301474 0 0.034493674808737947 0.0090201853427444682 0 0.033373062385100051 0.0091157670703081641 0 0.033925791526953249 0.0081684471705419492 0 0.033373062385100051 0.0091157670703081641 0 0.032923743791918765 0.0083872299775350299 0 0.033925791526953249 0.0081684471705419492 0 0.033042055385330178 0.017461339299990681 0 0.03116314916539694 0.017482197548622524 0 0.031955612875751924 0.0093240232638641934 0 0.033373062385100051 0.0091157670703081641 0 0.032923743791918765 0.0083872299775350299 0 0.028060422877856157 0.025360652685576916 0 0.029017356401384788 0.025931809363889152 0 0.031835920277357356 0.023185589526858376 0 0.034268261913532487 0.025354489523887001 0 0.029017356401384788 0.025931809363889152 0 0.031835920277357356 0.023185589526858376 0 0.031050737973960425 0.017744355501712765 0 0.03116314916539694 0.017482197548622524 0 0.028060422877856157 0.025360652685576916 0 0.027639837690183452 0.026490462509124339 0 0.029017356401384788 0.025931809363889152 0 0.027892797385651331 0.027823398408368869 0 0.027690543140095936 0.027403362683248472 0 0.028399875495877327 0.027473572615991208 0 0.032098911061897419 0.017319442366924381 0 0.029397139958644521 0.02363565610027598 0 0.027892797385651331 0.027823398408368869 0 0.028173430787525371 0.028376812862217039 0 0.028399875495877327 0.027473572615991208 0 0.027390887887646195 0.028577572030452112 0 0.027892797385651331 0.027823398408368869 0 0.028173430787525371 0.028376812862217039 0 0.027390887887646195 0.028577572030452112 0 0.027892797385651331 0.027823398408368869 0 0.027425634203937285 0.027819612121680673 0 0.027892797385651331 0.027823398408368869 0 0.027425634203937285 0.027819612121680673 0 0.027690543140095936 0.027403362683248472 0 0.027425634203937285 0.027819612121680673 0 0.027487123605197557 0.027166869496339566 0 0.027690543140095936 0.027403362683248472 0 0.027052579449324883 0.028585980929387897 0 0.027390887887646195 0.028577572030452112 0 0.027425634203937285 0.027819612121680673 0 0.027052579449324883 0.028585980929387897 0 0.027425634203937285 0.027819612121680673 0 0.027399460563402735 0.027733254017290012 0 0.027425634203937285 0.027819612121680673 0 0.027399460563402735 0.027733254017290012 0 0.027487123605197557 0.027166869496339566 0 0.035443657340089432 0.00897883978002606 0 0.035102939321550716 0.0083417196132735561 0 0.035553073202871814 0.0083158074401720947 0 0.035443657340089432 0.00897883978002606 0 0.035553073202871814 0.0083158074401720947 0 0.035902740947102579 0.0087232631247179046 0 0.035443657340089432 0.00897883978002606 0 0.035677173528547053 0.0087647308566815661 0 0.035902740947102579 0.0087232631247179046 0 0.03134731029072025 0.018148214837118051 0 0.032098911061897419 0.017319442366924381 0 0.035677173528547053 0.0087647308566815661 0 0.035902740947102579 0.0087232631247179046 0 0.03550968595113594 0.0088339710547899516 0 0.035902740947102579 0.0087232631247179046 0 0.03550968595113594 0.0088339710547899516 0 0.035483555774878717 0.0090332270899661695 0 0.03550968595113594 0.0088339710547899516 0 0.035483555774878717 0.0090332270899661695 0 0.035179777643692289 0.008977661358071801 0 0.035179777643692289 0.008977661358071801 0 0.035184681371945539 0.009211917929439626 0 0.034866885324621108 0.0091454524780826812 0 0.035483555774878717 0.0090332270899661695 0 0.035179777643692289 0.008977661358071801 0 0.035184681371945539 0.009211917929439626 0 0.03550968595113594 0.0088339710547899516 0 0.035179777643692289 0.008977661358071801 0 0.035228509412656775 0.0088088263606330378 0 0.035677173528547053 0.0087647308566815661 0 0.03550968595113594 0.0088339710547899516 0 0.035228509412656775 0.0088088263606330378 0 0.035179777643692289 0.008977661358071801 0 0.035228509412656775 0.0088088263606330378 0 0.035046082039596985 0.0089018993646809534 0 0.035677173528547053 0.0087647308566815661 0 0.035082660004029195 0.0087432698562605292 0 0.034860142072993774 0.0086124964988898607 0 0.035677173528547053 0.0087647308566815661 0 0.035228509412656775 0.0088088263606330378 0 0.035082660004029195 0.0087432698562605292 0 0.035228509412656775 0.0088088263606330378 0 0.034999597893469944 0.0088220572911736315 0 0.035046082039596985 0.0089018993646809534 0 0.035228509412656775 0.0088088263606330378 0 0.035082660004029195 0.0087432698562605292 0 0.034999597893469944 0.0088220572911736315 0 0.035557921061397733 0.0095228324241779256 0 0.035302188090307163 0.010005351791550413 0 0.034909482097813069 0.0094667752629302247 0 0.036317738177610012 0.008621862985954255 0 0.033565512829220573 0.0072455712911317326 0 0.033565512829220573 0.0072455712911317326 0 0.029579320035633412 0.0086575263638261034 0 0.035184681371945539 0.009211917929439626 0 0.035557921061397733 0.0095228324241779256 0 0.034909482097813069 0.0094667752629302247 0 0.035483555774878717 0.0090332270899661695 0 0.035184681371945539 0.009211917929439626 0 0.035557921061397733 0.0095228324241779256 0 0.035902740947102579 0.0087232631247179046 0 0.035483555774878717 0.0090332270899661695 0 0.035557921061397733 0.0095228324241779256 0 0.035902740947102579 0.0087232631247179046 0 0.03668103044450912 0.0075952364751010158 0 0.035940056928689824 0.0076523606178112878 0 0.035911669476968486 0.0086931944531246832 0 0.036317738177610012 0.008621862985954255 0 0.03668103044450912 0.0075952364751010158 0 0.036349285953543628 0.0068333459135364108 0 0.035940056928689824 0.0076523606178112878 0 0.03668103044450912 0.0075952364751010158 0 0.036349285953543628 0.0068333459135364108 0 0.037041809382811638 0.0065238763612197291 0 0.036349285953543628 0.0068333459135364108 0 0.03582959363780152 0.0068246928103271112 0 0.035940056928689824 0.0076523606178112878 0 0.03582959363780152 0.0068246928103271112 0 0.035940056928689824 0.0076523606178112878 0 0.035445761432456258 0.0075530291547563 0 0.035553073202871814 0.0083158074401720947 0 0.035940056928689824 0.0076523606178112878 0 0.035445761432456258 0.0075530291547563 0 0.035553073202871814 0.0083158074401720947 0 0.035902740947102579 0.0087232631247179046 0 0.035940056928689824 0.0076523606178112878 0 0.035102939321550716 0.0083417196132735561 0 0.035553073202871814 0.0083158074401720947 0 0.035445761432456258 0.0075530291547563 0 0.035102939321550716 0.0083417196132735561 0 0.035445761432456258 0.0075530291547563 0 0.035003048050252873 0.0076758673072017244 0 0.035445761432456258 0.0075530291547563 0 0.035378551301974571 0.0065903215753624414 0 0.034983818743063708 0.0069885211609723181 0 0.035445761432456258 0.0075530291547563 0 0.035003048050252873 0.0076758673072017244 0 0.034983818743063708 0.0069885211609723181 0 0.03582959363780152 0.0068246928103271112 0 0.035445761432456258 0.0075530291547563 0 0.035378551301974571 0.0065903215753624414 0 0.035378551301974571 0.0065903215753624414 0 0.034983818743063708 0.0069885211609723181 0 0.034946048094807933 0.0062643675741592313 0 0.035378551301974571 0.0065903215753624414 0 0.035328413384201285 0.0059147676562899508 0 0.035742440251404897 0.0061324008307927017 0 0.035378551301974571 0.0065903215753624414 0 0.035328413384201285 0.0059147676562899508 0 0.034946048094807933 0.0062643675741592313 0 0.035328413384201285 0.0059147676562899508 0 0.035259668685931653 0.0052574398336853491 0 0.034781843547624654 0.0054300800146754261 0 0.035328413384201285 0.0059147676562899508 0 0.035259668685931653 0.0052574398336853491 0 0.035667848738254924 0.0055393797408787452 0 0.035328413384201285 0.0059147676562899508 0 0.035667848738254924 0.0055393797408787452 0 0.035742440251404897 0.0061324008307927017 0 0.035667848738254924 0.0055393797408787452 0 0.036067691034274187 0.0057955469921659236 0 0.035742440251404897 0.0061324008307927017 0 0.035667848738254924 0.0055393797408787452 0 0.036067691034274187 0.0057955469921659236 0 0.036012114796940886 0.005235135976400818 0 0.036067691034274187 0.0057955469921659236 0 0.035742440251404897 0.0061324008307927017 0 0.036161464218221459 0.0062943974386912138 0 0.03582959363780152 0.0068246928103271112 0 0.035378551301974571 0.0065903215753624414 0 0.035742440251404897 0.0061324008307927017 0 0.03582959363780152 0.0068246928103271112 0 0.035742440251404897 0.0061324008307927017 0 0.036161464218221459 0.0062943974386912138 0 0.036349285953543628 0.0068333459135364108 0 0.03582959363780152 0.0068246928103271112 0 0.036161464218221459 0.0062943974386912138 0 0.036349285953543628 0.0068333459135364108 0 0.036594813390858939 0.0063676902479629025 0 0.037041809382811638 0.0065238763612197291 0 0.036349285953543628 0.0068333459135364108 0 0.036594813390858939 0.0063676902479629025 0 0.036161464218221459 0.0062943974386912138 0 0.036594813390858939 0.0063676902479629025 0 0.036687973667954336 0.0061598989485261903 0 0.036441757438308346 0.0060126969098754056 0 0.036687973667954336 0.0061598989485261903 0 0.036441757438308346 0.0060126969098754056 0 0.036771938238896823 0.0058542025748269475 0 0.036594813390858939 0.0063676902479629025 0 0.036687973667954336 0.0061598989485261903 0 0.036929742576113249 0.0063686597406773264 0 0.036594813390858939 0.0063676902479629025 0 0.036161464218221459 0.0062943974386912138 0 0.036441757438308346 0.0060126969098754056 0 0.036067691034274187 0.0057955469921659236 0 0.036161464218221459 0.0062943974386912138 0 0.036441757438308346 0.0060126969098754056 0 0.036067691034274187 0.0057955469921659236 0 0.036441757438308346 0.0060126969098754056 0 0.036396919818365202 0.0055631751245053965 0 0.036067691034274187 0.0057955469921659236 0 0.036396919818365202 0.0055631751245053965 0 0.036012114796940886 0.005235135976400818 0 0.036396919818365202 0.0055631751245053965 0 0.036771938238896823 0.0058542025748269475 0 0.036739921705993717 0.0054688446423047264 0 0.036396919818365202 0.0055631751245053965 0 0.036739921705993717 0.0054688446423047264 0 0.036443177492873575 0.0049146973056913975 0 0.036441757438308346 0.0060126969098754056 0 0.036396919818365202 0.0055631751245053965 0 0.036771938238896823 0.0058542025748269475 0 0.036771938238896823 0.0058542025748269475 0 0.036929742576113249 0.0063686597406773264 0 0.037300630242860643 0.0053753624494895262 0 0.033565512829220573 0.0072455712911317326 0 0.023576984168422157 0.0048702652727786004 0 0.036771938238896823 0.0058542025748269475 0 0.036739921705993717 0.0054688446423047264 0 0.037300630242860643 0.0053753624494895262 0 0.036929742576113249 0.0063686597406773264 0 0.037011982019440469 0.0064951928379179064 0 0.037300630242860643 0.0053753624494895262 0 0.036687973667954336 0.0061598989485261903 0 0.036771938238896823 0.0058542025748269475 0 0.036929742576113249 0.0063686597406773264 0 0.036594813390858939 0.0063676902479629025 0 0.036929742576113249 0.0063686597406773264 0 0.037041809382811638 0.0065238763612197291 0 0.03421092387842993 0.0074275381616170644 0 0.033565512829220573 0.0072455712911317326 0 0.03380305975327718 0.0070812989291765428 0 0.03317243584448256 0.0075090606309053641 0 0.033925791526953249 0.0081684471705419492 0 0.03380305975327718 0.0070812989291765428 0 0.033925791526953249 0.0081684471705419492 0 0.034257104449981618 0.0071655035127081695 0 0.03380305975327718 0.0070812989291765428 0 0.03317243584448256 0.0075090606309053641 0 0.033587506064791356 0.0065701381646326397 0 0.031992915277587471 0.0077191420077235041 0 0.03317243584448256 0.0075090606309053641 0 0.032984409318556278 0.0067859872495928761 0 0.03317243584448256 0.0075090606309053641 0 0.033587506064791356 0.0065701381646326397 0 0.032984409318556278 0.0067859872495928761 0 0.031992915277587471 0.0077191420077235041 0 0.03317243584448256 0.0075090606309053641 0 0.032923743791918765 0.0083872299775350299 0 0.03317243584448256 0.0075090606309053641 0 0.032923743791918765 0.0083872299775350299 0 0.033925791526953249 0.0081684471705419492 0 0.033925791526953249 0.0081684471705419492 0 0.034569712893183224 0.0082040443517301474 0 0.034631802725426465 0.0075088397442020999 0 0.033925791526953249 0.0081684471705419492 0 0.034631802725426465 0.0075088397442020999 0 0.034257104449981618 0.0071655035127081695 0 0.035102939321550716 0.0083417196132735561 0 0.034569712893183224 0.0082040443517301474 0 0.035003048050252873 0.0076758673072017244 0 0.034569712893183224 0.0082040443517301474 0 0.035003048050252873 0.0076758673072017244 0 0.034631802725426465 0.0075088397442020999 0 0.034631802725426465 0.0075088397442020999 0 0.034983818743063708 0.0069885211609723181 0 0.03462112131252678 0.006708342180240333 0 0.035003048050252873 0.0076758673072017244 0 0.034631802725426465 0.0075088397442020999 0 0.034983818743063708 0.0069885211609723181 0 0.034631802725426465 0.0075088397442020999 0 0.034257104449981618 0.0071655035127081695 0 0.03462112131252678 0.006708342180240333 0 0.034257104449981618 0.0071655035127081695 0 0.034244848467692608 0.0063555177784480306 0 0.03462112131252678 0.006708342180240333 0 0.03380305975327718 0.0070812989291765428 0 0.034257104449981618 0.0071655035127081695 0 0.034244848467692608 0.0063555177784480306 0 0.034244848467692608 0.0063555177784480306 0 0.034589751316887116 0.0060485164622895334 0 0.034325719795627305 0.0055128108581739008 0 0.034244848467692608 0.0063555177784480306 0 0.034589751316887116 0.0060485164622895334 0 0.03462112131252678 0.006708342180240333 0 0.034589751316887116 0.0060485164622895334 0 0.03462112131252678 0.006708342180240333 0 0.034946048094807933 0.0062643675741592313 0 0.034983818743063708 0.0069885211609723181 0 0.03462112131252678 0.006708342180240333 0 0.034946048094807933 0.0062643675741592313 0 0.034589751316887116 0.0060485164622895334 0 0.034946048094807933 0.0062643675741592313 0 0.034781843547624654 0.0054300800146754261 0 0.035328413384201285 0.0059147676562899508 0 0.034946048094807933 0.0062643675741592313 0 0.034781843547624654 0.0054300800146754261 0 0.034244848467692608 0.0063555177784480306 0 0.034325719795627305 0.0055128108581739008 0 0.033886634624324119 0.005711029437749056 0 0.034325719795627305 0.0055128108581739008 0 0.033976251537419427 0.0048301970638226178 0 0.034405549823657657 0.0048472222742176781 0 0.034589751316887116 0.0060485164622895334 0 0.034781843547624654 0.0054300800146754261 0 0.034325719795627305 0.0055128108581739008 0 0.034781843547624654 0.0054300800146754261 0 0.034325719795627305 0.0055128108581739008 0 0.034405549823657657 0.0048472222742176781 0 0.033886634624324119 0.005711029437749056 0 0.033561032960300795 0.0052151829948998991 0 0.033976251537419427 0.0048301970638226178 0 0.034325719795627305 0.0055128108581739008 0 0.033886634624324119 0.005711029437749056 0 0.033976251537419427 0.0048301970638226178 0 0.03380305975327718 0.0070812989291765428 0 0.034244848467692608 0.0063555177784480306 0 0.033587506064791356 0.0065701381646326397 0 0.034244848467692608 0.0063555177784480306 0 0.033886634624324119 0.005711029437749056 0 0.033587506064791356 0.0065701381646326397 0 0.033886634624324119 0.005711029437749056 0 0.033587506064791356 0.0065701381646326397 0 0.033302143542673891 0.0059960698371530627 0 0.032638854728966313 0.0063995735504485795 0 0.032984409318556278 0.0067859872495928761 0 0.033302143542673891 0.0059960698371530627 0 0.033587506064791356 0.0065701381646326397 0 0.032984409318556278 0.0067859872495928761 0 0.033302143542673891 0.0059960698371530627 0 0.032638854728966313 0.0063995735504485795 0 0.032806335570257417 0.0056001752630012603 0 0.033302143542673891 0.0059960698371530627 0 0.032806335570257417 0.0056001752630012603 0 0.033302143542673891 0.0059960698371530627 0 0.033561032960300795 0.0052151829948998991 0 0.032806335570257417 0.0056001752630012603 0 0.033561032960300795 0.0052151829948998991 0 0.033610902802313027 0.00432857611742039 0 0.033886634624324119 0.005711029437749056 0 0.033302143542673891 0.0059960698371530627 0 0.033561032960300795 0.0052151829948998991 0 0.033561032960300795 0.0052151829948998991 0 0.033610902802313027 0.00432857611742039 0 0.033976251537419427 0.0048301970638226178 0 0.033610902802313027 0.00432857611742039 0 0.03407975523919634 0.003750553110087491 0 0.034143439365130583 0.0041256558391851664 0 0.033610902802313027 0.00432857611742039 0 0.03407975523919634 0.003750553110087491 0 0.034155275283002717 0.0037551943367628319 0 0.03407975523919634 0.003750553110087491 0 0.034143439365130583 0.0041256558391851664 0 0.034205443815437511 0.0036315543936196073 0 0.034143439365130583 0.0041256558391851664 0 0.033976251537419427 0.0048301970638226178 0 0.034405549823657657 0.0048472222742176781 0 0.033610902802313027 0.00432857611742039 0 0.034143439365130583 0.0041256558391851664 0 0.033976251537419427 0.0048301970638226178 0 0.034781843547624654 0.0054300800146754261 0 0.034405549823657657 0.0048472222742176781 0 0.034674041665910156 0.0046905294918816211 0 0.034405549823657657 0.0048472222742176781 0 0.034674041665910156 0.0046905294918816211 0 0.034490183878919195 0.0042450272259897783 0 0.035259668685931653 0.0052574398336853491 0 0.034781843547624654 0.0054300800146754261 0 0.034968168645589541 0.0048896943832646093 0 0.034781843547624654 0.0054300800146754261 0 0.034968168645589541 0.0048896943832646093 0 0.034674041665910156 0.0046905294918816211 0 0.034968168645589541 0.0048896943832646093 0 0.034674041665910156 0.0046905294918816211 0 0.03489113564501576 0.0044419565681738044 0 0.034968168645589541 0.0048896943832646093 0 0.03489113564501576 0.0044419565681738044 0 0.035252030842381474 0.0047082704907030629 0 0.034674041665910156 0.0046905294918816211 0 0.03489113564501576 0.0044419565681738044 0 0.034490183878919195 0.0042450272259897783 0 0.03489113564501576 0.0044419565681738044 0 0.034490183878919195 0.0042450272259897783 0 0.034743990982502519 0.0039881272855386172 0 0.03489113564501576 0.0044419565681738044 0 0.034743990982502519 0.0039881272855386172 0 0.035210850308866913 0.0042326950303649023 0 0.034143439365130583 0.0041256558391851664 0 0.034490183878919195 0.0042450272259897783 0 0.03438146782881589 0.0036932262704414279 0 0.034143439365130583 0.0041256558391851664 0 0.034405549823657657 0.0048472222742176781 0 0.034490183878919195 0.0042450272259897783 0 0.034490183878919195 0.0042450272259897783 0 0.03438146782881589 0.0036932262704414279 0 0.034743990982502519 0.0039881272855386172 0 0.03438146782881589 0.0036932262704414279 0 0.034666861713086437 0.003540145256171922 0 0.034394882663210335 0.003340746996688309 0 0.034743990982502519 0.0039881272855386172 0 0.035210850308866913 0.0042326950303649023 0 0.035104444092612479 0.0037730107362445049 0 0.034743990982502519 0.0039881272855386172 0 0.034666861713086437 0.003540145256171922 0 0.035104444092612479 0.0037730107362445049 0 0.03438146782881589 0.0036932262704414279 0 0.034743990982502519 0.0039881272855386172 0 0.034666861713086437 0.003540145256171922 0 0.034666861713086437 0.003540145256171922 0 0.035104444092612479 0.0037730107362445049 0 0.035035115013594062 0.0033175749563315957 0 0.034666861713086437 0.003540145256171922 0 0.034589237686717234 0.0031247245662584773 0 0.035035115013594062 0.0033175749563315957 0 0.034666861713086437 0.003540145256171922 0 0.034589237686717234 0.0031247245662584773 0 0.034394882663210335 0.003340746996688309 0 0.034589237686717234 0.0031247245662584773 0 0.034394882663210335 0.003340746996688309 0 0.034344604095538384 0.0030325792404803493 0 0.03438146782881589 0.0036932262704414279 0 0.034394882663210335 0.003340746996688309 0 0.034248708111773503 0.0032977100447872227 0 0.034248708111773503 0.0032977100447872227 0 0.03424651219804619 0.0030278653470151929 0 0.034344604095538384 0.0030325792404803493 0 0.034394882663210335 0.003340746996688309 0 0.034248708111773503 0.0032977100447872227 0 0.034344604095538384 0.0030325792404803493 0 0.034248708111773503 0.0032977100447872227 0 0.034260947159164334 0.0034197053960653735 0 0.034259071105178035 0.003227286573045606 0 0.034248708111773503 0.0032977100447872227 0 0.034260947159164334 0.0034197053960653735 0 0.034205443815437511 0.0036315543936196073 0 0.034260947159164334 0.0034197053960653735 0 0.034259071105178035 0.003227286573045606 0 0.034712609212024799 0.0032694150195598671 0 0.03407975523919634 0.003750553110087491 0 0.034260947159164334 0.0034197053960653735 0 0.034205443815437511 0.0036315543936196073 0 0.03407975523919634 0.003750553110087491 0 0.034260947159164334 0.0034197053960653735 0 0.034383155138984968 0.0035111969318398534 0 0.03438146782881589 0.0036932262704414279 0 0.034248708111773503 0.0032977100447872227 0 0.034205443815437511 0.0036315543936196073 0 0.034143439365130583 0.0041256558391851664 0 0.03438146782881589 0.0036932262704414279 0 0.034205443815437511 0.0036315543936196073 0 0.034256356107839669 0.0041623462832130302 0 0.036982791773033014 0.0035372673590086316 0 0.037128033173656046 0.004665000852885781 0 0.036534559055390055 0.0043133436306940706 0 0.036523374411761046 0.0036383062924663038 0 0.035978560495700258 0.0023051187684778084 0 0.036523374411761046 0.0036383062924663038 0 0.035460791276398174 0.0031171285148171063 0 0.036739921705993717 0.0054688446423047264 0 0.037128033173656046 0.004665000852885781 0 0.036443177492873575 0.0049146973056913975 0 0.036739921705993717 0.0054688446423047264 0 0.037099916940489371 0.0048300952097424139 0 0.037300630242860643 0.0053753624494895262 0 0.037249062630281743 0.0052486745518273295 0 0.034256356107839669 0.0041623462832130302 0 0.037128033173656046 0.004665000852885781 0 0.036443177492873575 0.0049146973056913975 0 0.036534559055390055 0.0043133436306940706 0 0.034256356107839669 0.0041623462832130302 0 0.023576984168422157 0.0048702652727786004 0 0.036396919818365202 0.0055631751245053965 0 0.036443177492873575 0.0049146973056913975 0 0.036012114796940886 0.005235135976400818 0 0.036443177492873575 0.0049146973056913975 0 0.035982890980435056 0.0046815616208529063 0 0.036012114796940886 0.005235135976400818 0 0.036443177492873575 0.0049146973056913975 0 0.036287538618896747 0.0044239378488509212 0 0.035982890980435056 0.0046815616208529063 0 0.036287538618896747 0.0044239378488509212 0 0.03598173079696549 0.0041854670137320502 0 0.035982890980435056 0.0046815616208529063 0 0.036443177492873575 0.0049146973056913975 0 0.036287538618896747 0.0044239378488509212 0 0.036534559055390055 0.0043133436306940706 0 0.036287538618896747 0.0044239378488509212 0 0.036534559055390055 0.0043133436306940706 0 0.036324584845897172 0.0039812431888658611 0 0.036534559055390055 0.0043133436306940706 0 0.036324584845897172 0.0039812431888658611 0 0.036523374411761046 0.0036383062924663038 0 0.036287538618896747 0.0044239378488509212 0 0.03598173079696549 0.0041854670137320502 0 0.036324584845897172 0.0039812431888658611 0 0.03598173079696549 0.0041854670137320502 0 0.035609957133255342 0.0044411207199054423 0 0.035619946896653903 0.0039104950089035254 0 0.03598173079696549 0.0041854670137320502 0 0.035609957133255342 0.0044411207199054423 0 0.035982890980435056 0.0046815616208529063 0 0.035982890980435056 0.0046815616208529063 0 0.036012114796940886 0.005235135976400818 0 0.035624395104301237 0.004968567810545374 0 0.035667848738254924 0.0055393797408787452 0 0.036012114796940886 0.005235135976400818 0 0.035624395104301237 0.004968567810545374 0 0.035609957133255342 0.0044411207199054423 0 0.035982890980435056 0.0046815616208529063 0 0.035624395104301237 0.004968567810545374 0 0.035609957133255342 0.0044411207199054423 0 0.035624395104301237 0.004968567810545374 0 0.035252030842381474 0.0047082704907030629 0 0.035259668685931653 0.0052574398336853491 0 0.035624395104301237 0.004968567810545374 0 0.035252030842381474 0.0047082704907030629 0 0.035259668685931653 0.0052574398336853491 0 0.035667848738254924 0.0055393797408787452 0 0.035624395104301237 0.004968567810545374 0 0.035259668685931653 0.0052574398336853491 0 0.034968168645589541 0.0048896943832646093 0 0.035252030842381474 0.0047082704907030629 0 0.03489113564501576 0.0044419565681738044 0 0.035252030842381474 0.0047082704907030629 0 0.035210850308866913 0.0042326950303649023 0 0.035609957133255342 0.0044411207199054423 0 0.035252030842381474 0.0047082704907030629 0 0.035210850308866913 0.0042326950303649023 0 0.035609957133255342 0.0044411207199054423 0 0.035210850308866913 0.0042326950303649023 0 0.035619946896653903 0.0039104950089035254 0 0.035210850308866913 0.0042326950303649023 0 0.035104444092612479 0.0037730107362445049 0 0.035619946896653903 0.0039104950089035254 0 0.035104444092612479 0.0037730107362445049 0 0.035392003840545479 0.0035441719297033421 0 0.035619946896653903 0.0039104950089035254 0 0.035104444092612479 0.0037730107362445049 0 0.035035115013594062 0.0033175749563315957 0 0.035392003840545479 0.0035441719297033421 0 0.034589237686717234 0.0031247245662584773 0 0.035035115013594062 0.0033175749563315957 0 0.03502294104709306 0.0028538573080469005 0 0.035035115013594062 0.0033175749563315957 0 0.035548695300563544 0.003171901295142927 0 0.03502294104709306 0.0028538573080469005 0 0.035035115013594062 0.0033175749563315957 0 0.035392003840545479 0.0035441719297033421 0 0.035548695300563544 0.003171901295142927 0 0.035759024134017256 0.0035079879270729351 0 0.035548695300563544 0.003171901295142927 0 0.036156540202056525 0.0031720662104556476 0 0.035759024134017256 0.0035079879270729351 0 0.036067966665871691 0.0037489274428028209 0 0.036156540202056525 0.0031720662104556476 0 0.035392003840545479 0.0035441719297033421 0 0.035759024134017256 0.0035079879270729351 0 0.035548695300563544 0.003171901295142927 0 0.035759024134017256 0.0035079879270729351 0 0.035619946896653903 0.0039104950089035254 0 0.036067966665871691 0.0037489274428028209 0 0.035392003840545479 0.0035441719297033421 0 0.035759024134017256 0.0035079879270729351 0 0.035619946896653903 0.0039104950089035254 0 0.03598173079696549 0.0041854670137320502 0 0.035619946896653903 0.0039104950089035254 0 0.036067966665871691 0.0037489274428028209 0 0.036375112235171633 0.0037390695979503427 0 0.036067966665871691 0.0037489274428028209 0 0.036156540202056525 0.0031720662104556476 0 0.036324584845897172 0.0039812431888658611 0 0.036375112235171633 0.0037390695979503427 0 0.036067966665871691 0.0037489274428028209 0 0.03598173079696549 0.0041854670137320502 0 0.036324584845897172 0.0039812431888658611 0 0.036067966665871691 0.0037489274428028209 0 0.036324584845897172 0.0039812431888658611 0 0.036375112235171633 0.0037390695979503427 0 0.036523374411761046 0.0036383062924663038 0 0.028663918749925132 -0.0024147701455043287 0 0.0283082205212591 -0.0024261536245263329 0 0.028256582243183399 -0.0026575838641452053 0 0.036375112235171633 0.0037390695979503427 0 0.036156540202056525 0.0031720662104556476 0 0.036531420843956164 0.0037771780984972724 0 0.032239853141821109 0.00034910889630674648 0 0.033193216949557798 0.00062633458978755363 0 0.028663918749925132 -0.0024147701455043287 0 0.0283082205212591 -0.0024261536245263329 0 0.028367172054659405 -0.0022034907286077963 0 0.0283082205212591 -0.0024261536245263329 0 0.028098714293927952 -0.0025165467489800452 0 0.028256582243183399 -0.0026575838641452053 0 0.0283082205212591 -0.0024261536245263329 0 0.028098714293927952 -0.0025165467489800452 0 0.028027370996279867 -0.0022952282762591595 0 0.028098714293927952 -0.0025165467489800452 0 0.028027370996279867 -0.0022952282762591595 0 0.02786269203529081 -0.0024895701365645669 0 0.033193216949557798 0.00062633458978755363 0 0.024572932813849927 0.0028392315746588212 0 0.036531420843956164 0.0037771780984972724 0 0.036523374411761046 0.0036383062924663038 0 0.035460791276398174 0.0031171285148171063 0 0.028256582243183399 -0.0026575838641452053 0 0.027950058152874546 -0.0026464111976490182 0 0.027922299757355776 -0.0028621336812451356 0 0.028098714293927952 -0.0025165467489800452 0 0.028256582243183399 -0.0026575838641452053 0 0.027950058152874546 -0.0026464111976490182 0 0.036375112235171633 0.0037390695979503427 0 0.036531420843956164 0.0037771780984972724 0 0.036523374411761046 0.0036383062924663038 0 0.028176674205789648 -0.0019125272946286687 0 0.028639111092842406 -0.0019455031999088062 0 0.028478556005193764 -0.0014608484583888204 0 0.028176674205789648 -0.0019125272946286687 0 0.028367172054659405 -0.0022034907286077963 0 0.028639111092842406 -0.0019455031999088062 0 0.028176674205789648 -0.0019125272946286687 0 0.028027370996279867 -0.0022952282762591595 0 0.028367172054659405 -0.0022034907286077963 0 0.0283082205212591 -0.0024261536245263329 0 0.028027370996279867 -0.0022952282762591595 0 0.028367172054659405 -0.0022034907286077963 0 0.028663918749925132 -0.0024147701455043287 0 0.028367172054659405 -0.0022034907286077963 0 0.028639111092842406 -0.0019455031999088062 0 0.028663918749925132 -0.0024147701455043287 0 0.028639111092842406 -0.0019455031999088062 0 0.029077111048506136 -0.0020875903798173489 0 0.030924005173092958 -0.00276382806697723 0 0.031128164822581281 -0.0020772183087141077 0 0.030694906720872321 -0.0017744010688028832 0 0.028639111092842406 -0.0019455031999088062 0 0.029077111048506136 -0.0020875903798173489 0 0.029010785281530064 -0.0015673837423834556 0 0.032874190918028748 -0.00014095329969446879 0 0.02958501688590345 -0.0020936178573892862 0 0.035548695300563544 0.003171901295142927 0 0.036156540202056525 0.0031720662104556476 0 0.035620560202509491 0.0026154158233460769 0 0.032239853141821109 0.00034910889630674648 0 0.032874190918028748 -0.00014095329969446879 0 0.035279888153312233 0.0036540215907702451 0 0.032874190918028748 -0.00014095329969446879 0 0.03587973018936079 0.0024361615061495139 0 0.03502294104709306 0.0028538573080469005 0 0.034894498594897606 0.0022828338408609969 0 0.035548695300563544 0.003171901295142927 0 0.03587973018936079 0.0024361615061495139 0 0.03502294104709306 0.0028538573080469005 0 0.03502294104709306 0.0028538573080469005 0 0.034894498594897606 0.0022828338408609969 0 0.034377879259612693 0.0025494299076741687 0 0.030924005173092958 -0.00276382806697723 0 0.031128164822581281 -0.0020772183087141077 0 0.031495156287889049 -0.0022815591637100432 0 0.034894498594897606 0.0022828338408609969 0 0.035207900623054754 0.001166063516563221 0 0.034036560965990559 0.0019155915636781358 0 0.03587973018936079 0.0024361615061495139 0 0.034894498594897606 0.0022828338408609969 0 0.035207900623054754 0.001166063516563221 0 0.032874190918028748 -0.00014095329969446879 0 0.033296705464492392 -0.00052228661942126694 0 0.031128164822581281 -0.0020772183087141077 0 0.031495156287889049 -0.0022815591637100432 0 0.031497860720242556 -0.0015837255978074568 0 0.033296705464492392 -0.00052228661942126694 0 0.032544435958026606 -0.0011566980601581383 0 0.031128164822581281 -0.0020772183087141077 0 0.031497860720242556 -0.0015837255978074568 0 0.030694906720872321 -0.0017744010688028832 0 0.031497860720242556 -0.0015837255978074568 0 0.031255687873324008 -0.001323173755120266 0 0.030694906720872321 -0.0017744010688028832 0 0.031495156287889049 -0.0022815591637100432 0 0.031497860720242556 -0.0015837255978074568 0 0.032408953141452805 -0.0012018047141199985 0 0.031497860720242556 -0.0015837255978074568 0 0.03183602118086163 -0.0013451866215401398 0 0.032408953141452805 -0.0012018047141199985 0 0.031497860720242556 -0.0015837255978074568 0 0.03183602118086163 -0.0013451866215401398 0 0.031255687873324008 -0.001323173755120266 0 0.031255687873324008 -0.001323173755120266 0 0.031859877431881616 -0.0013690241358483603 0 0.031606002321330054 -0.0011177704664825897 0 0.03183602118086163 -0.0013451866215401398 0 0.031255687873324008 -0.001323173755120266 0 0.031859877431881616 -0.0013690241358483603 0 0.031255687873324008 -0.001323173755120266 0 0.031606002321330054 -0.0011177704664825897 0 0.030954657996046141 -0.0010378407718995156 0 0.031255687873324008 -0.001323173755120266 0 0.030209825620498586 -0.0011782830999938786 0 0.030694906720872321 -0.0017744010688028832 0 0.031255687873324008 -0.001323173755120266 0 0.030209825620498586 -0.0011782830999938786 0 0.030954657996046141 -0.0010378407718995156 0 0.029625892861320707 -0.00094661171977597242 0 0.02958501688590345 -0.0020936178573892862 0 0.029047950268132006 -0.0010051422999047387 0 0.029010785281530064 -0.0015673837423834556 0 0.028478556005193764 -0.0014608484583888204 0 0.028639111092842406 -0.0019455031999088062 0 0.029010785281530064 -0.0015673837423834556 0 0.028478556005193764 -0.0014608484583888204 0 0.029047950268132006 -0.0010051422999047387 0 0.028478556005193764 -0.0014608484583888204 0 0.028516410342476775 -0.0010491884510182427 0 0.028478556005193764 -0.0014608484583888204 0 0.028516410342476775 -0.0010491884510182427 0 0.028004250841402342 -0.001042594247439126 0 0.028478556005193764 -0.0014608484583888204 0 0.027861201271532583 -0.0015390741616827812 0 0.028004250841402342 -0.001042594247439126 0 0.028176674205789648 -0.0019125272946286687 0 0.028478556005193764 -0.0014608484583888204 0 0.027861201271532583 -0.0015390741616827812 0 0.03673938384461304 0.0025842086881291675 0 0.036217056379036501 0.0027792589707694134 0 0.036452116733612164 0.0021861156044202597 0 0.035706067889683793 0.0028477478999024389 0 0.035287584694756 0.0030903203144998759 0 0.036217056379036501 0.0027792589707694134 0 0.036452116733612164 0.0021861156044202597 0 0.03592721593493757 0.002318172172883427 0 0.034419646175128819 0.003437015720529569 0 0.034259071105178035 0.003227286573045606 0 0.034712609212024799 0.0032694150195598671 0 0.034248708111773503 0.0032977100447872227 0 0.034259071105178035 0.003227286573045606 0 0.03424651219804619 0.0030278653470151929 0 0.034230225407183373 0.0029274452421644177 0 0.034419646175128819 0.003437015720529569 0 0.034259071105178035 0.003227286573045606 0 0.034230225407183373 0.0029274452421644177 0 0.034259071105178035 0.003227286573045606 0 0.03424651219804619 0.0030278653470151929 0 0.03424651219804619 0.0030278653470151929 0 0.034344604095538384 0.0030325792404803493 0 0.034268695221614617 0.0027563480875182956 0 0.034230225407183373 0.0029274452421644177 0 0.03424651219804619 0.0030278653470151929 0 0.034268695221614617 0.0027563480875182956 0 0.034589237686717234 0.0031247245662584773 0 0.03502294104709306 0.0028538573080469005 0 0.034377879259612693 0.0025494299076741687 0 0.034589237686717234 0.0031247245662584773 0 0.034344604095538384 0.0030325792404803493 0 0.034377879259612693 0.0025494299076741687 0 0.034344604095538384 0.0030325792404803493 0 0.034268695221614617 0.0027563480875182956 0 0.034377879259612693 0.0025494299076741687 0 0.034268695221614617 0.0027563480875182956 0 0.034377879259612693 0.0025494299076741687 0 0.034256577274703569 0.0025124764463320694 0 0.034894498594897606 0.0022828338408609969 0 0.034377879259612693 0.0025494299076741687 0 0.034036560965990559 0.0019155915636781358 0 0.034377879259612693 0.0025494299076741687 0 0.034036560965990559 0.0019155915636781358 0 0.034227499892617329 0.0022529285154586809 0 0.034036560965990559 0.0019155915636781358 0 0.034227499892617329 0.0022529285154586809 0 0.034250951916965505 0.0023639547328255127 0 0.034150889849355597 0.0014018366821158654 0 0.034841617555529301 0.0014794469985244712 0 0.034377879259612693 0.0025494299076741687 0 0.034227499892617329 0.0022529285154586809 0 0.034256577274703569 0.0025124764463320694 0 0.034227499892617329 0.0022529285154586809 0 0.034256577274703569 0.0025124764463320694 0 0.034250951916965505 0.0023639547328255127 0 0.035207900623054754 0.001166063516563221 0 0.032430637796182819 7.9722441764406191e-05 0 0.032408953141452805 -0.0012018047141199985 0 0.035207900623054754 0.001166063516563221 0 0.034036560965990559 0.0019155915636781358 0 0.032430637796182819 7.9722441764406191e-05 0 0.035706067889683793 0.0028477478999024389 0 0.034841617555529301 0.0014794469985244712 0 0.034230225407183373 0.0029274452421644177 0 0.034256577274703569 0.0025124764463320694 0 0.034250951916965505 0.0023639547328255127 0 0.034230225407183373 0.0029274452421644177 0 0.034268695221614617 0.0027563480875182956 0 0.034256577274703569 0.0025124764463320694 0 0.03673938384461304 0.0025842086881291675 0 0.037309535871503312 0.0024381457233498185 0 0.036932209743943359 0.0019633083306983645 0 0.034841617555529301 0.0014794469985244712 0 0.034543633780115726 0.00013901411469069934 0 0.032430637796182819 7.9722441764406191e-05 0 0.032408953141452805 -0.0012018047141199985 0 0.032185871468334168 -0.0014707778568121394 0 0.032430637796182819 7.9722441764406191e-05 0 0.032068551287205919 -0.0017282752244925906 0 0.032185871468334168 -0.0014707778568121394 0 0.03183602118086163 -0.0013451866215401398 0 0.032408953141452805 -0.0012018047141199985 0 0.031859877431881616 -0.0013690241358483603 0 0.032408953141452805 -0.0012018047141199985 0 0.032185871468334168 -0.0014707778568121394 0 0.031859877431881616 -0.0013690241358483603 0 0.032185871468334168 -0.0014707778568121394 0 0.031859877431881616 -0.0013690241358483603 0 0.032059785310566226 -0.0014029417902734207 0 0.031859877431881616 -0.0013690241358483603 0 0.032059785310566226 -0.0014029417902734207 0 0.031606002321330054 -0.0011177704664825897 0 0.032068551287205919 -0.0017282752244925906 0 0.032059785310566226 -0.0014029417902734207 0 0.033450216824987881 -0.0012396062708234872 0 0.032068551287205919 -0.0017282752244925906 0 0.032185871468334168 -0.0014707778568121394 0 0.032059785310566226 -0.0014029417902734207 0 0.036932209743943359 0.0019633083306983645 0 0.036452116733612164 0.0021861156044202597 0 0.036477007247029479 0.0013290350992608874 0 0.034543633780115726 0.00013901411469069934 0 0.034951095658228168 9.1937510748982655e-05 0 0.03673938384461304 0.0025842086881291675 0 0.036932209743943359 0.0019633083306983645 0 0.036452116733612164 0.0021861156044202597 0 0.036452116733612164 0.0021861156044202597 0 0.035987682831092181 0.001831702597868411 0 0.03592721593493757 0.002318172172883427 0 0.036452116733612164 0.0021861156044202597 0 0.035987682831092181 0.001831702597868411 0 0.036477007247029479 0.0013290350992608874 0 0.035987682831092181 0.001831702597868411 0 0.035654442642993056 0.0012168630754774059 0 0.036477007247029479 0.0013290350992608874 0 0.035987682831092181 0.001831702597868411 0 0.035675694663126492 0.0018469412625468187 0 0.035654442642993056 0.0012168630754774059 0 0.035675694663126492 0.0018469412625468187 0 0.035585701379200106 0.001698955656275861 0 0.035351758521707098 0.0013026221286591812 0 0.035675694663126492 0.0018469412625468187 0 0.035585701379200106 0.001698955656275861 0 0.035714869263706074 0.0019806658311973969 0 0.035585701379200106 0.001698955656275861 0 0.035714869263706074 0.0019806658311973969 0 0.035810879350484444 0.0017905401782068668 0 0.035675694663126492 0.0018469412625468187 0 0.035714869263706074 0.0019806658311973969 0 0.035734528047714577 0.0023373887602228176 0 0.035714869263706074 0.0019806658311973969 0 0.035734528047714577 0.0023373887602228176 0 0.035800619641436895 0.0022787156898505015 0 0.035734528047714577 0.0023373887602228176 0 0.035719575051705817 0.0026611099077011014 0 0.035800619641436895 0.0022787156898505015 0 0.035987682831092181 0.001831702597868411 0 0.035675694663126492 0.0018469412625468187 0 0.03592721593493757 0.002318172172883427 0 0.035675694663126492 0.0018469412625468187 0 0.035734528047714577 0.0023373887602228176 0 0.03592721593493757 0.002318172172883427 0 0.036217056379036501 0.0027792589707694134 0 0.03592721593493757 0.002318172172883427 0 0.035716920153162406 0.0027123405291848363 0 0.036217056379036501 0.0027792589707694134 0 0.035716920153162406 0.0027123405291848363 0 0.035448434709870469 0.0032777527738470438 0 0.035734528047714577 0.0023373887602228176 0 0.03592721593493757 0.002318172172883427 0 0.035716920153162406 0.0027123405291848363 0 0.035734528047714577 0.0023373887602228176 0 0.035716920153162406 0.0027123405291848363 0 0.035719575051705817 0.0026611099077011014 0 0.035716920153162406 0.0027123405291848363 0 0.035719575051705817 0.0026611099077011014 0 0.035631925006570565 0.0030255586615806659 0 0.035716920153162406 0.0027123405291848363 0 0.035631925006570565 0.0030255586615806659 0 0.035448434709870469 0.0032777527738470438 0 0.035448434709870469 0.0032777527738470438 0 0.035151883091432023 0.0032942156366999095 0 0.034712609212024799 0.0032694150195598671 0 0.035631925006570565 0.0030255586615806659 0 0.035448434709870469 0.0032777527738470438 0 0.035672855497443451 0.0033317058024188652 0 0.035448434709870469 0.0032777527738470438 0 0.035151883091432023 0.0032942156366999095 0 0.035672855497443451 0.0033317058024188652 0 0.034419646175128819 0.003437015720529569 0 0.035448434709870469 0.0032777527738470438 0 0.034712609212024799 0.0032694150195598671 0 0.035287584694756 0.0030903203144998759 0 0.035428432960190513 0.0032526234383917327 0 0.035788112812444657 0.0035742247023731531 0 0.035672855497443451 0.0033317058024188652 0 0.035746566429768693 0.0029964236708938542 0 0.035631925006570565 0.0030255586615806659 0 0.035672855497443451 0.0033317058024188652 0 0.035746566429768693 0.0029964236708938542 0 0.035788112812444657 0.0035742247023731531 0 0.035746566429768693 0.0029964236708938542 0 0.035824936558753073 0.0027447207517166581 0 0.035719575051705817 0.0026611099077011014 0 0.035746566429768693 0.0029964236708938542 0 0.035824936558753073 0.0027447207517166581 0 0.035719575051705817 0.0026611099077011014 0 0.035824936558753073 0.0027447207517166581 0 0.035800619641436895 0.0022787156898505015 0 0.035719575051705817 0.0026611099077011014 0 0.035631925006570565 0.0030255586615806659 0 0.035746566429768693 0.0029964236708938542 0 0.035824936558753073 0.0027447207517166581 0 0.035964900389098803 0.0020482723023096819 0 0.035192638430938727 0.0029234965120572029 0 0.035788112812444657 0.0035742247023731531 0 0.035824936558753073 0.0027447207517166581 0 0.035192638430938727 0.0029234965120572029 0 0.036120099242836545 0.0017234738043443673 0 0.035964900389098803 0.0020482723023096819 0 0.035192638430938727 0.0029234965120572029 0 0.036120099242836545 0.0017234738043443673 0 0.035964900389098803 0.0020482723023096819 0 0.036023453322454491 0.0016895591788936035 0 0.035824936558753073 0.0027447207517166581 0 0.035800619641436895 0.0022787156898505015 0 0.035964900389098803 0.0020482723023096819 0 0.035800619641436895 0.0022787156898505015 0 0.035964900389098803 0.0020482723023096819 0 0.035810879350484444 0.0017905401782068668 0 0.035714869263706074 0.0019806658311973969 0 0.035800619641436895 0.0022787156898505015 0 0.035810879350484444 0.0017905401782068668 0 0.035585701379200106 0.001698955656275861 0 0.035810879350484444 0.0017905401782068668 0 0.035744093319716182 0.0018093858763281031 0 0.035810879350484444 0.0017905401782068668 0 0.036023453322454491 0.0016895591788936035 0 0.035744093319716182 0.0018093858763281031 0 0.035964900389098803 0.0020482723023096819 0 0.035810879350484444 0.0017905401782068668 0 0.036023453322454491 0.0016895591788936035 0 0.036023453322454491 0.0016895591788936035 0 0.03627637821667945 0.001574917086776066 0 0.035744093319716182 0.0018093858763281031 0 0.036120099242836545 0.0017234738043443673 0 0.03627637821667945 0.001574917086776066 0 0.036455057823247788 0.0014053456877033247 0 0.036120099242836545 0.0017234738043443673 0 0.036023453322454491 0.0016895591788936035 0 0.03627637821667945 0.001574917086776066 0 0.03627637821667945 0.001574917086776066 0 0.036455057823247788 0.0014053456877033247 0 0.036471740028984116 0.0010670685367440203 0 0.036455057823247788 0.0014053456877033247 0 0.036515368963063635 0.001254518551132375 0 0.037130197721784566 0.002324961018873261 0 0.036120099242836545 0.0017234738043443673 0 0.036455057823247788 0.0014053456877033247 0 0.037130197721784566 0.002324961018873261 0 0.036455057823247788 0.0014053456877033247 0 0.036515368963063635 0.001254518551132375 0 0.036471740028984116 0.0010670685367440203 0 0.036515368963063635 0.001254518551132375 0 0.036226644056723545 0.0024285748934380867 0 0.037130197721784566 0.002324961018873261 0 0.036137455665014348 0.0018527670755774869 0 0.03613725110650555 0.0026693608876629435 0 0.035827336219378086 0.00093128350534645596 0 0.034999748676185584 0.0015605838204601004 0 0.034999642983077665 -0.00042588792889672322 0 0.036515368963063635 0.001254518551132375 0 0.035827336219378086 0.00093128350534645596 0 0.036180953830177692 -0.00040062394700134737 0 0.036515368963063635 0.001254518551132375 0 0.035827336219378086 0.00093128350534645596 0 0.036226644056723545 0.0024285748934380867 0 0.035827336219378086 0.00093128350534645596 0 0.034999748676185584 0.0015605838204601004 0 0.036226644056723545 0.0024285748934380867 0 0.034999748676185584 0.0015605838204601004 0 0.036226644056723545 0.0024285748934380867 0 0.03499976095547707 0.0035469425554578021 0 0.036226644056723545 0.0024285748934380867 0 0.037119197515320002 0.0040567431250141586 0 0.035971909451994619 0.0043481849504247274 0 0.036226644056723545 0.0024285748934380867 0 0.03499976095547707 0.0035469425554578021 0 0.035971909451994619 0.0043481849504247274 0 0.036226644056723545 0.0024285748934380867 0 0.037130197721784566 0.002324961018873261 0 0.037119197515320002 0.0040567431250141586 0 0.035788112812444657 0.0035742247023731531 0 0.035192638430938727 0.0029234965120572029 0 0.034865804136464409 0.0042787205070500545 0 0.03613725110650555 0.0026693608876629435 0 0.035986691291967646 0.0041751091417260057 0 0.035788112812444657 0.0035742247023731531 0 0.034865804136464409 0.0042787205070500545 0 0.035852972530384365 0.0047809339869701005 0 0.034865804136464409 0.0042787205070500545 0 0.035599952693781786 0.0058927631384707232 0 0.035852972530384365 0.0047809339869701005 0 0.035986691291967646 0.0041751091417260057 0 0.03569079023960707 0.0059004747574898445 0 0.034865804136464409 0.0042787205070500545 0 0.035599952693781786 0.0058927631384707232 0 0.034719537251821697 0.0058679661541544779 0 0.03499976095547707 0.0035469425554578021 0 0.035971909451994619 0.0043481849504247274 0 0.03499977788250215 0.0055337765496764925 0 0.035971909451994619 0.0043481849504247274 0 0.036650507343198371 0.0059640342776312626 0 0.03499977788250215 0.0055337765496764925 0 0.037119197515320002 0.0040567431250141586 0 0.035971909451994619 0.0043481849504247274 0 0.036650507343198371 0.0059640342776312626 0 0.036650507343198371 0.0059640342776312626 0 0.03499977788250215 0.0055337765496764925 0 0.035722904973566033 0.0065610830542805173 0 0.035722904973566033 0.0065610830542805173 0 0.034999929790523389 0.0075207381699450839 0 0.035921900011255427 0.0078017565495715029 0 0.03499977788250215 0.0055337765496764925 0 0.035722904973566033 0.0065610830542805173 0 0.034999929790523389 0.0075207381699450839 0 0.036650507343198371 0.0059640342776312626 0 0.035722904973566033 0.0065610830542805173 0 0.035921900011255427 0.0078017565495715029 0 0.034719537251821697 0.0058679661541544779 0 0.035357238940321015 0.0075961729017074682 0 0.034843390886954102 0.0073920863676697071 0 0.03569079023960707 0.0059004747574898445 0 0.035409012356226774 0.0075582900420525182 0 0.035544176596564926 0.0084281128146126774 0 0.035357238940321015 0.0075961729017074682 0 0.034843390886954102 0.0073920863676697071 0 0.035000022694046298 0.0095076470899783626 0 0.034999929790523389 0.0075207381699450839 0 0.035921900011255427 0.0078017565495715029 0 0.035000071936534906 0.0095070478322491214 0 0.035409012356226774 0.0075582900420525182 0 0.035599952693781786 0.0058927631384707232 0 0.035608573249162848 0.007234111449393954 0 0.036069699006602056 0.0069877415920024883 0 0.035599952693781786 0.0058927631384707232 0 0.036069699006602056 0.0069877415920024883 0 0.036623670852789669 0.0063820679402400776 0 0.035599952693781786 0.0058927631384707232 0 0.034719537251821697 0.0058679661541544779 0 0.035608573249162848 0.007234111449393954 0 0.034719537251821697 0.0058679661541544779 0 0.035357238940321015 0.0075961729017074682 0 0.035608573249162848 0.007234111449393954 0 0.035595377003842507 0.0082498168814154685 0 0.035357238940321015 0.0075961729017074682 0 0.035608573249162848 0.007234111449393954 0 0.036000774024102115 0.0080557991044446428 0 0.035608573249162848 0.007234111449393954 0 0.036069699006602056 0.0069877415920024883 0 0.035348913479069599 0.0052706969313785993 0 0.035486222069474167 0.0051122568852212981 0 0.034304688358804777 0.0037499672993029842 0 0.034421656665162031 0.0036337203793913851 0 0.03442275964722729 0.0037061343666491696 0 0.03641323126176424 0.0076705928748958402 0 0.036069699006602056 0.0069877415920024883 0 0.036623670852789669 0.0063820679402400776 0 0.034421656665162031 0.0036337203793913851 0 0.03446321394968823 0.0036616838582777702 0 0.034538451691179896 0.0036002364534044205 0 0.034421656665162031 0.0036337203793913851 0 0.03442275964722729 0.0037061343666491696 0 0.03446321394968823 0.0036616838582777702 0 0.03442275964722729 0.0037061343666491696 0 0.034408461229991957 0.0036585657219712206 0 0.03446321394968823 0.0036616838582777702 0 0.034408461229991957 0.0036585657219712206 0 0.034155275283002717 0.0037551943367628319 0 0.03446321394968823 0.0036616838582777702 0 0.03434383053549972 0.0036433292641235224 0 0.034408461229991957 0.0036585657219712206 0 0.034155275283002717 0.0037551943367628319 0 0.033596070162599766 0.0043292826563954053 0 0.033610902802313027 0.00432857611742039 0 0.034155275283002717 0.0037551943367628319 0 0.034141164771964119 0.0049232901143727815 0 0.034087381845574471 0.0034213230621728944 0 0.034141164771964119 0.0049232901143727815 0 0.033264364476341228 0.0045144364521058 0 0.034155275283002717 0.0037551943367628319 0 0.03446321394968823 0.0036616838582777702 0 0.034538451691179896 0.0036002364534044205 0 0.034538451691179896 0.0036002364534044205 0 0.034383155138984968 0.0035111969318398534 0 0.03477904225697475 0.0034041080258534651 0 0.034538451691179896 0.0036002364534044205 0 0.03477904225697475 0.0034041080258534651 0 0.034637857734321389 0.0034560065559180522 0 0.03407975523919634 0.003750553110087491 0 0.034155275283002717 0.0037551943367628319 0 0.034383155138984968 0.0035111969318398534 0 0.034155275283002717 0.0037551943367628319 0 0.034538451691179896 0.0036002364534044205 0 0.034383155138984968 0.0035111969318398534 0 0.034260947159164334 0.0034197053960653735 0 0.034712609212024799 0.0032694150195598671 0 0.034383155138984968 0.0035111969318398534 0 0.034712609212024799 0.0032694150195598671 0 0.034383155138984968 0.0035111969318398534 0 0.03477904225697475 0.0034041080258534651 0 0.035151883091432023 0.0032942156366999095 0 0.034712609212024799 0.0032694150195598671 0 0.03477904225697475 0.0034041080258534651 0 0.035151883091432023 0.0032942156366999095 0 0.03477904225697475 0.0034041080258534651 0 0.034637857734321389 0.0034560065559180522 0 0.035788112812444657 0.0035742247023731531 0 0.035672855497443451 0.0033317058024188652 0 0.036525046968648278 0.0047210053171407203 0 0.035643028148480749 0.0035009626333316916 0 0.035568315797451969 0.0041346167175214726 0 0.035151883091432023 0.0032942156366999095 0 0.035672855497443451 0.0033317058024188652 0 0.034637857734321389 0.0034560065559180522 0 0.035788112812444657 0.0035742247023731531 0 0.035852972530384365 0.0047809339869701005 0 0.036525046968648278 0.0047210053171407203 0 0.035599952693781786 0.0058927631384707232 0 0.036623670852789669 0.0063820679402400776 0 0.035852972530384365 0.0047809339869701005 0 0.036623670852789669 0.0063820679402400776 0 0.035852972530384365 0.0047809339869701005 0 0.036525046968648278 0.0047210053171407203 0 0.034421656665162031 0.0036337203793913851 0 0.034538451691179896 0.0036002364534044205 0 0.034637857734321389 0.0034560065559180522 0 0.035486222069474167 0.0051122568852212981 0 0.035568315797451969 0.0041346167175214726 0 -0.0017457892629445906 0.017424772905561475 0 -0.0019739465753030455 0.016841185714200173 0 -0.0027291466785734505 0.016780192078160002 0 -0.0015370035825374294 0.017295799038802965 0 -0.0017457892629445906 0.017424772905561475 0 -0.0018792617774927077 0.017167585151193775 0 -0.0015370035825374294 0.017295799038802965 0 -0.0017457892629445906 0.017424772905561475 0 -0.0019739465753030455 0.016841185714200173 0 -0.0018792617774927077 0.017167585151193775 0 -0.0015915049290926302 0.01772663333267371 0 -0.0037029349273886773 0.016879921267559835 0 -0.0015370035825374294 0.017295799038802965 0 -0.0018792617774927077 0.017167585151193775 0 -0.0015915049290926302 0.01772663333267371 0 -0.0015370035825374294 0.017295799038802965 0 -0.0015915049290926302 0.01772663333267371 0 -0.00040278434009717042 0.015979836625398383 0 -0.0015915049290926302 0.01772663333267371 0 -0.00034387163490703313 0.016306122034837913 0 -0.00040278434009717042 0.015979836625398383 0 -0.0014062712556653912 0.017508475896064191 0 -0.0024127118624085249 0.019419241467929879 0 -0.0015370035825374294 0.017295799038802965 0 -0.0019739465753030455 0.016841185714200173 0 -0.00040278434009717042 0.015979836625398383 0 -0.0019739465753030455 0.016841185714200173 0 -0.0027369644332852663 0.015509059851806083 0 -0.00040278434009717042 0.015979836625398383 0 -0.0027369644332852663 0.015509059851806083 0 -0.0039257163656108342 0.015928230715264856 0 -0.0027291466785734505 0.016780192078160002 0 -0.0019739465753030455 0.016841185714200173 0 -0.0027369644332852663 0.015509059851806083 0 -0.0027291466785734505 0.016780192078160002 0 -0.0039257163656108342 0.015928230715264856 0 -0.0034651810955846668 0.017002777316828841 0 -0.0027291466785734505 0.016780192078160002 0 -0.0010966945041041231 0.01300814813194376 0 -0.0010875544872113775 0.012268036695330505 0 -0.00075675579591612491 0.012598549694642294 0 -0.0031738633017154515 0.014419393068026361 0 0.00070874637045349579 0.013354885541399441 0 -0.0041726739246195389 0.014423651462908919 0 -0.0050547936122293446 0.015553492389519651 0 -0.0048059709215707135 0.011620850079881373 0 0.010825554088412449 0.0032420871568351133 0 0.010630352154231689 0.0032284863885871044 0 0.010545441198840991 0.002822745056211543 0 0.00017688716566970674 0.010489148051823648 0 0.0029214016890083761 0.0047503166782688899 0 -0.0031738633017154515 0.014419393068026361 0 0.00017688716566970674 0.010489148051823648 0 0.010825554088412449 0.0032420871568351133 0 0.010817329166057078 0.0033080001009233189 0 0.010630352154231689 0.0032284863885871044 0 0.00017688716566970674 0.010489148051823648 0 0.0035138551343525393 0.0082100494627074753 0 0.00070874637045349579 0.013354885541399441 0 0.00017688716566970674 0.010489148051823648 0 0.0031930829025652117 0.011123044706897645 0 0.00323988726235705 0.011169566324554864 0 0.0032502825632783326 0.011135589581860632 0 0.0032492333879185513 0.011108295026490779 0 0.0032793540977237088 0.011007252004232261 0 0.0034410932172766664 0.010901997727876738 0 0.0035138551343525393 0.0082100494627074753 0 0.0072977369924453689 0.0071364602623431332 0 0.010817329166057078 0.0033080001009233189 0 0.010630352154231689 0.0032284863885871044 0 0.010612936926474846 0.0037396703232068806 0 0.0031930829025652117 0.011123044706897645 0 0.0032502825632783326 0.011135589581860632 0 0.0032793540977237088 0.011007252004232261 0 0.0035138551343525393 0.0082100494627074753 0 0.0032096252446494025 0.011474588067637622 0 0.00070874637045349579 0.013354885541399441 0 0.0033179121852592052 0.011278946838470281 0 0.0020129829379147428 0.012866735338829162 0 0.0029528834902602988 0.013809213804344963 0 0.0029761412887456522 0.01217555975814867 0 -0.0017457892629445906 0.017424772905561475 0 -0.0034651810955846668 0.017002777316828841 0 -0.0027291466785734505 0.016780192078160002 0 0.0031930829025652117 0.011123044706897645 0 0.0032793540977237088 0.011007252004232261 0 0.003168268162890911 0.010827338609597769 0 0.00010245159788719286 0.015287222542671841 0 0.00070874637045349579 0.013354885541399441 0 0.0020129829379147428 0.012866735338829162 0 0.0029761412887456522 0.01217555975814867 0 0.0021125298619505675 0.011350385450044726 0 0.0032793540977237088 0.011007252004232261 0 0.003168268162890911 0.010827338609597769 0 0.0034410932172766664 0.010901997727876738 0 0.003168268162890911 0.010827338609597769 0 0.0034410932172766664 0.010901997727876738 0 0.0033305097879168587 0.01064480906239536 0 0.003168268162890911 0.010827338609597769 0 0.0033305097879168587 0.01064480906239536 0 0.0029725492382343091 0.010459169723073602 0 0.0033305097879168587 0.01064480906239536 0 0.0029725492382343091 0.010459169723073602 0 0.0034134407369134975 0.010395264991232811 0 0.0033179121852592052 0.011278946838470281 0 0.0029381100750113871 0.010594987785053441 0 0.0029761412887456522 0.01217555975814867 0 0.0021125298619505675 0.011350385450044726 0 0.0029725492382343091 0.010459169723073602 0 0.0021125298619505675 0.011350385450044726 0 0.0014524595944503298 0.010357885959248279 0 0.0029725492382343091 0.010459169723073602 0 0.0021125298619505675 0.011350385450044726 0 0.0010565689236627664 0.011917106360283956 0 0.0014524595944503298 0.010357885959248279 0 0.0020129829379147428 0.012866735338829162 0 0.0021125298619505675 0.011350385450044726 0 0.0010565689236627664 0.011917106360283956 0 -0.0017457892629445906 0.017424772905561475 0 -0.0018792617774927077 0.017167585151193775 0 -0.0018665517534533292 0.015907731643367454 0 0.00010245159788719286 0.015287222542671841 0 -0.00060436391899279507 0.01363255609848473 0 -0.0018665517534533292 0.015907731643367454 0 -0.0035402690858603115 0.01415754512327364 0 -0.0037029349273886773 0.016879921267559835 0 -0.0018792617774927077 0.017167585151193775 0 -0.0018665517534533292 0.015907731643367454 0 -0.0037029349273886773 0.016879921267559835 0 0.0010565689236627664 0.011917106360283956 0 7.7909522364220851e-05 0.010992719955350314 0 0.0014524595944503298 0.010357885959248279 0 -0.00060436391899279507 0.01363255609848473 0 -0.0021547189958242077 0.014895651673876737 0 -0.0021547189958242077 0.014895651673876737 0 -0.0077151645622465645 0.015738911161744765 0 -0.0062934537501145903 0.015274954847234117 0 -0.0067969082917652222 0.015611231281147706 0 -0.0072710110434126918 0.014657286798471669 0 -0.0067969082917652222 0.015611231281147706 0 -0.0083301140710174987 0.017540869097372087 0 -0.006153137206548441 0.018322536991482702 0 -0.0067969082917652222 0.015611231281147706 0 -0.0037029349273886773 0.016879921267559835 0 -0.006153137206548441 0.018322536991482702 0 -0.0035402690858603115 0.01415754512327364 0 -0.0067969082917652222 0.015611231281147706 0 -0.0037029349273886773 0.016879921267559835 0 -0.0067969082917652222 0.015611231281147706 0 -0.0093712262405410071 0.01588528630683278 0 -0.0081067309643025783 0.015231452505800439 0 -0.0067969082917652222 0.015611231281147706 0 -0.0093712262405410071 0.01588528630683278 0 -0.0083301140710174987 0.017540869097372087 0 -0.0093712262405410071 0.01588528630683278 0 -0.011130002718011643 0.016420639075713124 0 -0.010944008967705822 0.017353853029047028 0 -0.0093712262405410071 0.01588528630683278 0 -0.0083301140710174987 0.017540869097372087 0 -0.010944008967705822 0.017353853029047028 0 -0.0083301140710174987 0.017540869097372087 0 -0.0094400952101772097 0.019248805689904839 0 -0.010944008967705822 0.017353853029047028 0 -0.010550656629868751 0.018261456058557782 0 -0.010960502760834745 0.017440375998506331 0 -0.011601924409362526 0.017521888855668293 0 -0.010944008967705822 0.017353853029047028 0 -0.011564066527756704 0.017544612574678368 0 -0.0094400952101772097 0.019248805689904839 0 -0.007060752627437143 0.019823988533142722 0 -0.0078582020080139037 0.021421944423791663 0 -0.010550656629868751 0.018261456058557782 0 -0.0099807244010397533 0.019835186668348034 0 -0.0083301140710174987 0.017540869097372087 0 -0.0094400952101772097 0.019248805689904839 0 -0.007060752627437143 0.019823988533142722 0 -0.011601924409362526 0.017521888855668293 0 -0.011737280639588586 0.017374441397440005 0 -0.011564066527756704 0.017544612574678368 0 -0.0015915049290926302 0.01772663333267371 0 -0.0037029349273886773 0.016879921267559835 0 -0.0039607276692314505 0.018526976009838349 0 -0.0037029349273886773 0.016879921267559835 0 -0.006153137206548441 0.018322536991482702 0 -0.0039607276692314505 0.018526976009838349 0 -0.0083301140710174987 0.017540869097372087 0 -0.006153137206548441 0.018322536991482702 0 -0.007060752627437143 0.019823988533142722 0 -0.006153137206548441 0.018322536991482702 0 -0.007060752627437143 0.019823988533142722 0 -0.005356970488425877 0.019746727019982639 0 -0.006153137206548441 0.018322536991482702 0 -0.005356970488425877 0.019746727019982639 0 -0.0039607276692314505 0.018526976009838349 0 -0.007060752627437143 0.019823988533142722 0 -0.005356970488425877 0.019746727019982639 0 -0.0057779154916707621 0.021285003024774662 0 -0.0015915049290926302 0.01772663333267371 0 -0.0039607276692314505 0.018526976009838349 0 -0.003501224590707154 0.021004454337593292 0 -0.005356970488425877 0.019746727019982639 0 -0.0039607276692314505 0.018526976009838349 0 -0.003501224590707154 0.021004454337593292 0 -0.003501224590707154 0.021004454337593292 0 -0.0057779154916707621 0.021285003024774662 0 -0.0049173461334062092 0.023119604241524976 0 -0.005356970488425877 0.019746727019982639 0 -0.003501224590707154 0.021004454337593292 0 -0.0057779154916707621 0.021285003024774662 0 -0.00034387163490703313 0.016306122034837913 0 -0.00023520024639025122 0.016130962792541788 0 -0.00036414928260226708 0.016227038414258189 0 -0.0024127118624085249 0.019419241467929879 0 -4.4753580517850855e-05 0.015589890995023177 0 -4.4753580517850855e-05 0.015589890995023177 0 0.0029411643160045286 0.014213053048017649 0 -0.0057779154916707621 0.021285003024774662 0 -0.0061732854105112115 0.022415220135962338 0 -0.0078582020080139037 0.021421944423791663 0 -0.007060752627437143 0.019823988533142722 0 -0.0057779154916707621 0.021285003024774662 0 -0.0078582020080139037 0.021421944423791663 0 -0.0057779154916707621 0.021285003024774662 0 -0.0061732854105112115 0.022415220135962338 0 -0.0049173461334062092 0.023119604241524976 0 -0.0061732854105112115 0.022415220135962338 0 -0.0061168039462149862 0.023841623703708532 0 -0.0049173461334062092 0.023119604241524976 0 -0.0072483481182457057 0.017051440596189321 0 -4.4753580517850855e-05 0.015589890995023177 0 -0.0072483481182457057 0.017051440596189321 0 -0.0099807244010397533 0.019835186668348034 0 -0.0061732854105112115 0.022415220135962338 0 -0.0061168039462149862 0.023841623703708532 0 -0.0078582020080139037 0.021421944423791663 0 -0.0028518283582583742 0.01556263166406981 0 -0.0025322451196951568 0.01600220632869287 0 -0.0019241965006391735 0.01498142594142367 0 -0.0022890346684862205 0.011943763470858492 0 -4.4753580517850855e-05 0.015589890995023177 0 -0.0072483481182457057 0.017051440596189321 0 -0.0022890346684862205 0.011943763470858492 0 0.0078120715939702353 0.0082003945810984 0 0.0060820812459814137 0.010155971007922537 0 0.0087639455340976849 0.010500774648165203 0 0.010169063120954709 0.0078784396234255847 0 0.0078120715939702353 0.0082003945810984 0 0.0087639455340976849 0.010500774648165203 0 0.0060820812459814137 0.010155971007922537 0 0.0055155027447475261 0.007396900000024147 0 0.0039874050225871486 0.010650277047588183 0 0.0078120715939702353 0.0082003945810984 0 0.0060820812459814137 0.010155971007922537 0 0.0055155027447475261 0.007396900000024147 0 0.0060820812459814137 0.010155971007922537 0 0.0087639455340976849 0.010500774648165203 0 0.0050297670690403369 0.013191507599827505 0 -0.011601924409362526 0.017521888855668293 0 -0.011737280639588586 0.017374441397440005 0 -0.012017317189718581 0.017340538654610018 0 -0.011737280639588586 0.017374441397440005 0 -0.012017317189718581 0.017340538654610018 0 -0.012013417341627483 0.017069334395182996 0 -0.012261734047976173 0.017025856146040089 0 -0.012017317189718581 0.017340538654610018 0 -0.012013417341627483 0.017069334395182996 0 -0.012261734047976173 0.017025856146040089 0 -0.012013417341627483 0.017069334395182996 0 -0.012060185023679773 0.016795061146820535 0 -0.012013417341627483 0.017069334395182996 0 -0.011860095455937459 0.01678479115806385 0 -0.011784397133373901 0.017078995117245803 0 -0.011737280639588586 0.017374441397440005 0 -0.012013417341627483 0.017069334395182996 0 -0.011784397133373901 0.017078995117245803 0 -0.012013417341627483 0.017069334395182996 0 -0.011860095455937459 0.01678479115806385 0 -0.012060185023679773 0.016795061146820535 0 -0.012309018578980849 0.016430383679852122 0 -0.011505383763315172 0.016261198347362345 0 -0.011263336964078614 0.01579060016894792 0 -0.011423126562428228 0.016264060822301418 0 -0.011763257872385639 0.016390585916343157 0 -0.011860095455937459 0.01678479115806385 0 -0.012060185023679773 0.016795061146820535 0 -0.011763257872385639 0.016390585916343157 0 -0.0072483481182457057 0.017051440596189321 0 -0.012309018578980849 0.016430383679852122 0 -0.011263336964078614 0.01579060016894792 0 -0.011423126562428228 0.016264060822301418 0 -0.010732282219549107 0.01599900684052704 0 -0.011105310537571366 0.016396944150452817 0 -0.011423126562428228 0.016264060822301418 0 -0.011664174285951474 0.016553870148121971 0 -0.011105310537571366 0.016396944150452817 0 -0.011423126562428228 0.016264060822301418 0 -0.010732282219549107 0.01599900684052704 0 -0.0059888529664055678 0.0054073988437573191 0 -0.007623565528198018 0.013133058000161945 0 -0.011423126562428228 0.016264060822301418 0 -0.011763257872385639 0.016390585916343157 0 -0.011664174285951474 0.016553870148121971 0 0.00802547002635569 0.0051913671789664577 0 0.0045746996402859751 0.0028544009464402747 0 0.0047500638805897007 0.0047243713217087323 0 0.0027041610455902621 0.0033785700646727598 0 0.0061985667010131676 0.0060380739232668065 0 0.00802547002635569 0.0051913671789664577 0 0.0055155027447475261 0.007396900000024147 0 0.0047500638805897007 0.0047243713217087323 0 0.010169063120954709 0.0078784396234255847 0 0.0078120715939702353 0.0082003945810984 0 0.008332260103017422 0.0052815507503463774 0 0.0078120715939702353 0.0082003945810984 0 0.008332260103017422 0.0052815507503463774 0 0.0055155027447475261 0.007396900000024147 0 -0.010478336980608481 0.015240587896751281 0 -0.011263336964078614 0.01579060016894792 0 -0.010732282219549107 0.01599900684052704 0 -0.0028805866206764517 0.0073912658312266467 0 -0.0025736178159052989 0.0077839180387884073 0 -0.0032410440876241044 0.0079379801098155324 0 -0.010478336980608481 0.015240587896751281 0 -0.010342233724155207 0.015417137764054845 0 -0.010732282219549107 0.01599900684052704 0 -0.0022890346684862205 0.011943763470858492 0 0.0027041610455902621 0.0033785700646727598 0 -0.0022890346684862205 0.011943763470858492 0 -0.007623565528198018 0.013133058000161945 0 -0.0059888529664055678 0.0054073988437573191 0 0.0027041610455902621 0.0033785700646727598 0 -0.0019654444634814548 -0.0045837615666316665 0 -0.00073529145975209523 -0.0051557027485609136 0 -0.0011318276409436655 -0.0045248254792823158 0 -0.0019654444634814548 -0.0045837615666316665 0 -0.0011318276409436655 -0.0045248254792823158 0 -0.0015001045077953942 -0.0042551057512394781 0 -0.0036069071391138883 0.0084844503567296295 0 -0.0025736178159052989 0.0077839180387884073 0 -0.0032410440876241044 0.0079379801098155324 0 -0.00067195521016323644 -0.0045721207929168804 0 -0.00078144097279166233 -0.0042967332203235039 0 -0.00042395562984976664 -0.0042802765578869809 0 0.00802547002635569 0.0051913671789664577 0 0.0045746996402859751 0.0028544009464402747 0 0.0044903925506367074 0.00040026447610058729 0 -0.00073529145975209523 -0.0051557027485609136 0 -0.0011318276409436655 -0.0045248254792823158 0 -0.00067195521016323644 -0.0045721207929168804 0 -0.00073529145975209523 -0.0051557027485609136 0 -0.00067195521016323644 -0.0045721207929168804 0 -7.6646500570046132e-05 -0.0043150452423544551 0 0.0027041610455902621 0.0033785700646727598 0 0.0022173673728512031 -0.0025226244746940889 0 -0.0011318276409436655 -0.0045248254792823158 0 -0.00067195521016323644 -0.0045721207929168804 0 -0.00078144097279166233 -0.0042967332203235039 0 -0.00067195521016323644 -0.0045721207929168804 0 -7.6646500570046132e-05 -0.0043150452423544551 0 -0.00042395562984976664 -0.0042802765578869809 0 0.003104817308942381 0.00087161977821087532 0 0.0045746996402859751 0.0028544009464402747 0 0.0044903925506367074 0.00040026447610058729 0 0.003104817308942381 0.00087161977821087532 0 0.0027086482443117251 0.0031277719165481166 0 0.0016381717214742936 0.0010402919111910768 0 0.003104817308942381 0.00087161977821087532 0 0.0027086482443117251 0.0031277719165481166 0 0.0045746996402859751 0.0028544009464402747 0 0.0027086482443117251 0.0031277719165481166 0 0.0045746996402859751 0.0028544009464402747 0 0.0047500638805897007 0.0047243713217087323 0 0.00057091974346588838 0.0025370672091775378 0 -0.00070747289776375473 0.0012105587851675311 0 0.00047778507195520031 -0.00042725120803813801 0 0.0016381717214742936 0.0010402919111910768 0 0.00057091974346588838 0.0025370672091775378 0 0.00047778507195520031 -0.00042725120803813801 0 0.0027086482443117251 0.0031277719165481166 0 0.00057091974346588838 0.0025370672091775378 0 0.0013377696952286903 0.0049911201986421383 0 0.0027086482443117251 0.0031277719165481166 0 0.0016381717214742936 0.0010402919111910768 0 0.00057091974346588838 0.0025370672091775378 0 0.00057091974346588838 0.0025370672091775378 0 -0.00018538939493538553 0.004752255977597734 0 -0.0012504830973019321 0.0038853418087880652 0 0.00057091974346588838 0.0025370672091775378 0 -0.0012504830973019321 0.0038853418087880652 0 -0.00070747289776375473 0.0012105587851675311 0 -0.00018538939493538553 0.004752255977597734 0 -0.0014505856786306221 0.0061181279689884174 0 -0.0012504830973019321 0.0038853418087880652 0 0.00057091974346588838 0.0025370672091775378 0 -0.00018538939493538553 0.004752255977597734 0 0.0013377696952286903 0.0049911201986421383 0 -0.00018538939493538553 0.004752255977597734 0 0.0013377696952286903 0.0049911201986421383 0 -7.801491267514481e-07 0.0072764405746673722 0 0.0013377696952286903 0.0049911201986421383 0 -7.801491267514481e-07 0.0072764405746673722 0 0.0030716756510133884 0.0060515993104751468 0 -7.801491267514481e-07 0.0072764405746673722 0 -0.0025669395264180024 0.0078010571422477146 0 -0.0014505856786306221 0.0061181279689884174 0 -0.00018538939493538553 0.004752255977597734 0 -7.801491267514481e-07 0.0072764405746673722 0 -0.0014505856786306221 0.0061181279689884174 0 0.0027086482443117251 0.0031277719165481166 0 0.0013377696952286903 0.0049911201986421383 0 0.0030716756510133884 0.0060515993104751468 0 0.0027086482443117251 0.0031277719165481166 0 0.0047500638805897007 0.0047243713217087323 0 0.0030716756510133884 0.0060515993104751468 0 -7.801491267514481e-07 0.0072764405746673722 0 0.0030716756510133884 0.0060515993104751468 0 0.0017656309493862393 0.0095212016533864612 0 0.0055155027447475261 0.007396900000024147 0 0.0030716756510133884 0.0060515993104751468 0 0.0017656309493862393 0.0095212016533864612 0 0.0055155027447475261 0.007396900000024147 0 0.0047500638805897007 0.0047243713217087323 0 0.0030716756510133884 0.0060515993104751468 0 0.0055155027447475261 0.007396900000024147 0 0.0039874050225871486 0.010650277047588183 0 0.0017656309493862393 0.0095212016533864612 0 0.0060820812459814137 0.010155971007922537 0 0.0039874050225871486 0.010650277047588183 0 0.0050297670690403369 0.013191507599827505 0 0.0039874050225871486 0.010650277047588183 0 0.0017656309493862393 0.0095212016533864612 0 0.001706305239417445 0.012519633006232486 0 -7.801491267514481e-07 0.0072764405746673722 0 0.0017656309493862393 0.0095212016533864612 0 -0.0017521922852022983 0.0097031031237827473 0 0.0017656309493862393 0.0095212016533864612 0 -0.0017521922852022983 0.0097031031237827473 0 -0.0010074475567025205 0.013082791795360222 0 -7.801491267514481e-07 0.0072764405746673722 0 -0.0017521922852022983 0.0097031031237827473 0 -0.0025669395264180024 0.0078010571422477146 0 0.0017656309493862393 0.0095212016533864612 0 -0.0010074475567025205 0.013082791795360222 0 0.001706305239417445 0.012519633006232486 0 -0.0010074475567025205 0.013082791795360222 0 -0.00040278434009717042 0.015979836625398383 0 0.001706305239417445 0.012519633006232486 0 -0.0027369644332852663 0.015509059851806083 0 -0.0010074475567025205 0.013082791795360222 0 -0.00040278434009717042 0.015979836625398383 0 -0.0017521922852022983 0.0097031031237827473 0 -0.0010074475567025205 0.013082791795360222 0 -0.0035276737776746129 0.013598005995688804 0 -0.00034387163490703313 0.016306122034837913 0 -0.00040278434009717042 0.015979836625398383 0 -0.00036414928260226708 0.016227038414258189 0 -0.0002493862403663272 0.01604433135489575 0 0.0029411643160045286 0.014213053048017649 0 0.0039874050225871486 0.010650277047588183 0 0.0050297670690403369 0.013191507599827505 0 0.001706305239417445 0.012519633006232486 0 -0.00040278434009717042 0.015979836625398383 0 0.0050297670690403369 0.013191507599827505 0 0.001706305239417445 0.012519633006232486 0 -0.0034837385747096996 0.0088330821097493181 0 -0.0033252337224223315 0.006694945418206498 0 -0.0050140692643400302 0.0073060996456853627 0 -0.0033252337224223315 0.006694945418206498 0 -0.0050140692643400302 0.0073060996456853627 0 -0.0049887424626121083 0.0057906269448042419 0 0.00017688716566970674 0.010489148051823648 0 -0.0043674673309305797 0.0095602622474535385 0 -0.0044616644368583895 0.014429766131181814 0 -0.0030160918983187916 0.011880371405920088 0 -0.0044258559832299265 0.008922443398447312 0 -0.0041726739246195389 0.014423651462908919 0 -0.0048059709215707135 0.011620850079881373 0 -0.0044258559832299265 0.008922443398447312 0 -0.0031738633017154515 0.014419393068026361 0 -0.0032082881146799818 0.012764304762887289 0 -0.0031738633017154515 0.014419393068026361 0 -0.0047256525324933874 0.009177824344323314 0 -0.0027369644332852663 0.015509059851806083 0 -0.0010074475567025205 0.013082791795360222 0 -0.0035276737776746129 0.013598005995688804 0 -0.0027369644332852663 0.015509059851806083 0 -0.0039257163656108342 0.015928230715264856 0 -0.0035276737776746129 0.013598005995688804 0 -0.0048059709215707135 0.011620850079881373 0 -0.0044258559832299265 0.008922443398447312 0 -0.0045428432320799329 0.0075926506680670117 0 -0.0043674673309305797 0.0095602622474535385 0 -0.0037184288342452677 0.0059493221333564109 0 -0.0018994452729672307 0.010105860515580725 0 -0.0032082881146799818 0.012764304762887289 0 -0.0017521922852022983 0.0097031031237827473 0 -0.0030160918983187916 0.011880371405920088 0 -0.0044258559832299265 0.008922443398447312 0 -0.0017521922852022983 0.0097031031237827473 0 -0.0025669395264180024 0.0078010571422477146 0 -0.0044258559832299265 0.008922443398447312 0 -0.0025669395264180024 0.0078010571422477146 0 -0.0044258559832299265 0.008922443398447312 0 -0.0045428432320799329 0.0075926506680670117 0 -0.0033252337224223315 0.006694945418206498 0 -0.0043306093193950209 0.0048428923764594822 0 -0.0049887424626121083 0.0057906269448042419 0 -0.0033252337224223315 0.006694945418206498 0 -0.0043306093193950209 0.0048428923764594822 0 -0.0031607380762787001 0.0045854308710774477 0 -0.0043306093193950209 0.0048428923764594822 0 -0.0039184961012830675 0.0036286655659254464 0 -0.0049251842514226457 0.003665002365471392 0 -0.0039184961012830675 0.0036286655659254464 0 -0.0031607380762787001 0.0045854308710774477 0 -0.0028445649417313435 0.0024346352337920375 0 -0.0043306093193950209 0.0048428923764594822 0 -0.0039184961012830675 0.0036286655659254464 0 -0.0031607380762787001 0.0045854308710774477 0 -0.0039184961012830675 0.0036286655659254464 0 -0.0049251842514226457 0.003665002365471392 0 -0.0044876971089190384 0.0026088210349423449 0 -0.0045428432320799329 0.0075926506680670117 0 -0.0025292591082758638 0.0055485664739177267 0 -0.0028445649417313435 0.0024346352337920375 0 -0.0037184288342452677 0.0059493221333564109 0 -0.0030619886745289517 0.0028538979128378459 0 -0.0025669395264180024 0.0078010571422477146 0 -0.0014505856786306221 0.0061181279689884174 0 -0.0025292591082758638 0.0055485664739177267 0 -0.0025669395264180024 0.0078010571422477146 0 -0.0045428432320799329 0.0075926506680670117 0 -0.0025292591082758638 0.0055485664739177267 0 -0.0012504830973019321 0.0038853418087880652 0 -0.0025292591082758638 0.0055485664739177267 0 -0.0028445649417313435 0.0024346352337920375 0 -0.0014505856786306221 0.0061181279689884174 0 -0.0012504830973019321 0.0038853418087880652 0 -0.0025292591082758638 0.0055485664739177267 0 -0.0012504830973019321 0.0038853418087880652 0 -0.0028445649417313435 0.0024346352337920375 0 -0.00070747289776375473 0.0012105587851675311 0 -0.0039184961012830675 0.0036286655659254464 0 -0.0028445649417313435 0.0024346352337920375 0 -0.0044876971089190384 0.0026088210349423449 0 -0.0028445649417313435 0.0024346352337920375 0 -0.0044876971089190384 0.0026088210349423449 0 -0.0048880030191280673 0.00091860394976511675 0 -0.0024725963552427923 -0.0011348545658862537 0 -0.0045639454171076061 0.00040825225252344108 0 -0.00068106221260581096 -0.0028947358574259339 0 -0.00050196779627501855 -0.0028001788947286791 0 -0.00052891338438129198 -0.0028136997131330342 0 -0.0044876971089190384 0.0026088210349423449 0 -0.0048880030191280673 0.00091860394976511675 0 -0.0063590313870447749 0.0029381449394934346 0 -0.0049251842514226457 0.003665002365471392 0 -0.0063590313870447749 0.0029381449394934346 0 -0.0058291626362422418 0.0045313447902934735 0 -0.0049251842514226457 0.003665002365471392 0 -0.0044876971089190384 0.0026088210349423449 0 -0.0063590313870447749 0.0029381449394934346 0 -0.0043306093193950209 0.0048428923764594822 0 -0.0049251842514226457 0.003665002365471392 0 -0.0058291626362422418 0.0045313447902934735 0 -0.00050196779627501855 -0.0028001788947286791 0 -0.000362774358696508 -0.0027335770826559923 0 -0.00025754486406365289 -0.0026756333087324235 0 -0.0063590313870447749 0.0029381449394934346 0 -0.0058291626362422418 0.0045313447902934735 0 -0.0077757637727302077 0.0043919877703356269 0 -0.0045639454171076061 0.00040825225252344108 0 0.0033854943067356457 0.001616389744442126 0 -0.000362774358696508 -0.0027335770826559923 0 -0.00052891338438129198 -0.0028136997131330342 0 -0.00037051516005207909 -0.0027467050883978029 0 -0.00050196779627501855 -0.0028001788947286791 0 -0.000362774358696508 -0.0027335770826559923 0 -0.00052891338438129198 -0.0028136997131330342 0 0.0052312021316171043 -0.0021973995150932828 0 0.0063291734260643119 -0.0021308669094979851 0 0.0059576720617380589 -0.0035008300672877803 0 0.0023845357120413435 -0.0023138099384519728 0 0.0065901098733389266 -0.00077321930966063818 0 -0.000362774358696508 -0.0027335770826559923 0 -0.00037051516005207909 -0.0027467050883978029 0 -0.00023157915579580365 -0.0026614979341183153 0 0.013393154159134791 -0.00089205193944371427 0 0.0065901098733389266 -0.00077321930966063818 0 0.0063291734260643119 -0.0021308669094979851 0 0.0074215456298813128 -0.0020875556547112527 0 0.0059576720617380589 -0.0035008300672877803 0 0.010456445709319284 0.001404945565950717 0 0.010429064515956347 0.0015597632152236725 0 0.010525050986773832 0.001523574827121815 0 0.0065901098733389266 -0.00077321930966063818 0 0.01127990814636747 0.0023853141939507048 0 0.010429064515956347 0.0015597632152236725 0 0.010525050986773832 0.001523574827121815 0 0.010406721851337546 0.0016211012000252822 0 0.0095749130718897901 0.001839480390721637 0 0.0093540195668757268 0.0016342925161350005 0 0.010271965592868779 0.0016115489685384898 0 -0.000362774358696508 -0.0027335770826559923 0 -0.00023157915579580365 -0.0026614979341183153 0 -0.00025754486406365289 -0.0026756333087324235 0 0.0065901098733389266 -0.00077321930966063818 0 0.0033854943067356457 0.001616389744442126 0 0.0033854943067356457 0.001616389744442126 0 0.010811296476584074 0.0017565329036996274 0 0.0096825208419850511 0.0019086709882680081 0 0.0092763522380746883 0.0024319729193370129 0 0.0095529740652054839 0.0024502909175073274 0 0.0096825208419850511 0.0019086709882680081 0 0.0095529740652054839 0.0024502909175073274 0 0.0097809960395885912 0.0023899277218547756 0 0.0095749130718897901 0.001839480390721637 0 0.010271965592868779 0.0016115489685384898 0 0.01033508545100853 0.0016518541497789379 0 0.010525050986773832 0.001523574827121815 0 0.010406721851337546 0.0016211012000252822 0 0.01033508545100853 0.0016518541497789379 0 0.010406721851337546 0.0016211012000252822 0 0.01033508545100853 0.0016518541497789379 0 0.0103896167833191 0.0016782166645376117 0 0.010271965592868779 0.0016115489685384898 0 0.01033508545100853 0.0016518541497789379 0 0.010364586968275359 0.0017165593517251669 0 0.01033508545100853 0.0016518541497789379 0 0.010374238890571772 0.0016944383205837275 0 0.010364586968275359 0.0017165593517251669 0 0.01033508545100853 0.0016518541497789379 0 0.010374238890571772 0.0016944383205837275 0 0.0103896167833191 0.0016782166645376117 0 0.0092763522380746883 0.0024319729193370129 0 0.0091882106660481685 0.0026888822722651129 0 0.0087477435334127624 0.0028726770105516278 0 0.0092763522380746883 0.0024319729193370129 0 0.0093871137544979909 0.0025697203053539081 0 0.0095529740652054839 0.0024502909175073274 0 0.0092763522380746883 0.0024319729193370129 0 0.0093871137544979909 0.0025697203053539081 0 0.0091882106660481685 0.0026888822722651129 0 0.0093871137544979909 0.0025697203053539081 0 0.0093395428052060019 0.0027032635583042254 0 0.0091882106660481685 0.0026888822722651129 0 0.0093871137544979909 0.0025697203053539081 0 0.0093395428052060019 0.0027032635583042254 0 0.0095028939069628972 0.0027328859626103183 0 0.0093796340474432 0.0028356873468382074 0 0.0093395428052060019 0.0027032635583042254 0 0.0095028939069628972 0.0027328859626103183 0 0.0093796340474432 0.0028356873468382074 0 0.0093395428052060019 0.0027032635583042254 0 0.0091817366706622404 0.0028643575055481807 0 0.0093395428052060019 0.0027032635583042254 0 0.0091882106660481685 0.0026888822722651129 0 0.0091817366706622404 0.0028643575055481807 0 0.0095529740652054839 0.0024502909175073274 0 0.0097182671783871428 0.002657957502456378 0 0.0097809960395885912 0.0023899277218547756 0 0.0095529740652054839 0.0024502909175073274 0 0.0095028939069628972 0.0027328859626103183 0 0.0097182671783871428 0.002657957502456378 0 0.0093871137544979909 0.0025697203053539081 0 0.0095529740652054839 0.0024502909175073274 0 0.0095028939069628972 0.0027328859626103183 0 0.0097182671783871428 0.002657957502456378 0 0.0099150226872004067 0.0026271290726914824 0 0.0098247157423122528 0.002913322649777656 0 0.0095028939069628972 0.0027328859626103183 0 0.0097182671783871428 0.002657957502456378 0 0.0098247157423122528 0.002913322649777656 0 0.0099150226872004067 0.0026271290726914824 0 0.010147358375137222 0.0028204072445663321 0 0.0098247157423122528 0.002913322649777656 0 0.0099150226872004067 0.0026271290726914824 0 0.010147358375137222 0.0028204072445663321 0 0.01012752276003713 0.0023245275294112287 0 0.0099150226872004067 0.0026271290726914824 0 0.0097809960395885912 0.0023899277218547756 0 0.01012752276003713 0.0023245275294112287 0 0.0097182671783871428 0.002657957502456378 0 0.0099150226872004067 0.0026271290726914824 0 0.0097809960395885912 0.0023899277218547756 0 0.010147358375137222 0.0028204072445663321 0 0.010545441198840991 0.002822745056211543 0 0.010383629477717336 0.0031057023375432075 0 0.010147358375137222 0.0028204072445663321 0 0.010545441198840991 0.002822745056211543 0 0.01012752276003713 0.0023245275294112287 0 -0.0050140692643400302 0.0073060996456853627 0 -0.0049887424626121083 0.0057906269448042419 0 -0.006448825585615642 0.0058012110802671069 0 0.0029214016890083761 0.0047503166782688899 0 0.0016422342556655395 0.0041263307677308816 0 -0.0043306093193950209 0.0048428923764594822 0 -0.0058291626362422418 0.0045313447902934735 0 -0.0049887424626121083 0.0057906269448042419 0 -0.0058291626362422418 0.0045313447902934735 0 -0.0049887424626121083 0.0057906269448042419 0 -0.006448825585615642 0.0058012110802671069 0 -0.0058291626362422418 0.0045313447902934735 0 -0.0077757637727302077 0.0043919877703356269 0 -0.006448825585615642 0.0058012110802671069 0 0.0096825208419850511 0.0019086709882680081 0 0.0097809960395885912 0.0023899277218547756 0 0.01012752276003713 0.0023245275294112287 0 0.0033854943067356457 0.001616389744442126 0 0.0016422342556655395 0.0041263307677308816 0 0.027861201271532583 -0.0015390741616827812 0 0.02717657082401009 -0.0014986015257954608 0 0.027657382239279278 -0.0019728945067066842 0 0.027861201271532583 -0.0015390741616827812 0 0.0275290945886097 -0.0011788367018203327 0 0.02717657082401009 -0.0014986015257954608 0 0.028004250841402342 -0.001042594247439126 0 0.0275290945886097 -0.0011788367018203327 0 0.027442700869781469 -0.00079686624016326582 0 0.027861201271532583 -0.0015390741616827812 0 0.028004250841402342 -0.001042594247439126 0 0.0275290945886097 -0.0011788367018203327 0 0.0275290945886097 -0.0011788367018203327 0 0.027124696848432189 -0.0010182713824876774 0 0.02717657082401009 -0.0014986015257954608 0 0.0275290945886097 -0.0011788367018203327 0 0.027124696848432189 -0.0010182713824876774 0 0.027442700869781469 -0.00079686624016326582 0 0.02717657082401009 -0.0014986015257954608 0 0.026477385627144679 -0.0010320223867266989 0 0.026231629972578864 -0.0015759410744506756 0 0.027124696848432189 -0.0010182713824876774 0 0.02717657082401009 -0.0014986015257954608 0 0.026477385627144679 -0.0010320223867266989 0 0.027124696848432189 -0.0010182713824876774 0 0.026477385627144679 -0.0010320223867266989 0 0.026866443951000119 -0.00057720840210753548 0 0.026477385627144679 -0.0010320223867266989 0 0.026248973684121005 -0.00076833646542496267 0 0.026866443951000119 -0.00057720840210753548 0 0.013393154159134791 -0.00089205193944371427 0 0.01897527547930342 5.1575024199843471e-05 0 0.025460052798631751 -0.00084280482939903389 0 0.025741927261924494 -0.00090348396399141432 0 0.026231629972578864 -0.0015759410744506756 0 0.026477385627144679 -0.0010320223867266989 0 0.025741927261924494 -0.00090348396399141432 0 0.026231629972578864 -0.0015759410744506756 0 0.026477385627144679 -0.0010320223867266989 0 0.026248973684121005 -0.00076833646542496267 0 0.025741927261924494 -0.00090348396399141432 0 0.010456445709319284 0.001404945565950717 0 0.010429064515956347 0.0015597632152236725 0 0.010390001086200478 0.001569223854592602 0 0.010429064515956347 0.0015597632152236725 0 0.010390001086200478 0.001569223854592602 0 0.010413696987992199 0.0016915056727594012 0 0.010390001086200478 0.001569223854592602 0 0.010413696987992199 0.0016915056727594012 0 0.010326801977539598 0.0018791836419805288 0 0.010413696987992199 0.0016915056727594012 0 0.010429029288942227 0.0018382151174365247 0 0.010326801977539598 0.0018791836419805288 0 0.010406721851337546 0.0016211012000252822 0 0.0103896167833191 0.0016782166645376117 0 0.010413696987992199 0.0016915056727594012 0 0.010429064515956347 0.0015597632152236725 0 0.010406721851337546 0.0016211012000252822 0 0.010413696987992199 0.0016915056727594012 0 0.010413696987992199 0.0016915056727594012 0 0.010402538637643977 0.0017306901163469358 0 0.010429029288942227 0.0018382151174365247 0 0.0103896167833191 0.0016782166645376117 0 0.010413696987992199 0.0016915056727594012 0 0.010402538637643977 0.0017306901163469358 0 0.010374238890571772 0.0016944383205837275 0 0.010402538637643977 0.0017306901163469358 0 0.010364586968275359 0.0017165593517251669 0 0.010374238890571772 0.0016944383205837275 0 0.0103896167833191 0.0016782166645376117 0 0.010402538637643977 0.0017306901163469358 0 0.0091882106660481685 0.0026888822722651129 0 0.0087477435334127624 0.0028726770105516278 0 0.0091817366706622404 0.0028643575055481807 0 0.010811296476584074 0.0017565329036996274 0 0.0099246090694514125 0.0027148934469539612 0 0.010364586968275359 0.0017165593517251669 0 0.010413167388399539 0.0017953522730927889 0 0.010463458959795247 0.0018777647434411878 0 0.010271965592868779 0.0016115489685384898 0 0.010364586968275359 0.0017165593517251669 0 0.010463458959795247 0.0018777647434411878 0 0.010402538637643977 0.0017306901163469358 0 0.010364586968275359 0.0017165593517251669 0 0.010413167388399539 0.0017953522730927889 0 0.010402538637643977 0.0017306901163469358 0 0.010413167388399539 0.0017953522730927889 0 0.010429029288942227 0.0018382151174365247 0 0.010413167388399539 0.0017953522730927889 0 0.010429029288942227 0.0018382151174365247 0 0.010463458959795247 0.0018777647434411878 0 0.010440089866349764 0.0023759169387658798 0 0.010326801977539598 0.0018791836419805288 0 0.010304492579579294 0.0027358362649048135 0 0.010429029288942227 0.0018382151174365247 0 0.010438360202880654 0.0020099510616181644 0 0.010326801977539598 0.0018791836419805288 0 0.010438360202880654 0.0020099510616181644 0 0.010625346463156601 0.0025275908385914998 0 0.01093348921695386 0.0026771524082245092 0 0.010429029288942227 0.0018382151174365247 0 0.010438360202880654 0.0020099510616181644 0 0.010463458959795247 0.0018777647434411878 0 0.010384341425773089 0.0021915003350073251 0 0.0099246090694514125 0.0027148934469539612 0 0.010438360202880654 0.0020099510616181644 0 0.010440089866349764 0.0023759169387658798 0 0.010625346463156601 0.0025275908385914998 0 0.010440089866349764 0.0023759169387658798 0 0.010625346463156601 0.0025275908385914998 0 0.010557613838089813 0.0027623817119810552 0 0.010438360202880654 0.0020099510616181644 0 0.010440089866349764 0.0023759169387658798 0 0.010326801977539598 0.0018791836419805288 0 0.02717657082401009 -0.0014986015257954608 0 0.026231629972578864 -0.0015759410744506756 0 0.026911326995199342 -0.0021426160701641553 0 0.01897527547930342 5.1575024199843471e-05 0 0.018631389441418879 -8.1123492019380901e-05 0 0.02717657082401009 -0.0014986015257954608 0 0.026911326995199342 -0.0021426160701641553 0 0.027657382239279278 -0.0019728945067066842 0 0.026911326995199342 -0.0021426160701641553 0 0.027599588375587729 -0.0022990015644902104 0 0.027475080868824324 -0.0025556059334172695 0 0.026911326995199342 -0.0021426160701641553 0 0.027599588375587729 -0.0022990015644902104 0 0.027657382239279278 -0.0019728945067066842 0 0.018631389441418879 -8.1123492019380901e-05 0 0.017907799138914039 1.3903445739978672e-05 0 0.028176674205789648 -0.0019125272946286687 0 0.028027370996279867 -0.0022952282762591595 0 0.027657382239279278 -0.0019728945067066842 0 0.028027370996279867 -0.0022952282762591595 0 0.027599588375587729 -0.0022990015644902104 0 0.027657382239279278 -0.0019728945067066842 0 0.028176674205789648 -0.0019125272946286687 0 0.027861201271532583 -0.0015390741616827812 0 0.027657382239279278 -0.0019728945067066842 0 0.017907799138914039 1.3903445739978672e-05 0 0.024572932813849927 0.0028392315746588212 0 0.027950058152874546 -0.0026464111976490182 0 0.027475080868824324 -0.0025556059334172695 0 0.027922299757355776 -0.0028621336812451356 0 0.0099467081726448553 0.0036504843234414124 0 0.0099415077306441672 0.003099874692587907 0 0.009813693035944095 0.0037618914672732902 0 0.027950058152874546 -0.0026464111976490182 0 0.02786269203529081 -0.0024895701365645669 0 0.027475080868824324 -0.0025556059334172695 0 0.028027370996279867 -0.0022952282762591595 0 0.027599588375587729 -0.0022990015644902104 0 0.02786269203529081 -0.0024895701365645669 0 0.028098714293927952 -0.0025165467489800452 0 0.027950058152874546 -0.0026464111976490182 0 0.02786269203529081 -0.0024895701365645669 0 0.027599588375587729 -0.0022990015644902104 0 0.02786269203529081 -0.0024895701365645669 0 0.027475080868824324 -0.0025556059334172695 0 0.010326801977539598 0.0018791836419805288 0 0.0099415077306441672 0.003099874692587907 0 0.010304492579579294 0.0027358362649048135 0 0.0099415077306441672 0.003099874692587907 0 0.010290764104883722 0.0031910042938997525 0 0.010304492579579294 0.0027358362649048135 0 0.0099467081726448553 0.0036504843234414124 0 0.0099415077306441672 0.003099874692587907 0 0.010241899806697803 0.0035289828314978991 0 0.0099415077306441672 0.003099874692587907 0 0.010241899806697803 0.0035289828314978991 0 0.010290764104883722 0.0031910042938997525 0 0.0099467081726448553 0.0036504843234414124 0 0.010241899806697803 0.0035289828314978991 0 0.010205719238928464 0.0038968858731799538 0 0.010241899806697803 0.0035289828314978991 0 0.010555247098903662 0.0033780831392877415 0 0.010564687831132522 0.0038830405460809417 0 0.010555247098903662 0.0033780831392877415 0 0.010811720374475555 0.0037230585957951992 0 0.010564687831132522 0.0038830405460809417 0 0.010241899806697803 0.0035289828314978991 0 0.010555247098903662 0.0033780831392877415 0 0.010290764104883722 0.0031910042938997525 0 0.010555247098903662 0.0033780831392877415 0 0.010290764104883722 0.0031910042938997525 0 0.010490906760388219 0.0030249893765024074 0 0.010290764104883722 0.0031910042938997525 0 0.010304492579579294 0.0027358362649048135 0 0.010490906760388219 0.0030249893765024074 0 0.010440089866349764 0.0023759169387658798 0 0.010304492579579294 0.0027358362649048135 0 0.010557613838089813 0.0027623817119810552 0 0.010304492579579294 0.0027358362649048135 0 0.010557613838089813 0.0027623817119810552 0 0.010490906760388219 0.0030249893765024074 0 0.010625346463156601 0.0025275908385914998 0 0.010557613838089813 0.0027623817119810552 0 0.010781034384440415 0.0027908186808721755 0 0.010625346463156601 0.0025275908385914998 0 0.01093348921695386 0.0026771524082245092 0 0.010781034384440415 0.0027908186808721755 0 0.010557613838089813 0.0027623817119810552 0 0.010697865546704453 0.0029905264940669118 0 0.010490906760388219 0.0030249893765024074 0 0.010557613838089813 0.0027623817119810552 0 0.010697865546704453 0.0029905264940669118 0 0.010781034384440415 0.0027908186808721755 0 0.010555247098903662 0.0033780831392877415 0 0.010697865546704453 0.0029905264940669118 0 0.010771453956038698 0.0032570351633205031 0 0.010555247098903662 0.0033780831392877415 0 0.010697865546704453 0.0029905264940669118 0 0.010490906760388219 0.0030249893765024074 0 0.0099246090694514125 0.0027148934469539612 0 0.010051078129903756 0.0034044128508893064 0 0.0087477435334127624 0.0028726770105516278 0 0.0091817366706622404 0.0028643575055481807 0 0.0091676540436938549 0.0033374388009536926 0 0.010771453956038698 0.0032570351633205031 0 0.010836315686856866 0.0027591652853535082 0 0.010991267689783271 0.0035000596109813881 0 0.010697865546704453 0.0029905264940669118 0 0.010771453956038698 0.0032570351633205031 0 0.010836315686856866 0.0027591652853535082 0 0.010697865546704453 0.0029905264940669118 0 0.010836315686856866 0.0027591652853535082 0 0.010781034384440415 0.0027908186808721755 0 0.0099246090694514125 0.0027148934469539612 0 0.01006777722221882 0.0026506560936958782 0 0.010771453956038698 0.0032570351633205031 0 0.010811720374475555 0.0037230585957951992 0 0.010991267689783271 0.0035000596109813881 0 0.010555247098903662 0.0033780831392877415 0 0.010771453956038698 0.0032570351633205031 0 0.010811720374475555 0.0037230585957951992 0 0.010811720374475555 0.0037230585957951992 0 0.010761245817628251 0.0041030377077887308 0 0.010564687831132522 0.0038830405460809417 0 0.010761245817628251 0.0041030377077887308 0 0.010817479031895593 0.004458386232153104 0 0.010370632189408046 0.0044272505032666885 0 0.010761245817628251 0.0041030377077887308 0 0.010564687831132522 0.0038830405460809417 0 0.010370632189408046 0.0044272505032666885 0 0.010567634077959326 0.0038223695724977648 0 0.010780018008673743 0.0049730943732510359 0 0.010465338165601265 0.0042587807237259778 0 0.010564687831132522 0.0038830405460809417 0 0.011094736765709943 0.0048933220389266461 0 0.010465338165601265 0.0042587807237259778 0 0.010512980194578404 0.0046653478822029594 0 0.011094736765709943 0.0048933220389266461 0 0.010241899806697803 0.0035289828314978991 0 0.010564687831132522 0.0038830405460809417 0 0.010205719238928464 0.0038968858731799538 0 0.010465338165601265 0.0042587807237259778 0 0.010564687831132522 0.0038830405460809417 0 0.010205719238928464 0.0038968858731799538 0 0.0099467081726448553 0.0036504843234414124 0 0.010205719238928464 0.0038968858731799538 0 0.0098117795059179374 0.0039722401231686169 0 0.010205719238928464 0.0038968858731799538 0 0.01012205019190233 0.004287060286452227 0 0.0098117795059179374 0.0039722401231686169 0 0.010062416414745489 0.0035645512872886638 0 0.012874509329198376 0.003714759770595303 0 0.010465338165601265 0.0042587807237259778 0 0.010205719238928464 0.0038968858731799538 0 0.01012205019190233 0.004287060286452227 0 0.010512980194578404 0.0046653478822029594 0 0.01012205019190233 0.004287060286452227 0 0.010184908106699456 0.0051059702073686071 0 0.010465338165601265 0.0042587807237259778 0 0.010512980194578404 0.0046653478822029594 0 0.01012205019190233 0.004287060286452227 0 0.012874509329198376 0.003714759770595303 0 0.023576984168422157 0.0048702652727786004 0 0.01012205019190233 0.004287060286452227 0 0.0094688814870785461 0.0048327796500865459 0 0.010184908106699456 0.0051059702073686071 0 0.023802769136503105 0.0038396167019669916 0 0.023422974989118731 0.0040121801451804646 0 0.023679751366511133 0.0035006626067605176 0 0.01012205019190233 0.004287060286452227 0 0.009815043639686433 0.0039622294351701606 0 0.0094688814870785461 0.0048327796500865459 0 0.034256356107839669 0.0041623462832130302 0 0.024572932813849927 0.0028392315746588212 0 0.023802769136503105 0.0038396167019669916 0 0.023422974989118731 0.0040121801451804646 0 0.023574567364086127 0.0041405848992453129 0 0.012874509329198376 0.003714759770595303 0 0.024572932813849927 0.0028392315746588212 0 0.010731287546155653 0.0042491405284118605 0 0.012874509329198376 0.003714759770595303 0 0.0099467081726448553 0.0036504843234414124 0 0.0099159769221035792 0.0038538824313730483 0 0.009813693035944095 0.0037618914672732902 0 0.010280848471211386 0.0035916484159195464 0 0.01016256197721201 0.0032017950228002655 0 0.0098575899027621167 0.0033116443033344126 0 0.010280848471211386 0.0035916484159195464 0 0.010424143273096185 0.0034086396055207019 0 0.01016256197721201 0.0032017950228002655 0 0.010630352154231689 0.0032284863885871044 0 0.010612936926474846 0.0037396703232068806 0 0.010424143273096185 0.0034086396055207019 0 0.010280848471211386 0.0035916484159195464 0 0.010393553446810368 0.0036474234407234776 0 0.010424143273096185 0.0034086396055207019 0 0.010612936926474846 0.0037396703232068806 0 0.010393553446810368 0.0036474234407234776 0 0.010424143273096185 0.0034086396055207019 0 0.010424143273096185 0.0034086396055207019 0 0.010383629477717336 0.0031057023375432075 0 0.01016256197721201 0.0032017950228002655 0 0.010630352154231689 0.0032284863885871044 0 0.010424143273096185 0.0034086396055207019 0 0.010383629477717336 0.0031057023375432075 0 0.010630352154231689 0.0032284863885871044 0 0.010545441198840991 0.002822745056211543 0 0.010383629477717336 0.0031057023375432075 0 0.010147358375137222 0.0028204072445663321 0 0.010383629477717336 0.0031057023375432075 0 0.01016256197721201 0.0032017950228002655 0 0.01016256197721201 0.0032017950228002655 0 0.0098247157423122528 0.002913322649777656 0 0.0098575899027621167 0.0033116443033344126 0 0.010147358375137222 0.0028204072445663321 0 0.01016256197721201 0.0032017950228002655 0 0.0098247157423122528 0.002913322649777656 0 0.0094954978011361681 0.0030260945630644427 0 0.0091676540436938549 0.0033374388009536926 0 0.0098575899027621167 0.0033116443033344126 0 0.0095028939069628972 0.0027328859626103183 0 0.0098247157423122528 0.002913322649777656 0 0.0094954978011361681 0.0030260945630644427 0 0.0098247157423122528 0.002913322649777656 0 0.0094954978011361681 0.0030260945630644427 0 0.0098575899027621167 0.0033116443033344126 0 0.0094954978011361681 0.0030260945630644427 0 0.0091817366706622404 0.0028643575055481807 0 0.0091676540436938549 0.0033374388009536926 0 0.0093796340474432 0.0028356873468382074 0 0.0094954978011361681 0.0030260945630644427 0 0.0091817366706622404 0.0028643575055481807 0 0.0093796340474432 0.0028356873468382074 0 0.0095028939069628972 0.0027328859626103183 0 0.0094954978011361681 0.0030260945630644427 0 0.010811720374475555 0.0037230585957951992 0 0.010991267689783271 0.0035000596109813881 0 0.01100587471830872 0.0040338963767996327 0 0.010051078129903756 0.0034044128508893064 0 0.01035192036325778 0.0039141258296321287 0 0.0091676540436938549 0.0033374388009536926 0 0.0098575899027621167 0.0033116443033344126 0 0.0097203275596224169 0.0038413868382494581 0 0.010280848471211386 0.0035916484159195464 0 0.0098575899027621167 0.0033116443033344126 0 0.0097203275596224169 0.0038413868382494581 0 0.01100587471830872 0.0040338963767996327 0 0.010911079468617928 0.0042149472129177036 0 0.010648511221144399 0.004339415030927044 0 0.01035192036325778 0.0039141258296321287 0 0.010604012090100047 0.0042733815177195562 0 0.010761245817628251 0.0041030377077887308 0 0.01100587471830872 0.0040338963767996327 0 0.010911079468617928 0.0042149472129177036 0 0.010811720374475555 0.0037230585957951992 0 0.010761245817628251 0.0041030377077887308 0 0.01100587471830872 0.0040338963767996327 0 0.010761245817628251 0.0041030377077887308 0 0.010911079468617928 0.0042149472129177036 0 0.010817479031895593 0.004458386232153104 0 0.010889434954705273 0.0043100861960760715 0 0.010911079468617928 0.0042149472129177036 0 0.010648511221144399 0.004339415030927044 0 0.010889434954705273 0.0043100861960760715 0 0.010911079468617928 0.0042149472129177036 0 0.010817479031895593 0.004458386232153104 0 0.010889434954705273 0.0043100861960760715 0 0.010700238695553503 0.0043698462763116586 0 0.010648511221144399 0.004339415030927044 0 0.010700238695553503 0.0043698462763116586 0 0.010764540809737455 0.0043570820828645026 0 0.010734928709469911 0.0044035592559280821 0 0.010700238695553503 0.0043698462763116586 0 0.010715988117846423 0.0043143058878164558 0 0.010764540809737455 0.0043570820828645026 0 0.010700238695553503 0.0043698462763116586 0 0.010715988117846423 0.0043143058878164558 0 0.010648511221144399 0.004339415030927044 0 0.010715988117846423 0.0043143058878164558 0 0.010648511221144399 0.004339415030927044 0 0.010709661732742792 0.0040737852516621485 0 0.010280848471211386 0.0035916484159195464 0 0.0097203275596224169 0.0038413868382494581 0 0.010709661732742792 0.0040737852516621485 0 0.0097203275596224169 0.0038413868382494581 0 0.010648511221144399 0.004339415030927044 0 0.010709661732742792 0.0040737852516621485 0 0.010280848471211386 0.0035916484159195464 0 0.010393553446810368 0.0036474234407234776 0 0.010293831376157161 0.003863126257938501 0 0.010355463258501714 0.003744192539889675 0 0.010271670652090118 0.0037773921178732256 0 0.0072977369924453689 0.0071364602623431332 0 0.0086143363838183332 0.0068483949219162706 0 0.010612936926474846 0.0037396703232068806 0 0.010293831376157161 0.003863126257938501 0 0.010387952384553404 0.0041715983588935263 0 0.010612936926474846 0.0037396703232068806 0 0.010393553446810368 0.0036474234407234776 0 0.010293831376157161 0.003863126257938501 0 0.0033305097879168587 0.01064480906239536 0 0.003751812932380587 0.010544958822414657 0 0.0034134407369134975 0.010395264991232811 0 0.0034410932172766664 0.010901997727876738 0 0.0033305097879168587 0.01064480906239536 0 0.003751812932380587 0.010544958822414657 0 0.010764540809737455 0.0043570820828645026 0 0.010768697524574176 0.0043485325669007325 0 0.010805967595977769 0.0044537770153949942 0 0.010715988117846423 0.0043143058878164558 0 0.010709661732742792 0.0040737852516621485 0 0.010786474216326593 0.0043481696648868711 0 0.010271670652090118 0.0037773921178732256 0 0.0086143363838183332 0.0068483949219162706 0 0.010715988117846423 0.0043143058878164558 0 0.010764540809737455 0.0043570820828645026 0 0.010786474216326593 0.0043481696648868711 0 0.0088158870188400993 0.0065312753416364288 0 0.0086143363838183332 0.0068483949219162706 0 0.0086143363838183332 0.0068483949219162706 0 0.0070005264300712355 0.0067602422130545641 0 0.003751812932380587 0.010544958822414657 0 0.0036646122818548817 0.010163720447230833 0 0.0034134407369134975 0.010395264991232811 0 0.010764540809737455 0.0043570820828645026 0 0.010734928709469911 0.0044035592559280821 0 0.010805967595977769 0.0044537770153949942 0 0.010734928709469911 0.0044035592559280821 0 0.010805967595977769 0.0044537770153949942 0 0.010678112489087217 0.0044345003829219104 0 0.0070005264300712355 0.0067602422130545641 0 0.005325842462470521 0.011875655885606136 0 0.010805967595977769 0.0044537770153949942 0 0.010825315441115617 0.0047319898968695142 0 0.010875319578646058 0.0047149655852188567 0 0.010805967595977769 0.0044537770153949942 0 0.010825315441115617 0.0047319898968695142 0 0.010678112489087217 0.0044345003829219104 0 0.010395589423436363 0.01028680653067451 0 0.010833463114143895 0.0039034868116197838 0 0.010395589423436363 0.01028680653067451 0 0.005325842462470521 0.011875655885606136 0 0.011790468122484812 0.0050378100909024091 0 0.01129097905281411 0.0049052823404867928 0 0.011416985857440111 0.0046559039483903258 0 0.01129097905281411 0.0049052823404867928 0 0.011416985857440111 0.0046559039483903258 0 0.011029582955522336 0.0046434218463401039 0 0.011790468122484812 0.0050378100909024091 0 0.01129097905281411 0.0049052823404867928 0 0.011269933951687301 0.0052378873701905172 0 0.010889434954705273 0.0043100861960760715 0 0.010700238695553503 0.0043698462763116586 0 0.010678112489087217 0.0044345003829219104 0 0.010889434954705273 0.0043100861960760715 0 0.011416985857440111 0.0046559039483903258 0 0.011029582955522336 0.0046434218463401039 0 0.011050655902570095 0.0045375859965172344 0 0.010833463114143895 0.0039034868116197838 0 0.010700238695553503 0.0043698462763116586 0 0.010734928709469911 0.0044035592559280821 0 0.010678112489087217 0.0044345003829219104 0 0.011029582955522336 0.0046434218463401039 0 0.010817479031895593 0.004458386232153104 0 0.010968731243094507 0.0049250222098301336 0 0.010889434954705273 0.0043100861960760715 0 0.011029582955522336 0.0046434218463401039 0 0.010817479031895593 0.004458386232153104 0 0.010817479031895593 0.004458386232153104 0 0.010659622381789236 0.0049109001102169599 0 0.010968731243094507 0.0049250222098301336 0 0.01129097905281411 0.0049052823404867928 0 0.010968731243094507 0.0049250222098301336 0 0.011269933951687301 0.0052378873701905172 0 0.01129097905281411 0.0049052823404867928 0 0.011029582955522336 0.0046434218463401039 0 0.010968731243094507 0.0049250222098301336 0 0.010968731243094507 0.0049250222098301336 0 0.010829474579477621 0.0054756114127446909 0 0.011269933951687301 0.0052378873701905172 0 0.010940550683232079 0.012198254185332534 0 0.012434961547541309 0.011852124122198318 0 0.010659622381789236 0.0049109001102169599 0 0.010968731243094507 0.0049250222098301336 0 0.010829474579477621 0.0054756114127446909 0 0.01199853494353427 0.018664620684412124 0 0.01245733080952053 0.019022467149699445 0 0.011871912285361986 0.019210184270992373 0 0.01199853494353427 0.018664620684412124 0 0.011297908418297453 0.01896340822207155 0 0.011871912285361986 0.019210184270992373 0 0.01199853494353427 0.018664620684412124 0 0.01245733080952053 0.019022467149699445 0 0.012647661532304086 0.018351037947765381 0 0.01245733080952053 0.019022467149699445 0 0.013158049180374685 0.018826397646876318 0 0.012647661532304086 0.018351037947765381 0 0.010395589423436363 0.01028680653067451 0 0.012434961547541309 0.011852124122198318 0 0.013284596462736036 0.018014303160758124 0 0.013157339865740593 0.018390143788595215 0 0.012647661532304086 0.018351037947765381 0 0.013158049180374685 0.018826397646876318 0 0.013157339865740593 0.018390143788595215 0 0.013476318026539792 0.018187842731285708 0 0.013158049180374685 0.018826397646876318 0 0.013157339865740593 0.018390143788595215 0 0.012647661532304086 0.018351037947765381 0 0.013284596462736036 0.018014303160758124 0 0.013157339865740593 0.018390143788595215 0 0.013476318026539792 0.018187842731285708 0 0.023847327333598539 0.0071326903957499238 0 0.024333444175841247 0.0070369325253670711 0 0.024129981922196807 0.006348316094285579 0 0.0097234026143869345 0.0058593895505830171 0 0.0094688814870785461 0.0048327796500865459 0 0.010184908106699456 0.0051059702073686071 0 0.016306797423568518 0.0064767117950749872 0 0.023576984168422157 0.0048702652727786004 0 0.010184908106699456 0.0051059702073686071 0 0.010563408381293268 0.0059084337718298217 0 0.011094736765709943 0.0048933220389266461 0 0.0097234026143869345 0.0058593895505830171 0 0.010184908106699456 0.0051059702073686071 0 0.010563408381293268 0.0059084337718298217 0 0.010563408381293268 0.0059084337718298217 0 0.011440520814239095 0.0062089592743797177 0 0.011094736765709943 0.0048933220389266461 0 0.01058318832337422 0.0044291898091287293 0 0.010780018008673743 0.0049730943732510359 0 0.010512980194578404 0.0046653478822029594 0 0.010184908106699456 0.0051059702073686071 0 0.011094736765709943 0.0048933220389266461 0 0.010817479031895593 0.004458386232153104 0 0.010659622381789236 0.0049109001102169599 0 0.010370632189408046 0.0044272505032666885 0 0.010659622381789236 0.0049109001102169599 0 0.010280819213215425 0.0050609751522566505 0 0.010370632189408046 0.0044272505032666885 0 0.010829474579477621 0.0054756114127446909 0 0.010280819213215425 0.0050609751522566505 0 0.010323886522537965 0.0057806566843616571 0 0.010659622381789236 0.0049109001102169599 0 0.010829474579477621 0.0054756114127446909 0 0.010280819213215425 0.0050609751522566505 0 0.01058318832337422 0.0044291898091287293 0 0.01266936628241034 0.011993634764772963 0 0.010940550683232079 0.012198254185332534 0 0.01266936628241034 0.011993634764772963 0 0.01168288737596402 0.0076440890394237513 0 0.010939319940430859 0.006988977587860757 0 0.010492467891970687 0.0082152181133908573 0 0.010563408381293268 0.0059084337718298217 0 0.011440520814239095 0.0062089592743797177 0 0.010939319940430859 0.006988977587860757 0 0.011440520814239095 0.0062089592743797177 0 0.01168288737596402 0.0076440890394237513 0 0.010939319940430859 0.006988977587860757 0 0.010563408381293268 0.0059084337718298217 0 0.010939319940430859 0.006988977587860757 0 0.010079317531205211 0.0070234423235138507 0 0.0097234026143869345 0.0058593895505830171 0 0.010563408381293268 0.0059084337718298217 0 0.010079317531205211 0.0070234423235138507 0 0.017311603821330089 0.0069103662601094741 0 0.017571761640223112 0.010858548966340557 0 0.010939319940430859 0.006988977587860757 0 0.010079317531205211 0.0070234423235138507 0 0.010492467891970687 0.0082152181133908573 0 0.029579320035633412 0.0086575263638261034 0 0.025550762000147463 0.010081508262335677 0 0.035184681371945539 0.009211917929439626 0 0.034909482097813069 0.0094667752629302247 0 0.034866885324621108 0.0091454524780826812 0 0.024529044845431728 0.0077459286344913388 0 0.024231017701528905 0.0078142308832770124 0 0.024626292213848384 0.0085598276255249277 0 0.024333444175841247 0.0070369325253670711 0 0.024529044845431728 0.0077459286344913388 0 0.024231017701528905 0.0078142308832770124 0 0.023847327333598539 0.0071326903957499238 0 0.024333444175841247 0.0070369325253670711 0 0.024231017701528905 0.0078142308832770124 0 0.016306797423568518 0.0064767117950749872 0 0.017311603821330089 0.0069103662601094741 0 0.035082660004029195 0.0087432698562605292 0 0.034849309517084787 0.0087968183949822757 0 0.034999597893469944 0.0088220572911736315 0 0.035082660004029195 0.0087432698562605292 0 0.034820234575182706 0.0087263472909908622 0 0.034860142072993774 0.0086124964988898607 0 0.035082660004029195 0.0087432698562605292 0 0.034849309517084787 0.0087968183949822757 0 0.034820234575182706 0.0087263472909908622 0 0.034820234575182706 0.0087263472909908622 0 0.034714002945542125 0.0087799881846278623 0 0.034819575598817237 0.008689036332668482 0 0.034714002945542125 0.0087799881846278623 0 0.034573268220675253 0.0087972309794532699 0 0.034819575598817237 0.008689036332668482 0 0.034849309517084787 0.0087968183949822757 0 0.034820234575182706 0.0087263472909908622 0 0.034714002945542125 0.0087799881846278623 0 0.034714002945542125 0.0087799881846278623 0 0.034761431428531928 0.0088476355530421689 0 0.034618105166636298 0.008887535095125387 0 0.034849309517084787 0.0087968183949822757 0 0.034714002945542125 0.0087799881846278623 0 0.034761431428531928 0.0088476355530421689 0 0.034849309517084787 0.0087968183949822757 0 0.034761431428531928 0.0088476355530421689 0 0.034878365772291642 0.0088696322745045048 0 0.034761431428531928 0.0088476355530421689 0 0.034752561611249705 0.0089117379807505011 0 0.034878365772291642 0.0088696322745045048 0 0.034761431428531928 0.0088476355530421689 0 0.034752561611249705 0.0089117379807505011 0 0.034618105166636298 0.008887535095125387 0 0.034752561611249705 0.0089117379807505011 0 0.034695397612636021 0.0089822020942036847 0 0.034618105166636298 0.008887535095125387 0 0.034752561611249705 0.0089117379807505011 0 0.034862372059590384 0.0089477934320310436 0 0.034878365772291642 0.0088696322745045048 0 0.034752561611249705 0.0089117379807505011 0 0.034862372059590384 0.0089477934320310436 0 0.034695397612636021 0.0089822020942036847 0 0.034862372059590384 0.0089477934320310436 0 0.034878365772291642 0.0088696322745045048 0 0.035046082039596985 0.0089018993646809534 0 0.034849309517084787 0.0087968183949822757 0 0.034878365772291642 0.0088696322745045048 0 0.034999597893469944 0.0088220572911736315 0 0.034878365772291642 0.0088696322745045048 0 0.034999597893469944 0.0088220572911736315 0 0.035046082039596985 0.0089018993646809534 0 0.035179777643692289 0.008977661358071801 0 0.034961970238726395 0.008993222028951418 0 0.034866885324621108 0.0091454524780826812 0 0.035179777643692289 0.008977661358071801 0 0.035046082039596985 0.0089018993646809534 0 0.034961970238726395 0.008993222028951418 0 0.034961970238726395 0.008993222028951418 0 0.034866885324621108 0.0091454524780826812 0 0.034820679493903862 0.0090202748393202262 0 0.034909482097813069 0.0094667752629302247 0 0.034866885324621108 0.0091454524780826812 0 0.034546740969221737 0.0090589673618916237 0 0.034862372059590384 0.0089477934320310436 0 0.034961970238726395 0.008993222028951418 0 0.034820679493903862 0.0090202748393202262 0 0.034862372059590384 0.0089477934320310436 0 0.035046082039596985 0.0089018993646809534 0 0.034961970238726395 0.008993222028951418 0 0.034866885324621108 0.0091454524780826812 0 0.034703684423283004 0.0090488066190331264 0 0.034546740969221737 0.0090589673618916237 0 0.034866885324621108 0.0091454524780826812 0 0.034703684423283004 0.0090488066190331264 0 0.034820679493903862 0.0090202748393202262 0 0.034862372059590384 0.0089477934320310436 0 0.034820679493903862 0.0090202748393202262 0 0.034695397612636021 0.0089822020942036847 0 0.034703684423283004 0.0090488066190331264 0 0.034820679493903862 0.0090202748393202262 0 0.034695397612636021 0.0089822020942036847 0 0.034573047491120737 0.0089909231018851597 0 0.034546740969221737 0.0090589673618916237 0 0.034394922132094982 0.0089552318803742346 0 0.034703684423283004 0.0090488066190331264 0 0.034695397612636021 0.0089822020942036847 0 0.034630597658696929 0.0090152461746720852 0 0.034695397612636021 0.0089822020942036847 0 0.034630597658696929 0.0090152461746720852 0 0.034573047491120737 0.0089909231018851597 0 0.024529044845431728 0.0077459286344913388 0 0.024626292213848384 0.0085598276255249277 0 0.024719531845771251 0.0085148426112499863 0 0.034630597658696929 0.0090152461746720852 0 0.034573047491120737 0.0089909231018851597 0 0.034546740969221737 0.0090589673618916237 0 0.025550762000147463 0.010081508262335677 0 0.017571761640223112 0.010858548966340557 0 0.034703684423283004 0.0090488066190331264 0 0.034630597658696929 0.0090152461746720852 0 0.034546740969221737 0.0090589673618916237 0 0.025550762000147463 0.010081508262335677 0 0.021768813070289734 0.013911127470289919 0 0.017571761640223112 0.010858548966340557 0 0.021768813070289734 0.013911127470289919 0 0.019570593991906242 0.0099390493696571436 0 0.020781800539517822 0.0093821247692084941 0 0.022242444930213632 0.013864003526092152 0 0.015557290913726768 0.015639504194432958 0 0.016267220882429479 0.017825528766590815 0 0.018217366783247129 0.016639414593467381 0 0.034394922132094982 0.0089552318803742346 0 0.034485919961073842 0.0088664588851811183 0 0.034226349899314702 0.0087737075954474868 0 0.034573047491120737 0.0089909231018851597 0 0.034394922132094982 0.0089552318803742346 0 0.034618105166636298 0.008887535095125387 0 0.034394922132094982 0.0089552318803742346 0 0.034618105166636298 0.008887535095125387 0 0.034485919961073842 0.0088664588851811183 0 0.034695397612636021 0.0089822020942036847 0 0.034573047491120737 0.0089909231018851597 0 0.034618105166636298 0.008887535095125387 0 0.034618105166636298 0.008887535095125387 0 0.034573268220675253 0.0087972309794532699 0 0.034485919961073842 0.0088664588851811183 0 0.034714002945542125 0.0087799881846278623 0 0.034618105166636298 0.008887535095125387 0 0.034573268220675253 0.0087972309794532699 0 0.021768813070289734 0.013911127470289919 0 0.017799608305730123 0.021014015311200038 0 0.021768813070289734 0.013911127470289919 0 0.025000856805634571 0.02473024741896215 0 0.016267220882429479 0.017825528766590815 0 0.018500351629708388 0.018550043924256764 0 0.018391266768019058 0.020891927067035503 0 0.018500351629708388 0.018550043924256764 0 0.018217366783247129 0.016639414593467381 0 0.020628445337835682 0.017674501358775477 0 0.016267220882429479 0.017825528766590815 0 0.018500351629708388 0.018550043924256764 0 0.018217366783247129 0.016639414593467381 0 0.020130063062994561 0.013524032904977681 0 0.015557290913726768 0.015639504194432958 0 0.018217366783247129 0.016639414593467381 0 0.01266936628241034 0.011993634764772963 0 0.017571761640223112 0.010858548966340557 0 0.01266936628241034 0.011993634764772963 0 0.016111972985636932 0.018106019026408352 0 0.020130063062994561 0.013524032904977681 0 0.018217366783247129 0.016639414593467381 0 0.020628445337835682 0.017674501358775477 0 0.011297908418297453 0.01896340822207155 0 0.011382067979976864 0.019710459141351538 0 0.011871912285361986 0.019210184270992373 0 0.016111972985636932 0.018106019026408352 0 0.017484974884661345 0.028509805054586834 0 0.018500351629708388 0.018550043924256764 0 0.020628445337835682 0.017674501358775477 0 0.021076731709023907 0.021851601171868591 0 0.011382067979976864 0.019710459141351538 0 0.011493371055590078 0.020461467254667461 0 0.012129254154642714 0.019797159280955347 0 0.017484974884661345 0.028509805054586834 0 0.020467562234366191 0.038211189318507172 0 0.019895477318175793 0.038414953452041399 0 0.019871867806410138 0.036949289488811779 0 0.018365898750802769 0.037031470615387738 0 0.020743250833292037 0.036696209920122312 0 0.020519942795836816 0.035952202366609329 0 0.02138656637218098 0.036067899788581485 0 0.02191094012870164 0.040222406469056046 0 0.025000856805634571 0.02473024741896215 0 0.021076731709023907 0.021851601171868591 0 0.018391266768019058 0.020891927067035503 0 0.017457885292866508 0.021179345049269747 0 0.016565851865263416 0.017945988090155747 0 0.018391266768019058 0.020891927067035503 0 0.017457885292866508 0.021179345049269747 0 0.020743250833292037 0.036696209920122312 0 0.02138656637218098 0.036067899788581485 0 0.021604055345211627 0.036751337407592607 0 0.017484974884661345 0.028509805054586834 0 0.025000856805634571 0.02473024741896215 0 0.018500351629708388 0.018550043924256764 0 0.021076731709023907 0.021851601171868591 0 0.018391266768019058 0.020891927067035503 0 0.021903327015324055 0.037147178827968162 0 0.022882972410460549 0.036438666925417661 0 0.023575176703987 0.037350771173333554 0 0.034573268220675253 0.0087972309794532699 0 0.034226349899314702 0.0087737075954474868 0 0.034819575598817237 0.008689036332668482 0 0.025000856805634571 0.02473024741896215 0 0.029397139958644521 0.02363565610027598 0 0.034573268220675253 0.0087972309794532699 0 0.034485919961073842 0.0088664588851811183 0 0.034226349899314702 0.0087737075954474868 0 0.02138656637218098 0.036067899788581485 0 0.022882972410460549 0.036438666925417661 0 0.022448119876400729 0.035500978098492633 0 0.02138656637218098 0.036067899788581485 0 0.021903327015324055 0.037147178827968162 0 0.022882972410460549 0.036438666925417661 0 0.024046855753060613 0.035899881971560937 0 0.022882972410460549 0.036438666925417661 0 0.022448119876400729 0.035500978098492633 0 0.024046855753060613 0.035899881971560937 0 0.022882972410460549 0.036438666925417661 0 0.023575176703987 0.037350771173333554 0 0.025435940027763143 0.03415448271137355 0 0.029397139958644521 0.02363565610027598 0 0.031123314223359393 0.017786927507248956 0 0.029397139958644521 0.02363565610027598 0 0.012796577444947627 0.019515773879218143 0 0.012682691496046537 0.020133481663573139 0 0.01331639695884069 0.020133627387074481 0 0.013305620910149947 0.019438168499595 0 0.012796577444947627 0.019515773879218143 0 0.01331639695884069 0.020133627387074481 0 0.013158049180374685 0.018826397646876318 0 0.013305620910149947 0.019438168499595 0 0.012796577444947627 0.019515773879218143 0 0.01245733080952053 0.019022467149699445 0 0.013158049180374685 0.018826397646876318 0 0.012796577444947627 0.019515773879218143 0 0.01245733080952053 0.019022467149699445 0 0.012796577444947627 0.019515773879218143 0 0.012129254154642714 0.019797159280955347 0 0.01245733080952053 0.019022467149699445 0 0.011871912285361986 0.019210184270992373 0 0.012129254154642714 0.019797159280955347 0 0.011382067979976864 0.019710459141351538 0 0.011871912285361986 0.019210184270992373 0 0.012129254154642714 0.019797159280955347 0 0.012796577444947627 0.019515773879218143 0 0.012129254154642714 0.019797159280955347 0 0.012682691496046537 0.020133481663573139 0 0.012129254154642714 0.019797159280955347 0 0.01222808480200159 0.020559857589450888 0 0.012682691496046537 0.020133481663573139 0 0.011493371055590078 0.020461467254667461 0 0.012129254154642714 0.019797159280955347 0 0.01222808480200159 0.020559857589450888 0 0.017484974884661345 0.028509805054586834 0 0.014715944774980214 0.02937028761442918 0 0.019895477318175793 0.038414953452041399 0 0.017859182690738613 0.038025167822694432 0 0.018365898750802769 0.037031470615387738 0 0.014715944774980214 0.02937028761442918 0 0.014562857167389455 0.029071750574117258 0 0.017859182690738613 0.038025167822694432 0 0.016350399969213145 0.037530767501535729 0 0.017353201833391084 0.036944665318753928 0 0.017859182690738613 0.038025167822694432 0 0.018365898750802769 0.037031470615387738 0 0.017353201833391084 0.036944665318753928 0 0.012915307808080109 0.020653826773696631 0 0.012682691496046537 0.020133481663573139 0 0.01331639695884069 0.020133627387074481 0 0.01222808480200159 0.020559857589450888 0 0.012915307808080109 0.020653826773696631 0 0.012682691496046537 0.020133481663573139 0 0.012915307808080109 0.020653826773696631 0 0.01331639695884069 0.020133627387074481 0 0.013570874190652369 0.020758676942532684 0 0.014562857167389455 0.029071750574117258 0 0.015121272298962804 0.02912259476612851 0 0.016350399969213145 0.037530767501535729 0 0.015233707052950183 0.037236835147363423 0 0.015631741675557378 0.036602944386514319 0 0.013570874190652369 0.020758676942532684 0 0.013929264808757716 0.020520614566192599 0 0.01418704292733482 0.020873307077070479 0 0.015233707052950183 0.037236835147363423 0 0.01438683658151205 0.036936346891981151 0 0.014090587884391553 0.036983100294890672 0 0.015121272298962804 0.02912259476612851 0 0.010819590215312988 0.028367040851826061 0 0.015233707052950183 0.037236835147363423 0 0.01438683658151205 0.036936346891981151 0 0.014845412842777015 0.036639604131660029 0 0.010819590215312988 0.028367040851826061 0 0.0095601198086793186 0.03487600513527344 0 0.01438683658151205 0.036936346891981151 0 0.014090587884391553 0.036983100294890672 0 0.014257101126652216 0.036731052049564873 0 0.013929264808757716 0.020520614566192599 0 0.01418704292733482 0.020873307077070479 0 0.01429856178219871 0.020697307806594709 0 0.013929264808757716 0.020520614566192599 0 0.01429856178219871 0.020697307806594709 0 0.014062790374222804 0.019890525485501395 0 0.01331639695884069 0.020133627387074481 0 0.013570874190652369 0.020758676942532684 0 0.013929264808757716 0.020520614566192599 0 0.01331639695884069 0.020133627387074481 0 0.013929264808757716 0.020520614566192599 0 0.014062790374222804 0.019890525485501395 0 0.00017074497926340503 0.018147573016347063 0 9.0319258793203352e-05 0.018274212304070572 0 0.00028322084148303 0.018304190619440358 0 0.00011426011796649293 0.017069107855838511 0 0.00098054969882827307 0.021366345056701118 0 0.00017074497926340503 0.018147573016347063 0 0.00026281817467106169 0.01800717275634554 0 0.00028322084148303 0.018304190619440358 0 0.0036662902326704268 0.025291281738846701 0 0.00098054969882827307 0.021366345056701118 0 0.00017074497926340503 0.018147573016347063 0 9.0319258793203352e-05 0.018274212304070572 0 6.086051757382652e-05 0.018184676208379089 0 0.0066025146139481444 0.025623817734083554 0 0.0062262616872699765 0.025562114193264453 0 0.0064514109049031996 0.025215799400468718 0 0.0064130527161377184 0.030827940567147046 0 0.0059613565338852079 0.03075610645864164 0 0.0057109635808551378 0.031123245365305474 0 0.0036662902326704268 0.025291281738846701 0 0.0054354171889229629 0.020297902829969149 0 0.0036662902326704268 0.025291281738846701 0 0.010819590215312988 0.028367040851826061 0 0.010819590215312988 0.028367040851826061 0 0.0054354171889229629 0.020297902829969149 0 0.0054354171889229629 0.020297902829969149 0 0.00014928034631421521 0.017632803911972274 0 0.0054354171889229629 0.020297902829969149 0 0.0079951932593464187 0.01844281077411861 0 0.00017074497926340503 0.018147573016347063 0 6.086051757382652e-05 0.018184676208379089 0 0.00015172462940632792 0.017991878994632657 0 0.0010511682518995265 0.016838918718603449 0 0.0006357549893500796 0.017331836796110861 0 0.0014040527311896687 0.017696838268512149 0 0.00015172462940632792 0.017991878994632657 0 0.00019697705823426556 0.017962605908151696 0 0.00026281817467106169 0.01800717275634554 0 0.00017074497926340503 0.018147573016347063 0 0.00015172462940632792 0.017991878994632657 0 0.00026281817467106169 0.01800717275634554 0 0.00018967159955799281 0.017927841817349723 0 0.00077882740266275779 0.017883176374789932 0 0.00044663955106112477 0.018185515015432838 0 0.00014928034631421521 0.017632803911972274 0 0.00024781174301395881 0.017881628382917111 0 0.00015172462940632792 0.017991878994632657 0 0.00019697705823426556 0.017962605908151696 0 0.00018967159955799281 0.017927841817349723 0 0.0006357549893500796 0.017331836796110861 0 0.00018967159955799281 0.017927841817349723 0 0.00077882740266275779 0.017883176374789932 0 0.00019697705823426556 0.017962605908151696 0 0.00018967159955799281 0.017927841817349723 0 9.832573153703355e-06 0.017955654825767619 0 0.0006357549893500796 0.017331836796110861 0 0.00077882740266275779 0.017883176374789932 0 0.0014040527311896687 0.017696838268512149 0 0.00077882740266275779 0.017883176374789932 0 0.00044663955106112477 0.018185515015432838 0 0.00080859310707246746 0.018516620480947162 0 0.00077882740266275779 0.017883176374789932 0 0.0014040527311896687 0.017696838268512149 0 0.00080859310707246746 0.018516620480947162 0 0.00044663955106112477 0.018185515015432838 0 0.00026790078634826353 0.018433871516370357 0 0.00080859310707246746 0.018516620480947162 0 0.00044663955106112477 0.018185515015432838 0 0.00026790078634826353 0.018433871516370357 0 0.00015122137784911408 0.018144030222319231 0 0.00018967159955799281 0.017927841817349723 0 0.00044663955106112477 0.018185515015432838 0 0.00015122137784911408 0.018144030222319231 0 0.013305620910149947 0.019438168499595 0 0.01331639695884069 0.020133627387074481 0 0.014062790374222804 0.019890525485501395 0 0.0079951932593464187 0.01844281077411861 0 0.0080549962784865654 0.019255447970106875 0 0.0014040527311896687 0.017696838268512149 0 0.001907826329396609 0.018655193879057869 0 0.00080859310707246746 0.018516620480947162 0 0.013305620910149947 0.019438168499595 0 0.014062790374222804 0.019890525485501395 0 0.013790338856146712 0.019047846931391509 0 0.013158049180374685 0.018826397646876318 0 0.013305620910149947 0.019438168499595 0 0.013790338856146712 0.019047846931391509 0 0.013158049180374685 0.018826397646876318 0 0.013790338856146712 0.019047846931391509 0 0.013476318026539792 0.018187842731285708 0 0.001907826329396609 0.018655193879057869 0 0.0025276976937102322 0.019879656526289376 0 0.0016047244851380266 0.019211623422849163 0 0.0067098139685734162 0.01762026626782788 0 0.00072738617244315882 0.018956124305933918 0 0.0080549962784865654 0.019255447970106875 0 0.0067098139685734162 0.01762026626782788 0 0.0016604229596515008 0.019057559122318376 0 0.001169613222686127 0.018763551765807716 0 0.001239788123045434 0.01910305578480612 0 0.001169613222686127 0.018763551765807716 0 0.00082703476661985856 0.018813700177066916 0 0.001239788123045434 0.01910305578480612 0 0.00082703476661985856 0.018813700177066916 0 0.00086249077499432592 0.01927340919656563 0 0.001239788123045434 0.01910305578480612 0 0.001907826329396609 0.018655193879057869 0 0.0016047244851380266 0.019211623422849163 0 0.00080859310707246746 0.018516620480947162 0 0.00072738617244315882 0.018956124305933918 0 0.0010603270488166573 0.018629421078902354 0 0.00080859310707246746 0.018516620480947162 0 0.00042158478628035817 0.018778164672034515 0 0.00082703476661985856 0.018813700177066916 0 0.001169613222686127 0.018763551765807716 0 0.00080859310707246746 0.018516620480947162 0 0.00082703476661985856 0.018813700177066916 0 0.00026790078634826353 0.018433871516370357 0 0.00042158478628035817 0.018778164672034515 0 -4.8782665183955031e-05 0.018723479001498036 0 0.00026790078634826353 0.018433871516370357 0 0.00080859310707246746 0.018516620480947162 0 0.00042158478628035817 0.018778164672034515 0 0.00042158478628035817 0.018778164672034515 0 0.00050854361923001077 0.019077207222522291 0 0.00010483287909740792 0.019106155687792406 0 0.00042158478628035817 0.018778164672034515 0 0.00050854361923001077 0.019077207222522291 0 0.00082703476661985856 0.018813700177066916 0 0.00050854361923001077 0.019077207222522291 0 0.00082703476661985856 0.018813700177066916 0 0.00086249077499432592 0.01927340919656563 0 0.00086249077499432592 0.01927340919656563 0 0.00023366009223974038 0.019464204711360154 0 0.00068185337132900374 0.019712934112224065 0 0.00050854361923001077 0.019077207222522291 0 0.00086249077499432592 0.01927340919656563 0 0.00023366009223974038 0.019464204711360154 0 0.00050854361923001077 0.019077207222522291 0 0.00023366009223974038 0.019464204711360154 0 0.00010483287909740792 0.019106155687792406 0 -0.0021547189958242077 0.014895651673876737 0 0.0015865104519011018 0.014921599632294426 0 0.00014720748664308846 0.019928631852503514 0 0.00023366009223974038 0.019464204711360154 0 0.00068185337132900374 0.019712934112224065 0 0.0015865104519011018 0.014921599632294426 0 0.001280690787886385 0.015096213431776813 0 0.00086249077499432592 0.01927340919656563 0 0.00068185337132900374 0.019712934112224065 0 0.0012068615659199097 0.019478535498092052 0 0.0014524595944503298 0.010357885959248279 0 0.0027727207042239125 0.0098739052739042887 0 0.0029725492382343091 0.010459169723073602 0 0.0027727207042239125 0.0098739052739042887 0 0.0029725492382343091 0.010459169723073602 0 0.003270709045200988 0.010115622369988982 0 0.0036646122818548817 0.010163720447230833 0 0.003270709045200988 0.010115622369988982 0 0.0035294491949657541 0.0096638295315910148 0 0.0029725492382343091 0.010459169723073602 0 0.0034134407369134975 0.010395264991232811 0 0.003270709045200988 0.010115622369988982 0 0.0036646122818548817 0.010163720447230833 0 0.0034134407369134975 0.010395264991232811 0 0.003270709045200988 0.010115622369988982 0 0.0016604229596515008 0.019057559122318376 0 0.001742147827615313 0.019222453651660965 0 0.001239788123045434 0.01910305578480612 0 0.0012068615659199097 0.019478535498092052 0 0.001742147827615313 0.019222453651660965 0 0.001239788123045434 0.01910305578480612 0 0.0027727207042239125 0.0098739052739042887 0 0.003270709045200988 0.010115622369988982 0 0.0035294491949657541 0.0096638295315910148 0 0.001280690787886385 0.015096213431776813 0 0.005325842462470521 0.011875655885606136 0 0.010395589423436363 0.01028680653067451 0 0.0067098139685734162 0.01762026626782788 0 0.0053235276997996919 0.01250228472924716 0 0.0081118833705428398 0.014853782367918204 0 0.0069097403482964491 0.011775631409004098 0 0.0067098139685734162 0.01762026626782788 0 0.005325842462470521 0.011875655885606136 0 0.00086249077499432592 0.01927340919656563 0 0.0012068615659199097 0.019478535498092052 0 0.001239788123045434 0.01910305578480612 0 -0.0092029791027314015 0.014903292924665199 0 -0.0072710110434126918 0.014657286798471669 0 -0.0088639975808847381 0.014030263217554977 0 -0.0092029791027314015 0.014903292924665199 0 -0.0088639975808847381 0.014030263217554977 0 -0.010745006972902506 0.014505318218371576 0 -0.0092029791027314015 0.014903292924665199 0 -0.010845561123101069 0.015410112642441586 0 -0.010745006972902506 0.014505318218371576 0 -0.0093712262405410071 0.01588528630683278 0 -0.0092029791027314015 0.014903292924665199 0 -0.010845561123101069 0.015410112642441586 0 -0.0092029791027314015 0.014903292924665199 0 -0.0081067309643025783 0.015231452505800439 0 -0.0072710110434126918 0.014657286798471669 0 -0.0093712262405410071 0.01588528630683278 0 -0.0092029791027314015 0.014903292924665199 0 -0.0081067309643025783 0.015231452505800439 0 -0.0067969082917652222 0.015611231281147706 0 -0.0081067309643025783 0.015231452505800439 0 -0.0072710110434126918 0.014657286798471669 0 0.00014720748664308846 0.019928631852503514 0 0.00023366009223974038 0.019464204711360154 0 -0.00032883509822832091 0.019520360727553233 0 -0.0021547189958242077 0.014895651673876737 0 -0.0038240629662533946 0.017520944141727477 0 -0.00032883509822832091 0.019520360727553233 0 -0.0003331075405711708 0.019097198194334558 0 0.00010483287909740792 0.019106155687792406 0 0.00023366009223974038 0.019464204711360154 0 -0.00032883509822832091 0.019520360727553233 0 0.00010483287909740792 0.019106155687792406 0 -0.00032883509822832091 0.019520360727553233 0 -0.0003331075405711708 0.019097198194334558 0 -0.00083368029825395143 0.019107865224163492 0 -0.0038240629662533946 0.017520944141727477 0 -0.0048231221991623706 0.016538803096026847 0 -0.0003331075405711708 0.019097198194334558 0 -0.00055888855629912298 0.018714056405072132 0 -0.00083368029825395143 0.019107865224163492 0 -0.0003331075405711708 0.019097198194334558 0 -4.8782665183955031e-05 0.018723479001498036 0 -0.00055888855629912298 0.018714056405072132 0 0.00042158478628035817 0.018778164672034515 0 0.00010483287909740792 0.019106155687792406 0 -4.8782665183955031e-05 0.018723479001498036 0 -0.0003331075405711708 0.019097198194334558 0 0.00010483287909740792 0.019106155687792406 0 -4.8782665183955031e-05 0.018723479001498036 0 0.00026790078634826353 0.018433871516370357 0 -4.8782665183955031e-05 0.018723479001498036 0 -0.0002035637133897932 0.018256742148916951 0 -4.8782665183955031e-05 0.018723479001498036 0 -0.00055888855629912298 0.018714056405072132 0 -0.0002035637133897932 0.018256742148916951 0 -0.00055888855629912298 0.018714056405072132 0 -0.0013489356677779969 0.0186969061305364 0 -0.00068051950625360813 0.018247036627252314 0 -0.0048231221991623706 0.016538803096026847 0 -0.0058326451966057508 0.016133777540864501 0 -0.00055888855629912298 0.018714056405072132 0 -0.00083368029825395143 0.019107865224163492 0 -0.0013489356677779969 0.0186969061305364 0 -0.0088639975808847381 0.014030263217554977 0 -0.01021058752620713 0.013633618104523548 0 -0.010745006972902506 0.014505318218371576 0 -0.0013489356677779969 0.0186969061305364 0 -0.0011555340594707291 0.01816247916506511 0 -0.0021150942680954765 0.018259558545460033 0 -0.0011555340594707291 0.01816247916506511 0 -0.0012457625258546249 0.017694318623454379 0 -0.0021150942680954765 0.018259558545460033 0 -0.0013489356677779969 0.0186969061305364 0 -0.0011555340594707291 0.01816247916506511 0 -0.00068051950625360813 0.018247036627252314 0 -0.0011555340594707291 0.01816247916506511 0 -0.00068051950625360813 0.018247036627252314 0 -0.00086990444604578181 0.01776057127060018 0 -0.00068051950625360813 0.018247036627252314 0 -0.00086990444604578181 0.01776057127060018 0 -0.00049080682998310762 0.0179789765970132 0 -0.00086990444604578181 0.01776057127060018 0 -0.0012457625258546249 0.017694318623454379 0 -0.0011291434473956964 0.017642225495895975 0 -0.0011555340594707291 0.01816247916506511 0 -0.00086990444604578181 0.01776057127060018 0 -0.0012457625258546249 0.017694318623454379 0 0.00026790078634826353 0.018433871516370357 0 0.00015122137784911408 0.018144030222319231 0 -0.0002035637133897932 0.018256742148916951 0 0.00015122137784911408 0.018144030222319231 0 -0.0002035637133897932 0.018256742148916951 0 9.832573153703355e-06 0.017955654825767619 0 -0.00068051950625360813 0.018247036627252314 0 -0.0002035637133897932 0.018256742148916951 0 -0.00049080682998310762 0.0179789765970132 0 -0.00055888855629912298 0.018714056405072132 0 -0.00068051950625360813 0.018247036627252314 0 -0.0002035637133897932 0.018256742148916951 0 -0.00086990444604578181 0.01776057127060018 0 -0.00049080682998310762 0.0179789765970132 0 -0.00047170521385183077 0.017716272856757573 0 -0.00049080682998310762 0.0179789765970132 0 -0.00026686257777785701 0.017900097903255315 0 -0.00047170521385183077 0.017716272856757573 0 -0.00026686257777785701 0.017900097903255315 0 -0.00022318999588744905 0.017704796513646079 0 -0.00047170521385183077 0.017716272856757573 0 -0.0002035637133897932 0.018256742148916951 0 -0.00049080682998310762 0.0179789765970132 0 -0.00026686257777785701 0.017900097903255315 0 9.832573153703355e-06 0.017955654825767619 0 -6.3687906893738114e-05 0.017561871096476365 0 -0.00022318999588744905 0.017704796513646079 0 0.00019697705823426556 0.017962605908151696 0 9.832573153703355e-06 0.017955654825767619 0 0.00026281817467106169 0.01800717275634554 0 -1.7444911524959009e-05 0.018255072981875401 0 0.00011426011796649293 0.017069107855838511 0 -0.0002035637133897932 0.018256742148916951 0 -0.00026686257777785701 0.017900097903255315 0 9.832573153703355e-06 0.017955654825767619 0 -0.00026686257777785701 0.017900097903255315 0 9.832573153703355e-06 0.017955654825767619 0 -0.00022318999588744905 0.017704796513646079 0 0.00018967159955799281 0.017927841817349723 0 0.00015122137784911408 0.018144030222319231 0 9.832573153703355e-06 0.017955654825767619 0 -6.3687906893738114e-05 0.017561871096476365 0 -0.00022318999588744905 0.017704796513646079 0 -0.00034126124505378075 0.017471290843910827 0 -0.00086990444604578181 0.01776057127060018 0 -0.00047170521385183077 0.017716272856757573 0 -0.00065574373598139711 0.017580931359049524 0 -0.00047170521385183077 0.017716272856757573 0 -0.00065574373598139711 0.017580931359049524 0 -0.00034126124505378075 0.017471290843910827 0 -0.00022318999588744905 0.017704796513646079 0 -0.00047170521385183077 0.017716272856757573 0 -0.00034126124505378075 0.017471290843910827 0 -0.00059220191847433705 0.01728837563490521 0 -0.00034126124505378075 0.017471290843910827 0 -0.00028220389696562652 0.017153293997353707 0 -0.00065574373598139711 0.017580931359049524 0 -0.00059220191847433705 0.01728837563490521 0 -0.00034126124505378075 0.017471290843910827 0 -0.00048691479565216364 0.01731443746610142 0 0.0010920506133080166 0.02383360390708893 0 -6.3687906893738114e-05 0.017561871096476365 0 -0.00016880921611978016 0.017352750455661731 0 1.485806578778361e-06 0.01722406794800603 0 -0.00034126124505378075 0.017471290843910827 0 -0.00016880921611978016 0.017352750455661731 0 -0.00028220389696562652 0.017153293997353707 0 -0.00016880921611978016 0.017352750455661731 0 -0.00028220389696562652 0.017153293997353707 0 1.485806578778361e-06 0.01722406794800603 0 -6.3687906893738114e-05 0.017561871096476365 0 -0.00034126124505378075 0.017471290843910827 0 -0.00016880921611978016 0.017352750455661731 0 -0.0011291434473956964 0.017642225495895975 0 -0.00096973439199220485 0.017561197552281863 0 -0.0011019161568515212 0.017656604170210602 0 -0.00086990444604578181 0.01776057127060018 0 -0.0011291434473956964 0.017642225495895975 0 -0.00096973439199220485 0.017561197552281863 0 -0.00086990444604578181 0.01776057127060018 0 -0.00065574373598139711 0.017580931359049524 0 -0.00096973439199220485 0.017561197552281863 0 -0.00099485606659084473 0.017672219915749007 0 -0.00096973439199220485 0.017561197552281863 0 -0.0010182331739552464 0.017647731239915854 0 -0.00048691479565216364 0.01731443746610142 0 -0.0010344748211489783 0.017613841249616621 0 -0.00065574373598139711 0.017580931359049524 0 -0.00059220191847433705 0.01728837563490521 0 -0.00096973439199220485 0.017561197552281863 0 -0.00096973439199220485 0.017561197552281863 0 -0.0010182331739552464 0.017647731239915854 0 -0.0011019161568515212 0.017656604170210602 0 0.0028511758440336009 0.034950685422207528 0 0.0025980127254538942 0.034679868780336132 0 0.001832326102507718 0.034971782956163572 0 0.001010988825421629 0.026617032154820121 0 0.00021980218469374709 0.026214667167632658 0 -0.0010182331739552464 0.017647731239915854 0 -0.00099194631675965524 0.017683629713087519 0 -0.001072890628037804 0.017673413654371351 0 -0.0010182331739552464 0.017647731239915854 0 -0.001072890628037804 0.017673413654371351 0 -0.0011019161568515212 0.017656604170210602 0 -0.00099485606659084473 0.017672219915749007 0 -0.0010182331739552464 0.017647731239915854 0 -0.00099194631675965524 0.017683629713087519 0 0.0028511758440336009 0.034950685422207528 0 0.0029229490926457667 0.034643983952769512 0 0.0025980127254538942 0.034679868780336132 0 0.0028511758440336009 0.034950685422207528 0 0.0029229490926457667 0.034643983952769512 0 0.0032278964437772333 0.034701766577269165 0 0.0029229490926457667 0.034643983952769512 0 0.0025980127254538942 0.034679868780336132 0 0.002739127850954461 0.034448547493475763 0 0.0025980127254538942 0.034679868780336132 0 0.002739127850954461 0.034448547493475763 0 0.0024178284635446839 0.034446518231313644 0 0.0029229490926457667 0.034643983952769512 0 0.002739127850954461 0.034448547493475763 0 0.0031488745280606445 0.034412533879091024 0 0.0025980127254538942 0.034679868780336132 0 0.0021818875863744238 0.034564088062342353 0 0.001832326102507718 0.034971782956163572 0 0.0021818875863744238 0.034564088062342353 0 0.0024178284635446839 0.034446518231313644 0 0.0021552589557128632 0.03432531527047912 0 0.0025980127254538942 0.034679868780336132 0 0.0021818875863744238 0.034564088062342353 0 0.0024178284635446839 0.034446518231313644 0 0.0021552589557128632 0.03432531527047912 0 0.00245882012609291 0.034252702081641606 0 0.0021837397864857963 0.034073392806042803 0 0.0024178284635446839 0.034446518231313644 0 0.0021552589557128632 0.03432531527047912 0 0.00245882012609291 0.034252702081641606 0 0.002739127850954461 0.034448547493475763 0 0.0024178284635446839 0.034446518231313644 0 0.00245882012609291 0.034252702081641606 0 0.002739127850954461 0.034448547493475763 0 0.00245882012609291 0.034252702081641606 0 0.0028269489733941714 0.034224511342811757 0 0.002739127850954461 0.034448547493475763 0 0.0028269489733941714 0.034224511342811757 0 0.0031488745280606445 0.034412533879091024 0 0.00245882012609291 0.034252702081641606 0 0.0028269489733941714 0.034224511342811757 0 0.002491609534758266 0.033984432193977815 0 0.0028269489733941714 0.034224511342811757 0 0.002491609534758266 0.033984432193977815 0 0.0031369308619958645 0.034048170783354474 0 0.002491609534758266 0.033984432193977815 0 0.0031369308619958645 0.034048170783354474 0 0.0024156236519056024 0.033588230809985936 0 0.0021015970348905256 0.03373137470234025 0 0.002491609534758266 0.033984432193977815 0 0.0024156236519056024 0.033588230809985936 0 0.0021015970348905256 0.03373137470234025 0 0.0021837397864857963 0.034073392806042803 0 0.002491609534758266 0.033984432193977815 0 0.00245882012609291 0.034252702081641606 0 0.0021837397864857963 0.034073392806042803 0 0.002491609534758266 0.033984432193977815 0 0.0035745050367333351 0.034231909497219416 0 0.0038041373545128323 0.034234075182517025 0 0.0039958874123228703 0.033928316987181899 0 0.0045568246508231195 0.035090765761432274 0 0.004001589655952419 0.033919304666459052 0 0.0035745050367333351 0.034231909497219416 0 0.0031369308619958645 0.034048170783354474 0 0.0039958874123228703 0.033928316987181899 0 0.0035745050367333351 0.034231909497219416 0 0.0031369308619958645 0.034048170783354474 0 0.0031488745280606445 0.034412533879091024 0 0.0028269489733941714 0.034224511342811757 0 0.0031369308619958645 0.034048170783354474 0 0.0031488745280606445 0.034412533879091024 0 0.0035745050367333351 0.034231909497219416 0 0.0036964417290779876 0.034350118237897742 0 0.0038041373545128323 0.034234075182517025 0 0.0036964417290779876 0.034350118237897742 0 0.0035408616597213038 0.034534233504331255 0 0.0038693664360659303 0.034421428486209528 0 0.0035745050367333351 0.034231909497219416 0 0.0031488745280606445 0.034412533879091024 0 0.0035408616597213038 0.034534233504331255 0 0.0035745050367333351 0.034231909497219416 0 0.0036964417290779876 0.034350118237897742 0 0.0035408616597213038 0.034534233504331255 0 0.0035408616597213038 0.034534233504331255 0 0.0034057347751971392 0.034959021230196584 0 0.003796198680753776 0.034723578176178126 0 0.0035408616597213038 0.034534233504331255 0 0.0032278964437772333 0.034701766577269165 0 0.0034057347751971392 0.034959021230196584 0 0.0029229490926457667 0.034643983952769512 0 0.0031488745280606445 0.034412533879091024 0 0.0032278964437772333 0.034701766577269165 0 0.0031488745280606445 0.034412533879091024 0 0.0035408616597213038 0.034534233504331255 0 0.0032278964437772333 0.034701766577269165 0 -0.00099485606659084473 0.017672219915749007 0 -0.00099194631675965524 0.017683629713087519 0 -0.0009809277723919253 0.017738663133552039 0 0.001010988825421629 0.026617032154820121 0 0.0010920506133080166 0.02383360390708893 0 0.0028511758440336009 0.034950685422207528 0 0.0032278964437772333 0.034701766577269165 0 0.0034057347751971392 0.034959021230196584 0 0.0031247891664380046 0.02560449687288548 0 0.0010424163201743395 0.025260989841207806 0 0.00065830133329139928 0.02723875761973155 0 0.0010920506133080166 0.02383360390708893 0 0.00098054969882827307 0.021366345056701118 0 0.0010920506133080166 0.02383360390708893 0 0.0027563179640534021 0.031890257173385929 0 0.0010736057263256555 0.025738710872256047 0 0.0042387212746692205 0.026266060209583941 0 0.002899271712999937 0.027570763573879113 0 0.00098054969882827307 0.021366345056701118 0 0.0027563179640534021 0.031890257173385929 0 0.0042387212746692205 0.026266060209583941 0 0.002899271712999937 0.027570763573879113 0 0.0037475987040695592 0.028767438546965788 0 0.002899271712999937 0.027570763573879113 0 0.0037475987040695592 0.028767438546965788 0 0.0025576390463479255 0.029540835843141038 0 0.0056292778181707172 0.035217095590538289 0 0.0095601198086793186 0.03487600513527344 0 0.0064130527161377184 0.030827940567147046 0 0.0069600995297051643 0.032317537413279314 0 0.0057109635808551378 0.031123245365305474 0 0.0036662902326704268 0.025291281738846701 0 0.0042407649331310223 0.032569281050615177 0 0.0010736057263256555 0.025738710872256047 0 0.002899271712999937 0.027570763573879113 0 0.0025576390463479255 0.029540835843141038 0 0.0065749524126534706 0.032575386579252415 0 0.0069600995297051643 0.032317537413279314 0 0.0057109635808551378 0.031123245365305474 0 0.0066269100009060762 0.037239673524986125 0 0.0075491024967914572 0.038624700560456596 0 0.007535779182260091 0.037437477726597737 0 0.0056292778181707172 0.035217095590538289 0 0.0042407649331310223 0.032569281050615177 0 0.0071829702553231562 0.036882309884164521 0 0.0066269100009060762 0.037239673524986125 0 0.007535779182260091 0.037437477726597737 0 0.0066125744880641112 0.036399905170226357 0 0.0056292778181707172 0.035217095590538289 0 0.0027563179640534021 0.031890257173385929 0 0.0037375446815207792 0.035306031118470291 0 0.0035408616597213038 0.034534233504331255 0 0.003796198680753776 0.034723578176178126 0 0.0038693664360659303 0.034421428486209528 0 0.0038371692391796137 0.034607783554845686 0 0.0039213615548048192 0.034565511532875445 0 0.0038693664360659303 0.034421428486209528 0 0.0040012039127257874 0.034532683347776996 0 0.0039213615548048192 0.034565511532875445 0 0.0038693664360659303 0.034421428486209528 0 0.0027563179640534021 0.031890257173385929 0 0.0042407649331310223 0.032569281050615177 0 0.014845412842777015 0.036639604131660029 0 0.014886255965388531 0.036106543759559628 0 0.015631741675557378 0.036602944386514319 0 0.015233707052950183 0.037236835147363423 0 0.014845412842777015 0.036639604131660029 0 0.015631741675557378 0.036602944386514319 0 0.0075491024967914572 0.038624700560456596 0 0.007535779182260091 0.037437477726597737 0 0.0083474336869171339 0.037564759296409379 0 0.014845412842777015 0.036639604131660029 0 0.014287296479352748 0.036777542796228017 0 0.014886255965388531 0.036106543759559628 0 0.0095601198086793186 0.03487600513527344 0 0.011603510514019675 0.037198353375449897 0 0.01438683658151205 0.036936346891981151 0 0.014845412842777015 0.036639604131660029 0 0.014287296479352748 0.036777542796228017 0 0.011355790730884037 0.036606481747410068 0 0.0095601198086793186 0.03487600513527344 0 0.0071829702553231562 0.036882309884164521 0 0.007535779182260091 0.037437477726597737 0 0.0079684547940076823 0.036769700446549057 0 0.007535779182260091 0.037437477726597737 0 0.0083474336869171339 0.037564759296409379 0 0.0079684547940076823 0.036769700446549057 0 0.011603510514019675 0.037198353375449897 0 0.0123333183518933 0.035926115574906374 0 0.0083474336869171339 0.037564759296409379 0 0.0092444908069859635 0.036414601920726861 0 0.0079684547940076823 0.036769700446549057 0 0.014886255965388531 0.036106543759559628 0 0.015631741675557378 0.036602944386514319 0 0.015780309294770804 0.035965512822279895 0 0.014886255965388531 0.036106543759559628 0 0.015480219300376455 0.035506454706843077 0 0.015780309294770804 0.035965512822279895 0 0.0092444908069859635 0.036414601920726861 0 0.0080939239233607692 0.035932933190154247 0 0.0090194895724727119 0.035365749766956056 0 0.0092444908069859635 0.036414601920726861 0 0.0080939239233607692 0.035932933190154247 0 0.0079684547940076823 0.036769700446549057 0 0.0071829702553231562 0.036882309884164521 0 0.0079684547940076823 0.036769700446549057 0 0.0073198840249018597 0.036145737135145919 0 0.0080939239233607692 0.035932933190154247 0 0.0079684547940076823 0.036769700446549057 0 0.0073198840249018597 0.036145737135145919 0 0.0080939239233607692 0.035932933190154247 0 0.0070918285770364894 0.035136040467727829 0 0.0086006304220620552 0.034296994692783724 0 0.0080939239233607692 0.035932933190154247 0 0.0073198840249018597 0.036145737135145919 0 0.0070918285770364894 0.035136040467727829 0 0.0090194895724727119 0.035365749766956056 0 0.0086006304220620552 0.034296994692783724 0 0.010157937188012832 0.035182118421081078 0 0.0080939239233607692 0.035932933190154247 0 0.0090194895724727119 0.035365749766956056 0 0.0086006304220620552 0.034296994692783724 0 0.0092444908069859635 0.036414601920726861 0 0.0090194895724727119 0.035365749766956056 0 0.010157937188012832 0.035182118421081078 0 0.009932964990459708 0.034868931143978737 0 0.013428882148498559 0.035213950976023721 0 0.0056292778181707172 0.035217095590538289 0 0.0045568246508231195 0.035090765761432274 0 0.0040012039127257874 0.034532683347776996 0 0.0038693664360659303 0.034421428486209528 0 0.0038041373545128323 0.034234075182517025 0 0.0065020671827476992 0.037316720039667392 0 0.0066033104232231417 0.036075780020883054 0 0.0053759476279227674 0.035753313258467742 0 0.0036964417290779876 0.034350118237897742 0 0.0038693664360659303 0.034421428486209528 0 0.0038041373545128323 0.034234075182517025 0 0.0071829702553231562 0.036882309884164521 0 0.0065020671827476992 0.037316720039667392 0 0.0066033104232231417 0.036075780020883054 0 0.0071829702553231562 0.036882309884164521 0 0.0073198840249018597 0.036145737135145919 0 0.0066033104232231417 0.036075780020883054 0 0.0070918285770364894 0.035136040467727829 0 0.0061964363847356371 0.035237585971647507 0 0.0058969152630017714 0.034280423418659174 0 0.0066033104232231417 0.036075780020883054 0 0.0070918285770364894 0.035136040467727829 0 0.0061964363847356371 0.035237585971647507 0 0.0073198840249018597 0.036145737135145919 0 0.0066033104232231417 0.036075780020883054 0 0.0070918285770364894 0.035136040467727829 0 0.0066033104232231417 0.036075780020883054 0 0.0061964363847356371 0.035237585971647507 0 0.0053759476279227674 0.035753313258467742 0 0.0061964363847356371 0.035237585971647507 0 0.0053759476279227674 0.035753313258467742 0 0.0058969152630017714 0.034280423418659174 0 0.0053759476279227674 0.035753313258467742 0 0.0058969152630017714 0.034280423418659174 0 0.0039958874123228703 0.033928316987181899 0 0.0058969152630017714 0.034280423418659174 0 0.005750426368425432 0.032702910760667558 0 0.0039958874123228703 0.033928316987181899 0 0.0070918285770364894 0.035136040467727829 0 0.0058969152630017714 0.034280423418659174 0 0.0070335804549525776 0.03342894290422245 0 0.0079458215545800421 0.033816407468382013 0 0.0058733985237798617 0.032753790767406116 0 0.0088681931708510936 0.034270735174863232 0 0.005750426368425432 0.032702910760667558 0 0.0089216601635829246 0.031916983943372619 0 0.0058969152630017714 0.034280423418659174 0 0.0070335804549525776 0.03342894290422245 0 0.005750426368425432 0.032702910760667558 0 0.011667752440023736 0.035353488540189437 0 0.014415404850161699 0.036633617601574686 0 0.013486398304762639 0.035181383493313872 0 0.011667752440023736 0.035353488540189437 0 0.013486398304762639 0.035181383493313872 0 0.013464331792982806 0.033356478222403611 0 0.0079458215545800421 0.033816407468382013 0 0.009932964990459708 0.034868931143978737 0 0.0070918285770364894 0.035136040467727829 0 0.0070335804549525776 0.03342894290422245 0 0.0086006304220620552 0.034296994692783724 0 0.0088681931708510936 0.034270735174863232 0 0.011138978884063766 0.032975506380009893 0 0.0089216601635829246 0.031916983943372619 0 0.0088681931708510936 0.034270735174863232 0 0.011667752440023736 0.035353488540189437 0 0.011138978884063766 0.032975506380009893 0 0.011138978884063766 0.032975506380009893 0 0.012656217779331437 0.031826888791353626 0 0.013464331792982806 0.033356478222403611 0 0.011667752440023736 0.035353488540189437 0 0.011138978884063766 0.032975506380009893 0 0.013464331792982806 0.033356478222403611 0 0.011138978884063766 0.032975506380009893 0 0.012656217779331437 0.031826888791353626 0 0.010904872833235052 0.031294059106741309 0 0.011138978884063766 0.032975506380009893 0 0.010904872833235052 0.031294059106741309 0 0.0089216601635829246 0.031916983943372619 0 0.010904872833235052 0.031294059106741309 0 0.0093823305673902384 0.029828992616969655 0 0.0089216601635829246 0.031916983943372619 0 0.010904872833235052 0.031294059106741309 0 0.0093823305673902384 0.029828992616969655 0 0.01234563056287127 0.029964391970047577 0 0.012656217779331437 0.031826888791353626 0 0.010904872833235052 0.031294059106741309 0 0.01234563056287127 0.029964391970047577 0 0.005750426368425432 0.032702910760667558 0 0.0066305759408543984 0.030763986634642627 0 0.003658202003316036 0.030588956952023492 0 0.005750426368425432 0.032702910760667558 0 0.0089216601635829246 0.031916983943372619 0 0.0066305759408543984 0.030763986634642627 0 0.0093823305673902384 0.029828992616969655 0 0.0089216601635829246 0.031916983943372619 0 0.0066305759408543984 0.030763986634642627 0 0.0093823305673902384 0.029828992616969655 0 0.0066305759408543984 0.030763986634642627 0 0.0060951515045953837 0.028942915442754458 0 0.0066305759408543984 0.030763986634642627 0 0.003658202003316036 0.030588956952023492 0 0.0060951515045953837 0.028942915442754458 0 0.0022283888298326678 0.031916583874550215 0 0.0032877393884507876 0.031384026387935429 0 0.005750426368425432 0.032702910760667558 0 0.0035028456051074881 0.032720045361017761 0 0.003658202003316036 0.030588956952023492 0 0.0035028456051074881 0.032720045361017761 0 0.003658202003316036 0.030588956952023492 0 0.0019060248800074153 0.032452829306535612 0 0.0035028456051074881 0.032720045361017761 0 0.0019060248800074153 0.032452829306535612 0 0.0027996505307630289 0.033329549566165101 0 0.0022283888298326678 0.031916583874550215 0 0.0019546873095054726 0.032341322682942826 0 0.00069697994429858878 0.033213488603024879 0 0.0019060248800074153 0.032452829306535612 0 0.0013933373992283493 0.033581402324743687 0 0.0019864099062572565 0.032982394062302273 0 0.0019060248800074153 0.032452829306535612 0 0.0013933373992283493 0.033581402324743687 0 0.0019864099062572565 0.032982394062302273 0 0.0019060248800074153 0.032452829306535612 0 0.0019895345731830551 0.032888783940541184 0 0.0019060248800074153 0.032452829306535612 0 0.0022194732709496087 0.033098127329027921 0 0.0019895345731830551 0.032888783940541184 0 0.0027996505307630289 0.033329549566165101 0 0.0022194732709496087 0.033098127329027921 0 0.0024156236519056024 0.033588230809985936 0 0.0019060248800074153 0.032452829306535612 0 0.0027996505307630289 0.033329549566165101 0 0.0022194732709496087 0.033098127329027921 0 0.0022194732709496087 0.033098127329027921 0 0.0020907184343914005 0.033361150393056246 0 0.0019895345731830551 0.032888783940541184 0 0.0022194732709496087 0.033098127329027921 0 0.0020907184343914005 0.033361150393056246 0 0.0024156236519056024 0.033588230809985936 0 0.0021015970348905256 0.03373137470234025 0 0.0020907184343914005 0.033361150393056246 0 0.0024156236519056024 0.033588230809985936 0 0.0031369308619958645 0.034048170783354474 0 0.0027996505307630289 0.033329549566165101 0 0.0024156236519056024 0.033588230809985936 0 0.0031369308619958645 0.034048170783354474 0 0.0027996505307630289 0.033329549566165101 0 0.0039958874123228703 0.033928316987181899 0 0.005750426368425432 0.032702910760667558 0 0.0035028456051074881 0.032720045361017761 0 0.0039958874123228703 0.033928316987181899 0 0.0035028456051074881 0.032720045361017761 0 0.0027996505307630289 0.033329549566165101 0 0.0039958874123228703 0.033928316987181899 0 0.022143670048433525 0.032501952240826575 0 0.023590456064325568 0.032617279474923135 0 0.023035300843924186 0.031585700469213419 0 0.022143670048433525 0.032501952240826575 0 0.023590456064325568 0.032617279474923135 0 0.022332568695183588 0.03407073944863602 0 0.024739781798429269 0.034157595374629049 0 0.023590456064325568 0.032617279474923135 0 0.023447234741202104 0.034660717398443848 0 0.023590456064325568 0.032617279474923135 0 0.023447234741202104 0.034660717398443848 0 0.022332568695183588 0.03407073944863602 0 0.024046855753060613 0.035899881971560937 0 0.023447234741202104 0.034660717398443848 0 0.022448119876400729 0.035500978098492633 0 0.024739781798429269 0.034157595374629049 0 0.024046855753060613 0.035899881971560937 0 0.023447234741202104 0.034660717398443848 0 0.023447234741202104 0.034660717398443848 0 0.022448119876400729 0.035500978098492633 0 0.022332568695183588 0.03407073944863602 0 0.022448119876400729 0.035500978098492633 0 0.022332568695183588 0.03407073944863602 0 0.021314273603404803 0.035137010055610061 0 0.022332568695183588 0.03407073944863602 0 0.021314273603404803 0.035137010055610061 0 0.021085142775455805 0.033617370011767685 0 0.02138656637218098 0.036067899788581485 0 0.022448119876400729 0.035500978098492633 0 0.021314273603404803 0.035137010055610061 0 0.020519942795836816 0.035952202366609329 0 0.02138656637218098 0.036067899788581485 0 0.021314273603404803 0.035137010055610061 0 0.020467562234366191 0.038211189318507172 0 0.019975761682325247 0.034522615716945586 0 0.020519942795836816 0.035952202366609329 0 0.021314273603404803 0.035137010055610061 0 0.020046494200399525 0.035126462436054558 0 0.020046494200399525 0.035126462436054558 0 0.021085142775455805 0.033617370011767685 0 0.019377141311817496 0.033521093532025849 0 0.021314273603404803 0.035137010055610061 0 0.020046494200399525 0.035126462436054558 0 0.021085142775455805 0.033617370011767685 0 0.021085142775455805 0.033617370011767685 0 0.020535623951460896 0.032198426374921825 0 0.019377141311817496 0.033521093532025849 0 0.022143670048433525 0.032501952240826575 0 0.022332568695183588 0.03407073944863602 0 0.021085142775455805 0.033617370011767685 0 0.022143670048433525 0.032501952240826575 0 0.021085142775455805 0.033617370011767685 0 0.020535623951460896 0.032198426374921825 0 0.018877521325995676 0.034964955005625901 0 0.017566550595395438 0.035172507120056942 0 0.018238935377052425 0.034160443914198195 0 0.019708300524307689 0.033573665959206703 0 0.018672255518841142 0.034666481688490437 0 0.018877521325995676 0.034964955005625901 0 0.017566550595395438 0.035172507120056942 0 0.017929202757851124 0.035724237641684302 0 0.016701632701495859 0.035113866075420386 0 0.017566550595395438 0.035172507120056942 0 0.017032689124836891 0.034530169931709015 0 0.016701632701495859 0.035113866075420386 0 0.017041208996866404 0.035402730966871909 0 0.016501737202696327 0.035391185895055445 0 0.016701632701495859 0.035113866075420386 0 0.017566550595395438 0.035172507120056942 0 0.017041208996866404 0.035402730966871909 0 0.017566550595395438 0.035172507120056942 0 0.017437501837125394 0.035564392511927445 0 0.017041208996866404 0.035402730966871909 0 0.017437501837125394 0.035564392511927445 0 0.017929202757851124 0.035724237641684302 0 0.017214195486446059 0.03573164874831404 0 0.017437501837125394 0.035564392511927445 0 0.017041208996866404 0.035402730966871909 0 0.017214195486446059 0.03573164874831404 0 0.017041208996866404 0.035402730966871909 0 0.017214195486446059 0.03573164874831404 0 0.016501737202696327 0.035391185895055445 0 0.017566550595395438 0.035172507120056942 0 0.017437501837125394 0.035564392511927445 0 0.017929202757851124 0.035724237641684302 0 0.020046494200399525 0.035126462436054558 0 0.019377141311817496 0.033521093532025849 0 0.017915415759190596 0.035862106558624283 0 0.018672255518841142 0.034666481688490437 0 0.017970971216023323 0.035813780224839498 0 0.019871867806410138 0.036949289488811779 0 0.018365898750802769 0.037031470615387738 0 0.020046494200399525 0.035126462436054558 0 0.018365898750802769 0.037031470615387738 0 0.020046494200399525 0.035126462436054558 0 0.017915415759190596 0.035862106558624283 0 0.018365898750802769 0.037031470615387738 0 0.017915415759190596 0.035862106558624283 0 0.017353201833391084 0.036944665318753928 0 0.017915415759190596 0.035862106558624283 0 0.017353201833391084 0.036944665318753928 0 0.016591376603085111 0.036277321389472532 0 0.017929202757851124 0.035724237641684302 0 0.017915415759190596 0.035862106558624283 0 0.017214195486446059 0.03573164874831404 0 0.017915415759190596 0.035862106558624283 0 0.017214195486446059 0.03573164874831404 0 0.016591376603085111 0.036277321389472532 0 0.017214195486446059 0.03573164874831404 0 0.016591376603085111 0.036277321389472532 0 0.016222396374615818 0.035618223004210789 0 0.016350399969213145 0.037530767501535729 0 0.017353201833391084 0.036944665318753928 0 0.016591376603085111 0.036277321389472532 0 0.016591376603085111 0.036277321389472532 0 0.015631741675557378 0.036602944386514319 0 0.015780309294770804 0.035965512822279895 0 0.016350399969213145 0.037530767501535729 0 0.016591376603085111 0.036277321389472532 0 0.015631741675557378 0.036602944386514319 0 0.016591376603085111 0.036277321389472532 0 0.015780309294770804 0.035965512822279895 0 0.016222396374615818 0.035618223004210789 0 0.0123333183518933 0.035926115574906374 0 0.013428882148498559 0.035213950976023721 0 0.015480219300376455 0.035506454706843077 0 0.015780309294770804 0.035965512822279895 0 0.016222396374615818 0.035618223004210789 0 0.015480219300376455 0.035506454706843077 0 0.016222396374615818 0.035618223004210789 0 0.015918448683959318 0.035288029016681613 0 0.016222396374615818 0.035618223004210789 0 0.01613932515756724 0.035374526369667904 0 0.015918448683959318 0.035288029016681613 0 0.017214195486446059 0.03573164874831404 0 0.016222396374615818 0.035618223004210789 0 0.016501737202696327 0.035391185895055445 0 0.016222396374615818 0.035618223004210789 0 0.016501737202696327 0.035391185895055445 0 0.01613932515756724 0.035374526369667904 0 0.016501737202696327 0.035391185895055445 0 0.01613932515756724 0.035374526369667904 0 0.016032816467689719 0.03523934422734095 0 0.016501737202696327 0.035391185895055445 0 0.016032816467689719 0.03523934422734095 0 0.016224348686335044 0.03518150488097449 0 0.016701632701495859 0.035113866075420386 0 0.016501737202696327 0.035391185895055445 0 0.016224348686335044 0.03518150488097449 0 0.016701632701495859 0.035113866075420386 0 0.016224348686335044 0.03518150488097449 0 0.016222247459702414 0.034886252009274761 0 0.015814131905609027 0.035147026185303999 0 0.016224348686335044 0.03518150488097449 0 0.016222247459702414 0.034886252009274761 0 0.016032816467689719 0.03523934422734095 0 0.015814131905609027 0.035147026185303999 0 0.016224348686335044 0.03518150488097449 0 0.014415404850161699 0.036633617601574686 0 0.014500411428912447 0.035340362117124768 0 0.015491298637235834 0.035094900013569991 0 0.016032816467689719 0.03523934422734095 0 0.015814131905609027 0.035147026185303999 0 0.01587031765361142 0.03514008773473621 0 0.013428882148498559 0.035213950976023721 0 0.0151810994836811 0.034923691995207534 0 0.015814131905609027 0.035147026185303999 0 0.01587031765361142 0.03514008773473621 0 0.015491298637235834 0.035094900013569991 0 0.015480219300376455 0.035506454706843077 0 0.01587031765361142 0.03514008773473621 0 0.015918448683959318 0.035288029016681613 0 0.016032816467689719 0.03523934422734095 0 0.01587031765361142 0.03514008773473621 0 0.015918448683959318 0.035288029016681613 0 0.01613932515756724 0.035374526369667904 0 0.016032816467689719 0.03523934422734095 0 0.015918448683959318 0.035288029016681613 0 0.014791413298160286 0.034303470151541775 0 0.013486398304762639 0.035181383493313872 0 0.013464331792982806 0.033356478222403611 0 0.014415404850161699 0.036633617601574686 0 0.013486398304762639 0.035181383493313872 0 0.014500411428912447 0.035340362117124768 0 0.014791413298160286 0.034303470151541775 0 0.014500411428912447 0.035340362117124768 0 0.015491298637235834 0.035094900013569991 0 0.014791413298160286 0.034303470151541775 0 0.013486398304762639 0.035181383493313872 0 0.014500411428912447 0.035340362117124768 0 0.015814131905609027 0.035147026185303999 0 0.015491298637235834 0.035094900013569991 0 0.016222247459702414 0.034886252009274761 0 0.015491298637235834 0.035094900013569991 0 0.016222247459702414 0.034886252009274761 0 0.01611069704085805 0.034005855786979712 0 0.016222247459702414 0.034886252009274761 0 0.01611069704085805 0.034005855786979712 0 0.017032689124836891 0.034530169931709015 0 0.014791413298160286 0.034303470151541775 0 0.015491298637235834 0.035094900013569991 0 0.01611069704085805 0.034005855786979712 0 0.014791413298160286 0.034303470151541775 0 0.01611069704085805 0.034005855786979712 0 0.015323033496130546 0.032909683030879232 0 0.01611069704085805 0.034005855786979712 0 0.015323033496130546 0.032909683030879232 0 0.016570159521423444 0.032392449687422081 0 0.014791413298160286 0.034303470151541775 0 0.015323033496130546 0.032909683030879232 0 0.013464331792982806 0.033356478222403611 0 0.012656217779331437 0.031826888791353626 0 0.013464331792982806 0.033356478222403611 0 0.014561935893388089 0.031233563757537691 0 0.015323033496130546 0.032909683030879232 0 0.013464331792982806 0.033356478222403611 0 0.014561935893388089 0.031233563757537691 0 0.01234563056287127 0.029964391970047577 0 0.014561935893388089 0.031233563757537691 0 0.013919744022827975 0.029221703237868067 0 0.012656217779331437 0.031826888791353626 0 0.01234563056287127 0.029964391970047577 0 0.014561935893388089 0.031233563757537691 0 0.014561935893388089 0.031233563757537691 0 0.016058912356354319 0.030805209438650786 0 0.015724091889993647 0.029329399247149956 0 0.014561935893388089 0.031233563757537691 0 0.015724091889993647 0.029329399247149956 0 0.013919744022827975 0.029221703237868067 0 0.015323033496130546 0.032909683030879232 0 0.014561935893388089 0.031233563757537691 0 0.016570159521423444 0.032392449687422081 0 0.014561935893388089 0.031233563757537691 0 0.016058912356354319 0.030805209438650786 0 0.016570159521423444 0.032392449687422081 0 0.016570159521423444 0.032392449687422081 0 0.017629018015918981 0.031387928353885146 0 0.018743994132294769 0.032710010785989264 0 0.016058912356354319 0.030805209438650786 0 0.016570159521423444 0.032392449687422081 0 0.017629018015918981 0.031387928353885146 0 0.016058912356354319 0.030805209438650786 0 0.017744104548101176 0.029776458659826793 0 0.015724091889993647 0.029329399247149956 0 0.016058912356354319 0.030805209438650786 0 0.017629018015918981 0.031387928353885146 0 0.017744104548101176 0.029776458659826793 0 0.017629018015918981 0.031387928353885146 0 0.017744104548101176 0.029776458659826793 0 0.018926774379316141 0.031128711208647908 0 0.017744104548101176 0.029776458659826793 0 0.018926774379316141 0.031128711208647908 0 0.020230491553860787 0.030139860574392545 0 0.017629018015918981 0.031387928353885146 0 0.018926774379316141 0.031128711208647908 0 0.018743994132294769 0.032710010785989264 0 0.018743994132294769 0.032710010785989264 0 0.017364134802132749 0.033490628783477673 0 0.018238935377052425 0.034160443914198195 0 0.016570159521423444 0.032392449687422081 0 0.018743994132294769 0.032710010785989264 0 0.017364134802132749 0.033490628783477673 0 0.01611069704085805 0.034005855786979712 0 0.016570159521423444 0.032392449687422081 0 0.017364134802132749 0.033490628783477673 0 0.017566550595395438 0.035172507120056942 0 0.017032689124836891 0.034530169931709015 0 0.018238935377052425 0.034160443914198195 0 0.017364134802132749 0.033490628783477673 0 0.017032689124836891 0.034530169931709015 0 0.018238935377052425 0.034160443914198195 0 0.01611069704085805 0.034005855786979712 0 0.017364134802132749 0.033490628783477673 0 0.017032689124836891 0.034530169931709015 0 0.016701632701495859 0.035113866075420386 0 0.016222247459702414 0.034886252009274761 0 0.017032689124836891 0.034530169931709015 0 0.019708300524307689 0.033573665959206703 0 0.020736345265065462 0.032467615080774802 0 0.018877521325995676 0.034964955005625901 0 0.018238935377052425 0.034160443914198195 0 0.020166332902771346 0.033483789742675518 0 0.020535623951460896 0.032198426374921825 0 0.021351488299275082 0.031523702246132074 0 0.022120745100017828 0.031685774678289411 0 0.022143670048433525 0.032501952240826575 0 0.020535623951460896 0.032198426374921825 0 0.022120745100017828 0.031685774678289411 0 0.020736345265065462 0.032467615080774802 0 0.02137738791320562 0.031427068693992498 0 0.021351488299275082 0.031523702246132074 0 0.021429435437295301 0.031378063274086085 0 0.022120745100017828 0.031685774678289411 0 0.018743994132294769 0.032710010785989264 0 0.020166332902771346 0.033483789742675518 0 0.021429435437295301 0.031378063274086085 0 0.018743994132294769 0.032710010785989264 0 0.018238935377052425 0.034160443914198195 0 0.020166332902771346 0.033483789742675518 0 0.018926774379316141 0.031128711208647908 0 0.018743994132294769 0.032710010785989264 0 0.021429435437295301 0.031378063274086085 0 0.018926774379316141 0.031128711208647908 0 0.020230491553860787 0.030139860574392545 0 0.021429435437295301 0.031378063274086085 0 0.020230491553860787 0.030139860574392545 0 0.021429435437295301 0.031378063274086085 0 0.022099211213803979 0.030254294086238257 0 0.022023604441159313 0.0319691877150153 0 0.02076818042716715 0.032089284559437617 0 0.021429435437295301 0.031378063274086085 0 0.022504523726315531 0.031492696820468027 0 0.022099211213803979 0.030254294086238257 0 0.022504523726315531 0.031492696820468027 0 0.022357851868354813 0.031952180472307135 0 0.022099211213803979 0.030254294086238257 0 0.02338231852591599 0.031388232176210333 0 0.022504523726315531 0.031492696820468027 0 0.022357851868354813 0.031952180472307135 0 0.024365668549422171 0.03131001740787219 0 0.02338231852591599 0.031388232176210333 0 0.023035300843924186 0.031585700469213419 0 0.02338231852591599 0.031388232176210333 0 0.022504523726315531 0.031492696820468027 0 0.023035300843924186 0.031585700469213419 0 0.021429435437295301 0.031378063274086085 0 0.022504523726315531 0.031492696820468027 0 0.022120745100017828 0.031685774678289411 0 0.022504523726315531 0.031492696820468027 0 0.022120745100017828 0.031685774678289411 0 0.023035300843924186 0.031585700469213419 0 0.022143670048433525 0.032501952240826575 0 0.022120745100017828 0.031685774678289411 0 0.023035300843924186 0.031585700469213419 0 0.024365668549422171 0.03131001740787219 0 0.023590456064325568 0.032617279474923135 0 0.023035300843924186 0.031585700469213419 0 0.020152853195561562 0.032641815484321685 0 0.017772694603106539 0.034336081261083999 0 0.019358202167458441 0.03375567411135711 0 0.020152853195561562 0.032641815484321685 0 0.017772694603106539 0.034336081261083999 0 0.017467782784027469 0.034810699761919826 0 0.017772694603106539 0.034336081261083999 0 0.019358202167458441 0.03375567411135711 0 0.017967157366685062 0.034539697638043189 0 0.020825003218633967 0.032955745653372552 0 0.020152853195561562 0.032641815484321685 0 0.019358202167458441 0.03375567411135711 0 0.020825003218633967 0.032955745653372552 0 0.019358202167458441 0.03375567411135711 0 0.021033621744746048 0.033212781003179224 0 0.022357851868354813 0.031952180472307135 0 0.021033621744746048 0.033212781003179224 0 0.019745282277855641 0.034211715557534744 0 0.019358202167458441 0.03375567411135711 0 0.019745282277855641 0.034211715557534744 0 0.017967157366685062 0.034539697638043189 0 0.019358202167458441 0.03375567411135711 0 0.021033621744746048 0.033212781003179224 0 0.019745282277855641 0.034211715557534744 0 0.019745282277855641 0.034211715557534744 0 0.017967157366685062 0.034539697638043189 0 0.017260009474973387 0.035294637391186247 0 0.02076818042716715 0.032089284559437617 0 0.01873455828021605 0.031834207855868706 0 0.020230491553860787 0.030139860574392545 0 0.022099211213803979 0.030254294086238257 0 0.02035562204401993 0.028378279385983796 0 0.020230491553860787 0.030139860574392545 0 0.02035562204401993 0.028378279385983796 0 0.018785641981266372 0.02859085097596378 0 0.01873455828021605 0.031834207855868706 0 0.016659601986681576 0.030907620719222786 0 0.017260009474973387 0.035294637391186247 0 0.016605249373106565 0.034872444125609081 0 0.015233929316047754 0.035873874576327673 0 0.017967157366685062 0.034539697638043189 0 0.017260009474973387 0.035294637391186247 0 0.016605249373106565 0.034872444125609081 0 0.017772694603106539 0.034336081261083999 0 0.017967157366685062 0.034539697638043189 0 0.016605249373106565 0.034872444125609081 0 0.017772694603106539 0.034336081261083999 0 0.016605249373106565 0.034872444125609081 0 0.016166883580692883 0.035035163247120901 0 0.016605249373106565 0.034872444125609081 0 0.015548933010292284 0.035142312844949695 0 0.016166883580692883 0.035035163247120901 0 0.016605249373106565 0.034872444125609081 0 0.015548933010292284 0.035142312844949695 0 0.014989117330813709 0.035427992542293826 0 0.015548933010292284 0.035142312844949695 0 0.014989117330813709 0.035427992542293826 0 0.01447854606718631 0.035333924187034051 0 0.014989117330813709 0.035427992542293826 0 0.014001082013621925 0.035525389243986426 0 0.01447854606718631 0.035333924187034051 0 0.014989117330813709 0.035427992542293826 0 0.014001082013621925 0.035525389243986426 0 0.013955052988482687 0.035802428316553933 0 0.014001082013621925 0.035525389243986426 0 0.013316030508011242 0.035539826154977278 0 0.013657422134786212 0.035416088700601506 0 0.014001082013621925 0.035525389243986426 0 0.013377975370609975 0.035717849328116821 0 0.013316030508011242 0.035539826154977278 0 0.014001082013621925 0.035525389243986426 0 0.013955052988482687 0.035802428316553933 0 0.013377975370609975 0.035717849328116821 0 0.013955052988482687 0.035802428316553933 0 0.013389171413108549 0.036150141752521688 0 0.013377975370609975 0.035717849328116821 0 0.016659601986681576 0.030907620719222786 0 0.014102415725253942 0.033426845762896874 0 0.013955052988482687 0.035802428316553933 0 0.015233929316047754 0.035873874576327673 0 0.013592729179148479 0.035992504868368427 0 0.018189043475063095 0.026774243966458628 0 0.016511582967409313 0.02700170854222262 0 0.015896336952947066 0.025369705560703122 0 0.013374787516058643 0.034786416729086791 0 0.014102415725253942 0.033426845762896874 0 0.014989117330813709 0.035427992542293826 0 0.013955052988482687 0.035802428316553933 0 0.015233929316047754 0.035873874576327673 0 0.016605249373106565 0.034872444125609081 0 0.014989117330813709 0.035427992542293826 0 0.015233929316047754 0.035873874576327673 0 0.02035562204401993 0.028378279385983796 0 0.018189043475063095 0.026774243966458628 0 0.018785641981266372 0.02859085097596378 0 0.018189043475063095 0.026774243966458628 0 0.018785641981266372 0.02859085097596378 0 0.017337403872078917 0.028125546064541221 0 0.017744104548101176 0.029776458659826793 0 0.020230491553860787 0.030139860574392545 0 0.018785641981266372 0.02859085097596378 0 0.017744104548101176 0.029776458659826793 0 0.018785641981266372 0.02859085097596378 0 0.017337403872078917 0.028125546064541221 0 0.017337403872078917 0.028125546064541221 0 0.015950744260166308 0.027838805722753872 0 0.015724091889993647 0.029329399247149956 0 0.017744104548101176 0.029776458659826793 0 0.017337403872078917 0.028125546064541221 0 0.015724091889993647 0.029329399247149956 0 0.018189043475063095 0.026774243966458628 0 0.017337403872078917 0.028125546064541221 0 0.016511582967409313 0.02700170854222262 0 0.017337403872078917 0.028125546064541221 0 0.016511582967409313 0.02700170854222262 0 0.015950744260166308 0.027838805722753872 0 0.016511582967409313 0.02700170854222262 0 0.015186158903587458 0.026905692805710948 0 0.015950744260166308 0.027838805722753872 0 0.015186158903587458 0.026905692805710948 0 0.015950744260166308 0.027838805722753872 0 0.014818506224851946 0.02821499909440231 0 0.014818506224851946 0.02821499909440231 0 0.015724091889993647 0.029329399247149956 0 0.013919744022827975 0.029221703237868067 0 0.015950744260166308 0.027838805722753872 0 0.014818506224851946 0.02821499909440231 0 0.015724091889993647 0.029329399247149956 0 0.013919744022827975 0.029221703237868067 0 0.013491698300072626 0.027669038616465278 0 0.012777256317618925 0.028639948934319519 0 0.014818506224851946 0.02821499909440231 0 0.013919744022827975 0.029221703237868067 0 0.013491698300072626 0.027669038616465278 0 0.01234563056287127 0.029964391970047577 0 0.013919744022827975 0.029221703237868067 0 0.012777256317618925 0.028639948934319519 0 0.015186158903587458 0.026905692805710948 0 0.013491698300072626 0.027669038616465278 0 0.013942093467306521 0.026148795387507872 0 0.015186158903587458 0.026905692805710948 0 0.014818506224851946 0.02821499909440231 0 0.013491698300072626 0.027669038616465278 0 0.013491698300072626 0.027669038616465278 0 0.013942093467306521 0.026148795387507872 0 0.011921782885435338 0.026893595430149367 0 0.012438143918310144 0.035949802761216038 0 0.012548900107885869 0.036165344554600728 0 0.012054078636691756 0.03632163452271308 0 0.012438143918310144 0.035949802761216038 0 0.012548900107885869 0.036165344554600728 0 0.012828534945909806 0.035881796286315125 0 0.016511582967409313 0.02700170854222262 0 0.015186158903587458 0.026905692805710948 0 0.015896336952947066 0.025369705560703122 0 0.015186158903587458 0.026905692805710948 0 0.013942093467306521 0.026148795387507872 0 0.015896336952947066 0.025369705560703122 0 0.012548900107885869 0.036165344554600728 0 0.013051572157619968 0.035991048979237855 0 0.012828534945909806 0.035881796286315125 0 0.013985601296351364 0.030714948306926733 0 0.014102415725253942 0.033426845762896874 0 0.014102415725253942 0.033426845762896874 0 0.013467251876078381 0.035130302389252639 0 0.012828534945909806 0.035881796286315125 0 0.013377975370609975 0.035717849328116821 0 0.012871859402528583 0.035631578145291519 0 0.012828534945909806 0.035881796286315125 0 0.012871859402528583 0.035631578145291519 0 0.012553467316662657 0.03572360111835525 0 0.013389171413108549 0.036150141752521688 0 0.012828534945909806 0.035881796286315125 0 0.013377975370609975 0.035717849328116821 0 0.013316030508011242 0.035539826154977278 0 0.012871859402528583 0.035631578145291519 0 0.012831024805570555 0.035483006132077624 0 0.013377975370609975 0.035717849328116821 0 0.013316030508011242 0.035539826154977278 0 0.012871859402528583 0.035631578145291519 0 0.012871859402528583 0.035631578145291519 0 0.012553467316662657 0.03572360111835525 0 0.012610440576106758 0.035521674333842901 0 0.012448910105935991 0.035570546422276139 0 0.012365389800928274 0.035421993976460897 0 0.012206003065601066 0.035846065530098808 0 0.012448910105935991 0.035570546422276139 0 0.012553467316662657 0.03572360111835525 0 0.012610440576106758 0.035521674333842901 0 0.012448910105935991 0.035570546422276139 0 0.012553467316662657 0.03572360111835525 0 0.012206003065601066 0.035846065530098808 0 0.012438143918310144 0.035949802761216038 0 0.012553467316662657 0.03572360111835525 0 0.012206003065601066 0.035846065530098808 0 0.012438143918310144 0.035949802761216038 0 0.012828534945909806 0.035881796286315125 0 0.012553467316662657 0.03572360111835525 0 0.012419638704816787 0.035461444141483084 0 0.012610440576106758 0.035521674333842901 0 0.012442079048492293 0.035458483729508966 0 0.012419638704816787 0.035461444141483084 0 0.012442079048492293 0.035458483729508966 0 0.012273957159087022 0.035483991804305663 0 0.012419638704816787 0.035461444141483084 0 0.012365389800928274 0.035421993976460897 0 0.012273957159087022 0.035483991804305663 0 0.012448910105935991 0.035570546422276139 0 0.012419638704816787 0.035461444141483084 0 0.012365389800928274 0.035421993976460897 0 0.012448910105935991 0.035570546422276139 0 0.012419638704816787 0.035461444141483084 0 0.012610440576106758 0.035521674333842901 0 0.012871859402528583 0.035631578145291519 0 0.012610440576106758 0.035521674333842901 0 0.012831024805570555 0.035483006132077624 0 0.013316030508011242 0.035539826154977278 0 0.012831024805570555 0.035483006132077624 0 0.013087835850307608 0.035451004890301126 0 0.012831024805570555 0.035483006132077624 0 0.012724552846626739 0.035456691055071536 0 0.013087835850307608 0.035451004890301126 0 0.012724552846626739 0.035456691055071536 0 0.013087835850307608 0.035451004890301126 0 0.013013876939313404 0.035438798985960911 0 0.012831024805570555 0.035483006132077624 0 0.012724552846626739 0.035456691055071536 0 0.012442079048492293 0.035458483729508966 0 0.012610440576106758 0.035521674333842901 0 0.012831024805570555 0.035483006132077624 0 0.012442079048492293 0.035458483729508966 0 0.012442079048492293 0.035458483729508966 0 0.011803539651202398 0.035666144519759156 0 0.012273957159087022 0.035483991804305663 0 0.012442079048492293 0.035458483729508966 0 0.012397607608990656 0.035519454271438891 0 0.011803539651202398 0.035666144519759156 0 0.012724552846626739 0.035456691055071536 0 0.012397607608990656 0.035519454271438891 0 0.013013876939313404 0.035438798985960911 0 0.012724552846626739 0.035456691055071536 0 0.012442079048492293 0.035458483729508966 0 0.012397607608990656 0.035519454271438891 0 0.012397607608990656 0.035519454271438891 0 0.011946753005976052 0.035569974152190119 0 0.012806356078890337 0.035440765265063505 0 0.012397607608990656 0.035519454271438891 0 0.011803539651202398 0.035666144519759156 0 0.011946753005976052 0.035569974152190119 0 0.00017070460346567913 0.034710973184820304 0 0.00038519532667019633 0.034352387294600127 0 0.00016647684410809772 0.034507118000948939 0 0.0061265538513628117 0.034962032597342402 0 0.0082213289816672665 0.034972474911716768 0 0.012365389800928274 0.035421993976460897 0 0.012273957159087022 0.035483991804305663 0 0.012229011385099658 0.035673829811988807 0 0.012026406758684565 0.035735316144854014 0 0.0082213289816672665 0.034972474911716768 0 0.011803539651202398 0.035666144519759156 0 0.012273957159087022 0.035483991804305663 0 0.012229011385099658 0.035673829811988807 0 0.0097293914097374475 0.036992665157116543 0 0.0093498148908044976 0.036035526901231615 0 0.0088069461965788083 0.036659020791526518 0 0.011223357531642324 0.035731187809771144 0 0.010277630890836038 0.035601863513039463 0 0.011310691580815055 0.035634679638557619 0 0.0082213289816672665 0.034972474911716768 0 0.010311080887538873 0.035846901685705333 0 0.0097293914097374475 0.036992665157116543 0 0.0093498148908044976 0.036035526901231615 0 0.010277630890836038 0.035601863513039463 0 0.0082213289816672665 0.034972474911716768 0 0.0042402279700630196 0.035858341290337561 0 0.011803539651202398 0.035666144519759156 0 0.011223357531642324 0.035731187809771144 0 0.011310691580815055 0.035634679638557619 0 0.0093498148908044976 0.036035526901231615 0 0.010277630890836038 0.035601863513039463 0 0.0086305573088501404 0.034999168409559078 0 0.010277630890836038 0.035601863513039463 0 0.010441130276018961 0.034999665172764004 0 0.0086305573088501404 0.034999168409559078 0 0.010441130276018961 0.034999665172764004 0 0.011617384465312016 0.035489785406907448 0 0.012135093108484721 0.035305197867089293 0 0.010277630890836038 0.035601863513039463 0 0.010441130276018961 0.034999665172764004 0 0.011617384465312016 0.035489785406907448 0 0.010277630890836038 0.035601863513039463 0 0.011617384465312016 0.035489785406907448 0 0.011310691580815055 0.035634679638557619 0 0.011803539651202398 0.035666144519759156 0 0.011310691580815055 0.035634679638557619 0 0.011946753005976052 0.035569974152190119 0 0.011617384465312016 0.035489785406907448 0 0.011946753005976052 0.035569974152190119 0 0.012806356078890337 0.035440765265063505 0 0.011617384465312016 0.035489785406907448 0 0.011310691580815055 0.035634679638557619 0 0.011946753005976052 0.035569974152190119 0 0.012135093108484721 0.035305197867089293 0 0.013423825633942447 0.035283787028340723 0 0.012806356078890337 0.035440765265063505 0 0.011617384465312016 0.035489785406907448 0 0.012135093108484721 0.035305197867089293 0 0.012806356078890337 0.035440765265063505 0 0.010441130276018961 0.034999665172764004 0 0.012135093108484721 0.035305197867089293 0 0.012251371272887309 0.034999286087733297 0 0.012135093108484721 0.035305197867089293 0 0.012251371272887309 0.034999286087733297 0 0.013423825633942447 0.035283787028340723 0 0.012251371272887309 0.034999286087733297 0 0.013423825633942447 0.035283787028340723 0 0.014061864907601127 0.034999305231744653 0 0.013423825633942447 0.035283787028340723 0 0.014394850110257689 0.035290289639153323 0 0.014784772926373854 0.035304797078992971 0 0.014394850110257689 0.035290289639153323 0 0.012806356078890337 0.035440765265063505 0 0.013648525898006025 0.035383952215920743 0 0.013423825633942447 0.035283787028340723 0 0.014394850110257689 0.035290289639153323 0 0.012806356078890337 0.035440765265063505 0 0.012397607608990656 0.035519454271438891 0 0.012806356078890337 0.035440765265063505 0 0.013013876939313404 0.035438798985960911 0 0.012806356078890337 0.035440765265063505 0 0.013013876939313404 0.035438798985960911 0 0.013648525898006025 0.035383952215920743 0 0.013013876939313404 0.035438798985960911 0 0.013648525898006025 0.035383952215920743 0 0.013657422134786212 0.035416088700601506 0 0.013087835850307608 0.035451004890301126 0 0.013013876939313404 0.035438798985960911 0 0.013657422134786212 0.035416088700601506 0 0.013316030508011242 0.035539826154977278 0 0.013087835850307608 0.035451004890301126 0 0.013657422134786212 0.035416088700601506 0 0.014001082013621925 0.035525389243986426 0 0.013657422134786212 0.035416088700601506 0 0.01447854606718631 0.035333924187034051 0 0.013648525898006025 0.035383952215920743 0 0.013657422134786212 0.035416088700601506 0 0.01447854606718631 0.035333924187034051 0 0.015548933010292284 0.035142312844949695 0 0.014394850110257689 0.035290289639153323 0 0.01447854606718631 0.035333924187034051 0 0.014394850110257689 0.035290289639153323 0 0.013648525898006025 0.035383952215920743 0 0.01447854606718631 0.035333924187034051 0 0.015548933010292284 0.035142312844949695 0 0.014394850110257689 0.035290289639153323 0 0.016166883580692883 0.035035163247120901 0 0.017772694603106539 0.034336081261083999 0 0.016166883580692883 0.035035163247120901 0 0.017467782784027469 0.034810699761919826 0 0.016166883580692883 0.035035163247120901 0 0.0160048612213501 0.035383642436969662 0 0.017467782784027469 0.034810699761919826 0 0.016166883580692883 0.035035163247120901 0 0.014784772926373854 0.035304797078992971 0 0.0160048612213501 0.035383642436969662 0 0.014394850110257689 0.035290289639153323 0 0.016166883580692883 0.035035163247120901 0 0.014784772926373854 0.035304797078992971 0 0.013423825633942447 0.035283787028340723 0 0.014784772926373854 0.035304797078992971 0 0.014061864907601127 0.034999305231744653 0 0.014061864907601127 0.034999305231744653 0 0.0160048612213501 0.035383642436969662 0 0.015871829348077043 0.034999453844462847 0 0.014784772926373854 0.035304797078992971 0 0.014061864907601127 0.034999305231744653 0 0.0160048612213501 0.035383642436969662 0 0.0160048612213501 0.035383642436969662 0 0.015871829348077043 0.034999453844462847 0 0.016923502668937287 0.035377064627162301 0 0.0160048612213501 0.035383642436969662 0 0.016923502668937287 0.035377064627162301 0 0.017242541211181069 0.035587217974410147 0 0.01768252185055752 0.03499947112821674 0 0.015871829348077043 0.034999453844462847 0 0.016923502668937287 0.035377064627162301 0 0.017987376190810145 0.035531496087121667 0 0.016923502668937287 0.035377064627162301 0 0.017242541211181069 0.035587217974410147 0 0.0160048612213501 0.035383642436969662 0 0.017242541211181069 0.035587217974410147 0 0.017467782784027469 0.034810699761919826 0 0.019083153637285338 0.034739206747248882 0 0.017785226690542402 0.034811429381650272 0 0.017702110850628429 0.036695847373075227 0 0.017242541211181069 0.035587217974410147 0 0.017467782784027469 0.034810699761919826 0 0.00044257978467044344 0.034662546517769739 0 0.00061809317651763092 0.035177071209336198 0 0.00093019114845940181 0.034445769953014967 0 0.00061809317651763092 0.035177071209336198 0 0.00033931359962433575 0.035027473957506251 0 0.00044680454531445855 0.035358700284985584 0 0.00044257978467044344 0.034662546517769739 0 0.00061809317651763092 0.035177071209336198 0 0.00033931359962433575 0.035027473957506251 0 0.00061809317651763092 0.035177071209336198 0 0.00089181846350249588 0.035623693957945145 0 0.0012071635383756672 0.0348004611373008 0 0.00061809317651763092 0.035177071209336198 0 0.00089181846350249588 0.035623693957945145 0 0.00058955894746288127 0.035530565318855754 0 0.00089181846350249588 0.035623693957945145 0 0.0016355399625111824 0.03521366112994382 0 0.0019066084179500996 0.035606620921002613 0 0.00089181846350249588 0.035623693957945145 0 0.0016355399625111824 0.03521366112994382 0 0.0012071635383756672 0.0348004611373008 0 0.0012071635383756672 0.0348004611373008 0 0.0014809322466430843 0.034130056873329873 0 0.0018221643714014604 0.034593987486410321 0 0.0016355399625111824 0.03521366112994382 0 0.0012071635383756672 0.0348004611373008 0 0.0018221643714014604 0.034593987486410321 0 0.0012071635383756672 0.0348004611373008 0 0.0014809322466430843 0.034130056873329873 0 0.00093019114845940181 0.034445769953014967 0 0.00061809317651763092 0.035177071209336198 0 0.0012071635383756672 0.0348004611373008 0 0.00093019114845940181 0.034445769953014967 0 0.0014809322466430843 0.034130056873329873 0 0.0013933373992283493 0.033581402324743687 0 0.00093019114845940181 0.034445769953014967 0 0.0014809322466430843 0.034130056873329873 0 0.0018221643714014604 0.034593987486410321 0 0.0020098798831700068 0.033958822614439534 0 0.0014809322466430843 0.034130056873329873 0 0.0018162385985964974 0.033582973919841864 0 0.0020098798831700068 0.033958822614439534 0 0.0014809322466430843 0.034130056873329873 0 0.0018162385985964974 0.033582973919841864 0 0.0013933373992283493 0.033581402324743687 0 0.0019864099062572565 0.032982394062302273 0 0.0018162385985964974 0.033582973919841864 0 0.0013933373992283493 0.033581402324743687 0 0.00069697994429858878 0.033213488603024879 0 0.0013933373992283493 0.033581402324743687 0 0.00056837366047087694 0.034051609367348322 0 0.0013933373992283493 0.033581402324743687 0 0.00093019114845940181 0.034445769953014967 0 0.00056837366047087694 0.034051609367348322 0 0.00044257978467044344 0.034662546517769739 0 0.00093019114845940181 0.034445769953014967 0 0.00056837366047087694 0.034051609367348322 0 0.00044257978467044344 0.034662546517769739 0 0.00056837366047087694 0.034051609367348322 0 0.00019301911275288001 0.034364439534844894 0 0.00069697994429858878 0.033213488603024879 0 0.00056837366047087694 0.034051609367348322 0 0.00019183931435913585 0.033852326400358478 0 0.00019183931435913585 0.033852326400358478 0 -3.061144439556521e-05 0.03428354110278925 0 0.00019301911275288001 0.034364439534844894 0 0.00056837366047087694 0.034051609367348322 0 0.00019183931435913585 0.033852326400358478 0 0.00019301911275288001 0.034364439534844894 0 0.0093823305673902384 0.029828992616969655 0 0.0060951515045953837 0.028942915442754458 0 0.0089916542236580486 0.027622180167350747 0 0.0032877393884507876 0.031384026387935429 0 0.0039394582336092863 0.030877550602160013 0 -3.061144439556521e-05 0.03428354110278925 0 -2.629549290009745e-06 0.03453695755928772 0 0.00019301911275288001 0.034364439534844894 0 0.012777256317618925 0.028639948934319519 0 0.011375499208560732 0.028390336405872449 0 0.011921782885435338 0.026893595430149367 0 0.01234563056287127 0.029964391970047577 0 0.012777256317618925 0.028639948934319519 0 0.011375499208560732 0.028390336405872449 0 0.0093823305673902384 0.029828992616969655 0 0.01234563056287127 0.029964391970047577 0 0.011375499208560732 0.028390336405872449 0 0.0093823305673902384 0.029828992616969655 0 0.0089916542236580486 0.027622180167350747 0 0.011375499208560732 0.028390336405872449 0 -3.061144439556521e-05 0.03428354110278925 0 -2.629549290009745e-06 0.03453695755928772 0 -0.00017785157345749287 0.034535032540988927 0 0.0039394582336092863 0.030877550602160013 0 0.0088733558243632889 0.032017349869778028 0 0.0089916542236580486 0.027622180167350747 0 0.011375499208560732 0.028390336405872449 0 0.01183447601567051 0.026441673432650956 0 0.011878284012825759 0.026341393440752967 0 0.0088733558243632889 0.032017349869778028 0 0.013985601296351364 0.030714948306926733 0 0.0088733558243632889 0.032017349869778028 0 0.013491698300072626 0.027669038616465278 0 0.012777256317618925 0.028639948934319519 0 0.011921782885435338 0.026893595430149367 0 -0.00017785157345749287 0.034535032540988927 0 -0.00012599287550474215 0.034768236900509591 0 -8.6814619112476576e-05 0.034682688734624038 0 0.0088733558243632889 0.032017349869778028 0 0.0056968860335169921 0.036093782919567968 0 0.012438143918310144 0.035949802761216038 0 0.012054078636691756 0.03632163452271308 0 0.012206003065601066 0.035846065530098808 0 -0.00017785157345749287 0.034535032540988927 0 -0.00012599287550474215 0.034768236900509591 0 -0.00011609049906962479 0.034852930063091495 0 -2.629549290009745e-06 0.03453695755928772 0 -0.00017785157345749287 0.034535032540988927 0 -8.6814619112476576e-05 0.034682688734624038 0 -0.00012599287550474215 0.034768236900509591 0 -8.6814619112476576e-05 0.034682688734624038 0 -0.00014324209440907655 0.034876973772750806 0 -8.6814619112476576e-05 0.034682688734624038 0 -1.0500374387817034e-05 0.03492532644265562 0 4.2303281047759851e-05 0.034779843757513723 0 -2.629549290009745e-06 0.03453695755928772 0 -8.6814619112476576e-05 0.034682688734624038 0 4.2303281047759851e-05 0.034779843757513723 0 -8.6814619112476576e-05 0.034682688734624038 0 -1.0500374387817034e-05 0.03492532644265562 0 -0.00014324209440907655 0.034876973772750806 0 -1.0500374387817034e-05 0.03492532644265562 0 -0.00014324209440907655 0.034876973772750806 0 -5.7727178939857084e-05 0.035120090594507027 0 0.00017070460346567913 0.034710973184820304 0 -1.7330836847271416e-05 0.034782041991599018 0 -0.00011609049906962479 0.034852930063091495 0 0.0061265538513628117 0.034962032597342402 0 0.0056968860335169921 0.036093782919567968 0 -0.00012599287550474215 0.034768236900509591 0 -0.00014324209440907655 0.034876973772750806 0 -0.00011609049906962479 0.034852930063091495 0 -0.00014324209440907655 0.034876973772750806 0 -1.7330836847271416e-05 0.034782041991599018 0 -0.00011609049906962479 0.034852930063091495 0 0.00044257978467044344 0.034662546517769739 0 0.00017626182771054177 0.034729467220254051 0 0.00033931359962433575 0.035027473957506251 0 0.00044257978467044344 0.034662546517769739 0 0.00019301911275288001 0.034364439534844894 0 0.00017626182771054177 0.034729467220254051 0 -2.629549290009745e-06 0.03453695755928772 0 0.00019301911275288001 0.034364439534844894 0 0.00017626182771054177 0.034729467220254051 0 -2.629549290009745e-06 0.03453695755928772 0 0.00017626182771054177 0.034729467220254051 0 4.2303281047759851e-05 0.034779843757513723 0 0.00017626182771054177 0.034729467220254051 0 4.2303281047759851e-05 0.034779843757513723 0 0.00015055659636987334 0.034997153737443255 0 -1.0500374387817034e-05 0.03492532644265562 0 4.2303281047759851e-05 0.034779843757513723 0 0.00015055659636987334 0.034997153737443255 0 -1.0500374387817034e-05 0.03492532644265562 0 0.00015055659636987334 0.034997153737443255 0 0.0001077819355162624 0.035201098930055817 0 0.00015055659636987334 0.034997153737443255 0 0.00033931359962433575 0.035027473957506251 0 0.00026627663571809727 0.035259013996246556 0 0.00017626182771054177 0.034729467220254051 0 0.00015055659636987334 0.034997153737443255 0 0.00033931359962433575 0.035027473957506251 0 0.00033931359962433575 0.035027473957506251 0 0.00026627663571809727 0.035259013996246556 0 0.00044680454531445855 0.035358700284985584 0 0.00026627663571809727 0.035259013996246556 0 0.0003650843376210765 0.035480765148748886 0 0.00044680454531445855 0.035358700284985584 0 0.00015055659636987334 0.034997153737443255 0 0.00026627663571809727 0.035259013996246556 0 0.0001077819355162624 0.035201098930055817 0 0.00026627663571809727 0.035259013996246556 0 0.0001077819355162624 0.035201098930055817 0 0.00017355405121732297 0.035430059279040742 0 0.00017355405121732297 0.035430059279040742 0 -1.1354637218652083e-05 0.035400734802324335 0 7.324577534005119e-05 0.035638493692440258 0 0.0001077819355162624 0.035201098930055817 0 0.00017355405121732297 0.035430059279040742 0 -1.1354637218652083e-05 0.035400734802324335 0 0.00026627663571809727 0.035259013996246556 0 0.00017355405121732297 0.035430059279040742 0 0.0003650843376210765 0.035480765148748886 0 0.00017355405121732297 0.035430059279040742 0 0.0003650843376210765 0.035480765148748886 0 0.00036563160975224668 0.035695151162528645 0 -0.00014324209440907655 0.034876973772750806 0 -1.7330836847271416e-05 0.034782041991599018 0 -9.7869349932397845e-06 0.034647737698803291 0 -9.4830710079021432e-05 0.034911211382807797 0 -0.0004261832223512075 0.034872247309901329 0 0.00017070460346567913 0.034710973184820304 0 -9.7869349932397845e-06 0.034647737698803291 0 0.00016647684410809772 0.034507118000948939 0 0.00017070460346567913 0.034710973184820304 0 -1.7330836847271416e-05 0.034782041991599018 0 -9.7869349932397845e-06 0.034647737698803291 0 0.0001077819355162624 0.035201098930055817 0 -5.7727178939857084e-05 0.035120090594507027 0 -1.1354637218652083e-05 0.035400734802324335 0 -0.00014324209440907655 0.034876973772750806 0 -0.00023238492274198965 0.035266245631048312 0 -5.7727178939857084e-05 0.035120090594507027 0 -0.00023238492274198965 0.035266245631048312 0 -5.7727178939857084e-05 0.035120090594507027 0 -1.1354637218652083e-05 0.035400734802324335 0 -1.0500374387817034e-05 0.03492532644265562 0 0.0001077819355162624 0.035201098930055817 0 -5.7727178939857084e-05 0.035120090594507027 0 -9.7869349932397845e-06 0.034647737698803291 0 0.00016647684410809772 0.034507118000948939 0 0.00012447178439422004 0.034307095878390675 0 -0.00023238492274198965 0.035266245631048312 0 -1.1354637218652083e-05 0.035400734802324335 0 -0.00023594618437585902 0.035574235121384065 0 -0.0004261832223512075 0.034872247309901329 0 0.0042402279700630196 0.035858341290337561 0 0.00038519532667019633 0.034352387294600127 0 0.00016647684410809772 0.034507118000948939 0 0.00012447178439422004 0.034307095878390675 0 0.0093498148908044976 0.036035526901231615 0 0.0088069461965788083 0.036659020791526518 0 0.0086305573088501404 0.034999168409559078 0 0.0082034631755948904 0.036949147858467188 0 0.0065497491000235351 0.036619142543781978 0 0.0075543176939169452 0.035852462210570493 0 -1.1354637218652083e-05 0.035400734802324335 0 -0.00023594618437585902 0.035574235121384065 0 7.324577534005119e-05 0.035638493692440258 0 0.0042402279700630196 0.035858341290337561 0 0.0032658952362772508 0.036166316792801863 0 0.0065497491000235351 0.036619142543781978 0 0.0075543176939169452 0.035852462210570493 0 0.0065326844257930739 0.03499999391534022 0 0.0075543176939169452 0.035852462210570493 0 0.0086290941512113164 0.034999989245597739 0 0.0065326844257930739 0.03499999391534022 0 0.0042402279700630196 0.035858341290337561 0 0.008631801210490354 0.035000938071270915 0 0.0082034631755948904 0.036949147858467188 0 0.0075543176939169452 0.035852462210570493 0 0.0086290941512113164 0.034999989245597739 0 0.0003650843376210765 0.035480765148748886 0 0.00036563160975224668 0.035695151162528645 0 0.000492601918335596 0.035611641161676429 0 0.00017355405121732297 0.035430059279040742 0 7.324577534005119e-05 0.035638493692440258 0 0.00036563160975224668 0.035695151162528645 0 0.0032658952362772508 0.036166316792801863 0 0.0026264836363477577 0.035983363129092311 0 0.0065497491000235351 0.036619142543781978 0 0.0048755158266022003 0.036287113974116665 0 0.0065326844257930739 0.03499999391534022 0 0.0048755158266022003 0.036287113974116665 0 0.0065326844257930739 0.03499999391534022 0 0.0044361909185693209 0.034999979918656748 0 0.0048755158266022003 0.036287113974116665 0 0.0044361909185693209 0.034999979918656748 0 0.0031980073460958105 0.035951405529314889 0 0.0044361909185693209 0.034999979918656748 0 0.0031980073460958105 0.035951405529314889 0 0.0023398167504178613 0.035000048856184858 0 0.00055969290311735193 0.03564234718249433 0 0.00047362783219290574 0.035608707021177743 0 0.00041487246334382858 0.035429003538855613 0 0.0031980073460958105 0.035951405529314889 0 0.0023398167504178613 0.035000048856184858 0 0.0015151904485205636 0.035617323658603067 0 0.0018694038644032525 0.03579152046413913 0 0.00093627568321658051 0.035516509511271568 0 0.00055969290311735193 0.03564234718249433 0 0.00054328163329294982 0.035659300282992634 0 0.00047362783219290574 0.035608707021177743 0 0.00055969290311735193 0.03564234718249433 0 0.00054328163329294982 0.035659300282992634 0 0.000492601918335596 0.035611641161676429 0 0.0026264836363477577 0.035983363129092311 0 0.0018694038644032525 0.03579152046413913 0 0.00036563160975224668 0.035695151162528645 0 0.00055969290311735193 0.03564234718249433 0 0.000492601918335596 0.035611641161676429 0 0.0003650843376210765 0.035480765148748886 0 0.000492601918335596 0.035611641161676429 0 0.00052181136119659115 0.035561767983427993 0 0.00054328163329294982 0.035659300282992634 0 0.000492601918335596 0.035611641161676429 0 0.00052181136119659115 0.035561767983427993 0 0.00054328163329294982 0.035659300282992634 0 0.00052181136119659115 0.035561767983427993 0 0.00056275653081309484 0.035765060532325046 0 0.00052181136119659115 0.035561767983427993 0 0.00058955894746288127 0.035530565318855754 0 0.00044680454531445855 0.035358700284985584 0 0.00061809317651763092 0.035177071209336198 0 0.00058955894746288127 0.035530565318855754 0 0.00044680454531445855 0.035358700284985584 0 0.00052181136119659115 0.035561767983427993 0 0.00058955894746288127 0.035530565318855754 0 0.00056275653081309484 0.035765060532325046 0 0.0003650843376210765 0.035480765148748886 0 0.00052181136119659115 0.035561767983427993 0 0.00044680454531445855 0.035358700284985584 0 0.00068605894727711148 0.035649059268065726 0 0.00098715186906932163 0.036210856385616753 0 0.00089181846350249588 0.035623693957945145 0 0.0001838897515853897 0.036152184444824605 0 -0.00024513123949334876 0.036583681762029752 0 0.0001838897515853897 0.036152184444824605 0 0.00012387576173795219 0.03604042310081404 0 -0.00014562315770370293 0.036246082074064156 0 0.00049479396166133194 0.03589492080162926 0 0.0001838897515853897 0.036152184444824605 0 0.00012387576173795219 0.03604042310081404 0 0.00089181846350249588 0.035623693957945145 0 0.00049479396166133194 0.03589492080162926 0 0.0001838897515853897 0.036152184444824605 0 0.00089181846350249588 0.035623693957945145 0 0.00049479396166133194 0.03589492080162926 0 0.00056275653081309484 0.035765060532325046 0 0.00089181846350249588 0.035623693957945145 0 0.00058955894746288127 0.035530565318855754 0 0.00056275653081309484 0.035765060532325046 0 0.00049479396166133194 0.03589492080162926 0 0.00056275653081309484 0.035765060532325046 0 0.00041980206473915446 0.035855606209468836 0 0.00054328163329294982 0.035659300282992634 0 0.00056275653081309484 0.035765060532325046 0 0.00039254156855683431 0.035731512152446271 0 0.00056275653081309484 0.035765060532325046 0 0.00041980206473915446 0.035855606209468836 0 0.00039254156855683431 0.035731512152446271 0 0.00041980206473915446 0.035855606209468836 0 4.3937858052896059e-05 0.035928784550823864 0 0.00039254156855683431 0.035731512152446271 0 0.00049479396166133194 0.03589492080162926 0 0.00041980206473915446 0.035855606209468836 0 0.00012387576173795219 0.03604042310081404 0 0.00041980206473915446 0.035855606209468836 0 0.00012387576173795219 0.03604042310081404 0 4.3937858052896059e-05 0.035928784550823864 0 0.00012387576173795219 0.03604042310081404 0 4.3937858052896059e-05 0.035928784550823864 0 -0.0001200635959515237 0.036131150085877313 0 7.7562350041578555e-05 0.03572295437108617 0 -0.00024875242924433651 0.035861447196327702 0 -0.00024447217058783165 0.035679411558426535 0 4.3937858052896059e-05 0.035928784550823864 0 7.7562350041578555e-05 0.03572295437108617 0 -0.00024875242924433651 0.035861447196327702 0 4.3937858052896059e-05 0.035928784550823864 0 7.7562350041578555e-05 0.03572295437108617 0 0.00039254156855683431 0.035731512152446271 0 7.7562350041578555e-05 0.03572295437108617 0 0.00039254156855683431 0.035731512152446271 0 0.00032696979586379509 0.035596178169602595 0 7.7562350041578555e-05 0.03572295437108617 0 0.00032696979586379509 0.035596178169602595 0 4.1950312307070528e-05 0.03552287769779594 0 4.1950312307070528e-05 0.03552287769779594 0 -0.00028928374719140276 0.03549050450120269 0 -0.00024447217058783165 0.035679411558426535 0 7.7562350041578555e-05 0.03572295437108617 0 4.1950312307070528e-05 0.03552287769779594 0 -0.00024447217058783165 0.035679411558426535 0 0.00054328163329294982 0.035659300282992634 0 0.00039254156855683431 0.035731512152446271 0 0.00047362783219290574 0.035608707021177743 0 0.00039254156855683431 0.035731512152446271 0 0.00032696979586379509 0.035596178169602595 0 0.00047362783219290574 0.035608707021177743 0 0.00032696979586379509 0.035596178169602595 0 0.00047362783219290574 0.035608707021177743 0 0.00041487246334382858 0.035429003538855613 0 0.0023398167504178613 0.035000048856184858 0 0.0015151904485205636 0.035617323658603067 0 0.00024301223313984833 0.034999831207771344 0 0.0015151904485205636 0.035617323658603067 0 0.00024301223313984833 0.034999831207771344 0 -0.00019276626388082751 0.035205142255655068 0 0.00041487246334382858 0.035429003538855613 0 4.1950312307070528e-05 0.03552287769779594 0 -0.00019276626388082751 0.035205142255655068 0 0.00093627568321658051 0.035516509511271568 0 -0.00011793426049701202 0.0352370054551054 0 4.1950312307070528e-05 0.03552287769779594 0 -0.00019276626388082751 0.035205142255655068 0 -0.00028928374719140276 0.03549050450120269 0 0.00032696979586379509 0.035596178169602595 0 0.00041487246334382858 0.035429003538855613 0 4.1950312307070528e-05 0.03552287769779594 0 0.00024301223313984833 0.034999831207771344 0 -0.00019276626388082751 0.035205142255655068 0 -0.0018530932692401058 0.034999537540486021 0 -0.00019276626388082751 0.035205142255655068 0 -0.00087016258565214652 0.035395922930616809 0 -0.0018530932692401058 0.034999537540486021 0 -0.00019276626388082751 0.035205142255655068 0 -0.00028928374719140276 0.03549050450120269 0 -0.00087016258565214652 0.035395922930616809 0 -0.00087016258565214652 0.035395922930616809 0 -0.0014974191620197638 0.035554978675209056 0 -0.0006275702030286484 0.035614333344387281 0 -0.00028928374719140276 0.03549050450120269 0 -0.00087016258565214652 0.035395922930616809 0 -0.0006275702030286484 0.035614333344387281 0 -0.0018530932692401058 0.034999537540486021 0 -0.0014974191620197638 0.035554978675209056 0 -0.0022081264283724377 0.035488225781639432 0 -0.00087016258565214652 0.035395922930616809 0 -0.0018530932692401058 0.034999537540486021 0 -0.0014974191620197638 0.035554978675209056 0 -0.0014974191620197638 0.035554978675209056 0 -0.0010621110837519419 0.03598721027756549 0 -0.00093905941822778553 0.035753937529809328 0 -0.0014974191620197638 0.035554978675209056 0 -0.0017067296721815573 0.036123898145013482 0 -0.0010621110837519419 0.03598721027756549 0 -0.0014974191620197638 0.035554978675209056 0 -0.0017067296721815573 0.036123898145013482 0 -0.0023473735073866048 0.035890601915982132 0 -0.0014974191620197638 0.035554978675209056 0 -0.0006275702030286484 0.035614333344387281 0 -0.00093905941822778553 0.035753937529809328 0 -0.0010621110837519419 0.03598721027756549 0 -0.000600526301750478 0.035837237568719989 0 -0.00093905941822778553 0.035753937529809328 0 -0.0010621110837519419 0.03598721027756549 0 -0.000600526301750478 0.035837237568719989 0 -0.00062069624331475279 0.036024419479215211 0 -0.000600526301750478 0.035837237568719989 0 -0.00045857021883763388 0.03593044894036878 0 -0.00062069624331475279 0.036024419479215211 0 -0.00045857021883763388 0.03593044894036878 0 -0.00024875242924433651 0.035861447196327702 0 -0.00032878453748048009 0.035996391147971867 0 -0.000600526301750478 0.035837237568719989 0 -0.00045857021883763388 0.03593044894036878 0 -0.00024875242924433651 0.035861447196327702 0 -0.000600526301750478 0.035837237568719989 0 -0.00024875242924433651 0.035861447196327702 0 -0.00024447217058783165 0.035679411558426535 0 -0.000600526301750478 0.035837237568719989 0 -0.00024447217058783165 0.035679411558426535 0 -0.0006275702030286484 0.035614333344387281 0 -0.00028928374719140276 0.03549050450120269 0 -0.00024447217058783165 0.035679411558426535 0 -0.0006275702030286484 0.035614333344387281 0 -0.000600526301750478 0.035837237568719989 0 -0.0006275702030286484 0.035614333344387281 0 -0.00093905941822778553 0.035753937529809328 0 -0.0039483589419595667 0.034999682236322639 0 -0.0031351103256965695 0.03550202583012959 0 -0.003667841512963703 0.035762239356612997 0 -0.0039494455927337174 0.034999316748906731 0 -0.0041413650937641858 0.036826888995003589 0 -0.0018530932692401058 0.034999537540486021 0 -0.0039483589419595667 0.034999682236322639 0 -0.0031351103256965695 0.03550202583012959 0 -0.0018530932692401058 0.034999537540486021 0 -0.0031351103256965695 0.03550202583012959 0 -0.0022081264283724377 0.035488225781639432 0 -0.0031351103256965695 0.03550202583012959 0 -0.0022081264283724377 0.035488225781639432 0 -0.0023473735073866048 0.035890601915982132 0 -0.0031351103256965695 0.03550202583012959 0 -0.0023473735073866048 0.035890601915982132 0 -0.0030254138887208207 0.036164553839122732 0 -0.0014974191620197638 0.035554978675209056 0 -0.0022081264283724377 0.035488225781639432 0 -0.0023473735073866048 0.035890601915982132 0 -0.0017067296721815573 0.036123898145013482 0 -0.0023473735073866048 0.035890601915982132 0 -0.0022377662466666489 0.036518202813456864 0 -0.0023473735073866048 0.035890601915982132 0 -0.0030254138887208207 0.036164553839122732 0 -0.0022377662466666489 0.036518202813456864 0 -0.003667841512963703 0.035762239356612997 0 -0.0030254138887208207 0.036164553839122732 0 -0.0038195533512901361 0.03658068157525695 0 -0.0031351103256965695 0.03550202583012959 0 -0.003667841512963703 0.035762239356612997 0 -0.0030254138887208207 0.036164553839122732 0 -0.0030254138887208207 0.036164553839122732 0 -0.0028539113700557311 0.036877661015875307 0 -0.0038195533512901361 0.03658068157525695 0 -0.00208295700867561 0.033880616351744906 0 -0.0058610607306454707 0.031926440973074836 0 -0.0019553986559250999 0.03066948654499245 0 -0.0026005654084633296 0.031387802916926617 0 -0.0033601305420162802 0.030216246239856137 0 -0.0028539113700557311 0.036877661015875307 0 -0.0022377662466666489 0.036518202813456864 0 -0.0016236927074855733 0.037163549303372526 0 -0.00208295700867561 0.033880616351744906 0 -0.00052845053743819667 0.034795982654756225 0 -0.0030254138887208207 0.036164553839122732 0 -0.0028539113700557311 0.036877661015875307 0 -0.0022377662466666489 0.036518202813456864 0 -0.0016547736372029313 0.031578672149617723 0 -0.00079688765806353642 0.032187687206877071 0 -0.0023610690781551563 0.032443833629373656 0 -0.0019553986559250999 0.03066948654499245 0 -0.0016547736372029313 0.031578672149617723 0 -0.00055380037510783966 0.031136331854292616 0 -0.0016547736372029313 0.031578672149617723 0 -0.00055380037510783966 0.031136331854292616 0 -0.00079688765806353642 0.032187687206877071 0 -0.0026005654084633296 0.031387802916926617 0 -0.0023610690781551563 0.032443833629373656 0 -0.0036361209325077317 0.031458388092373342 0 -0.0019553986559250999 0.03066948654499245 0 -0.0016547736372029313 0.031578672149617723 0 -0.0026005654084633296 0.031387802916926617 0 -0.0016547736372029313 0.031578672149617723 0 -0.0026005654084633296 0.031387802916926617 0 -0.0023610690781551563 0.032443833629373656 0 -0.00061929987846754385 0.036292842427330045 0 -0.00034672088458053666 0.03620818235377516 0 -0.0004803349224734093 0.036137419932281187 0 -0.00061929987846754385 0.036292842427330045 0 -0.0004803349224734093 0.036137419932281187 0 -0.00075439204645037479 0.036214119417622509 0 -0.00061929987846754385 0.036292842427330045 0 -0.00075439204645037479 0.036214119417622509 0 -0.00095188404860983009 0.036380952009088488 0 -0.00061929987846754385 0.036292842427330045 0 -0.0007525522348215579 0.036417865156492049 0 -0.00049001941446912651 0.036354667656338546 0 -0.00061929987846754385 0.036292842427330045 0 -0.0007525522348215579 0.036417865156492049 0 -0.00095188404860983009 0.036380952009088488 0 -0.00061929987846754385 0.036292842427330045 0 -0.00049001941446912651 0.036354667656338546 0 -0.00034672088458053666 0.03620818235377516 0 -0.00049001941446912651 0.036354667656338546 0 -0.00034672088458053666 0.03620818235377516 0 -0.00014562315770370293 0.036246082074064156 0 0.00012387576173795219 0.03604042310081404 0 -0.0001200635959515237 0.036131150085877313 0 -0.00014562315770370293 0.036246082074064156 0 -0.00034672088458053666 0.03620818235377516 0 -0.0001200635959515237 0.036131150085877313 0 -0.00014562315770370293 0.036246082074064156 0 4.3937858052896059e-05 0.035928784550823864 0 -0.0001200635959515237 0.036131150085877313 0 -0.00023926457182402809 0.036079214960765528 0 -0.00034672088458053666 0.03620818235377516 0 -0.0001200635959515237 0.036131150085877313 0 -0.00023926457182402809 0.036079214960765528 0 -0.00034672088458053666 0.03620818235377516 0 -0.00023926457182402809 0.036079214960765528 0 -0.0004803349224734093 0.036137419932281187 0 4.3937858052896059e-05 0.035928784550823864 0 -0.00024875242924433651 0.035861447196327702 0 -0.00032878453748048009 0.035996391147971867 0 -0.00023926457182402809 0.036079214960765528 0 -0.00032878453748048009 0.035996391147971867 0 -0.0004803349224734093 0.036137419932281187 0 4.3937858052896059e-05 0.035928784550823864 0 -0.00023926457182402809 0.036079214960765528 0 -0.00032878453748048009 0.035996391147971867 0 -0.00045857021883763388 0.03593044894036878 0 -0.00032878453748048009 0.035996391147971867 0 -0.00062069624331475279 0.036024419479215211 0 -0.0010621110837519419 0.03598721027756549 0 -0.00062069624331475279 0.036024419479215211 0 -0.00075439204645037479 0.036214119417622509 0 -0.00032878453748048009 0.035996391147971867 0 -0.00062069624331475279 0.036024419479215211 0 -0.0004803349224734093 0.036137419932281187 0 -0.00062069624331475279 0.036024419479215211 0 -0.0004803349224734093 0.036137419932281187 0 -0.00075439204645037479 0.036214119417622509 0 -0.0010621110837519419 0.03598721027756549 0 -0.00075439204645037479 0.036214119417622509 0 -0.0011227623686417356 0.036264241855415026 0 -0.0017067296721815573 0.036123898145013482 0 -0.0010621110837519419 0.03598721027756549 0 -0.0011227623686417356 0.036264241855415026 0 -0.00075439204645037479 0.036214119417622509 0 -0.0011227623686417356 0.036264241855415026 0 -0.00095188404860983009 0.036380952009088488 0 -0.0017067296721815573 0.036123898145013482 0 -0.0011227623686417356 0.036264241855415026 0 -0.0014527946627196251 0.036557048073106196 0 -0.0017067296721815573 0.036123898145013482 0 -0.0022377662466666489 0.036518202813456864 0 -0.0014527946627196251 0.036557048073106196 0 -0.0012055157912608556 0.036675869446775748 0 -0.00052845053743819667 0.034795982654756225 0 -0.0014527946627196251 0.036557048073106196 0 -0.0010486090065510998 0.036536130034589352 0 -0.0014402859587919741 0.036759740970881367 0 -0.0022377662466666489 0.036518202813456864 0 -0.0014527946627196251 0.036557048073106196 0 -0.0016236927074855733 0.037163549303372526 0 -0.0014527946627196251 0.036557048073106196 0 -0.00095188404860983009 0.036380952009088488 0 -0.0010486090065510998 0.036536130034589352 0 -0.0011227623686417356 0.036264241855415026 0 -0.0014527946627196251 0.036557048073106196 0 -0.00095188404860983009 0.036380952009088488 0 -0.0007525522348215579 0.036417865156492049 0 -0.0010486090065510998 0.036536130034589352 0 -0.00071836981693694285 0.036524743022709048 0 -0.0007525522348215579 0.036417865156492049 0 -0.00095188404860983009 0.036380952009088488 0 -0.0010486090065510998 0.036536130034589352 0 -0.00052845053743819667 0.034795982654756225 0 0.00098715186906932163 0.036210856385616753 0 -0.0010486090065510998 0.036536130034589352 0 -0.0014402859587919741 0.036759740970881367 0 -0.00071836981693694285 0.036524743022709048 0 0.0022429592164904246 0.035890529190733114 0 0.0014521859166828303 0.033110057421935797 0 0.0020508020399411177 0.035567453755122769 0 0.0019515692451641386 0.035546146906424894 0 0.0020632446794923071 0.035490002991749474 0 -0.0014402859587919741 0.036759740970881367 0 -0.00071836981693694285 0.036524743022709048 0 -0.00024513123949334876 0.036583681762029752 0 -0.00052845053743819667 0.034795982654756225 0 0.0014521859166828303 0.033110057421935797 0 0.0020508020399411177 0.035567453755122769 0 0.0019515692451641386 0.035546146906424894 0 0.0019066084179500996 0.035606620921002613 0 -0.00071836981693694285 0.036524743022709048 0 -0.00033585376529203336 0.03641007277794929 0 -0.00024513123949334876 0.036583681762029752 0 -0.00049001941446912651 0.036354667656338546 0 -0.00071836981693694285 0.036524743022709048 0 -0.00033585376529203336 0.03641007277794929 0 -0.0007525522348215579 0.036417865156492049 0 -0.00049001941446912651 0.036354667656338546 0 -0.00071836981693694285 0.036524743022709048 0 0.0001838897515853897 0.036152184444824605 0 -0.00013189499216888724 0.036345114255602586 0 -0.00024513123949334876 0.036583681762029752 0 -0.00014562315770370293 0.036246082074064156 0 -0.00033585376529203336 0.03641007277794929 0 -0.00013189499216888724 0.036345114255602586 0 -0.00049001941446912651 0.036354667656338546 0 -0.00014562315770370293 0.036246082074064156 0 -0.00033585376529203336 0.03641007277794929 0 -0.00033585376529203336 0.03641007277794929 0 -0.00013189499216888724 0.036345114255602586 0 -0.00024513123949334876 0.036583681762029752 0 0.0001838897515853897 0.036152184444824605 0 -0.00014562315770370293 0.036246082074064156 0 -0.00013189499216888724 0.036345114255602586 0 0.0016355399625111824 0.03521366112994382 0 0.0019515692451641386 0.035546146906424894 0 0.0019066084179500996 0.035606620921002613 0 0.0016355399625111824 0.03521366112994382 0 0.0019515692451641386 0.035546146906424894 0 0.0020455604395027598 0.03509166272324251 0 0.0016355399625111824 0.03521366112994382 0 0.0020455604395027598 0.03509166272324251 0 0.0018221643714014604 0.034593987486410321 0 0.0020455604395027598 0.03509166272324251 0 0.0018221643714014604 0.034593987486410321 0 0.0023035604713866134 0.03474702780514189 0 0.0018221643714014604 0.034593987486410321 0 0.0023035604713866134 0.03474702780514189 0 0.0022675912407012183 0.034298356928717022 0 0.0023035604713866134 0.03474702780514189 0 0.0022675912407012183 0.034298356928717022 0 0.0027692006684567911 0.034489118832190087 0 0.0020455604395027598 0.03509166272324251 0 0.0023035604713866134 0.03474702780514189 0 0.0027027434039538292 0.03528224564725408 0 0.0023035604713866134 0.03474702780514189 0 0.0027027434039538292 0.03528224564725408 0 0.0027692006684567911 0.034489118832190087 0 0.0019515692451641386 0.035546146906424894 0 0.0020455604395027598 0.03509166272324251 0 0.0027027434039538292 0.03528224564725408 0 0.0014521859166828303 0.033110057421935797 0 0.0027212532142649958 0.032540212545866622 0 0.0027280643100300104 0.02956878503081074 0 0.0014471425559643642 0.029766986832119039 0 0.0024444978736569705 0.030911816838418375 0 0.0014521859166828303 0.033110057421935797 0 0.00021138050339570511 0.031005022736675641 0 0.00021138050339570511 0.031005022736675641 0 -0.0059951398218861633 0.029327373108566292 0 0.0014471425559643642 0.029766986832119039 0 0.0011101553539748421 0.030850986445642235 0 9.3531256391678704e-05 0.029972248670603739 0 0.0011101553539748421 0.030850986445642235 0 0.0016859858157647265 0.03150522821167509 0 0.00098476982381098203 0.031959671841806606 0 0.0011101553539748421 0.030850986445642235 0 0.0024444978736569705 0.030911816838418375 0 0.0016859858157647265 0.03150522821167509 0 0.0014471425559643642 0.029766986832119039 0 0.0011101553539748421 0.030850986445642235 0 0.0024444978736569705 0.030911816838418375 0 0.0027692006684567911 0.034489118832190087 0 0.0026118124368839598 0.033869446785392117 0 0.0024291990497876258 0.033831336907409686 0 0.0027212532142649958 0.032540212545866622 0 0.0023637070641907018 0.033180133578574661 0 0.0024444978736569705 0.030911816838418375 0 0.0021995158668497152 0.032311380897482887 0 0.0016859858157647265 0.03150522821167509 0 0.0021995158668497152 0.032311380897482887 0 0.00098476982381098203 0.031959671841806606 0 0.0015079091763255874 0.032801385790042326 0 0.0021995158668497152 0.032311380897482887 0 0.0016859858157647265 0.03150522821167509 0 0.00098476982381098203 0.031959671841806606 0 0.0015079091763255874 0.032801385790042326 0 0.00079301447378846276 0.033203159173422224 0 0.0020426811551210052 0.033756150127581902 0 0.0021995158668497152 0.032311380897482887 0 0.0015079091763255874 0.032801385790042326 0 0.0020426811551210052 0.033756150127581902 0 0.00098476982381098203 0.031959671841806606 0 0.0015079091763255874 0.032801385790042326 0 0.00079301447378846276 0.033203159173422224 0 0.0026118124368839598 0.033869446785392117 0 0.0023947962411605614 0.03380123643137814 0 0.0020426811551210052 0.033756150127581902 0 0.0023637070641907018 0.033180133578574661 0 0.0020985210157451542 0.033737813203910359 0 0.0026118124368839598 0.033869446785392117 0 0.0023947962411605614 0.03380123643137814 0 0.0024291990497876258 0.033831336907409686 0 0.0023947962411605614 0.03380123643137814 0 0.0024291990497876258 0.033831336907409686 0 0.002453291706488499 0.033886586168452394 0 0.0024243184195384604 0.033671968404868288 0 0.0025110482185183268 0.033947156388619462 0 0.0021625956081068294 0.033417973683340277 0 0.0024291990497876258 0.033831336907409686 0 0.0024126208600337234 0.033229172109434831 0 0.0019864099062572565 0.032982394062302273 0 0.0018162385985964974 0.033582973919841864 0 0.0021625956081068294 0.033417973683340277 0 0.0021625956081068294 0.033417973683340277 0 0.0020098798831700068 0.033958822614439534 0 0.0024291990497876258 0.033831336907409686 0 0.0018162385985964974 0.033582973919841864 0 0.0021625956081068294 0.033417973683340277 0 0.0020098798831700068 0.033958822614439534 0 0.0018221643714014604 0.034593987486410321 0 0.0022675912407012183 0.034298356928717022 0 0.0020098798831700068 0.033958822614439534 0 0.0022675912407012183 0.034298356928717022 0 0.0027692006684567911 0.034489118832190087 0 0.0024291990497876258 0.033831336907409686 0 0.0022675912407012183 0.034298356928717022 0 0.0020098798831700068 0.033958822614439534 0 0.0024291990497876258 0.033831336907409686 0 -0.017632286779599524 0.024070656991990239 0 -0.015568579303758309 0.02657332437492858 0 -0.017674591111565077 0.023996603642453838 0 -0.017985837449552362 0.02346272117200628 0 -0.018215345476687073 0.024494426690701464 0 -0.017674591111565077 0.023996603642453838 0 -0.017466672554596066 0.023445971231019186 0 -0.017985837449552362 0.02346272117200628 0 -0.017161957631334171 0.024136974563521596 0 -0.017466672554596066 0.023445971231019186 0 -0.016910237955416126 0.023213670332805126 0 -0.017674591111565077 0.023996603642453838 0 -0.017161957631334171 0.024136974563521596 0 -0.017561880877873443 0.024536872648118959 0 -0.017674591111565077 0.023996603642453838 0 -0.017161957631334171 0.024136974563521596 0 -0.017466672554596066 0.023445971231019186 0 -0.017466672554596066 0.023445971231019186 0 -0.016910237955416126 0.023213670332805126 0 -0.01729066004068678 0.023014488894365151 0 -0.017466672554596066 0.023445971231019186 0 -0.017556241794951889 0.023112153782838495 0 -0.01729066004068678 0.023014488894365151 0 -0.017556241794951889 0.023112153782838495 0 -0.017985837449552362 0.02346272117200628 0 -0.017630389653105212 0.022869097833958973 0 -0.017632286779599524 0.024070656991990239 0 -0.017340231521611012 0.023426531463155015 0 -0.017466672554596066 0.023445971231019186 0 -0.017556241794951889 0.023112153782838495 0 -0.017985837449552362 0.02346272117200628 0 -0.016980581384169188 0.025063599802639495 0 -0.01763643939966518 0.024405515128671396 0 -0.017052078967417603 0.023818411947475242 0 -0.016980581384169188 0.025063599802639495 0 -0.01763643939966518 0.024405515128671396 0 -0.017832723669958941 0.025586716361352166 0 -0.012676272764274405 0.025302316772589886 0 -0.0083348226207730948 0.028276803327999232 0 -0.0016834708348271263 0.030312050927262125 0 -0.0083348226207730948 0.028276803327999232 0 -0.0073165454198455436 0.027034794650729076 0 -0.0056921622857620327 0.026671030985607275 0 -0.006963327845741058 0.025548426978688626 0 0.00098476982381098203 0.031959671841806606 0 0.00079301447378846276 0.033203159173422224 0 -0.00042563318671931635 0.032121446352720094 0 0.00098476982381098203 0.031959671841806606 0 -0.00042563318671931635 0.032121446352720094 0 -0.00014963282823924454 0.031033737576865603 0 -0.0083348226207730948 0.028276803327999232 0 -0.0047341884616389019 0.029709356344749662 0 -0.016980581384169188 0.025063599802639495 0 -0.017832723669958941 0.025586716361352166 0 -0.017007366735680266 0.026351673928159288 0 -0.0095179064247977608 0.029532651809535911 0 -0.0092149833037758859 0.028227484604435391 0 -0.010698528210684516 0.028462406034083381 0 -0.0083348226207730948 0.028276803327999232 0 -0.015568579303758309 0.02657332437492858 0 -0.0092149833037758859 0.028227484604435391 0 -0.01061633010153182 0.027214870089560861 0 -0.010698528210684516 0.028462406034083381 0 -0.0047341884616389019 0.029709356344749662 0 -0.0059951398218861633 0.029327373108566292 0 0.0011101553539748421 0.030850986445642235 0 -0.00014963282823924454 0.031033737576865603 0 9.3531256391678704e-05 0.029972248670603739 0 0.0011101553539748421 0.030850986445642235 0 0.00098476982381098203 0.031959671841806606 0 -0.00014963282823924454 0.031033737576865603 0 -0.0023610690781551563 0.032443833629373656 0 -0.0039222401298164506 0.032696102409936791 0 -0.0036361209325077317 0.031458388092373342 0 -0.01168569735530745 0.027825536084209866 0 -0.012747655206529408 0.02713236625151912 0 -0.011376546350566308 0.026333794838241439 0 -0.0059951398218861633 0.029327373108566292 0 -0.013449709786667544 0.027506589933789197 0 -0.013449709786667544 0.027506589933789197 0 -0.013655756687563197 0.02641544518578022 0 -0.012747655206529408 0.02713236625151912 0 -0.013681744894286562 0.028207915817126117 0 -0.013589298441895686 0.026182221102204788 0 -0.01168569735530745 0.027825536084209866 0 -0.012747655206529408 0.02713236625151912 0 -0.013681744894286562 0.028207915817126117 0 -0.0092149833037758859 0.028227484604435391 0 -0.0089039357445369373 0.026916781955311518 0 -0.01061633010153182 0.027214870089560861 0 -0.013842901204450276 0.027420715431918225 0 -0.014274969344934475 0.026928916988539123 0 -0.013589298441895686 0.026182221102204788 0 -0.014274969344934475 0.026928916988539123 0 -0.014911774313338491 0.02693953889372247 0 -0.014781405856959943 0.026413532106502973 0 -0.014274969344934475 0.026928916988539123 0 -0.014911774313338491 0.02693953889372247 0 -0.014484629908466138 0.027560426789990409 0 -0.014911774313338491 0.02693953889372247 0 -0.014484629908466138 0.027560426789990409 0 -0.014966206807355088 0.027565955514309598 0 -0.013842901204450276 0.027420715431918225 0 -0.014274969344934475 0.026928916988539123 0 -0.014484629908466138 0.027560426789990409 0 -0.013449709786667544 0.027506589933789197 0 -0.014323886896962906 0.027586545705667032 0 -0.013860815505303336 0.027441566148822927 0 -0.014484629908466138 0.027560426789990409 0 -0.01391927690209473 0.028460577467317449 0 -0.013449709786667544 0.027506589933789197 0 -0.015568579303758309 0.02657332437492858 0 -0.015568579303758309 0.02657332437492858 0 -0.016275935396615024 0.026353157247951148 0 -0.014484629908466138 0.027560426789990409 0 -0.01391927690209473 0.028460577467317449 0 -0.014966206807355088 0.027565955514309598 0 -0.017561880877873443 0.024536872648118959 0 -0.018215345476687073 0.024494426690701464 0 -0.017500135423098796 0.025313178251085706 0 -0.017674591111565077 0.023996603642453838 0 -0.017561880877873443 0.024536872648118959 0 -0.018215345476687073 0.024494426690701464 0 -0.017161957631334171 0.024136974563521596 0 -0.017125906371744656 0.024864183565211122 0 -0.016653373962598594 0.0248321089757002 0 -0.017161957631334171 0.024136974563521596 0 -0.017561880877873443 0.024536872648118959 0 -0.017125906371744656 0.024864183565211122 0 -0.017125906371744656 0.024864183565211122 0 -0.016642183951191429 0.025346938500061957 0 -0.017500135423098796 0.025313178251085706 0 -0.017561880877873443 0.024536872648118959 0 -0.017125906371744656 0.024864183565211122 0 -0.017500135423098796 0.025313178251085706 0 -0.017125906371744656 0.024864183565211122 0 -0.016642183951191429 0.025346938500061957 0 -0.016653373962598594 0.0248321089757002 0 -0.014911774313338491 0.02693953889372247 0 -0.014966206807355088 0.027565955514309598 0 -0.01615408331007109 0.026142311683307953 0 -0.016642183951191429 0.025346938500061957 0 -0.017500135423098796 0.025313178251085706 0 -0.01615408331007109 0.026142311683307953 0 -0.014911774313338491 0.02693953889372247 0 -0.014781405856959943 0.026413532106502973 0 -0.01615408331007109 0.026142311683307953 0 -0.016275935396615024 0.026353157247951148 0 -0.016174776557463456 0.026223390375367549 0 -0.015444234505665207 0.025955590486865181 0 -0.014781405856959943 0.026413532106502973 0 -0.01615408331007109 0.026142311683307953 0 -0.015444234505665207 0.025955590486865181 0 -0.01615408331007109 0.026142311683307953 0 -0.015956238150135502 0.025616623623039715 0 -0.015444234505665207 0.025955590486865181 0 -0.014781405856959943 0.026413532106502973 0 -0.014757531939766432 0.02559000302089379 0 -0.014274969344934475 0.026928916988539123 0 -0.014781405856959943 0.026413532106502973 0 -0.013589298441895686 0.026182221102204788 0 -0.014781405856959943 0.026413532106502973 0 -0.014757531939766432 0.02559000302089379 0 -0.013589298441895686 0.026182221102204788 0 -0.014757531939766432 0.02559000302089379 0 -0.013751961403764768 0.025138933228959357 0 -0.014750600587136908 0.02395748767161409 0 -0.014757531939766432 0.02559000302089379 0 -0.013751961403764768 0.025138933228959357 0 -0.013589298441895686 0.026182221102204788 0 -0.014757531939766432 0.02559000302089379 0 -0.014750600587136908 0.02395748767161409 0 -0.016198067429256377 0.024971002418723218 0 -0.0158992678245738 0.024642547203118637 0 -0.013937436007699647 0.028854862415440358 0 -0.015444234505665207 0.025955590486865181 0 -0.014757531939766432 0.02559000302089379 0 -0.015956238150135502 0.025616623623039715 0 -0.012747655206529408 0.02713236625151912 0 -0.011376546350566308 0.026333794838241439 0 -0.012583098303387146 0.025655058671649123 0 -0.0026005654084633296 0.031387802916926617 0 -0.0036361209325077317 0.031458388092373342 0 -0.0033601305420162802 0.030216246239856137 0 -0.0059951398218861633 0.029327373108566292 0 -0.0073869468866897816 0.028479513933782778 0 -0.012747655206529408 0.02713236625151912 0 -0.013589298441895686 0.026182221102204788 0 -0.012583098303387146 0.025655058671649123 0 -0.013751961403764768 0.025138933228959357 0 -0.012583098303387146 0.025655058671649123 0 -0.012977476730611209 0.024358423064860524 0 -0.013751961403764768 0.025138933228959357 0 -0.013589298441895686 0.026182221102204788 0 -0.012583098303387146 0.025655058671649123 0 -0.011376546350566308 0.026333794838241439 0 -0.012583098303387146 0.025655058671649123 0 -0.011019240526121658 0.02492872925896648 0 -0.0058610607306454707 0.031926440973074836 0 -0.010569530467437487 0.030222626202194704 0 -0.0073869468866897816 0.028479513933782778 0 -0.0058610607306454707 0.031926440973074836 0 -0.012583098303387146 0.025655058671649123 0 -0.011019240526121658 0.02492872925896648 0 -0.012977476730611209 0.024358423064860524 0 -0.0043691927267823045 0.036259262371296348 0 -0.0047619886214134797 0.037619000932678087 0 -0.0055125301530150658 0.036147034548737585 0 -0.0041413650937641858 0.036826888995003589 0 -0.0058610607306454707 0.031926440973074836 0 -0.0047619886214134797 0.037619000932678087 0 -0.0055125301530150658 0.036147034548737585 0 -0.0064845682792629214 0.037152230898492428 0 -0.0055125301530150658 0.036147034548737585 0 -0.0064845682792629214 0.037152230898492428 0 -0.0068246816289532063 0.035643232048833698 0 -0.0064227619337566188 0.03580917998712134 0 -0.0052145862732181063 0.035000155590903019 0 -0.0067510725382052507 0.034999683423962674 0 -0.0065392409082350948 0.035893784342948848 0 -0.0052151377102536813 0.035000141596308917 0 -0.0055125301530150658 0.036147034548737585 0 -0.0068246816289532063 0.035643232048833698 0 -0.0052153267555910343 0.034999472178528369 0 -0.0039495388840472493 0.035000236590721739 0 -0.0043691927267823045 0.036259262371296348 0 -0.0052153267555910343 0.034999472178528369 0 -0.0043691927267823045 0.036259262371296348 0 -0.0055125301530150658 0.036147034548737585 0 -0.0052153267555910343 0.034999472178528369 0 -0.0084567478858289906 0.03631553440572928 0 -0.0092435575703022285 0.036078357798466069 0 -0.0094513522110110486 0.036996908534774345 0 -0.0099692581048978473 0.033921421745901979 0 -0.0082982243365129753 0.036482938804312318 0 -0.007800064830856746 0.036669863438543823 0 -0.0084847874969068496 0.035459424713950076 0 -0.0092435575703022285 0.036078357798466069 0 -0.0099692581048978473 0.033921421745901979 0 -0.013937436007699647 0.028854862415440358 0 -0.0064845682792629214 0.037152230898492428 0 -0.0068246816289532063 0.035643232048833698 0 -0.0084590736807538328 0.036542248726755162 0 -0.010569530467437487 0.030222626202194704 0 -0.0099692581048978473 0.033921421745901979 0 -0.0065392409082350948 0.035893784342948848 0 -0.0099692581048978473 0.033921421745901979 0 -0.013751961403764768 0.025138933228959357 0 -0.012977476730611209 0.024358423064860524 0 -0.014750600587136908 0.02395748767161409 0 -0.0073544607358414695 0.035729201101601826 0 -0.0067510725382052507 0.034999683423962674 0 -0.0084847874969068496 0.035459424713950076 0 -0.0067512091851177937 0.035000153492428424 0 -0.0084142715322439235 0.035359071362025221 0 -0.0064227619337566188 0.03580917998712134 0 -0.007800064830856746 0.036669863438543823 0 -0.0073544607358414695 0.035729201101601826 0 -0.0064227619337566188 0.03580917998712134 0 -0.0073544607358414695 0.035729201101601826 0 -0.0067510725382052507 0.034999683423962674 0 -0.0067508269239776025 0.034999998224374114 0 -0.0081818632699113148 0.035578098947030089 0 -0.0088257924660316289 0.034999994547109878 0 -0.007800064830856746 0.036669863438543823 0 -0.0073544607358414695 0.035729201101601826 0 -0.0084847874969068496 0.035459424713950076 0 -0.0084847874969068496 0.035459424713950076 0 -0.0089315386593653255 0.035596600789137879 0 -0.0092435575703022285 0.036078357798466069 0 -0.0084142715322439235 0.035359071362025221 0 -0.008930493773312155 0.035226444427747354 0 -0.0081818632699113148 0.035578098947030089 0 -0.0085537831115571044 0.035727944565684989 0 -0.0088257924660316289 0.034999994547109878 0 -0.0088257924660316289 0.034999994547109878 0 -0.0095019276483919463 0.035533603422452695 0 -0.010073399998915289 0.03542675681586218 0 -0.0090878283078458053 0.034460246655053352 0 -0.010296984964600204 0.034926690710078361 0 -0.010979413774181927 0.034785035468795016 0 -0.0085537831115571044 0.035727944565684989 0 -0.0088257924660316289 0.034999994547109878 0 -0.0095019276483919463 0.035533603422452695 0 -0.0085537831115571044 0.035727944565684989 0 -0.0095019276483919463 0.035533603422452695 0 -0.010212375863088898 0.036035819035233209 0 -0.008930493773312155 0.035226444427747354 0 -0.010496305429415478 0.035515145492273262 0 -0.0089315386593653255 0.035596600789137879 0 -0.0092435575703022285 0.036078357798466069 0 -0.0099084902252480553 0.035984003725202288 0 -0.008930493773312155 0.035226444427747354 0 -0.0099394392523008343 0.035619976795899379 0 -0.0092435575703022285 0.036078357798466069 0 -0.0097034472833884 0.036452639126312504 0 -0.0094513522110110486 0.036996908534774345 0 -0.0092435575703022285 0.036078357798466069 0 -0.0099084902252480553 0.035984003725202288 0 -0.0097034472833884 0.036452639126312504 0 -0.0097034472833884 0.036452639126312504 0 -0.010221616625948246 0.036721967562920517 0 -0.0094513522110110486 0.036996908534774345 0 -0.0099084902252480553 0.035984003725202288 0 -0.0097034472833884 0.036452639126312504 0 -0.010221616625948246 0.036721967562920517 0 -0.0099084902252480553 0.035984003725202288 0 -0.010221616625948246 0.036721967562920517 0 -0.011001088335337007 0.036380031016563348 0 -0.010296984964600204 0.034926690710078361 0 -0.010979413774181927 0.034785035468795016 0 -0.011931083606748783 0.035562567090032401 0 -0.0099394392523008343 0.035619976795899379 0 -0.012847085005938374 0.033587544538243419 0 -0.014182672519623463 0.03104532319001152 0 -0.014056612626444856 0.031116700283135477 0 -0.014097308143029634 0.031008744122695008 0 -0.011559130451011148 0.033996651295071303 0 -0.012847085005938374 0.033587544538243419 0 -0.010925967525065874 0.035563759893594588 0 -0.010212375863088898 0.036035819035233209 0 -0.010073399998915289 0.03542675681586218 0 -0.010925967525065874 0.035563759893594588 0 -0.010212375863088898 0.036035819035233209 0 -0.01139181893899305 0.035914577611674471 0 -0.0088257924660316289 0.034999994547109878 0 -0.010073399998915289 0.03542675681586218 0 -0.010900747565500662 0.034999990303880464 0 -0.0095019276483919463 0.035533603422452695 0 -0.010212375863088898 0.036035819035233209 0 -0.010073399998915289 0.03542675681586218 0 -0.010925967525065874 0.035563759893594588 0 -0.010073399998915289 0.03542675681586218 0 -0.010900747565500662 0.034999990303880464 0 -0.010900747565500662 0.034999990303880464 0 -0.01163546574019461 0.03541553423308097 0 -0.012975729358582931 0.034999985131497234 0 -0.010925967525065874 0.035563759893594588 0 -0.010900747565500662 0.034999990303880464 0 -0.01163546574019461 0.03541553423308097 0 -0.011840563840921966 0.035534339705360997 0 -0.012649259920622628 0.035543940665317908 0 -0.01163546574019461 0.03541553423308097 0 -0.01139181893899305 0.035914577611674471 0 -0.012329073747042446 0.036177910684685809 0 -0.010925967525065874 0.035563759893594588 0 -0.01163546574019461 0.03541553423308097 0 -0.01139181893899305 0.035914577611674471 0 -0.01163546574019461 0.03541553423308097 0 -0.012975729358582931 0.034999985131497234 0 -0.012554449117278705 0.035595595938728367 0 -0.012975729358582931 0.034999985131497234 0 -0.012554449117278705 0.035595595938728367 0 -0.013278032891284115 0.035781965513291783 0 -0.01163546574019461 0.03541553423308097 0 -0.012554449117278705 0.035595595938728367 0 -0.012330187814558784 0.036187812025646728 0 -0.012649259920622628 0.035543940665317908 0 -0.012985766873866149 0.035845757945505027 0 -0.012554449117278705 0.035595595938728367 0 -0.012330187814558784 0.036187812025646728 0 -0.013278032891284115 0.035781965513291783 0 -0.012702216952761516 0.036526818345649671 0 -0.012376148224238766 0.03616033675723896 0 -0.013278032891284115 0.035781965513291783 0 -0.013189458703492312 0.034449186359831421 0 -0.01306010270960415 0.034307781510816364 0 -0.012879235086751374 0.034384363068824947 0 -0.013440306466506026 0.03385535383663265 0 -0.012879174844837821 0.034521074602210725 0 -0.013440306466506026 0.03385535383663265 0 -0.012649259920622628 0.035543940665317908 0 -0.012649259920622628 0.035543940665317908 0 -0.012879174844837821 0.034521074602210725 0 -0.013833259225871138 0.031187219139709316 0 -0.013954116489799781 0.031227544547890607 0 -0.013871644389562666 0.031054588710605239 0 -0.013440306466506026 0.03385535383663265 0 -0.013986867791731701 0.031945135565652302 0 -0.013833259225871138 0.031187219139709316 0 -0.013871644389562666 0.031054588710605239 0 -0.013717157246640726 0.031016955780565621 0 -0.010979413774181927 0.034785035468795016 0 -0.012849887947352503 0.035168021898741797 0 -0.011931083606748783 0.035562567090032401 0 -0.010212375863088898 0.036035819035233209 0 -0.01139181893899305 0.035914577611674471 0 -0.01185266401737207 0.036380383668568106 0 -0.012847085005938374 0.033587544538243419 0 -0.01410012087126368 0.030739068109722965 0 -0.010496305429415478 0.035515145492273262 0 -0.012879174844837821 0.034521074602210725 0 -0.013954116489799781 0.031227544547890607 0 -0.014069028209884977 0.031190095953146191 0 -0.013871644389562666 0.031054588710605239 0 -0.012879174844837821 0.034521074602210725 0 -0.012847085005938374 0.033587544538243419 0 -0.01139181893899305 0.035914577611674471 0 -0.012329073747042446 0.036177910684685809 0 -0.01185266401737207 0.036380383668568106 0 -0.014056612626444856 0.031116700283135477 0 -0.014020969650470252 0.030950183788382563 0 -0.014097308143029634 0.031008744122695008 0 -0.014056612626444856 0.031116700283135477 0 -0.014020969650470252 0.030950183788382563 0 -0.013871644389562666 0.031054588710605239 0 -0.014020969650470252 0.030950183788382563 0 -0.013871644389562666 0.031054588710605239 0 -0.013914562383577076 0.03092148863655313 0 -0.013871644389562666 0.031054588710605239 0 -0.013813660508057596 0.030940275206238033 0 -0.013717157246640726 0.031016955780565621 0 -0.013871644389562666 0.031054588710605239 0 -0.013914562383577076 0.03092148863655313 0 -0.013813660508057596 0.030940275206238033 0 -0.013914562383577076 0.03092148863655313 0 -0.013813660508057596 0.030940275206238033 0 -0.013845522952312648 0.030830936316507223 0 -0.013914562383577076 0.03092148863655313 0 -0.013845522952312648 0.030830936316507223 0 -0.01400815522084403 0.030726586289859147 0 -0.013845522952312648 0.030830936316507223 0 -0.01400815522084403 0.030726586289859147 0 -0.013844551656204329 0.030708556908018738 0 -0.013813660508057596 0.030940275206238033 0 -0.013845522952312648 0.030830936316507223 0 -0.0137202376947257 0.030880617836714759 0 -0.013845522952312648 0.030830936316507223 0 -0.013754077445510935 0.030786479519168641 0 -0.013844551656204329 0.030708556908018738 0 -0.014020969650470252 0.030950183788382563 0 -0.01400815522084403 0.030726586289859147 0 -0.014162939480951639 0.030862830689044239 0 -0.014020969650470252 0.030950183788382563 0 -0.013914562383577076 0.03092148863655313 0 -0.01400815522084403 0.030726586289859147 0 -0.015176547529785603 0.025808064945372761 0 -0.015935565741458067 0.026038259260866257 0 -0.015696724449230183 0.025636565702142469 0 -0.014390969011754871 0.028314278619569744 0 -0.015202459054253235 0.028432346759754971 0 -0.015935565741458067 0.026038259260866257 0 -0.01615408331007109 0.026142311683307953 0 -0.016052416224362917 0.025605308745911114 0 -0.015935565741458067 0.026038259260866257 0 -0.01615408331007109 0.026142311683307953 0 -0.015956238150135502 0.025616623623039715 0 -0.014182672519623463 0.03104532319001152 0 -0.014162939480951639 0.030862830689044239 0 -0.014310187698980931 0.030972621837464052 0 -0.015202459054253235 0.028432346759754971 0 -0.013937436007699647 0.028854862415440358 0 -0.011559130451011148 0.033996651295071303 0 -0.013937436007699647 0.028854862415440358 0 -0.014182672519623463 0.03104532319001152 0 -0.014162939480951639 0.030862830689044239 0 -0.014097308143029634 0.031008744122695008 0 -0.014020969650470252 0.030950183788382563 0 -0.014162939480951639 0.030862830689044239 0 -0.014097308143029634 0.031008744122695008 0 -0.017536119171169037 0.03598647012481776 0 -0.017189284880689836 0.035786345019008896 0 -0.017098766352263633 0.036166791490113745 0 -0.017536119171169037 0.03598647012481776 0 -0.017189284880689836 0.035786345019008896 0 -0.017496569470857128 0.035463121765741991 0 -0.017189284880689836 0.035786345019008896 0 -0.017496569470857128 0.035463121765741991 0 -0.017127821302021763 0.035365113281376565 0 -0.017536119171169037 0.03598647012481776 0 -0.017496569470857128 0.035463121765741991 0 -0.018142776132752305 0.035613146419316982 0 -0.017496569470857128 0.035463121765741991 0 -0.017127109219495215 0.034999679314104928 0 -0.018045847684905476 0.035256657676160534 0 -0.017496569470857128 0.035463121765741991 0 -0.017127109219495215 0.034999679314104928 0 -0.017127821302021763 0.035365113281376565 0 -0.017125590134269491 0.035000138973491995 0 -0.01671813209589687 0.035642827734862631 0 -0.017125601250243882 0.03499999355018419 0 -0.016396848051091931 0.035902210575531744 0 -0.015050651281360733 0.034999980509057817 0 -0.016396848051091931 0.035902210575531744 0 -0.015363696081259325 0.035788935292273116 0 -0.015050651281360733 0.034999980509057817 0 -0.015363696081259325 0.035788935292273116 0 -0.015659320372734601 0.036779582206727675 0 -0.014953805394855557 0.036436630361133163 0 -0.015512507208467431 0.036128194569693628 0 -0.015944195310322901 0.035907011443346737 0 -0.016396848051091931 0.035902210575531744 0 -0.015363696081259325 0.035788935292273116 0 -0.015677275743431782 0.036801954959732389 0 -0.017189284880689836 0.035786345019008896 0 -0.017127821302021763 0.035365113281376565 0 -0.016660885980166733 0.035886669502424376 0 -0.01671813209589687 0.035642827734862631 0 -0.015944195310322901 0.035907011443346737 0 -0.017189284880689836 0.035786345019008896 0 -0.016660885980166733 0.035886669502424376 0 -0.017098766352263633 0.036166791490113745 0 -0.015399379957591667 0.037108187216026316 0 -0.015659320372734601 0.036779582206727675 0 -0.014953805394855557 0.036436630361133163 0 -0.01687462195945854 0.034457654406358437 0 -0.016372683400863005 0.035094379744712592 0 -0.016338078869221711 0.034339703193980872 0 -0.015865929909510024 0.034579685935658008 0 -0.015944195310322901 0.035907011443346737 0 -0.015865929909510024 0.034579685935658008 0 -0.014394119393086328 0.035027017483234175 0 -0.015399379957591667 0.037108187216026316 0 -0.014953805394855557 0.036436630361133163 0 -0.014046867421447054 0.036825358699663913 0 -0.014953805394855557 0.036436630361133163 0 -0.01428292071605961 0.035770204147912668 0 -0.014046867421447054 0.036825358699663913 0 -0.015363696081259325 0.035788935292273116 0 -0.014953805394855557 0.036436630361133163 0 -0.01428292071605961 0.035770204147912668 0 -0.015363696081259325 0.035788935292273116 0 -0.015050651281360733 0.034999980509057817 0 -0.01428292071605961 0.035770204147912668 0 -0.012975729358582931 0.034999985131497234 0 -0.01428292071605961 0.035770204147912668 0 -0.013278032891284115 0.035781965513291783 0 -0.012975729358582931 0.034999985131497234 0 -0.015050651281360733 0.034999980509057817 0 -0.01428292071605961 0.035770204147912668 0 -0.013440306466506026 0.03385535383663265 0 -0.014394119393086328 0.035027017483234175 0 -0.014360660273243359 0.033007544827334749 0 -0.014817236410210207 0.033099587108884686 0 -0.014649911425007361 0.033304353987918367 0 -0.012702216952761516 0.036526818345649671 0 -0.013278032891284115 0.035781965513291783 0 -0.014046867421447054 0.036825358699663913 0 -0.01428292071605961 0.035770204147912668 0 -0.013278032891284115 0.035781965513291783 0 -0.014046867421447054 0.036825358699663913 0 -0.014817236410210207 0.033099587108884686 0 -0.014649911425007361 0.033304353987918367 0 -0.014914772463972385 0.033310451728472322 0 -0.013986867791731701 0.031945135565652302 0 -0.016137565956495022 0.031633077026566717 0 -0.013717157246640726 0.031016955780565621 0 -0.0137202376947257 0.030880617836714759 0 -0.013604679677689208 0.03086539118543638 0 -0.014649911425007361 0.033304353987918367 0 -0.014929827595177433 0.033589889512993021 0 -0.014914772463972385 0.033310451728472322 0 -0.013813660508057596 0.030940275206238033 0 -0.013717157246640726 0.031016955780565621 0 -0.0137202376947257 0.030880617836714759 0 -0.016137565956495022 0.031633077026566717 0 -0.015968247373974433 0.029378942139763185 0 -0.013845522952312648 0.030830936316507223 0 -0.0137202376947257 0.030880617836714759 0 -0.013754077445510935 0.030786479519168641 0 -0.017378325275590752 0.030360317834406837 0 -0.017426797610591759 0.030118965928973715 0 -0.017748510009849252 0.029815313629033901 0 -0.013754077445510935 0.030786479519168641 0 -0.013604679677689208 0.03086539118543638 0 -0.01375742558339642 0.030646319921848186 0 -0.0137202376947257 0.030880617836714759 0 -0.013754077445510935 0.030786479519168641 0 -0.013604679677689208 0.03086539118543638 0 -0.016137565956495022 0.031633077026566717 0 -0.017439438497756234 0.030100064868837251 0 -0.018814740874039195 0.031986811455831314 0 -0.017071901865327123 0.030772500047656665 0 -0.01692460887709173 0.029886229745159587 0 -0.017378325275590752 0.030360317834406837 0 -0.01692460887709173 0.029886229745159587 0 -0.017226514296214163 0.029890944108405294 0 -0.017378325275590752 0.030360317834406837 0 -0.017426797610591759 0.030118965928973715 0 -0.017226514296214163 0.029890944108405294 0 -0.018814740874039195 0.031986811455831314 0 -0.017071901865327123 0.030772500047656665 0 -0.017268660288717458 0.03171636670494906 0 -0.018814740874039195 0.031986811455831314 0 -0.017268660288717458 0.03171636670494906 0 -0.017487396114443322 0.03223615431577876 0 -0.017268660288717458 0.03171636670494906 0 -0.017487396114443322 0.03223615431577876 0 -0.016671413743379066 0.032243079506865856 0 -0.018814740874039195 0.031986811455831314 0 -0.017487396114443322 0.03223615431577876 0 -0.017197449874483177 0.032998590890121367 0 -0.016878574341196672 0.034455693013114921 0 -0.018814740874039195 0.031986811455831314 0 -0.017197449874483177 0.032998590890121367 0 -0.017487396114443322 0.03223615431577876 0 -0.017197449874483177 0.032998590890121367 0 -0.016671413743379066 0.032243079506865856 0 -0.015252896298913918 0.033199916182722861 0 -0.014929827595177433 0.033589889512993021 0 -0.014914772463972385 0.033310451728472322 0 -0.015252896298913918 0.033199916182722861 0 -0.014817236410210207 0.033099587108884686 0 -0.014914772463972385 0.033310451728472322 0 -0.015865929909510024 0.034579685935658008 0 -0.016137565956495022 0.031633077026566717 0 -0.016660885980166733 0.035886669502424376 0 -0.017098766352263633 0.036166791490113745 0 -0.016867529907709049 0.036673802756462114 0 -0.016372683400863005 0.035094379744712592 0 -0.016338078869221711 0.034339703193980872 0 -0.015725645138898021 0.032903286301960336 0 -0.015944195310322901 0.035907011443346737 0 -0.016321458276709007 0.034878579447166089 0 -0.017197449874483177 0.032998590890121367 0 -0.016338078869221711 0.034339703193980872 0 -0.015725645138898021 0.032903286301960336 0 -0.016878574341196672 0.034455693013114921 0 -0.017197449874483177 0.032998590890121367 0 -0.016338078869221711 0.034339703193980872 0 -0.015865929909510024 0.034579685935658008 0 -0.01615860810839162 0.034588332911829736 0 -0.017197449874483177 0.032998590890121367 0 -0.015725645138898021 0.032903286301960336 0 -0.016671413743379066 0.032243079506865856 0 -0.016321458276709007 0.034878579447166089 0 -0.018103603282715174 0.032703339130230637 0 -0.015725645138898021 0.032903286301960336 0 -0.016190516528139635 0.031386648867319573 0 -0.016671413743379066 0.032243079506865856 0 -0.015725645138898021 0.032903286301960336 0 -0.016190516528139635 0.031386648867319573 0 -0.015078337966005781 0.030713050133957955 0 -0.017268660288717458 0.03171636670494906 0 -0.016190516528139635 0.031386648867319573 0 -0.016671413743379066 0.032243079506865856 0 -0.017071901865327123 0.030772500047656665 0 -0.016190516528139635 0.031386648867319573 0 -0.016776286755153719 0.029928631106596312 0 -0.017071901865327123 0.030772500047656665 0 -0.017268660288717458 0.03171636670494906 0 -0.016190516528139635 0.031386648867319573 0 -0.016190516528139635 0.031386648867319573 0 -0.015078337966005781 0.030713050133957955 0 -0.016776286755153719 0.029928631106596312 0 -0.017117813580860879 0.037501818978841688 0 -0.017490201794679361 0.036619056607925464 0 -0.018193402513076114 0.037110010029386235 0 -0.016867529907709049 0.036673802756462114 0 -0.017117813580860879 0.037501818978841688 0 -0.017490201794679361 0.036619056607925464 0 -0.023026614242408285 0.033692641448871949 0 -0.022654865102171001 0.033349795492295435 0 -0.022687740777873226 0.033596681108464713 0 -0.018103603282715174 0.032703339130230637 0 -0.020698391518341252 0.035585350215545125 0 -0.017098766352263633 0.036166791490113745 0 -0.016867529907709049 0.036673802756462114 0 -0.017490201794679361 0.036619056607925464 0 -0.017536119171169037 0.03598647012481776 0 -0.017098766352263633 0.036166791490113745 0 -0.017490201794679361 0.036619056607925464 0 -0.017536119171169037 0.03598647012481776 0 -0.017490201794679361 0.036619056607925464 0 -0.018277980245857084 0.036224625863002659 0 -0.02079848065542059 0.030758370248342222 0 -0.022477956760021914 0.032334642118109894 0 -0.020384059982732395 0.027343888446432978 0 -0.016273569295358392 0.029004319711616936 0 -0.016084701005518953 0.02925979722918215 0 -0.016171091774705802 0.02870564839049437 0 -0.016273569295358392 0.029004319711616936 0 -0.016514933725671459 0.028900257358564038 0 -0.016171091774705802 0.02870564839049437 0 -0.016084701005518953 0.02925979722918215 0 -0.016326056440316671 0.029488377120944459 0 -0.016397786082222268 0.029215180139548068 0 -0.016273569295358392 0.029004319711616936 0 -0.016084701005518953 0.02925979722918215 0 -0.016397786082222268 0.029215180139548068 0 -0.02079848065542059 0.030758370248342222 0 -0.022477956760021914 0.032334642118109894 0 -0.022493576640691987 0.032798369874259506 0 -0.016346278330199977 0.03013839274188863 0 -0.016084701005518953 0.02925979722918215 0 -0.016326056440316671 0.029488377120944459 0 -0.018103603282715174 0.032703339130230637 0 -0.019385813296067745 0.030621002361398877 0 -0.022654865102171001 0.033349795492295435 0 -0.022493576640691987 0.032798369874259506 0 -0.022607258767786704 0.033093678792275941 0 -0.023026614242408285 0.033692641448871949 0 -0.022654865102171001 0.033349795492295435 0 -0.022493576640691987 0.032798369874259506 0 -0.023026614242408285 0.033692641448871949 0 -0.022477956760021914 0.032334642118109894 0 -0.022493576640691987 0.032798369874259506 0 -0.016346278330199977 0.03013839274188863 0 -0.016326056440316671 0.029488377120944459 0 -0.016440530283582153 0.029659459095035329 0 -0.016326056440316671 0.029488377120944459 0 -0.016440530283582153 0.029659459095035329 0 -0.016510911356278423 0.029400499402936393 0 -0.016587616148050401 0.029579706717342343 0 -0.016440530283582153 0.029659459095035329 0 -0.016510911356278423 0.029400499402936393 0 -0.016587616148050401 0.029579706717342343 0 -0.016709651736964651 0.02929237470886947 0 -0.016510911356278423 0.029400499402936393 0 -0.016587616148050401 0.029579706717342343 0 -0.016440530283582153 0.029659459095035329 0 -0.016530907675578053 0.029800880377109398 0 -0.016587616148050401 0.029579706717342343 0 -0.016530907675578053 0.029800880377109398 0 -0.016667807382785064 0.0297133195162568 0 -0.016346278330199977 0.03013839274188863 0 -0.016440530283582153 0.029659459095035329 0 -0.016530907675578053 0.029800880377109398 0 -0.016346278330199977 0.03013839274188863 0 -0.016776286755153719 0.029928631106596312 0 -0.016615517610826934 0.029879303190106371 0 -0.016346278330199977 0.03013839274188863 0 -0.016530907675578053 0.029800880377109398 0 -0.016615517610826934 0.029879303190106371 0 -0.018103603282715174 0.032703339130230637 0 -0.016500308612965364 0.030548610765641915 0 -0.016530907675578053 0.029800880377109398 0 -0.016615517610826934 0.029879303190106371 0 -0.016667807382785064 0.0297133195162568 0 -0.017071901865327123 0.030772500047656665 0 -0.016776286755153719 0.029928631106596312 0 -0.01692460887709173 0.029886229745159587 0 -0.016776286755153719 0.029928631106596312 0 -0.016615517610826934 0.029879303190106371 0 -0.016789996695375495 0.029781002654893085 0 -0.016615517610826934 0.029879303190106371 0 -0.016789996695375495 0.029781002654893085 0 -0.016667807382785064 0.0297133195162568 0 -0.01692460887709173 0.029886229745159587 0 -0.016923219481419626 0.029724419166374482 0 -0.016789996695375495 0.029781002654893085 0 -0.016776286755153719 0.029928631106596312 0 -0.01692460887709173 0.029886229745159587 0 -0.016789996695375495 0.029781002654893085 0 -0.016923219481419626 0.029724419166374482 0 -0.016789996695375495 0.029781002654893085 0 -0.016780317177327832 0.029597925595380468 0 -0.016587616148050401 0.029579706717342343 0 -0.016780317177327832 0.029597925595380468 0 -0.016709651736964651 0.02929237470886947 0 -0.016780317177327832 0.029597925595380468 0 -0.016709651736964651 0.02929237470886947 0 -0.01707136325495404 0.029581660569664891 0 -0.016789996695375495 0.029781002654893085 0 -0.016780317177327832 0.029597925595380468 0 -0.016667807382785064 0.0297133195162568 0 -0.016587616148050401 0.029579706717342343 0 -0.016780317177327832 0.029597925595380468 0 -0.016667807382785064 0.0297133195162568 0 -0.016709651736964651 0.02929237470886947 0 -0.016514933725671459 0.028900257358564038 0 -0.017328560688253336 0.028953905078811387 0 -0.016709651736964651 0.02929237470886947 0 -0.016397786082222268 0.029215180139548068 0 -0.016514933725671459 0.028900257358564038 0 -0.016709651736964651 0.02929237470886947 0 -0.016510911356278423 0.029400499402936393 0 -0.016397786082222268 0.029215180139548068 0 -0.016326056440316671 0.029488377120944459 0 -0.016510911356278423 0.029400499402936393 0 -0.016397786082222268 0.029215180139548068 0 -0.016273569295358392 0.029004319711616936 0 -0.016397786082222268 0.029215180139548068 0 -0.016514933725671459 0.028900257358564038 0 -0.016709651736964651 0.02929237470886947 0 -0.017328560688253336 0.028953905078811387 0 -0.01707136325495404 0.029581660569664891 0 -0.017328560688253336 0.028953905078811387 0 -0.017371331609991898 0.029567915052068038 0 -0.017637750582774593 0.029511815490023866 0 -0.017328560688253336 0.028953905078811387 0 -0.01707136325495404 0.029581660569664891 0 -0.017371331609991898 0.029567915052068038 0 -0.016923219481419626 0.029724419166374482 0 -0.01707136325495404 0.029581660569664891 0 -0.017045843403088956 0.029781613498253444 0 -0.016923219481419626 0.029724419166374482 0 -0.016780317177327832 0.029597925595380468 0 -0.01707136325495404 0.029581660569664891 0 -0.01692460887709173 0.029886229745159587 0 -0.016923219481419626 0.029724419166374482 0 -0.017045843403088956 0.029781613498253444 0 -0.01692460887709173 0.029886229745159587 0 -0.017045843403088956 0.029781613498253444 0 -0.017226514296214163 0.029890944108405294 0 -0.01707136325495404 0.029581660569664891 0 -0.017045843403088956 0.029781613498253444 0 -0.017226514296214163 0.029890944108405294 0 -0.017226514296214163 0.029890944108405294 0 -0.017371331609991898 0.029567915052068038 0 -0.017514430136436741 0.029779416788892669 0 -0.017426797610591759 0.030118965928973715 0 -0.017226514296214163 0.029890944108405294 0 -0.017514430136436741 0.029779416788892669 0 -0.01707136325495404 0.029581660569664891 0 -0.017226514296214163 0.029890944108405294 0 -0.017371331609991898 0.029567915052068038 0 -0.017637750582774593 0.029511815490023866 0 -0.017514430136436741 0.029779416788892669 0 -0.01789083912659693 0.02975406825757259 0 -0.017371331609991898 0.029567915052068038 0 -0.017637750582774593 0.029511815490023866 0 -0.017514430136436741 0.029779416788892669 0 -0.017426797610591759 0.030118965928973715 0 -0.017514430136436741 0.029779416788892669 0 -0.01789083912659693 0.02975406825757259 0 -0.017732125274457333 0.029793279777471388 0 -0.015968247373974433 0.029378942139763185 0 -0.013754077445510935 0.030786479519168641 0 -0.01375742558339642 0.030646319921848186 0 -0.013844551656204329 0.030708556908018738 0 -0.017637750582774593 0.029511815490023866 0 -0.01789083912659693 0.02975406825757259 0 -0.018082283629628382 0.029498045119259839 0 -0.015968247373974433 0.029378942139763185 0 -0.01692798619569956 0.026268444606650832 0 -0.017344289757252822 0.022993785721558604 0 -0.017235954783970268 0.023021371638600015 0 -0.017210774705523981 0.022962808284586474 0 -0.0174869831631424 0.026008592445630342 0 -0.01692798619569956 0.026268444606650832 0 -0.017328560688253336 0.028953905078811387 0 -0.017637750582774593 0.029511815490023866 0 -0.018082283629628382 0.029498045119259839 0 -0.017235954783970268 0.023021371638600015 0 -0.017276807725556734 0.02308751624674359 0 -0.017194373258989995 0.023054558069970952 0 -0.017344289757252822 0.022993785721558604 0 -0.017235954783970268 0.023021371638600015 0 -0.017276807725556734 0.02308751624674359 0 -0.017276807725556734 0.02308751624674359 0 -0.017181978208547392 0.023071477572236071 0 -0.01731057468818949 0.023184258925412878 0 -0.017427992473528921 0.023129291780388552 0 -0.01767221066956386 0.02322731650462977 0 -0.01731057468818949 0.023184258925412878 0 -0.017276807725556734 0.02308751624674359 0 -0.017427992473528921 0.023129291780388552 0 -0.01731057468818949 0.023184258925412878 0 -0.0174869831631424 0.026008592445630342 0 -0.016983704278491489 0.02569582712185909 0 -0.017344289757252822 0.022993785721558604 0 -0.017427992473528921 0.023129291780388552 0 -0.017613863414433287 0.023114402201922461 0 -0.017344289757252822 0.022993785721558604 0 -0.017276807725556734 0.02308751624674359 0 -0.017427992473528921 0.023129291780388552 0 -0.016514933725671459 0.028900257358564038 0 -0.017328560688253336 0.028953905078811387 0 -0.016528081964307891 0.028353094787807804 0 -0.016514933725671459 0.028900257358564038 0 -0.016528081964307891 0.028353094787807804 0 -0.016171091774705802 0.02870564839049437 0 -0.017427992473528921 0.023129291780388552 0 -0.017613863414433287 0.023114402201922461 0 -0.01767221066956386 0.02322731650462977 0 -0.017672622469063332 0.023199568453257189 0 -0.017775188163214144 0.022980111334771312 0 -0.017613863414433287 0.023114402201922461 0 -0.017673187633610504 0.02326132587701012 0 -0.017744892820712843 0.023286188833468842 0 -0.016528081964307891 0.028353094787807804 0 -0.015820868695966508 0.028332729008185991 0 -0.015658583911856986 0.027729373007163716 0 -0.016983704278491489 0.02569582712185909 0 -0.017000185345024101 0.025561355784716626 0 -0.017613863414433287 0.023114402201922461 0 -0.01767221066956386 0.02322731650462977 0 -0.017673187633610504 0.02326132587701012 0 -0.01767221066956386 0.02322731650462977 0 -0.017673187633610504 0.02326132587701012 0 -0.017694475575012126 0.023122180992124299 0 -0.017673187633610504 0.02326132587701012 0 -0.01765123963269883 0.02335556801575701 0 -0.017744892820712843 0.023286188833468842 0 -0.019385813296067745 0.030621002361398877 0 -0.018118388597115773 0.028056848101447211 0 -0.016528081964307891 0.028353094787807804 0 -0.015820868695966508 0.028332729008185991 0 -0.016171091774705802 0.02870564839049437 0 -0.016084701005518953 0.02925979722918215 0 -0.015820868695966508 0.028332729008185991 0 -0.016171091774705802 0.02870564839049437 0 -0.015806732865745795 0.025246267612524159 0 -0.01559502327506143 0.024850713126709827 0 -0.016163911851412638 0.024775520133924436 0 -0.015806732865745795 0.025246267612524159 0 -0.01559502327506143 0.024850713126709827 0 -0.015394783726704692 0.025259823383648409 0 -0.01559502327506143 0.024850713126709827 0 -0.016163911851412638 0.024775520133924436 0 -0.015658254936278242 0.024092518587639465 0 -0.016163911851412638 0.024775520133924436 0 -0.016653373962598594 0.0248321089757002 0 -0.016052416224362917 0.025605308745911114 0 -0.015806732865745795 0.025246267612524159 0 -0.016163911851412638 0.024775520133924436 0 -0.016052416224362917 0.025605308745911114 0 -0.017161957631334171 0.024136974563521596 0 -0.016653373962598594 0.0248321089757002 0 -0.016595781344165242 0.024175961288268169 0 -0.016163911851412638 0.024775520133924436 0 -0.016653373962598594 0.0248321089757002 0 -0.016595781344165242 0.024175961288268169 0 -0.016642183951191429 0.025346938500061957 0 -0.016653373962598594 0.0248321089757002 0 -0.016052416224362917 0.025605308745911114 0 -0.016642183951191429 0.025346938500061957 0 -0.01615408331007109 0.026142311683307953 0 -0.016052416224362917 0.025605308745911114 0 -0.015935565741458067 0.026038259260866257 0 -0.016052416224362917 0.025605308745911114 0 -0.015696724449230183 0.025636565702142469 0 -0.015806732865745795 0.025246267612524159 0 -0.016052416224362917 0.025605308745911114 0 -0.015696724449230183 0.025636565702142469 0 -0.015806732865745795 0.025246267612524159 0 -0.015696724449230183 0.025636565702142469 0 -0.015394783726704692 0.025259823383648409 0 -0.015176547529785603 0.025808064945372761 0 -0.015696724449230183 0.025636565702142469 0 -0.015394783726704692 0.025259823383648409 0 -0.015176547529785603 0.025808064945372761 0 -0.014976110949385146 0.025325485170834786 0 -0.015394783726704692 0.025259823383648409 0 -0.014390969011754871 0.028314278619569744 0 -0.01580427323090933 0.026455637734795052 0 -0.01400815522084403 0.030726586289859147 0 -0.013844551656204329 0.030708556908018738 0 -0.013838501881468106 0.030573938649149139 0 -0.015176547529785603 0.025808064945372761 0 -0.014976110949385146 0.025325485170834786 0 -0.014453751331204802 0.025356165306431162 0 -0.01375742558339642 0.030646319921848186 0 -0.013844551656204329 0.030708556908018738 0 -0.013838501881468106 0.030573938649149139 0 -0.01580427323090933 0.026455637734795052 0 -0.01692798619569956 0.026268444606650832 0 -0.015511845640308474 0.028627033861863205 0 -0.017336979660064186 0.027140797734049968 0 -0.016906285363790234 0.026847908666408935 0 -0.015968247373974433 0.029378942139763185 0 -0.01580427323090933 0.026455637734795052 0 -0.01692798619569956 0.026268444606650832 0 -0.017564950254399053 0.022163451851352191 0 -0.017235954783970268 0.023021371638600015 0 -0.017210774705523981 0.022962808284586474 0 -0.017148028899464297 0.023039015140384762 0 -0.016923032197507081 0.023401622784093842 0 -0.01688889127979842 0.023379856499477828 0 -0.017148028899464297 0.023039015140384762 0 -0.016923032197507081 0.023401622784093842 0 -0.017148028899464297 0.023039015140384762 0 -0.017202951111182082 0.023088278271038327 0 -0.014976110949385146 0.025325485170834786 0 -0.014453751331204802 0.025356165306431162 0 -0.015037081502872097 0.024813709316836876 0 -0.01580427323090933 0.026455637734795052 0 -0.016228815245589088 0.023707021657294044 0 -0.01559502327506143 0.024850713126709827 0 -0.015037081502872097 0.024813709316836876 0 -0.015658254936278242 0.024092518587639465 0 -0.01559502327506143 0.024850713126709827 0 -0.015394783726704692 0.025259823383648409 0 -0.015037081502872097 0.024813709316836876 0 -0.014976110949385146 0.025325485170834786 0 -0.015394783726704692 0.025259823383648409 0 -0.015037081502872097 0.024813709316836876 0 -0.017148028899464297 0.023039015140384762 0 -0.017202951111182082 0.023088278271038327 0 -0.017170165077723145 0.023044177878517667 0 -0.017202951111182082 0.023088278271038327 0 -0.017170165077723145 0.023044177878517667 0 -0.017125243209592571 0.023021648335226227 0 -0.016228815245589088 0.023707021657294044 0 -0.016387099389699327 0.023603325014619866 0 -0.017170165077723145 0.023044177878517667 0 -0.017175943330527681 0.023057863370386632 0 -0.017195928874096461 0.023073450814224645 0 -0.017170165077723145 0.023044177878517667 0 -0.017195928874096461 0.023073450814224645 0 -0.017125243209592571 0.023021648335226227 0 -0.017148028899464297 0.023039015140384762 0 -0.017170165077723145 0.023044177878517667 0 -0.017175943330527681 0.023057863370386632 0 -0.017276807725556734 0.02308751624674359 0 -0.017194373258989995 0.023054558069970952 0 -0.017181978208547392 0.023071477572236071 0 -0.017235954783970268 0.023021371638600015 0 -0.017148028899464297 0.023039015140384762 0 -0.017194373258989995 0.023054558069970952 0 -0.017148028899464297 0.023039015140384762 0 -0.017175943330527681 0.023057863370386632 0 -0.017194373258989995 0.023054558069970952 0 -0.017175943330527681 0.023057863370386632 0 -0.017194373258989995 0.023054558069970952 0 -0.017181978208547392 0.023071477572236071 0 -0.017181978208547392 0.023071477572236071 0 -0.017195928874096461 0.023073450814224645 0 -0.017151776978466003 0.022995441412961611 0 -0.017175943330527681 0.023057863370386632 0 -0.017181978208547392 0.023071477572236071 0 -0.017195928874096461 0.023073450814224645 0 -0.017195928874096461 0.023073450814224645 0 -0.016910237955416126 0.023213670332805126 0 -0.017211264784779218 0.022899390965963152 0 -0.017195928874096461 0.023073450814224645 0 -0.017125243209592571 0.023021648335226227 0 -0.016910237955416126 0.023213670332805126 0 -0.016387099389699327 0.023603325014619866 0 -0.016866457120542196 0.023225015710645815 0 -0.015658254936278242 0.024092518587639465 0 -0.016595781344165242 0.024175961288268169 0 -0.016910237955416126 0.023213670332805126 0 -0.017161957631334171 0.024136974563521596 0 -0.016595781344165242 0.024175961288268169 0 -0.016910237955416126 0.023213670332805126 0 -0.016163911851412638 0.024775520133924436 0 -0.015658254936278242 0.024092518587639465 0 -0.016595781344165242 0.024175961288268169 0 -0.016910237955416126 0.023213670332805126 0 -0.017211264784779218 0.022899390965963152 0 -0.01729066004068678 0.023014488894365151 0 -0.017211264784779218 0.022899390965963152 0 -0.01729066004068678 0.023014488894365151 0 -0.017336572108255489 0.022802472530881857 0 -0.017211264784779218 0.022899390965963152 0 -0.017352232095393969 0.022728012509783086 0 -0.017336572108255489 0.022802472530881857 0 -0.017352232095393969 0.022728012509783086 0 -0.017336572108255489 0.022802472530881857 0 -0.017346964707236619 0.02275520320907989 0 -0.017352232095393969 0.022728012509783086 0 -0.017450959875818076 0.022637806350524554 0 -0.017522608886446234 0.022710900129877403 0 -0.017211264784779218 0.022899390965963152 0 -0.017352232095393969 0.022728012509783086 0 -0.017450959875818076 0.022637806350524554 0 -0.017195928874096461 0.023073450814224645 0 -0.017211264784779218 0.022899390965963152 0 -0.017450959875818076 0.022637806350524554 0 -0.017195928874096461 0.023073450814224645 0 -0.017450959875818076 0.022637806350524554 0 -0.017151776978466003 0.022995441412961611 0 -0.017484500777243794 0.022638372087240875 0 -0.017729706725541684 0.022670378679493196 0 -0.017450959875818076 0.022637806350524554 0 -0.018314784774443486 0.022306747021840354 0 -0.018304032084131606 0.022356431151700308 0 -0.017450959875818076 0.022637806350524554 0 -0.018304032084131606 0.022356431151700308 0 -0.017990018449271169 0.022533161036014035 0 -0.018304032084131606 0.022356431151700308 0 -0.017990018449271169 0.022533161036014035 0 -0.018636822730822039 0.022010323707175608 0 -0.017990018449271169 0.022533161036014035 0 -0.018636822730822039 0.022010323707175608 0 -0.018100065383922021 0.022947139639914713 0 -0.018625318136400271 0.021988531345711111 0 -0.01913087672211352 0.021903750761682068 0 -0.018636822730822039 0.022010323707175608 0 -0.018919602867496527 0.02075765881168529 0 -0.019932645163170934 0.020614993880456952 0 -0.017990018449271169 0.022533161036014035 0 -0.017800863641063952 0.022812049179245578 0 -0.017522608886446234 0.022710900129877403 0 -0.017990018449271169 0.022533161036014035 0 -0.017800863641063952 0.022812049179245578 0 -0.018100065383922021 0.022947139639914713 0 -0.017800863641063952 0.022812049179245578 0 -0.017566651861827712 0.022911680694844956 0 -0.017522608886446234 0.022710900129877403 0 -0.017566651861827712 0.022911680694844956 0 -0.017372021488589635 0.022842943344073344 0 -0.017522608886446234 0.022710900129877403 0 -0.017566651861827712 0.022911680694844956 0 -0.017372021488589635 0.022842943344073344 0 -0.017405709815016223 0.023033332173562952 0 -0.017352232095393969 0.022728012509783086 0 -0.017522608886446234 0.022710900129877403 0 -0.017346964707236619 0.02275520320907989 0 -0.017372021488589635 0.022842943344073344 0 -0.017522608886446234 0.022710900129877403 0 -0.017346964707236619 0.02275520320907989 0 -0.017450959875818076 0.022637806350524554 0 -0.017990018449271169 0.022533161036014035 0 -0.017522608886446234 0.022710900129877403 0 -0.017427655663338461 0.022745189714904579 0 -0.017360658943219719 0.021829416178568168 0 -0.016881172724689898 0.022178433353329415 0 -0.017427655663338461 0.022745189714904579 0 -0.017694475575012126 0.023122180992124299 0 -0.017812243027861108 0.02247376592093905 0 -0.017427655663338461 0.022745189714904579 0 -0.017812243027861108 0.02247376592093905 0 -0.017360658943219719 0.021829416178568168 0 -0.017427655663338461 0.022745189714904579 0 -0.01757663678614008 0.023236299060019696 0 -0.017694475575012126 0.023122180992124299 0 -0.01757663678614008 0.023236299060019696 0 -0.01765123963269883 0.02335556801575701 0 -0.017694475575012126 0.023122180992124299 0 -0.017673187633610504 0.02326132587701012 0 -0.01765123963269883 0.02335556801575701 0 -0.017694475575012126 0.023122180992124299 0 -0.01767221066956386 0.02322731650462977 0 -0.017694475575012126 0.023122180992124299 0 -0.017954196542729912 0.022834599858514933 0 -0.017694475575012126 0.023122180992124299 0 -0.017954196542729912 0.022834599858514933 0 -0.017812243027861108 0.02247376592093905 0 -0.01767221066956386 0.02322731650462977 0 -0.017954196542729912 0.022834599858514933 0 -0.01826660603733786 0.022787350353657913 0 -0.017954196542729912 0.022834599858514933 0 -0.017812243027861108 0.02247376592093905 0 -0.018350038023552225 0.022358428807443455 0 -0.017954196542729912 0.022834599858514933 0 -0.018350038023552225 0.022358428807443455 0 -0.01826660603733786 0.022787350353657913 0 -0.017181978208547392 0.023071477572236071 0 -0.017151776978466003 0.022995441412961611 0 -0.01731057468818949 0.023184258925412878 0 -0.018314784774443486 0.022306747021840354 0 -0.018350038023552225 0.022358428807443455 0 -0.01826660603733786 0.022787350353657913 0 -0.017729706725541684 0.022670378679493196 0 -0.017775188163214144 0.022980111334771312 0 -0.018314784774443486 0.022306747021840354 0 -0.018304032084131606 0.022356431151700308 0 -0.018350038023552225 0.022358428807443455 0 -0.018304032084131606 0.022356431151700308 0 -0.018350038023552225 0.022358428807443455 0 -0.018636822730822039 0.022010323707175608 0 -0.018636822730822039 0.022010323707175608 0 -0.018278066994839054 0.020762530387631688 0 -0.018919602867496527 0.02075765881168529 0 -0.018278066994839054 0.020762530387631688 0 -0.017941086123426278 0.021456642077436406 0 -0.017502859262132194 0.01968591088023015 0 -0.018636822730822039 0.022010323707175608 0 -0.018278066994839054 0.020762530387631688 0 -0.017941086123426278 0.021456642077436406 0 -0.018350038023552225 0.022358428807443455 0 -0.018636822730822039 0.022010323707175608 0 -0.017941086123426278 0.021456642077436406 0 -0.017812243027861108 0.02247376592093905 0 -0.017941086123426278 0.021456642077436406 0 -0.017360658943219719 0.021829416178568168 0 -0.017812243027861108 0.02247376592093905 0 -0.018350038023552225 0.022358428807443455 0 -0.017941086123426278 0.021456642077436406 0 -0.017941086123426278 0.021456642077436406 0 -0.017207893358050824 0.020456255606647281 0 -0.017502859262132194 0.01968591088023015 0 -0.017941086123426278 0.021456642077436406 0 -0.017207893358050824 0.020456255606647281 0 -0.017360658943219719 0.021829416178568168 0 -0.017207893358050824 0.020456255606647281 0 -0.017360658943219719 0.021829416178568168 0 -0.016621390989361759 0.021428275404340009 0 -0.017158943736446792 0.01969704525001045 0 -0.017192622806264404 0.019189818661802995 0 -0.017125323166406681 0.019526673093673223 0 -0.017207893358050824 0.020456255606647281 0 -0.017158943736446792 0.01969704525001045 0 -0.017502859262132194 0.01968591088023015 0 -0.017207893358050824 0.020456255606647281 0 -0.017158943736446792 0.01969704525001045 0 -0.017179071093361104 0.019802687082090448 0 -0.017158943736446792 0.01969704525001045 0 -0.017502859262132194 0.01968591088023015 0 -0.017192622806264404 0.019189818661802995 0 -0.017502859262132194 0.01968591088023015 0 -0.017328614485241391 0.018765320327900691 0 -0.017192622806264404 0.019189818661802995 0 -0.017502859262132194 0.01968591088023015 0 -0.017355865811639917 0.018851271859034829 0 -0.017328614485241391 0.018765320327900691 0 -0.018278066994839054 0.020762530387631688 0 -0.017502859262132194 0.01968591088023015 0 -0.018539724637375968 0.019893981877174467 0 -0.017472483170920285 0.019634896967201554 0 -0.017852445267963236 0.019402829555745842 0 -0.018278066994839054 0.020762530387631688 0 -0.018919602867496527 0.02075765881168529 0 -0.018539724637375968 0.019893981877174467 0 -0.018919602867496527 0.02075765881168529 0 -0.018539724637375968 0.019893981877174467 0 -0.019721632730372422 0.019728063237628893 0 -0.017280849948047444 0.018538681784587049 0 -0.017355865811639917 0.018851271859034829 0 -0.017242165132691067 0.018385895025795719 0 -0.017852445267963236 0.019402829555745842 0 -0.018661285598828237 0.018924876071029054 0 -0.017280849948047444 0.018538681784587049 0 -0.017355865811639917 0.018851271859034829 0 -0.017328614485241391 0.018765320327900691 0 -0.017280849948047444 0.018538681784587049 0 -0.017328614485241391 0.018765320327900691 0 -0.017212782618801777 0.018240795131296925 0 -0.017202131500799991 0.018314958509895313 0 -0.017328614485241391 0.018765320327900691 0 -0.017212782618801777 0.018240795131296925 0 -0.017202131500799991 0.018314958509895313 0 -0.017140381829609641 0.017815129598829374 0 -0.017144514339283899 0.018010124457032775 0 -0.017202131500799991 0.018314958509895313 0 -0.017212782618801777 0.018240795131296925 0 -0.017163839378734277 0.017930467334880427 0 -0.017202131500799991 0.018314958509895313 0 -0.017163839378734277 0.017930467334880427 0 -0.017140381829609641 0.017815129598829374 0 -0.017202131500799991 0.018314958509895313 0 -0.017169896207194123 0.01865701748182285 0 -0.017099620917581583 0.018078360001319332 0 -0.017202131500799991 0.018314958509895313 0 -0.017328614485241391 0.018765320327900691 0 -0.017169896207194123 0.01865701748182285 0 -0.017192622806264404 0.019189818661802995 0 -0.017169896207194123 0.01865701748182285 0 -0.017067117140025477 0.019059337519701455 0 -0.017328614485241391 0.018765320327900691 0 -0.017192622806264404 0.019189818661802995 0 -0.017169896207194123 0.01865701748182285 0 -0.017169896207194123 0.01865701748182285 0 -0.017067117140025477 0.019059337519701455 0 -0.017059787053010762 0.018508602258484594 0 -0.017067117140025477 0.019059337519701455 0 -0.017014228766495377 0.018790544866291642 0 -0.017059787053010762 0.018508602258484594 0 -0.017192622806264404 0.019189818661802995 0 -0.017067117140025477 0.019059337519701455 0 -0.017125323166406681 0.019526673093673223 0 -0.017742354286173118 0.023224996220127733 0 -0.017508159528978731 0.023227449710210967 0 -0.017590904149199074 0.023083306926436991 0 -0.018266080575674012 0.020422020850436488 0 -0.017391217574446505 0.021791952649208066 0 -0.017470122901950613 0.020305162967295957 0 -0.016963630638534944 0.020393562927236587 0 -0.017141191289998001 0.020640820165742393 0 -0.018266080575674012 0.020422020850436488 0 -0.017300316184587633 0.019268119101290688 0 -0.017508159528978731 0.023227449710210967 0 -0.017405709815016223 0.023033332173562952 0 -0.017590904149199074 0.023083306926436991 0 -0.017391217574446505 0.021791952649208066 0 -0.015306351525792015 0.022982354877702494 0 -0.016963630638534944 0.020393562927236587 0 -0.016846297521513096 0.020633630980977435 0 -0.016477429705102652 0.020489066586691449 0 -0.017508159528978731 0.023227449710210967 0 -0.017405709815016223 0.023033332173562952 0 -0.017313860146503338 0.023243780843050666 0 -0.017566651861827712 0.022911680694844956 0 -0.017405709815016223 0.023033332173562952 0 -0.017590904149199074 0.023083306926436991 0 -0.017742354286173118 0.023224996220127733 0 -0.017590904149199074 0.023083306926436991 0 -0.017763972079304035 0.022995599688824479 0 -0.017566651861827712 0.022911680694844956 0 -0.017590904149199074 0.023083306926436991 0 -0.017763972079304035 0.022995599688824479 0 -0.017800863641063952 0.022812049179245578 0 -0.017566651861827712 0.022911680694844956 0 -0.017763972079304035 0.022995599688824479 0 -0.017742354286173118 0.023224996220127733 0 -0.017763972079304035 0.022995599688824479 0 -0.018100065383922021 0.022947139639914713 0 -0.018266080575674012 0.020422020850436488 0 -0.01913087672211352 0.021903750761682068 0 -0.017800863641063952 0.022812049179245578 0 -0.017763972079304035 0.022995599688824479 0 -0.018100065383922021 0.022947139639914713 0 -0.018919602867496527 0.02075765881168529 0 -0.019932645163170934 0.020614993880456952 0 -0.019721632730372422 0.019728063237628893 0 -0.017280849948047444 0.018538681784587049 0 -0.017242165132691067 0.018385895025795719 0 -0.017212782618801777 0.018240795131296925 0 -0.018266080575674012 0.020422020850436488 0 -0.018661285598828237 0.018924876071029054 0 -0.017284182153840724 0.018169668002398876 0 -0.017242165132691067 0.018385895025795719 0 -0.017193952925651644 0.018086193274857339 0 -0.020828364692464692 0.019557503888227981 0 -0.019932645163170934 0.020614993880456952 0 -0.019721632730372422 0.019728063237628893 0 -0.017284182153840724 0.018169668002398876 0 -0.017193952925651644 0.018086193274857339 0 -0.017219071788188874 0.017875615954512845 0 -0.017193952925651644 0.018086193274857339 0 -0.017219071788188874 0.017875615954512845 0 -0.017146009025722407 0.017726290140607521 0 -0.017242165132691067 0.018385895025795719 0 -0.017193952925651644 0.018086193274857339 0 -0.017212782618801777 0.018240795131296925 0 -0.017193952925651644 0.018086193274857339 0 -0.017212782618801777 0.018240795131296925 0 -0.017163839378734277 0.017930467334880427 0 -0.017163839378734277 0.017930467334880427 0 -0.017125226232772177 0.017568781361898798 0 -0.017140381829609641 0.017815129598829374 0 -0.017163839378734277 0.017930467334880427 0 -0.017146009025722407 0.017726290140607521 0 -0.017125226232772177 0.017568781361898798 0 -0.017193952925651644 0.018086193274857339 0 -0.017163839378734277 0.017930467334880427 0 -0.017146009025722407 0.017726290140607521 0 -0.017219071788188874 0.017875615954512845 0 -0.017146009025722407 0.017726290140607521 0 -0.017127010242667606 0.017322812171113158 0 -0.017146009025722407 0.017726290140607521 0 -0.017127010242667606 0.017322812171113158 0 -0.017125226232772177 0.017568781361898798 0 -0.017219071788188874 0.017875615954512845 0 -0.017127010242667606 0.017322812171113158 0 -0.017271819110870047 0.017539354830349341 0 -0.017127010242667606 0.017322812171113158 0 -0.017143669017951651 0.016892113569150224 0 -0.017271819110870047 0.017539354830349341 0 -0.017143669017951651 0.016892113569150224 0 -0.017271819110870047 0.017539354830349341 0 -0.017734101478177746 0.017553947949217476 0 -0.017219071788188874 0.017875615954512845 0 -0.017271819110870047 0.017539354830349341 0 -0.017379073000469883 0.01794928778832634 0 -0.017284182153840724 0.018169668002398876 0 -0.017219071788188874 0.017875615954512845 0 -0.017379073000469883 0.01794928778832634 0 -0.017271819110870047 0.017539354830349341 0 -0.017379073000469883 0.01794928778832634 0 -0.017734101478177746 0.017553947949217476 0 -0.016484881426629454 0.018504325203990087 0 -0.015306351525792015 0.022982354877702494 0 -0.016846297521513096 0.020633630980977435 0 -0.016826885797490792 0.02095509879708031 0 -0.016477429705102652 0.020489066586691449 0 -0.016963630638534944 0.020393562927236587 0 -0.017141191289998001 0.020640820165742393 0 -0.016846297521513096 0.020633630980977435 0 -0.017141191289998001 0.020640820165742393 0 -0.016846297521513096 0.020633630980977435 0 -0.016826885797490792 0.02095509879708031 0 -0.017300316184587633 0.019268119101290688 0 -0.016484881426629454 0.018504325203990087 0 -0.01649855559326608 0.016152081159029753 0 -0.016729040036983354 0.015863214601743197 0 -0.016720059872205775 0.016421394202248422 0 -0.01503367999329373 0.0201214671090728 0 -0.015004414330957701 0.020156319423743123 0 -0.01513123058039899 0.020211711689339232 0 -0.016014454906012849 0.017352189234791111 0 -0.016484881426629454 0.018504325203990087 0 -0.016917909407053112 0.016627511980680229 0 -0.016484881426629454 0.018504325203990087 0 -0.017143669017951651 0.016892113569150224 0 -0.016720059872205775 0.016421394202248422 0 -0.016670520696923059 0.016574005693685005 0 -0.017143669017951651 0.016892113569150224 0 -0.016729040036983354 0.015863214601743197 0 -0.016720059872205775 0.016421394202248422 0 -0.016477081109438241 0.016083294431507827 0 -0.01633956835085465 0.016279422273336841 0 -0.01624184305748199 0.01611191523765243 0 -0.01649855559326608 0.016152081159029753 0 -0.016510144008607123 0.016348199583132213 0 -0.01633956835085465 0.016279422273336841 0 -0.016014454906012849 0.017352189234791111 0 -0.016523551343459241 0.0165109704304994 0 -0.01649855559326608 0.016152081159029753 0 -0.016720059872205775 0.016421394202248422 0 -0.016510144008607123 0.016348199583132213 0 -0.016510144008607123 0.016348199583132213 0 -0.016412190118601493 0.016446214628914001 0 -0.016670520696923059 0.016574005693685005 0 -0.016720059872205775 0.016421394202248422 0 -0.016510144008607123 0.016348199583132213 0 -0.016670520696923059 0.016574005693685005 0 -0.016510144008607123 0.016348199583132213 0 -0.01633956835085465 0.016279422273336841 0 -0.016412190118601493 0.016446214628914001 0 -0.01633956835085465 0.016279422273336841 0 -0.016145238079098817 0.016287934382405701 0 -0.016412190118601493 0.016446214628914001 0 -0.01633956835085465 0.016279422273336841 0 -0.016121578720291938 0.016150106747213372 0 -0.01624184305748199 0.01611191523765243 0 -0.01633956835085465 0.016279422273336841 0 -0.016121578720291938 0.016150106747213372 0 -0.016145238079098817 0.016287934382405701 0 -0.016121578720291938 0.016150106747213372 0 -0.01593601851935569 0.016126785195881923 0 -0.016145238079098817 0.016287934382405701 0 -0.016121578720291938 0.016150106747213372 0 -0.016067951578644969 0.016062146566655274 0 -0.01593601851935569 0.016126785195881923 0 -0.016067951578644969 0.016062146566655274 0 -0.016162272658318447 0.016004126656627874 0 -0.015932452048411618 0.015986990729372066 0 -0.016067951578644969 0.016062146566655274 0 -0.01593601851935569 0.016126785195881923 0 -0.015932452048411618 0.015986990729372066 0 -0.016477081109438241 0.016083294431507827 0 -0.016162272658318447 0.016004126656627874 0 -0.01624184305748199 0.01611191523765243 0 -0.016014454906012849 0.017352189234791111 0 -0.015533001418728888 0.017991130147774596 0 -0.016477081109438241 0.016083294431507827 0 -0.016162272658318447 0.016004126656627874 0 -0.015991692134914613 0.015912784995653854 0 -0.016067951578644969 0.016062146566655274 0 -0.016162272658318447 0.016004126656627874 0 -0.01624184305748199 0.01611191523765243 0 -0.016121578720291938 0.016150106747213372 0 -0.016067951578644969 0.016062146566655274 0 -0.01624184305748199 0.01611191523765243 0 -0.016162272658318447 0.016004126656627874 0 -0.015932452048411618 0.015986990729372066 0 -0.015716887105475443 0.015826346202578716 0 -0.01593601851935569 0.016126785195881923 0 -0.015744110885981297 0.016029052802420007 0 -0.015675133344365946 0.016130957016541318 0 -0.015744110885981297 0.016029052802420007 0 -0.015562164042854558 0.016017025106935513 0 -0.015675133344365946 0.016130957016541318 0 -0.01593601851935569 0.016126785195881923 0 -0.015932452048411618 0.015986990729372066 0 -0.015744110885981297 0.016029052802420007 0 -0.015932452048411618 0.015986990729372066 0 -0.015744110885981297 0.016029052802420007 0 -0.015716887105475443 0.015826346202578716 0 -0.015744110885981297 0.016029052802420007 0 -0.015637200969124205 0.015947311598572961 0 -0.015562164042854558 0.016017025106935513 0 -0.015744110885981297 0.016029052802420007 0 -0.015716887105475443 0.015826346202578716 0 -0.015637200969124205 0.015947311598572961 0 -0.016085982560469947 0.016036145233746663 0 -0.015677976706846092 0.015659615367565258 0 -0.015480289098227554 0.016006874901584256 0 -0.015488833967076768 0.015748974038900469 0 -0.015991692134914613 0.015912784995653854 0 -0.013471075894719173 0.022154841838020325 0 -0.015533001418728888 0.017991130147774596 0 -0.015004414330957701 0.020156319423743123 0 -0.01513123058039899 0.020211711689339232 0 -0.015086424884818966 0.020313153216231575 0 -0.016162272658318447 0.016004126656627874 0 -0.015480289098227554 0.016006874901584256 0 -0.015991692134914613 0.015912784995653854 0 -0.015217053563118437 0.020294736564068723 0 -0.01513123058039899 0.020211711689339232 0 -0.015086424884818966 0.020313153216231575 0 -0.013471075894719173 0.022154841838020325 0 -0.015306351525792015 0.022982354877702494 0 -0.012741033732148308 0.026337839515411986 0 -0.012125183215063572 0.026023719808169896 0 -0.012355268835281735 0.025822567858888829 0 -0.015306351525792015 0.022982354877702494 0 -0.014963289867736361 0.02468331310350429 0 -0.017405709815016223 0.023033332173562952 0 -0.017313860146503338 0.023243780843050666 0 -0.017225815858014189 0.023081404296641815 0 -0.011983942377348181 0.02646316229281543 0 -0.012741033732148308 0.026337839515411986 0 -0.012125183215063572 0.026023719808169896 0 -0.011983942377348181 0.02646316229281543 0 -0.012125183215063572 0.026023719808169896 0 -0.011385264637322489 0.026128067972907291 0 -0.011953392545134356 0.026158965719887177 0 -0.013261695632181261 0.024688356774207727 0 -0.017225815858014189 0.023081404296641815 0 -0.017278782213098236 0.022948147997804435 0 -0.017170919433398549 0.022952745390231691 0 -0.012125183215063572 0.026023719808169896 0 -0.012355268835281735 0.025822567858888829 0 -0.011980628042371086 0.025241919892853942 0 -0.014963289867736361 0.02468331310350429 0 -0.013261695632181261 0.024688356774207727 0 -0.012125183215063572 0.026023719808169896 0 -0.011719315404739946 0.025803714738595149 0 -0.011921736216979688 0.02545440701126081 0 -0.017405709815016223 0.023033332173562952 0 -0.017225815858014189 0.023081404296641815 0 -0.017278782213098236 0.022948147997804435 0 -0.011436634009710889 0.025627139858735177 0 -0.010821413095167138 0.025816542729833854 0 -0.010972146203719398 0.025399633406036268 0 -0.011436634009710889 0.025627139858735177 0 -0.011385264637322489 0.026128067972907291 0 -0.010821413095167138 0.025816542729833854 0 -0.0086670990382988998 0.026887964130286775 0 -0.0078363744144364384 0.028857465029353272 0 -0.011436634009710889 0.025627139858735177 0 -0.011719315404739946 0.025803714738595149 0 -0.011385264637322489 0.026128067972907291 0 -0.011436634009710889 0.025627139858735177 0 -0.011719315404739946 0.025803714738595149 0 -0.011921736216979688 0.02545440701126081 0 -0.012125183215063572 0.026023719808169896 0 -0.011719315404739946 0.025803714738595149 0 -0.011385264637322489 0.026128067972907291 0 -0.012673310190438094 0.024954654366276356 0 -0.01159249742549243 0.024336783135191362 0 -0.011441202478725123 0.025184929732122625 0 -0.013471075894719173 0.022154841838020325 0 -0.011708214372832579 0.025432508388848498 0 -0.01159249742549243 0.024336783135191362 0 -0.010832954306061052 0.024477054195027804 0 -0.010512942166358633 0.023715542327596754 0 -0.01159249742549243 0.024336783135191362 0 -0.010832954306061052 0.024477054195027804 0 -0.011441202478725123 0.025184929732122625 0 -0.010832954306061052 0.024477054195027804 0 -0.011441202478725123 0.025184929732122625 0 -0.010100128624905764 0.024878430991403751 0 -0.011708214372832579 0.025432508388848498 0 -0.0086670990382988998 0.026887964130286775 0 -0.014060895052882896 0.019647303866752563 0 -0.0093559240473037198 0.020639050475545935 0 -0.015369050141353801 0.015775905097019136 0 -0.015183873592592783 0.016001724183099787 0 -0.015012248082540118 0.015851845662459851 0 -0.014060895052882896 0.019647303866752563 0 -0.0072620133410647237 0.026876437592023898 0 -0.013055445973598584 0.022944970496027457 0 -0.0085228421301853079 0.021825121933234215 0 -0.008844735760642328 0.023686297153020442 0 -0.013471075894719173 0.022154841838020325 0 -0.014060895052882896 0.019647303866752563 0 -0.015480289098227554 0.016006874901584256 0 -0.015488833967076768 0.015748974038900469 0 -0.01481643223235758 0.015920966464246129 0 -0.015716887105475443 0.015826346202578716 0 -0.015369050141353801 0.015775905097019136 0 -0.015536911025631069 0.015910834204441889 0 -0.015677976706846092 0.015659615367565258 0 -0.014060895052882896 0.019647303866752563 0 -0.015369050141353801 0.015775905097019136 0 -0.015536911025631069 0.015910834204441889 0 -0.01540597738868018 0.015988118189741503 0 -0.015716887105475443 0.015826346202578716 0 -0.015637200969124205 0.015947311598572961 0 -0.015536911025631069 0.015910834204441889 0 -0.015637200969124205 0.015947311598572961 0 -0.015536911025631069 0.015910834204441889 0 -0.015562164042854558 0.016017025106935513 0 -0.015536911025631069 0.015910834204441889 0 -0.01540597738868018 0.015988118189741503 0 -0.015562164042854558 0.016017025106935513 0 -0.01540597738868018 0.015988118189741503 0 -0.015562164042854558 0.016017025106935513 0 -0.015447241003613115 0.016088489178677209 0 -0.015562164042854558 0.016017025106935513 0 -0.015447241003613115 0.016088489178677209 0 -0.015675133344365946 0.016130957016541318 0 -0.015369050141353801 0.015775905097019136 0 -0.01540597738868018 0.015988118189741503 0 -0.015183873592592783 0.016001724183099787 0 -0.01540597738868018 0.015988118189741503 0 -0.015344804468873692 0.016093675676965766 0 -0.015447241003613115 0.016088489178677209 0 -0.01540597738868018 0.015988118189741503 0 -0.015183873592592783 0.016001724183099787 0 -0.015344804468873692 0.016093675676965766 0 -0.015314249917691381 0.016079221602978866 0 -0.015320779639458356 0.016092005654113204 0 -0.015344804468873692 0.016093675676965766 0 -0.01308314595916199 0.017118484856982249 0 -0.014997614987287189 0.016452289432429188 0 -0.01308314595916199 0.017118484856982249 0 -0.011839640726115498 0.015183053939469901 0 -0.0083749608173848238 0.017972491521411508 0 -0.0090491652020208806 0.01782648682714446 0 -0.009028275320586315 0.017496114057101476 0 -0.015314249917691381 0.016079221602978866 0 -0.015320779639458356 0.016092005654113204 0 -0.015301910464978759 0.016092460869496946 0 -0.0090491652020208806 0.01782648682714446 0 -0.0091077730144887847 0.018579057463612172 0 -0.0096027715675742979 0.017042015872051671 0 -0.0083749608173848238 0.017972491521411508 0 -0.0090491652020208806 0.01782648682714446 0 -0.0088230736520334887 0.01862487505521123 0 -0.0090491652020208806 0.01782648682714446 0 -0.0090125685934995051 0.017484047308516493 0 -0.0096027715675742979 0.017042015872051671 0 -0.011110234125344287 0.01692971742760168 0 -0.011839640726115498 0.015183053939469901 0 -0.0012205826935551881 0.017741139249635295 0 -0.0011639055474911655 0.017708121690913892 0 -0.0012010135096605142 0.017692684399436085 0 -0.0043046350470460721 0.022259694287481254 0 -0.0065375357178244116 0.015245825135029418 0 -0.0014353130616950715 0.033507795893754341 0 -0.002469238650928767 0.033303865724405322 0 -0.0031424705514873177 0.033938317890964811 0 -0.0014353130616950715 0.033507795893754341 0 -0.0031424705514873177 0.033938317890964811 0 -0.00061166063488695647 0.034462228670934583 0 -0.0043046350470460721 0.022259694287481254 0 -0.00034797615197026472 0.026532621329966578 0 -0.0014353130616950715 0.033507795893754341 0 -0.002469238650928767 0.033303865724405322 0 -0.0014784102477433086 0.032473035207537575 0 -0.002469238650928767 0.033303865724405322 0 -0.0033278791805433313 0.033405244215292396 0 -0.0031424705514873177 0.033938317890964811 0 -0.0081789301365079378 0.022810581379806367 0 -0.0085228421301853079 0.021825121933234215 0 -0.008844735760642328 0.023686297153020442 0 -0.0063624344545711994 0.026210644867579288 0 -0.0045822580396608298 0.030035448420821027 0 -0.002469238650928767 0.033303865724405322 0 -0.0033278791805433313 0.033405244215292396 0 -0.0028098410315318422 0.032757863461235277 0 -0.0063624344545711994 0.026210644867579288 0 -0.0093559240473037198 0.020639050475545935 0 -0.0063624344545711994 0.026210644867579288 0 -0.0072620133410647237 0.026876437592023898 0 -0.0056426794177189422 0.027820133281835985 0 -0.0055224866117791456 0.028167466072631354 0 -0.0059876858554910933 0.0282962171690238 0 -0.01308314595916199 0.017118484856982249 0 -0.0093559240473037198 0.020639050475545935 0 -0.0090491652020208806 0.01782648682714446 0 -0.0088230736520334887 0.01862487505521123 0 -0.0091077730144887847 0.018579057463612172 0 -0.0057935279163311166 0.024250059300538508 0 -0.0054935909943551221 0.023828409168002111 0 -0.0059613363399362296 0.023754786117970026 0 -0.0093559240473037198 0.020639050475545935 0 -0.0043046350470460721 0.022259694287481254 0 -0.0063624344545711994 0.026210644867579288 0 -0.0043046350470460721 0.022259694287481254 0 -0.001072890628037804 0.017673413654371351 0 -0.0011480850265685881 0.017684173987929177 0 -0.0011019161568515212 0.017656604170210602 0 -0.001072890628037804 0.017673413654371351 0 -0.0011639055474911655 0.017708121690913892 0 -0.0011480850265685881 0.017684173987929177 0 0.00021980218469374709 0.026214667167632658 0 -0.00034797615197026472 0.026532621329966578 0 -0.0011639055474911655 0.017708121690913892 0 -0.0011480850265685881 0.017684173987929177 0 -0.0012010135096605142 0.017692684399436085 0 -0.0014353130616950715 0.033507795893754341 0 -0.00061166063488695647 0.034462228670934583 0 0.00036058594870938174 0.032903381502593212 0 0.002077095419575372 0.034446900904719885 0 0.0010892454743282127 0.033742368384451674 0 0.0021818875863744238 0.034564088062342353 0 0.0021552589557128632 0.03432531527047912 0 0.001734892680291278 0.034383013441777396 0 0.0021818875863744238 0.034564088062342353 0 0.001832326102507718 0.034971782956163572 0 0.00036058594870938174 0.032903381502593212 0 0.001832326102507718 0.034971782956163572 0 -0.00061166063488695647 0.034462228670934583 0 0.00036058594870938174 0.032903381502593212 0 0.0021552589557128632 0.03432531527047912 0 0.0019307869080657566 0.034165049593420274 0 0.001734892680291278 0.034383013441777396 0 0.0021552589557128632 0.03432531527047912 0 0.0021837397864857963 0.034073392806042803 0 0.0019307869080657566 0.034165049593420274 0 0.0019307869080657566 0.034165049593420274 0 0.0016812768961732439 0.034091664880079489 0 0.001734892680291278 0.034383013441777396 0 0.0019307869080657566 0.034165049593420274 0 0.0016812768961732439 0.034091664880079489 0 0.0018874716535713285 0.033939956844135893 0 -0.0014353130616950715 0.033507795893754341 0 0.00036058594870938174 0.032903381502593212 0 -0.0014784102477433086 0.032473035207537575 0 0.0010892454743282127 0.033742368384451674 0 -0.00038605379431791588 0.032140197365035442 0 0.0016812768961732439 0.034091664880079489 0 0.001734892680291278 0.034383013441777396 0 0.0011824827933154792 0.034045778024225322 0 0.00036058594870938174 0.032903381502593212 0 -0.0014784102477433086 0.032473035207537575 0 -0.001757652107975523 0.031388827256334656 0 0.0016812768961732439 0.034091664880079489 0 0.0015880977512432535 0.033866773814253244 0 0.0011824827933154792 0.034045778024225322 0 0.0015880977512432535 0.033866773814253244 0 0.0011824827933154792 0.034045778024225322 0 0.001582858407250148 0.033503611669959577 0 0.0016390242777724986 0.033449479061782007 0 0.001781012594258334 0.032900632045983091 0 0.0021345111251781638 0.032791163048637231 0 -0.00038605379431791588 0.032140197365035442 0 0.0020856355596138997 0.033390483398975469 0 0.0015880977512432535 0.033866773814253244 0 0.0017724674229055736 0.033718520940860877 0 0.001582858407250148 0.033503611669959577 0 0.0016812768961732439 0.034091664880079489 0 0.0015880977512432535 0.033866773814253244 0 0.0018874716535713285 0.033939956844135893 0 0.0015880977512432535 0.033866773814253244 0 0.0018874716535713285 0.033939956844135893 0 0.0017724674229055736 0.033718520940860877 0 0.0021015970348905256 0.03373137470234025 0 0.0018874716535713285 0.033939956844135893 0 0.0017724674229055736 0.033718520940860877 0 0.0021837397864857963 0.034073392806042803 0 0.0019307869080657566 0.034165049593420274 0 0.0018874716535713285 0.033939956844135893 0 0.0021015970348905256 0.03373137470234025 0 0.0021837397864857963 0.034073392806042803 0 0.0018874716535713285 0.033939956844135893 0 -0.005104115018990882 0.030183076401779845 0 -0.0048307721821060365 0.02927413553417484 0 -0.0056228847680426831 0.02870826146278526 0 -0.010832954306061052 0.024477054195027804 0 -0.010100128624905764 0.024878430991403751 0 -0.010512942166358633 0.023715542327596754 0 -0.0072620133410647237 0.026876437592023898 0 -0.0086670990382988998 0.026887964130286775 0 -0.0072620133410647237 0.026876437592023898 0 -0.0045822580396608298 0.030035448420821027 0 -0.005104115018990882 0.030183076401779845 0 -0.0048307721821060365 0.02927413553417484 0 -0.0046058661533140881 0.030063474961282595 0 -0.002469238650928767 0.033303865724405322 0 -0.0028098410315318422 0.032757863461235277 0 -0.0014784102477433086 0.032473035207537575 0 -0.0028496907696409055 0.032808904903464282 0 -0.0014784102477433086 0.032473035207537575 0 -0.001757652107975523 0.031388827256334656 0 -0.0045822580396608298 0.030035448420821027 0 -0.0016021468847245595 0.031945088476231565 0 -0.0045822580396608298 0.030035448420821027 0 -0.00038605379431791588 0.032140197365035442 0 -0.0048307721821060365 0.02927413553417484 0 -0.0046058661533140881 0.030063474961282595 0 -0.0038358130291358383 0.02908499153461545 0 -0.00038605379431791588 0.032140197365035442 0 -0.0040669284040924045 0.030654814152991542 0 0.0016390242777724986 0.033449479061782007 0 0.0010995676711044969 0.033127190929536379 0 0.001781012594258334 0.032900632045983091 0 -0.0048307721821060365 0.02927413553417484 0 -0.0038358130291358383 0.02908499153461545 0 -0.0049823103806123465 0.028326374886057933 0 -0.0048307721821060365 0.02927413553417484 0 -0.0049823103806123465 0.028326374886057933 0 -0.0056228847680426831 0.02870826146278526 0 -0.0040669284040924045 0.030654814152991542 0 -0.0086670990382988998 0.026887964130286775 0 -0.0065997867819413405 0.029018075056835894 0 -0.0071226724336807589 0.029331075479570177 0 -0.0074253328100610015 0.028479112335184416 0 -0.0040669284040924045 0.030654814152991542 0 -0.0078363744144364384 0.028857465029353272 0 -0.0048772080254754725 0.032242036467113558 0 -0.0048773192056487695 0.030915333280335262 0 -0.0059775185059193726 0.031522573263893912 0 -0.0048773192056487695 0.030915333280335262 0 -0.0033194081513437902 0.031300580343664668 0 -0.004428431919742167 0.02989118281820085 0 -0.0048772080254754725 0.032242036467113558 0 -0.0048773192056487695 0.030915333280335262 0 -0.0033194081513437902 0.031300580343664668 0 0.0010995676711044969 0.033127190929536379 0 0.001781012594258334 0.032900632045983091 0 0.0017943211993323681 0.032775674853505223 0 -0.0040669284040924045 0.030654814152991542 0 0.00032644975462405436 0.032373406999078085 0 0.001781012594258334 0.032900632045983091 0 0.0018202140238238601 0.032817890773136849 0 0.0020230609199684197 0.032768486271303639 0 0.00051483635933689711 0.032539932607167608 0 0.00032644975462405436 0.032373406999078085 0 0.00032644975462405436 0.032373406999078085 0 0.00062746030052087981 0.031692130328027736 0 -0.0033194081513437902 0.031300580343664668 0 -0.004428431919742167 0.02989118281820085 0 -0.0030648894762436985 0.029010409774335479 0 -0.0048773192056487695 0.030915333280335262 0 -0.004428431919742167 0.02989118281820085 0 -0.0058209046854391377 0.029654753155400254 0 0.0019001688829638575 0.033447557566571737 0 0.001582858407250148 0.033503611669959577 0 0.0019895345731830551 0.032888783940541184 0 0.0021015970348905256 0.03373137470234025 0 0.0017724674229055736 0.033718520940860877 0 0.0019001688829638575 0.033447557566571737 0 0.0021015970348905256 0.03373137470234025 0 0.0020907184343914005 0.033361150393056246 0 0.0019001688829638575 0.033447557566571737 0 0.0017724674229055736 0.033718520940860877 0 0.0019001688829638575 0.033447557566571737 0 0.001582858407250148 0.033503611669959577 0 0.0021345111251781638 0.032791163048637231 0 0.0020230609199684197 0.032768486271303639 0 0.002093302034065863 0.032804823417745765 0 0.001781012594258334 0.032900632045983091 0 0.0021345111251781638 0.032791163048637231 0 0.0020230609199684197 0.032768486271303639 0 0.00032644975462405436 0.032373406999078085 0 0.0013240724099738673 0.032214398325159911 0 0.0020230609199684197 0.032768486271303639 0 0.0021189701936879558 0.032834101053547116 0 0.0021864304858923446 0.032869143588028379 0 0.0020244127385964589 0.032754600357194921 0 0.0021864304858923446 0.032869143588028379 0 0.002206218954548993 0.03287895548920778 0 0.0020244127385964589 0.032754600357194921 0 0.0020230609199684197 0.032768486271303639 0 0.0021864304858923446 0.032869143588028379 0 0.0021189701936879558 0.032834101053547116 0 0.0020846508488669407 0.032836202415120246 0 0.0021067045250984595 0.032893207041962767 0 0.0021189701936879558 0.032834101053547116 0 0.0021067045250984595 0.032893207041962767 0 0.0021864304858923446 0.032869143588028379 0 0.0021345111251781638 0.032791163048637231 0 0.0020846508488669407 0.032836202415120246 0 0.002093302034065863 0.032804823417745765 0 0.0020230609199684197 0.032768486271303639 0 0.0021189701936879558 0.032834101053547116 0 0.002093302034065863 0.032804823417745765 0 0.0021189701936879558 0.032834101053547116 0 0.0020846508488669407 0.032836202415120246 0 0.002093302034065863 0.032804823417745765 0 0.0020907184343914005 0.033361150393056246 0 0.0019001688829638575 0.033447557566571737 0 0.0019895345731830551 0.032888783940541184 0 0.0020856355596138997 0.033390483398975469 0 0.0019329981492773613 0.032831514691076542 0 0.0021345111251781638 0.032791163048637231 0 0.0020846508488669407 0.032836202415120246 0 0.0019895345731830551 0.032888783940541184 0 0.0020846508488669407 0.032836202415120246 0 0.0019895345731830551 0.032888783940541184 0 0.0021067045250984595 0.032893207041962767 0 0.0019864099062572565 0.032982394062302273 0 0.0019895345731830551 0.032888783940541184 0 0.002109765962167292 0.032999075144005172 0 0.0019895345731830551 0.032888783940541184 0 0.0021067045250984595 0.032893207041962767 0 0.002109765962167292 0.032999075144005172 0 0.002199727944450038 0.03296538461182752 0 0.0022640156464505054 0.032892529613113515 0 0.0024126208600337234 0.033229172109434831 0 0.0021067045250984595 0.032893207041962767 0 0.002199727944450038 0.03296538461182752 0 0.002109765962167292 0.032999075144005172 0 0.0021067045250984595 0.032893207041962767 0 0.002199727944450038 0.03296538461182752 0 0.0021864304858923446 0.032869143588028379 0 0.002199727944450038 0.03296538461182752 0 0.0021864304858923446 0.032869143588028379 0 0.0022640156464505054 0.032892529613113515 0 0.0014588147775962247 0.032409057125954224 0 0.00062746030052087981 0.031692130328027736 0 0.002199727944450038 0.03296538461182752 0 0.0024126208600337234 0.033229172109434831 0 0.002109765962167292 0.032999075144005172 0 0.00062746030052087981 0.031692130328027736 0 0.0025110482185183268 0.033947156388619462 0 0.0021625956081068294 0.033417973683340277 0 0.0024126208600337234 0.033229172109434831 0 0.002109765962167292 0.032999075144005172 0 0.0019864099062572565 0.032982394062302273 0 0.0021625956081068294 0.033417973683340277 0 0.002109765962167292 0.032999075144005172 0 -0.004428431919742167 0.02989118281820085 0 -0.005082506124030735 0.028611043508203031 0 -0.0058209046854391377 0.029654753155400254 0 -0.004428431919742167 0.02989118281820085 0 -0.0030648894762436985 0.029010409774335479 0 -0.005082506124030735 0.028611043508203031 0 0.00062746030052087981 0.031692130328027736 0 -0.0014463152343424282 0.030780689539717038 0 -0.0030648894762436985 0.029010409774335479 0 -0.005082506124030735 0.028611043508203031 0 -0.0043834689136570239 0.027822386701311298 0 0.0024234649678660674 0.03424269061725068 0 0.002453291706488499 0.033886586168452394 0 0.0023173570589634365 0.033930145415008633 0 0.0024234649678660674 0.03424269061725068 0 0.0020980514511854151 0.034088481926912217 0 0.0023173570589634365 0.033930145415008633 0 0.0023947962411605614 0.03380123643137814 0 0.002453291706488499 0.033886586168452394 0 0.0023173570589634365 0.033930145415008633 0 0.0020980514511854151 0.034088481926912217 0 0.0023173570589634365 0.033930145415008633 0 0.0020426811551210052 0.033756150127581902 0 0.0023947962411605614 0.03380123643137814 0 0.0023173570589634365 0.033930145415008633 0 0.0020426811551210052 0.033756150127581902 0 -0.0016834708348271263 0.030312050927262125 0 -0.0014463152343424282 0.030780689539717038 0 0.00079301447378846276 0.033203159173422224 0 0.0020980514511854151 0.034088481926912217 0 0.0020426811551210052 0.033756150127581902 0 -0.0056921622857620327 0.026671030985607275 0 -0.005082506124030735 0.028611043508203031 0 -0.0043834689136570239 0.027822386701311298 0 -0.0073165454198455436 0.027034794650729076 0 -0.0056921622857620327 0.026671030985607275 0 -0.0062495359594339226 0.028617247951701098 0 -0.0056921622857620327 0.026671030985607275 0 -0.005082506124030735 0.028611043508203031 0 -0.0062495359594339226 0.028617247951701098 0 -0.005082506124030735 0.028611043508203031 0 -0.0062495359594339226 0.028617247951701098 0 -0.0058209046854391377 0.029654753155400254 0 -0.012519709107181662 0.026084586016549269 0 -0.013941133729673427 0.02565719526755143 0 -0.0062495359594339226 0.028617247951701098 0 -0.007672536451167185 0.028524724907373806 0 -0.0075605640389946275 0.030282634838154084 0 -0.012676272764274405 0.025302316772589886 0 -0.012519709107181662 0.026084586016549269 0 -0.0073165454198455436 0.027034794650729076 0 -0.0062495359594339226 0.028617247951701098 0 -0.007672536451167185 0.028524724907373806 0 -0.01763643939966518 0.024405515128671396 0 -0.017499691469784522 0.023339347492191031 0 -0.017052078967417603 0.023818411947475242 0 -0.017556241794951889 0.023112153782838495 0 -0.017449547964982486 0.022902970299684234 0 -0.017630389653105212 0.022869097833958973 0 -0.017449547964982486 0.022902970299684234 0 -0.017630389653105212 0.022869097833958973 0 -0.017403610971264694 0.022819252630016849 0 -0.017449547964982486 0.022902970299684234 0 -0.01729066004068678 0.023014488894365151 0 -0.017336572108255489 0.022802472530881857 0 -0.017556241794951889 0.023112153782838495 0 -0.017449547964982486 0.022902970299684234 0 -0.01729066004068678 0.023014488894365151 0 -0.017336572108255489 0.022802472530881857 0 -0.017342907552315354 0.022777525247735773 0 -0.017403610971264694 0.022819252630016849 0 -0.017449547964982486 0.022902970299684234 0 -0.017336572108255489 0.022802472530881857 0 -0.017403610971264694 0.022819252630016849 0 -0.017336572108255489 0.022802472530881857 0 -0.017342907552315354 0.022777525247735773 0 -0.017346964707236619 0.02275520320907989 0 -0.017630389653105212 0.022869097833958973 0 -0.017368454368610106 0.022808576283301824 0 -0.017283259922163247 0.022821590517790126 0 -0.017340231521611012 0.023426531463155015 0 -0.017293240734792582 0.022874477044021437 0 -0.017499691469784522 0.023339347492191031 0 -0.017052078967417603 0.023818411947475242 0 -0.017283259922163247 0.022821590517790126 0 -0.017499691469784522 0.023339347492191031 0 -0.017283259922163247 0.022821590517790126 0 -0.017407751476425631 0.022590356977097853 0 -0.017630389653105212 0.022869097833958973 0 -0.017403610971264694 0.022819252630016849 0 -0.017368454368610106 0.022808576283301824 0 -0.017342907552315354 0.022777525247735773 0 -0.017368454368610106 0.022808576283301824 0 -0.01726463136391931 0.022798001118669232 0 -0.017342907552315354 0.022777525247735773 0 -0.017403610971264694 0.022819252630016849 0 -0.017368454368610106 0.022808576283301824 0 -0.017368454368610106 0.022808576283301824 0 -0.017283259922163247 0.022821590517790126 0 -0.01726463136391931 0.022798001118669232 0 -0.017923933219573199 0.022560262984152368 0 -0.013941133729673427 0.02565719526755143 0 -0.017283259922163247 0.022821590517790126 0 -0.01726463136391931 0.022798001118669232 0 -0.017407751476425631 0.022590356977097853 0 -0.01726463136391931 0.022798001118669232 0 -0.017250122913191855 0.022823563398048554 0 -0.017175470686671954 0.022830153384040156 0 -0.01726463136391931 0.022798001118669232 0 -0.017250122913191855 0.022823563398048554 0 -0.017304538467240418 0.022804466686406597 0 -0.017342907552315354 0.022777525247735773 0 -0.01726463136391931 0.022798001118669232 0 -0.017304538467240418 0.022804466686406597 0 -0.017250122913191855 0.022823563398048554 0 -0.017304538467240418 0.022804466686406597 0 -0.017248260495049517 0.022865304868197753 0 -0.017250122913191855 0.022823563398048554 0 -0.017175470686671954 0.022830153384040156 0 -0.017248260495049517 0.022865304868197753 0 -0.017372021488589635 0.022842943344073344 0 -0.017304538467240418 0.022804466686406597 0 -0.017248260495049517 0.022865304868197753 0 -0.017372021488589635 0.022842943344073344 0 -0.017346964707236619 0.02275520320907989 0 -0.017304538467240418 0.022804466686406597 0 -0.017342907552315354 0.022777525247735773 0 -0.017346964707236619 0.02275520320907989 0 -0.017304538467240418 0.022804466686406597 0 -0.017372021488589635 0.022842943344073344 0 -0.017278782213098236 0.022948147997804435 0 -0.017248260495049517 0.022865304868197753 0 -0.017372021488589635 0.022842943344073344 0 -0.017405709815016223 0.023033332173562952 0 -0.017278782213098236 0.022948147997804435 0 -0.013941133729673427 0.02565719526755143 0 -0.013261695632181261 0.024688356774207727 0 -0.017175470686671954 0.022830153384040156 0 -0.017248260495049517 0.022865304868197753 0 -0.017170919433398549 0.022952745390231691 0 -0.017278782213098236 0.022948147997804435 0 -0.017248260495049517 0.022865304868197753 0 -0.017170919433398549 0.022952745390231691 0 -0.011436634009710889 0.025627139858735177 0 -0.010972146203719398 0.025399633406036268 0 -0.011568895735038272 0.025017395661028848 0 -0.012541667858938829 0.026704063851956495 0 -0.012258437127399702 0.025425273910477015 0 -0.01294786462626725 0.026434226625519117 0 -0.011436634009710889 0.025627139858735177 0 -0.011921736216979688 0.02545440701126081 0 -0.011568895735038272 0.025017395661028848 0 -0.013261695632181261 0.024688356774207727 0 -0.0097493250251526348 0.028047468691707232 0 -0.0078363744144364384 0.028857465029353272 0 -0.0097493250251526348 0.028047468691707232 0 -0.0048773192056487695 0.030915333280335262 0 -0.0059775185059193726 0.031522573263893912 0 -0.0063310451297153465 0.030517930393362726 0 -0.0060086285874745753 0.031443215883536782 0 -0.0063310451297153465 0.030517930393362726 0 -0.0075503242039093163 0.030451261677786962 0 -0.0078363744144364384 0.028857465029353272 0 -0.0061695613969834093 0.03144583992680515 0 -0.0063310451297153465 0.030517930393362726 0 -0.0058209046854391377 0.029654753155400254 0 -0.0075503242039093163 0.030451261677786962 0 -0.0062495359594339226 0.028617247951701098 0 -0.0058209046854391377 0.029654753155400254 0 -0.0075503242039093163 0.030451261677786962 0 -0.0048773192056487695 0.030915333280335262 0 -0.0063310451297153465 0.030517930393362726 0 -0.0058209046854391377 0.029654753155400254 0 -0.0057487841461986806 0.029412712231457194 0 -0.0097493250251526348 0.028047468691707232 0 -0.007672536451167185 0.028524724907373806 0 -0.0080426480693056874 0.029959681048945436 0 -0.0075605640389946275 0.030282634838154084 0 -0.013941133729673427 0.02565719526755143 0 -0.0097493250251526348 0.028047468691707232 0 -0.035548869882306114 0.027426145462362703 0 -0.034999344025874575 0.026989241327776026 0 -0.034999523509801941 0.028935040799809339 0 -0.035548869882306114 0.027426145462362703 0 -0.034999344025874575 0.026989241327776026 0 -0.035385740660929269 0.025579626715890154 0 -0.035548869882306114 0.027426145462362703 0 -0.035485038279569212 0.026043369323864255 0 -0.035385740660929269 0.025579626715890154 0 -0.035548869882306114 0.027426145462362703 0 -0.035507620161969657 0.027234442504686859 0 -0.035485038279569212 0.026043369323864255 0 -0.035447122538341841 0.026152174284544086 0 -0.035507620161969657 0.027234442504686859 0 -0.035656497829534957 0.027100124256319632 0 -0.035447122538341841 0.026152174284544086 0 -0.035507620161969657 0.027234442504686859 0 -0.035485038279569212 0.026043369323864255 0 -0.035507620161969657 0.027234442504686859 0 -0.035460427989923902 0.028146462598616761 0 -0.035656497829534957 0.027100124256319632 0 -0.035507620161969657 0.027234442504686859 0 -0.03582540477916106 0.028106083008010409 0 -0.035460427989923902 0.028146462598616761 0 -0.035548869882306114 0.027426145462362703 0 -0.035507620161969657 0.027234442504686859 0 -0.03582540477916106 0.028106083008010409 0 -0.033163075884036039 0.031058762681085737 0 -0.033673545173540348 0.032265517481529282 0 -0.033172386741710726 0.032811426006232838 0 -0.033163075884036039 0.031058762681085737 0 -0.033742663800802007 0.032313258835076637 0 -0.033172386741710726 0.032811426006232838 0 -0.03459508644125487 0.029558514023398565 0 -0.034615341059772445 0.030730792843114644 0 -0.03459508644125487 0.029558514023398565 0 -0.035485083870136422 0.028276656281552733 0 -0.033163075884036039 0.031058762681085737 0 -0.034572295802216602 0.030813885465066023 0 -0.035460427989923902 0.028146462598616761 0 -0.033163075884036039 0.031058762681085737 0 -0.034572295802216602 0.030813885465066023 0 -0.033742663800802007 0.032313258835076637 0 -0.035548869882306114 0.027426145462362703 0 -0.035716225484136319 0.029294276092407118 0 -0.034999523509801941 0.028935040799809339 0 -0.035548869882306114 0.027426145462362703 0 -0.03582540477916106 0.028106083008010409 0 -0.035716225484136319 0.029294276092407118 0 -0.034615341059772445 0.030730792843114644 0 -0.034999675223437894 0.030882275509311177 0 -0.035716225484136319 0.029294276092407118 0 -0.034999523509801941 0.028935040799809339 0 -0.034999828230622691 0.030881247836791297 0 -0.034998636540263348 0.030887440806190034 0 -0.034509630843748182 0.032034993721297658 0 -0.034999292202068877 0.032649861593450437 0 -0.033673545173540348 0.032265517481529282 0 -0.034998636540263348 0.030887440806190034 0 -0.034509630843748182 0.032034993721297658 0 -0.033673545173540348 0.032265517481529282 0 -0.034509630843748182 0.032034993721297658 0 -0.033172386741710726 0.032811426006232838 0 -0.033962636855525689 0.03366091088800674 0 -0.033304941898297045 0.032926153676641763 0 -0.034509630843748182 0.032034993721297658 0 -0.035049238929419843 0.032328334588616676 0 -0.033172386741710726 0.032811426006232838 0 -0.034509630843748182 0.032034993721297658 0 -0.034999292202068877 0.032649861593450437 0 -0.035049238929419843 0.032328334588616676 0 -0.033962636855525689 0.03366091088800674 0 -0.034999646174743194 0.034421444970756374 0 -0.034999292202068877 0.032649861593450437 0 -0.035049238929419843 0.032328334588616676 0 -0.035000212434305684 0.03442161965320209 0 -0.032896594200270322 0.03502309736122549 0 -0.033273945142206905 0.03495630722874659 0 -0.034997462657557377 0.03442692442498433 0 -0.033273945142206905 0.03495630722874659 0 -0.035000239896706607 0.034996793146372801 0 -0.031696947021865679 0.034999365386444749 0 -0.032896594200270322 0.03502309736122549 0 -0.033273945142206905 0.03495630722874659 0 -0.032615992179572451 0.03482475927448743 0 -0.033273945142206905 0.03495630722874659 0 -0.035000239896706607 0.034996793146372801 0 -0.034997462657557377 0.03442692442498433 0 -0.031696947021865679 0.034999365386444749 0 -0.032615992179572451 0.03482475927448743 0 -0.031734764551379066 0.035077088738581022 0 -0.033273945142206905 0.03495630722874659 0 -0.031696947021865679 0.034999365386444749 0 -0.032615992179572451 0.03482475927448743 0 -0.032615992179572451 0.03482475927448743 0 -0.033296834162371204 0.03385680549919301 0 -0.031734764551379066 0.035077088738581022 0 -0.032615992179572451 0.03482475927448743 0 -0.033296834162371204 0.03385680549919301 0 -0.033172386741710726 0.032811426006232838 0 -0.032896594200270322 0.03502309736122549 0 -0.032615992179572451 0.03482475927448743 0 -0.033172386741710726 0.032811426006232838 0 -0.033742663800802007 0.032313258835076637 0 -0.033296834162371204 0.03385680549919301 0 -0.033172386741710726 0.032811426006232838 0 -0.033742663800802007 0.032313258835076637 0 -0.033296834162371204 0.03385680549919301 0 -0.035117052050628504 0.032786258655781421 0 -0.028324324080401156 0.032390104591780197 0 -0.028859260875027559 0.033533944539222857 0 -0.029308427918050408 0.032280006973473101 0 -0.028324324080401156 0.032390104591780197 0 -0.028859260875027559 0.033533944539222857 0 -0.028193862675140485 0.034706650208670725 0 -0.028859260875027559 0.033533944539222857 0 -0.028193862675140485 0.034706650208670725 0 -0.028701212219521419 0.034642689971967372 0 -0.033296834162371204 0.03385680549919301 0 -0.035117052050628504 0.032786258655781421 0 -0.033104001173425629 0.034633438922225437 0 -0.031743886897175035 0.032554431260287717 0 -0.03062881656408763 0.034491499577570625 0 -0.031734764551379066 0.035077088738581022 0 -0.033104001173425629 0.034633438922225437 0 -0.029614353751872279 0.034999600003887334 0 -0.033296834162371204 0.03385680549919301 0 -0.031734764551379066 0.035077088738581022 0 -0.033104001173425629 0.034633438922225437 0 -0.028665195796602552 0.035096685311702576 0 -0.029604662536027431 0.034999614026534002 0 -0.027265807313404777 0.034999222040264191 0 -0.028193862675140485 0.034706650208670725 0 -0.028665195796602552 0.035096685311702576 0 -0.029604662536027431 0.034999614026534002 0 -0.028193862675140485 0.034706650208670725 0 -0.028701212219521419 0.034642689971967372 0 -0.028665195796602552 0.035096685311702576 0 -0.03062881656408763 0.034491499577570625 0 -0.029759387444471638 0.034780464010865486 0 -0.031696947021865679 0.034999365386444749 0 -0.031734764551379066 0.035077088738581022 0 -0.029614353751872279 0.034999600003887334 0 -0.027260515170289296 0.034999968522353028 0 -0.026971082738545399 0.036919511466622146 0 -0.026191984051364026 0.035890229460915565 0 -0.027261133284082632 0.035001734869998594 0 -0.027072212054293075 0.034692065129573568 0 -0.028665195796602552 0.035096685311702576 0 -0.027265807313404777 0.034999222040264191 0 -0.02893344745310273 0.034849186063868325 0 -0.028701212219521419 0.034642689971967372 0 -0.028665195796602552 0.035096685311702576 0 -0.02893344745310273 0.034849186063868325 0 -0.02893344745310273 0.034849186063868325 0 -0.030019795312968518 0.034969970044052195 0 -0.029427807040517989 0.034389703373558227 0 -0.029148636541356829 0.034951633031232068 0 -0.027072212054293075 0.034692065129573568 0 -0.027265807313404777 0.034999222040264191 0 -0.02893344745310273 0.034849186063868325 0 -0.028712166755505208 0.034872034259571937 0 -0.024712452255350143 0.033046439334408206 0 -0.024741126419062138 0.03319873172948444 0 -0.024354684060066668 0.033052883644511026 0 -0.030019795312968518 0.034969970044052195 0 -0.029811901127533236 0.033841194473021148 0 -0.030314497735472949 0.03283878618654381 0 -0.027072212054293075 0.034692065129573568 0 -0.027509078634576759 0.032676921491190142 0 -0.024712452255350143 0.033046439334408206 0 -0.024570875062850897 0.032831749973207446 0 -0.024741126419062138 0.03319873172948444 0 -0.030019795312968518 0.034969970044052195 0 -0.029811901127533236 0.033841194473021148 0 -0.029427807040517989 0.034389703373558227 0 -0.028859260875027559 0.033533944539222857 0 -0.028701212219521419 0.034642689971967372 0 -0.029123760091885425 0.034046237559223619 0 -0.028701212219521419 0.034642689971967372 0 -0.02893344745310273 0.034849186063868325 0 -0.029123760091885425 0.034046237559223619 0 -0.029811901127533236 0.033841194473021148 0 -0.029123760091885425 0.034046237559223619 0 -0.029427807040517989 0.034389703373558227 0 -0.02893344745310273 0.034849186063868325 0 -0.029123760091885425 0.034046237559223619 0 -0.029427807040517989 0.034389703373558227 0 -0.029811901127533236 0.033841194473021148 0 -0.029123760091885425 0.034046237559223619 0 -0.029487619626629259 0.03310370899439273 0 -0.028859260875027559 0.033533944539222857 0 -0.029123760091885425 0.034046237559223619 0 -0.029487619626629259 0.03310370899439273 0 -0.028859260875027559 0.033533944539222857 0 -0.029487619626629259 0.03310370899439273 0 -0.029308427918050408 0.032280006973473101 0 -0.029487619626629259 0.03310370899439273 0 -0.029308427918050408 0.032280006973473101 0 -0.029758311732096251 0.032112553435015206 0 -0.024570875062850897 0.032831749973207446 0 -0.025616460669019351 0.031811051495000832 0 -0.024741126419062138 0.03319873172948444 0 -0.029811901127533236 0.033841194473021148 0 -0.029487619626629259 0.03310370899439273 0 -0.030314497735472949 0.03283878618654381 0 -0.029487619626629259 0.03310370899439273 0 -0.030314497735472949 0.03283878618654381 0 -0.029758311732096251 0.032112553435015206 0 -0.027509078634576759 0.032676921491190142 0 -0.027826428124897485 0.031196569430755591 0 -0.030314497735472949 0.03283878618654381 0 -0.029758311732096251 0.032112553435015206 0 -0.029788566879280887 0.031128292659030474 0 -0.024570875062850897 0.032831749973207446 0 -0.025941395700528634 0.030730716389728432 0 -0.025616460669019351 0.031811051495000832 0 -0.029758311732096251 0.032112553435015206 0 -0.029788566879280887 0.031128292659030474 0 -0.029630605233743446 0.031483036510018041 0 -0.029788566879280887 0.031128292659030474 0 -0.029668639521142629 0.030843097838818462 0 -0.027995996163869007 0.031106036351702258 0 -0.027826428124897485 0.031196569430755591 0 -0.027943939934371276 0.031260095221881626 0 -0.029788566879280887 0.031128292659030474 0 -0.029668639521142629 0.030843097838818462 0 -0.029630605233743446 0.031483036510018041 0 -0.029668639521142629 0.030843097838818462 0 -0.029534184466566013 0.031404005864558632 0 -0.029630605233743446 0.031483036510018041 0 -0.029668639521142629 0.030843097838818462 0 -0.029534184466566013 0.031404005864558632 0 -0.02996940399497593 0.031037209850465156 0 -0.029308427918050408 0.032280006973473101 0 -0.029534184466566013 0.031404005864558632 0 -0.029630605233743446 0.031483036510018041 0 -0.029308427918050408 0.032280006973473101 0 -0.029758311732096251 0.032112553435015206 0 -0.029630605233743446 0.031483036510018041 0 -0.028324324080401156 0.032390104591780197 0 -0.029534184466566013 0.031404005864558632 0 -0.029388067112209582 0.031155997938011534 0 -0.028324324080401156 0.032390104591780197 0 -0.029308427918050408 0.032280006973473101 0 -0.029534184466566013 0.031404005864558632 0 -0.034572295802216602 0.030813885465066023 0 -0.035117052050628504 0.032786258655781421 0 -0.036516561175755122 0.029315524545558639 0 -0.034572295802216602 0.030813885465066023 0 -0.033742663800802007 0.032313258835076637 0 -0.035117052050628504 0.032786258655781421 0 -0.031743886897175035 0.032554431260287717 0 -0.032893411365212934 0.030244611432209644 0 -0.034572295802216602 0.030813885465066023 0 -0.036516561175755122 0.029315524545558639 0 -0.035460427989923902 0.028146462598616761 0 -0.029534184466566013 0.031404005864558632 0 -0.029388067112209582 0.031155997938011534 0 -0.02996940399497593 0.031037209850465156 0 -0.029388067112209582 0.031155997938011534 0 -0.02996940399497593 0.031037209850465156 0 -0.03079647064213353 0.03079512424547955 0 -0.032893411365212934 0.030244611432209644 0 -0.033510369664888802 0.027626894706535191 0 -0.029388067112209582 0.031155997938011534 0 -0.030731293483114604 0.028813272878069576 0 -0.03079647064213353 0.03079512424547955 0 -0.036516561175755122 0.029315524545558639 0 -0.035656497829534957 0.027100124256319632 0 -0.036224514741115862 0.026164387622840093 0 -0.036516561175755122 0.029315524545558639 0 -0.035460427989923902 0.028146462598616761 0 -0.035656497829534957 0.027100124256319632 0 -0.035447122538341841 0.026152174284544086 0 -0.035656497829534957 0.027100124256319632 0 -0.036224514741115862 0.026164387622840093 0 -0.030731293483114604 0.028813272878069576 0 -0.033394323732508967 0.028275120784180551 0 -0.03079647064213353 0.03079512424547955 0 -0.031698966495101837 0.030260246369246371 0 -0.031063226772360498 0.030679988718383535 0 -0.030094630125326628 0.032673806100114659 0 -0.029170553378472398 0.031711310185877063 0 -0.03079647064213353 0.03079512424547955 0 -0.030094630125326628 0.032673806100114659 0 -0.029170553378472398 0.031711310185877063 0 -0.027801576361460838 0.033013721740325012 0 -0.029170553378472398 0.031711310185877063 0 -0.027995996163869007 0.031106036351702258 0 -0.027801576361460838 0.033013721740325012 0 -0.029668639521142629 0.030843097838818462 0 -0.029170553378472398 0.031711310185877063 0 -0.027995996163869007 0.031106036351702258 0 -0.029668639521142629 0.030843097838818462 0 -0.029170553378472398 0.031711310185877063 0 -0.03079647064213353 0.03079512424547955 0 -0.029668639521142629 0.030843097838818462 0 -0.02996940399497593 0.031037209850465156 0 -0.03079647064213353 0.03079512424547955 0 -0.026483737570636941 0.03173331399681547 0 -0.025888685029368565 0.030561108836959314 0 -0.026678269608322348 0.030613034203635224 0 -0.026483737570636941 0.03173331399681547 0 -0.02525550551115744 0.03214990402430367 0 -0.025888685029368565 0.030561108836959314 0 -0.027995996163869007 0.031106036351702258 0 -0.026483737570636941 0.03173331399681547 0 -0.026678269608322348 0.030613034203635224 0 -0.027995996163869007 0.031106036351702258 0 -0.026483737570636941 0.03173331399681547 0 -0.027801576361460838 0.033013721740325012 0 -0.026483737570636941 0.03173331399681547 0 -0.025956467848689442 0.033047752430099185 0 -0.027801576361460838 0.033013721740325012 0 -0.026483737570636941 0.03173331399681547 0 -0.02525550551115744 0.03214990402430367 0 -0.025956467848689442 0.033047752430099185 0 -0.02525550551115744 0.03214990402430367 0 -0.024459172322445148 0.032906317653874959 0 -0.025956467848689442 0.033047752430099185 0 -0.02525550551115744 0.03214990402430367 0 -0.0236267876759985 0.03232843864915988 0 -0.024459172322445148 0.032906317653874959 0 -0.0236267876759985 0.03232843864915988 0 -0.023468065521498573 0.032652727137543788 0 -0.024459172322445148 0.032906317653874959 0 -0.023116102252319661 0.032662582374232751 0 -0.023032318342751368 0.032728478600769835 0 -0.022795102777862369 0.032504267482729075 0 -0.023116102252319661 0.032662582374232751 0 -0.023071980267274785 0.032814038777524014 0 -0.023032318342751368 0.032728478600769835 0 -0.0236267876759985 0.03232843864915988 0 -0.023116102252319661 0.032662582374232751 0 -0.023468065521498573 0.032652727137543788 0 -0.0236267876759985 0.03232843864915988 0 -0.023116102252319661 0.032662582374232751 0 -0.023200371933740013 0.032731058115947051 0 -0.023116102252319661 0.032662582374232751 0 -0.023200371933740013 0.032731058115947051 0 -0.023071980267274785 0.032814038777524014 0 -0.023151036273679846 0.033122961745150802 0 -0.023200371933740013 0.032731058115947051 0 -0.023056923179593038 0.032985186185689394 0 -0.0236267876759985 0.03232843864915988 0 -0.023151036273679846 0.033122961745150802 0 -0.023200371933740013 0.032731058115947051 0 -0.023151036273679846 0.033122961745150802 0 -0.022942445276007743 0.03325862227277649 0 -0.023056923179593038 0.032985186185689394 0 -0.023200371933740013 0.032731058115947051 0 -0.023056923179593038 0.032985186185689394 0 -0.023071980267274785 0.032814038777524014 0 -0.02368377782189314 0.032375379752358081 0 -0.024380552653490817 0.032037596790995868 0 -0.02525550551115744 0.03214990402430367 0 -0.0236267876759985 0.03232843864915988 0 -0.025888685029368565 0.030561108836959314 0 -0.0236267876759985 0.03232843864915988 0 -0.023151036273679846 0.033122961745150802 0 -0.022887536258777715 0.033367358094693059 0 -0.023151036273679846 0.033122961745150802 0 -0.022928777796869894 0.033652535952030029 0 -0.022887536258777715 0.033367358094693059 0 -0.023151036273679846 0.033122961745150802 0 -0.022928777796869894 0.033652535952030029 0 -0.022942445276007743 0.03325862227277649 0 -0.022928777796869894 0.033652535952030029 0 -0.022708943892661686 0.03354607580606099 0 -0.022942445276007743 0.03325862227277649 0 -0.022928777796869894 0.033652535952030029 0 -0.022633239207950118 0.033751120027145053 0 -0.022708943892661686 0.03354607580606099 0 -0.022928777796869894 0.033652535952030029 0 -0.022887536258777715 0.033367358094693059 0 -0.023389275362918242 0.033817795369698943 0 -0.024380552653490817 0.032037596790995868 0 -0.025009564346865749 0.032418131357571767 0 -0.025888685029368565 0.030561108836959314 0 -0.026678269608322348 0.030613034203635224 0 -0.026739431319192947 0.031094601711238321 0 -0.025941395700528634 0.030730716389728432 0 -0.027995996163869007 0.031106036351702258 0 -0.026678269608322348 0.030613034203635224 0 -0.025941395700528634 0.030730716389728432 0 -0.025616460669019351 0.031811051495000832 0 -0.026739431319192947 0.031094601711238321 0 -0.025941395700528634 0.030730716389728432 0 -0.026678269608322348 0.030613034203635224 0 -0.026739431319192947 0.031094601711238321 0 -0.025616460669019351 0.031811051495000832 0 -0.026739431319192947 0.031094601711238321 0 -0.024741126419062138 0.03319873172948444 0 -0.025009564346865749 0.032418131357571767 0 -0.024808830242711837 0.033081198341740614 0 -0.023389275362918242 0.033817795369698943 0 -0.023847061628977727 0.033435070506432372 0 -0.024741126419062138 0.03319873172948444 0 -0.023389275362918242 0.033817795369698943 0 -0.023847061628977727 0.033435070506432372 0 -0.023345233208973165 0.033528654748673337 0 -0.022928777796869894 0.033652535952030029 0 -0.023389275362918242 0.033817795369698943 0 -0.023345233208973165 0.033528654748673337 0 -0.023345233208973165 0.033528654748673337 0 -0.024026094081333237 0.033200861832511093 0 -0.023870461942968841 0.032847668687202042 0 -0.023345233208973165 0.033528654748673337 0 -0.023870461942968841 0.032847668687202042 0 -0.022874777016647863 0.033596580735412537 0 -0.023847061628977727 0.033435070506432372 0 -0.023345233208973165 0.033528654748673337 0 -0.024026094081333237 0.033200861832511093 0 -0.024026094081333237 0.033200861832511093 0 -0.024354684060066668 0.033052883644511026 0 -0.023870461942968841 0.032847668687202042 0 -0.024741126419062138 0.03319873172948444 0 -0.024026094081333237 0.033200861832511093 0 -0.024354684060066668 0.033052883644511026 0 -0.023847061628977727 0.033435070506432372 0 -0.024741126419062138 0.03319873172948444 0 -0.024026094081333237 0.033200861832511093 0 -0.027072212054293075 0.034692065129573568 0 -0.024218977062331472 0.034783571952272503 0 -0.026971082738545399 0.036919511466622146 0 -0.025102178332118693 0.036629556932305872 0 -0.026191984051364026 0.035890229460915565 0 -0.024712452255350143 0.033046439334408206 0 -0.024354684060066668 0.033052883644511026 0 -0.023870461942968841 0.032847668687202042 0 -0.024218977062331472 0.034783571952272503 0 -0.023135870981617953 0.034793528685753736 0 -0.025102178332118693 0.036629556932305872 0 -0.024187973126778093 0.03573672259814769 0 -0.023211094103516836 0.036320428598442193 0 -0.025102178332118693 0.036629556932305872 0 -0.024187973126778093 0.03573672259814769 0 -0.025233566582028674 0.034999992672459401 0 -0.024187973126778093 0.03573672259814769 0 -0.025233566582028674 0.034999992672459401 0 -0.023206618111733676 0.034999925948929179 0 -0.025102178332118693 0.036629556932305872 0 -0.025233566582028674 0.034999992672459401 0 -0.026191984051364026 0.035890229460915565 0 -0.027260515170289296 0.034999968522353028 0 -0.025233566582028674 0.034999992672459401 0 -0.026191984051364026 0.035890229460915565 0 -0.022351203529498532 0.035638710161077246 0 -0.023211094103516836 0.036320428598442193 0 -0.02133395858810503 0.035912134719806026 0 -0.022351203529498532 0.035638710161077246 0 -0.023206618111733676 0.034999925948929179 0 -0.023211094103516836 0.036320428598442193 0 -0.022351203529498532 0.035638710161077246 0 -0.023206618111733676 0.034999925948929179 0 -0.021179317421309067 0.035000007605481422 0 -0.024187973126778093 0.03573672259814769 0 -0.023206618111733676 0.034999925948929179 0 -0.023211094103516836 0.036320428598442193 0 -0.023870461942968841 0.032847668687202042 0 -0.022857149245365686 0.033258364591602682 0 -0.022874777016647863 0.033596580735412537 0 -0.022857149245365686 0.033258364591602682 0 -0.022409573492840135 0.033908183284873133 0 -0.022023711995615737 0.033854716516250945 0 -0.023135870981617953 0.034793528685753736 0 -0.02168185258272173 0.034914885452298414 0 -0.022857149245365686 0.033258364591602682 0 -0.022409573492840135 0.033908183284873133 0 -0.022874777016647863 0.033596580735412537 0 -0.022409573492840135 0.033908183284873133 0 -0.022874777016647863 0.033596580735412537 0 -0.022633239207950118 0.033751120027145053 0 -0.022409573492840135 0.033908183284873133 0 -0.022633239207950118 0.033751120027145053 0 -0.022247051855030606 0.034065669574188641 0 -0.023345233208973165 0.033528654748673337 0 -0.022874777016647863 0.033596580735412537 0 -0.022633239207950118 0.033751120027145053 0 -0.022928777796869894 0.033652535952030029 0 -0.023345233208973165 0.033528654748673337 0 -0.022633239207950118 0.033751120027145053 0 -0.022633239207950118 0.033751120027145053 0 -0.022385943409111264 0.033729638394880551 0 -0.022247051855030606 0.034065669574188641 0 -0.022633239207950118 0.033751120027145053 0 -0.022385943409111264 0.033729638394880551 0 -0.022708943892661686 0.03354607580606099 0 -0.022385943409111264 0.033729638394880551 0 -0.022677041940506001 0.033950250918673798 0 -0.022679355000312866 0.033544016761820006 0 -0.022385943409111264 0.033729638394880551 0 -0.022679355000312866 0.033544016761820006 0 -0.022681839158824053 0.033386875897502971 0 -0.021709391254895443 0.034835100729976615 0 -0.021053836702738294 0.03520916303353553 0 -0.022385943409111264 0.033729638394880551 0 -0.02179429863868974 0.034733194028406689 0 -0.022677041940506001 0.033950250918673798 0 -0.02179429863868974 0.034733194028406689 0 -0.020460469402673476 0.034990452940229684 0 -0.019583430482885602 0.036564441086339251 0 -0.022385943409111264 0.033729638394880551 0 -0.022247051855030606 0.034065669574188641 0 -0.02179429863868974 0.034733194028406689 0 -0.022409573492840135 0.033908183284873133 0 -0.022247051855030606 0.034065669574188641 0 -0.02179429863868974 0.034733194028406689 0 -0.022409573492840135 0.033908183284873133 0 -0.02179429863868974 0.034733194028406689 0 -0.022023711995615737 0.033854716516250945 0 -0.020460469402673476 0.034990452940229684 0 -0.022023711995615737 0.033854716516250945 0 -0.019586806278368167 0.035064783716560459 0 -0.02179429863868974 0.034733194028406689 0 -0.020460469402673476 0.034990452940229684 0 -0.022023711995615737 0.033854716516250945 0 -0.02168185258272173 0.034914885452298414 0 -0.019833226988654192 0.035009527823825271 0 -0.02133395858810503 0.035912134719806026 0 -0.021179317421309067 0.035000007605481422 0 -0.019586806278368167 0.035064783716560459 0 -0.021179317421309067 0.035000007605481422 0 -0.019152972691521213 0.034998844253181553 0 -0.019586806278368167 0.035064783716560459 0 -0.022351203529498532 0.035638710161077246 0 -0.02133395858810503 0.035912134719806026 0 -0.021179317421309067 0.035000007605481422 0 -0.017127109219495215 0.034999679314104928 0 -0.018045847684905476 0.035256657676160534 0 -0.019152972691521213 0.034998844253181553 0 -0.018045847684905476 0.035256657676160534 0 -0.019152972691521213 0.034998844253181553 0 -0.018766474479054995 0.035258767057480773 0 -0.018045847684905476 0.035256657676160534 0 -0.018766474479054995 0.035258767057480773 0 -0.018142776132752305 0.035613146419316982 0 -0.017496569470857128 0.035463121765741991 0 -0.018045847684905476 0.035256657676160534 0 -0.018142776132752305 0.035613146419316982 0 -0.019152972691521213 0.034998844253181553 0 -0.019586806278368167 0.035064783716560459 0 -0.018766474479054995 0.035258767057480773 0 -0.019586806278368167 0.035064783716560459 0 -0.018766474479054995 0.035258767057480773 0 -0.019078944165629372 0.03547765869377164 0 -0.020460469402673476 0.034990452940229684 0 -0.019586806278368167 0.035064783716560459 0 -0.019078944165629372 0.03547765869377164 0 -0.020460469402673476 0.034990452940229684 0 -0.019078944165629372 0.03547765869377164 0 -0.019583430482885602 0.036564441086339251 0 -0.019078944165629372 0.03547765869377164 0 -0.018142776132752305 0.035613146419316982 0 -0.018277980245857084 0.036224625863002659 0 -0.018766474479054995 0.035258767057480773 0 -0.019078944165629372 0.03547765869377164 0 -0.018142776132752305 0.035613146419316982 0 -0.017536119171169037 0.03598647012481776 0 -0.018142776132752305 0.035613146419316982 0 -0.018277980245857084 0.036224625863002659 0 -0.021053836702738294 0.03520916303353553 0 -0.020698391518341252 0.035585350215545125 0 -0.017490201794679361 0.036619056607925464 0 -0.018277980245857084 0.036224625863002659 0 -0.018193402513076114 0.037110010029386235 0 -0.018277980245857084 0.036224625863002659 0 -0.019583430482885602 0.036564441086339251 0 -0.018193402513076114 0.037110010029386235 0 -0.019078944165629372 0.03547765869377164 0 -0.018277980245857084 0.036224625863002659 0 -0.019583430482885602 0.036564441086339251 0 -0.022677041940506001 0.033950250918673798 0 -0.022679355000312866 0.033544016761820006 0 -0.022687740777873226 0.033596681108464713 0 -0.022679355000312866 0.033544016761820006 0 -0.022687740777873226 0.033596681108464713 0 -0.022676953556583612 0.033269585366842859 0 -0.022654865102171001 0.033349795492295435 0 -0.022687740777873226 0.033596681108464713 0 -0.022676953556583612 0.033269585366842859 0 -0.022654865102171001 0.033349795492295435 0 -0.022676953556583612 0.033269585366842859 0 -0.022607258767786704 0.033093678792275941 0 -0.02079848065542059 0.030758370248342222 0 -0.022493576640691987 0.032798369874259506 0 -0.017884043509237953 0.030111886727563847 0 -0.022493576640691987 0.032798369874259506 0 -0.022607258767786704 0.033093678792275941 0 -0.022705794628782121 0.033216049250016227 0 -0.022676953556583612 0.033269585366842859 0 -0.022607258767786704 0.033093678792275941 0 -0.022705794628782121 0.033216049250016227 0 -0.022292728916206504 0.032758593918282737 0 -0.020405786622073478 0.031628646147712249 0 -0.022676953556583612 0.033269585366842859 0 -0.022705794628782121 0.033216049250016227 0 -0.022773400283841724 0.033225543959161712 0 -0.022676953556583612 0.033269585366842859 0 -0.022773400283841724 0.033225543959161712 0 -0.022681839158824053 0.033386875897502971 0 -0.022679355000312866 0.033544016761820006 0 -0.022676953556583612 0.033269585366842859 0 -0.022681839158824053 0.033386875897502971 0 -0.022681839158824053 0.033386875897502971 0 -0.022708943892661686 0.03354607580606099 0 -0.022871246552910798 0.033200628436905966 0 -0.022385943409111264 0.033729638394880551 0 -0.022681839158824053 0.033386875897502971 0 -0.022708943892661686 0.03354607580606099 0 -0.022708943892661686 0.03354607580606099 0 -0.022942445276007743 0.03325862227277649 0 -0.022871246552910798 0.033200628436905966 0 -0.022942445276007743 0.03325862227277649 0 -0.022871246552910798 0.033200628436905966 0 -0.023056923179593038 0.032985186185689394 0 -0.022773400283841724 0.033225543959161712 0 -0.022871246552910798 0.033200628436905966 0 -0.022883133802066226 0.033112180322119683 0 -0.022773400283841724 0.033225543959161712 0 -0.022681839158824053 0.033386875897502971 0 -0.022871246552910798 0.033200628436905966 0 -0.022871246552910798 0.033200628436905966 0 -0.022992827159125408 0.033000886168893816 0 -0.022883133802066226 0.033112180322119683 0 -0.022871246552910798 0.033200628436905966 0 -0.022992827159125408 0.033000886168893816 0 -0.023056923179593038 0.032985186185689394 0 -0.022992827159125408 0.033000886168893816 0 -0.023056923179593038 0.032985186185689394 0 -0.023060992063903992 0.032893049842272329 0 -0.023056923179593038 0.032985186185689394 0 -0.023071980267274785 0.032814038777524014 0 -0.023060992063903992 0.032893049842272329 0 -0.023113780450943894 0.032810628134618804 0 -0.023032318342751368 0.032728478600769835 0 -0.022795102777862369 0.032504267482729075 0 -0.023071980267274785 0.032814038777524014 0 -0.023069531158688011 0.032816972730342987 0 -0.023032318342751368 0.032728478600769835 0 -0.023071980267274785 0.032814038777524014 0 -0.023069531158688011 0.032816972730342987 0 -0.023060992063903992 0.032893049842272329 0 -0.022992827159125408 0.033000886168893816 0 -0.023060992063903992 0.032893049842272329 0 -0.023113780450943894 0.032810628134618804 0 -0.023069531158688011 0.032816972730342987 0 -0.023060992063903992 0.032893049842272329 0 -0.023113780450943894 0.032810628134618804 0 -0.014190715238299456 0.025638860269114716 0 -0.014270905866011792 0.02530783980672556 0 -0.014332541543491716 0.025392949063798492 0 -0.014190715238299456 0.025638860269114716 0 -0.013856397945919098 0.024970459005853998 0 -0.014270905866011792 0.02530783980672556 0 -0.014190715238299456 0.025638860269114716 0 -0.014411742801995689 0.026276144535769427 0 -0.014332541543491716 0.025392949063798492 0 -0.014190715238299456 0.025638860269114716 0 -0.014411742801995689 0.026276144535769427 0 -0.013856397945919098 0.024970459005853998 0 -0.023069531158688011 0.032816972730342987 0 -0.023113780450943894 0.032810628134618804 0 -0.023032318342751368 0.032728478600769835 0 -0.018982077741210284 0.030075267686662768 0 -0.01864303229611745 0.029171368059055503 0 -0.022992827159125408 0.033000886168893816 0 -0.022883133802066226 0.033112180322119683 0 -0.023113780450943894 0.032810628134618804 0 -0.015050297896756895 0.027071988094381615 0 -0.013856397945919098 0.024970459005853998 0 -0.014695874947745815 0.025405154030486019 0 -0.015050297896756895 0.027071988094381615 0 -0.014695874947745815 0.025405154030486019 0 -0.015482129828660353 0.025527241224389919 0 -0.013856397945919098 0.024970459005853998 0 -0.014695874947745815 0.025405154030486019 0 -0.014270905866011792 0.02530783980672556 0 -0.014695874947745815 0.025405154030486019 0 -0.014270905866011792 0.02530783980672556 0 -0.014707773449545724 0.02499023605038337 0 -0.014695874947745815 0.025405154030486019 0 -0.015232833074012637 0.024860985944666417 0 -0.014707773449545724 0.02499023605038337 0 -0.014695874947745815 0.025405154030486019 0 -0.015482129828660353 0.025527241224389919 0 -0.015232833074012637 0.024860985944666417 0 -0.015482129828660353 0.025527241224389919 0 -0.01670718275101845 0.025542407160044193 0 -0.016126200670256285 0.02449827906591109 0 -0.015482129828660353 0.025527241224389919 0 -0.016126200670256285 0.02449827906591109 0 -0.015232833074012637 0.024860985944666417 0 -0.015050297896756895 0.027071988094381615 0 -0.01670718275101845 0.025542407160044193 0 -0.017422801868607139 0.027228408498110219 0 -0.015050297896756895 0.027071988094381615 0 -0.015482129828660353 0.025527241224389919 0 -0.01670718275101845 0.025542407160044193 0 -0.01670718275101845 0.025542407160044193 0 -0.017152006601525702 0.024480438053612455 0 -0.016126200670256285 0.02449827906591109 0 -0.01670718275101845 0.025542407160044193 0 -0.017152006601525702 0.024480438053612455 0 -0.017886264651399385 0.02564469210594535 0 -0.017152006601525702 0.024480438053612455 0 -0.017886264651399385 0.02564469210594535 0 -0.017830064899555194 0.023673349174162087 0 -0.020384059982732395 0.027343888446432978 0 -0.017886264651399385 0.02564469210594535 0 -0.017422801868607139 0.027228408498110219 0 -0.018931929093837681 0.02499735419369201 0 -0.017886264651399385 0.02564469210594535 0 -0.017830064899555194 0.023673349174162087 0 -0.017000185345024101 0.025561355784716626 0 -0.017334301311255781 0.024118699442581087 0 -0.020384059982732395 0.027343888446432978 0 -0.018931929093837681 0.02499735419369201 0 -0.017886264651399385 0.02564469210594535 0 -0.018118388597115773 0.028056848101447211 0 -0.017000185345024101 0.025561355784716626 0 -0.01670718275101845 0.025542407160044193 0 -0.017886264651399385 0.02564469210594535 0 -0.017422801868607139 0.027228408498110219 0 -0.020384059982732395 0.027343888446432978 0 -0.017884043509237953 0.030111886727563847 0 -0.017422801868607139 0.027228408498110219 0 -0.02079848065542059 0.030758370248342222 0 -0.020384059982732395 0.027343888446432978 0 -0.017884043509237953 0.030111886727563847 0 -0.017884043509237953 0.030111886727563847 0 -0.015050297896756895 0.027071988094381615 0 -0.017422801868607139 0.027228408498110219 0 -0.020405786622073478 0.031628646147712249 0 -0.018982077741210284 0.030075267686662768 0 -0.022705794628782121 0.033216049250016227 0 -0.022773400283841724 0.033225543959161712 0 -0.022883133802066226 0.033112180322119683 0 -0.016637988094606138 0.02288417862023355 0 -0.015620613441034423 0.02207866105776192 0 -0.016881172724689898 0.022178433353329415 0 -0.016637988094606138 0.02288417862023355 0 -0.015818539860015281 0.023215660508282224 0 -0.015620613441034423 0.02207866105776192 0 -0.016637988094606138 0.02288417862023355 0 -0.015818539860015281 0.023215660508282224 0 -0.016189027329632531 0.023641870559799612 0 -0.017427655663338461 0.022745189714904579 0 -0.016637988094606138 0.02288417862023355 0 -0.016881172724689898 0.022178433353329415 0 -0.017427655663338461 0.022745189714904579 0 -0.016637988094606138 0.02288417862023355 0 -0.01730248413692546 0.023231278054242945 0 -0.016843671236452175 0.023693610892343162 0 -0.01730248413692546 0.023231278054242945 0 -0.017830064899555194 0.023673349174162087 0 -0.016637988094606138 0.02288417862023355 0 -0.016843671236452175 0.023693610892343162 0 -0.01730248413692546 0.023231278054242945 0 -0.017427655663338461 0.022745189714904579 0 -0.01757663678614008 0.023236299060019696 0 -0.01730248413692546 0.023231278054242945 0 -0.01757663678614008 0.023236299060019696 0 -0.01730248413692546 0.023231278054242945 0 -0.017830064899555194 0.023673349174162087 0 -0.01765123963269883 0.02335556801575701 0 -0.017744892820712843 0.023286188833468842 0 -0.017830064899555194 0.023673349174162087 0 -0.01757663678614008 0.023236299060019696 0 -0.01765123963269883 0.02335556801575701 0 -0.017830064899555194 0.023673349174162087 0 -0.017152006601525702 0.024480438053612455 0 -0.016843671236452175 0.023693610892343162 0 -0.017830064899555194 0.023673349174162087 0 -0.016843671236452175 0.023693610892343162 0 -0.016189027329632531 0.023641870559799612 0 -0.016126200670256285 0.02449827906591109 0 -0.017152006601525702 0.024480438053612455 0 -0.016843671236452175 0.023693610892343162 0 -0.016126200670256285 0.02449827906591109 0 -0.016637988094606138 0.02288417862023355 0 -0.016843671236452175 0.023693610892343162 0 -0.016189027329632531 0.023641870559799612 0 -0.015818539860015281 0.023215660508282224 0 -0.016189027329632531 0.023641870559799612 0 -0.015560625819490225 0.024113806622203273 0 -0.016189027329632531 0.023641870559799612 0 -0.015560625819490225 0.024113806622203273 0 -0.016126200670256285 0.02449827906591109 0 -0.015560625819490225 0.024113806622203273 0 -0.016126200670256285 0.02449827906591109 0 -0.015232833074012637 0.024860985944666417 0 -0.015560625819490225 0.024113806622203273 0 -0.015232833074012637 0.024860985944666417 0 -0.015069250958415752 0.024486461423449804 0 -0.015232833074012637 0.024860985944666417 0 -0.015069250958415752 0.024486461423449804 0 -0.014707773449545724 0.02499023605038337 0 -0.014707773449545724 0.02499023605038337 0 -0.014469446412085621 0.025030054909867427 0 -0.014723851877917186 0.024627441411619398 0 -0.014270905866011792 0.02530783980672556 0 -0.014707773449545724 0.02499023605038337 0 -0.014469446412085621 0.025030054909867427 0 -0.014469446412085621 0.025030054909867427 0 -0.014723851877917186 0.024627441411619398 0 -0.014340856250936561 0.024666373132926238 0 -0.015069250958415752 0.024486461423449804 0 -0.014707773449545724 0.02499023605038337 0 -0.014723851877917186 0.024627441411619398 0 -0.014852153216742339 0.024006592146263769 0 -0.014340856250936561 0.024666373132926238 0 -0.01420977401661503 0.023907717359828818 0 -0.015069250958415752 0.024486461423449804 0 -0.014723851877917186 0.024627441411619398 0 -0.014852153216742339 0.024006592146263769 0 -0.014723851877917186 0.024627441411619398 0 -0.014852153216742339 0.024006592146263769 0 -0.014340856250936561 0.024666373132926238 0 -0.015560625819490225 0.024113806622203273 0 -0.015069250958415752 0.024486461423449804 0 -0.014852153216742339 0.024006592146263769 0 -0.015818539860015281 0.023215660508282224 0 -0.015560625819490225 0.024113806622203273 0 -0.014852153216742339 0.024006592146263769 0 -0.014411742801995689 0.026276144535769427 0 -0.013792468103337896 0.024947474121232962 0 -0.011622907322447187 0.024158143002008272 0 -0.014411742801995689 0.026276144535769427 0 -0.013856397945919098 0.024970459005853998 0 -0.022795102777862369 0.032504267482729075 0 -0.013792468103337896 0.024947474121232962 0 -0.013692144098742757 0.024202226484174992 0 -0.011622907322447187 0.024158143002008272 0 -0.01864303229611745 0.029171368059055503 0 -0.022427605417251608 0.032086671186399018 0 -0.014411742801995689 0.026276144535769427 0 -0.013792468103337896 0.024947474121232962 0 -0.014332541543491716 0.025392949063798492 0 -0.013792468103337896 0.024947474121232962 0 -0.014332541543491716 0.025392949063798492 0 -0.014340856250936561 0.024666373132926238 0 -0.014270905866011792 0.02530783980672556 0 -0.014469446412085621 0.025030054909867427 0 -0.014332541543491716 0.025392949063798492 0 -0.014469446412085621 0.025030054909867427 0 -0.014332541543491716 0.025392949063798492 0 -0.014340856250936561 0.024666373132926238 0 -0.014340856250936561 0.024666373132926238 0 -0.01420977401661503 0.023907717359828818 0 -0.013692144098742757 0.024202226484174992 0 -0.013792468103337896 0.024947474121232962 0 -0.014340856250936561 0.024666373132926238 0 -0.013692144098742757 0.024202226484174992 0 -0.013692144098742757 0.024202226484174992 0 -0.014116481753089109 0.023014746020474142 0 -0.011622907322447187 0.024158143002008272 0 -0.018336866719968356 0.018317074926233971 0 -0.01898657334188256 0.019131102437881728 0 -0.019947666760828656 0.01887024861615234 0 -0.01420977401661503 0.023907717359828818 0 -0.013692144098742757 0.024202226484174992 0 -0.014116481753089109 0.023014746020474142 0 -0.014852153216742339 0.024006592146263769 0 -0.01420977401661503 0.023907717359828818 0 -0.014116481753089109 0.023014746020474142 0 -0.015957427894971309 0.020179259342366411 0 -0.016578482134120959 0.020684243331835581 0 -0.015818539860015281 0.023215660508282224 0 -0.014852153216742339 0.024006592146263769 0 -0.014116481753089109 0.023014746020474142 0 -0.015818539860015281 0.023215660508282224 0 -0.014116481753089109 0.023014746020474142 0 -0.015620613441034423 0.02207866105776192 0 -0.017444065181060463 0.019233659904618793 0 -0.017701709623364512 0.019525137185679015 0 -0.017419109086654304 0.019610861948801479 0 -0.018336866719968356 0.018317074926233971 0 -0.017444065181060463 0.019233659904618793 0 -0.018092977418270054 0.019432929962554406 0 -0.017444065181060463 0.019233659904618793 0 -0.018092977418270054 0.019432929962554406 0 -0.017701709623364512 0.019525137185679015 0 -0.018092977418270054 0.019432929962554406 0 -0.019913672807460234 0.021771811391964511 0 -0.019665493985304067 0.019998500664285445 0 -0.018336866719968356 0.018317074926233971 0 -0.018092977418270054 0.019432929962554406 0 -0.01898657334188256 0.019131102437881728 0 -0.018092977418270054 0.019432929962554406 0 -0.01898657334188256 0.019131102437881728 0 -0.019665493985304067 0.019998500664285445 0 -0.018092977418270054 0.019432929962554406 0 -0.017930058840566081 0.019539373899369335 0 -0.018245149199912519 0.019437591770644875 0 -0.018246944080628935 0.019548349980153774 0 -0.01878995558450796 0.020614858692459756 0 -0.018092977418270054 0.019432929962554406 0 -0.017930058840566081 0.019539373899369335 0 -0.017701709623364512 0.019525137185679015 0 -0.017930058840566081 0.019539373899369335 0 -0.017701709623364512 0.019525137185679015 0 -0.017593660943829206 0.019624293008956552 0 -0.017701709623364512 0.019525137185679015 0 -0.017419109086654304 0.019610861948801479 0 -0.017593660943829206 0.019624293008956552 0 -0.017419109086654304 0.019610861948801479 0 -0.01722238629362002 0.019696588319369584 0 -0.017179071093361104 0.019802687082090448 0 -0.017419109086654304 0.019610861948801479 0 -0.017179071093361104 0.019802687082090448 0 -0.017593660943829206 0.019624293008956552 0 -0.016578482134120959 0.020684243331835581 0 -0.01695259446360815 0.020533950809419683 0 -0.015620613441034423 0.02207866105776192 0 -0.016881172724689898 0.022178433353329415 0 -0.016621390989361759 0.021428275404340009 0 -0.017444065181060463 0.019233659904618793 0 -0.017419109086654304 0.019610861948801479 0 -0.01722238629362002 0.019696588319369584 0 -0.017360658943219719 0.021829416178568168 0 -0.016881172724689898 0.022178433353329415 0 -0.016621390989361759 0.021428275404340009 0 -0.017207893358050824 0.020456255606647281 0 -0.01722238629362002 0.019696588319369584 0 -0.017179071093361104 0.019802687082090448 0 -0.017252866982000403 0.020422118550989025 0 -0.01695259446360815 0.020533950809419683 0 -0.017179071093361104 0.019802687082090448 0 -0.017320823557554803 0.019669875859192571 0 -0.017593660943829206 0.019624293008956552 0 -0.017395296458954847 0.019665949950107103 0 -0.017320823557554803 0.019669875859192571 0 -0.017125323166406681 0.019526673093673223 0 -0.017395296458954847 0.019665949950107103 0 -0.017320823557554803 0.019669875859192571 0 -0.017736946553366748 0.019637570137653798 0 -0.017179071093361104 0.019802687082090448 0 -0.017320823557554803 0.019669875859192571 0 -0.017125323166406681 0.019526673093673223 0 -0.017158943736446792 0.01969704525001045 0 -0.017179071093361104 0.019802687082090448 0 -0.017125323166406681 0.019526673093673223 0 -0.017067117140025477 0.019059337519701455 0 -0.017125323166406681 0.019526673093673223 0 -0.017175929111466388 0.019579214861692812 0 -0.017395296458954847 0.019665949950107103 0 -0.017175929111466388 0.019579214861692812 0 -0.017584931197865274 0.019798853770436633 0 -0.017395296458954847 0.019665949950107103 0 -0.017125323166406681 0.019526673093673223 0 -0.017175929111466388 0.019579214861692812 0 -0.017175929111466388 0.019579214861692812 0 -0.017469929145411765 0.020040831525679939 0 -0.017012740507820805 0.019174875782752579 0 -0.017419045265003891 0.019911545840791703 0 -0.017275037769563201 0.019295875846424813 0 -0.017067117140025477 0.019059337519701455 0 -0.017012740507820805 0.019174875782752579 0 -0.017014228766495377 0.018790544866291642 0 -0.017067117140025477 0.019059337519701455 0 -0.017175929111466388 0.019579214861692812 0 -0.017012740507820805 0.019174875782752579 0 -0.018366861485953984 0.020146637856484177 0 -0.018266832808277435 0.020901319540991867 0 -0.017949714980917769 0.020160514118008357 0 -0.018366861485953984 0.020146637856484177 0 -0.017949714980917769 0.020160514118008357 0 -0.018097827997806282 0.019946932106321768 0 -0.018366861485953984 0.020146637856484177 0 -0.018266832808277435 0.020901319540991867 0 -0.018810842403033847 0.020115133844200443 0 -0.018366861485953984 0.020146637856484177 0 -0.018476440890456681 0.019940226069743914 0 -0.018810842403033847 0.020115133844200443 0 -0.022711666936914864 0.020981326511109198 0 -0.022079586255509646 0.023321546771000921 0 -0.018675031472370422 0.02264442420196423 0 -0.018266832808277435 0.020901319540991867 0 -0.018810842403033847 0.020115133844200443 0 -0.018675031472370422 0.02264442420196423 0 -0.020692689965025751 0.020715850480130214 0 -0.018663724866420719 0.022593012164987884 0 -0.018266832808277435 0.020901319540991867 0 -0.017469929145411765 0.020040831525679939 0 -0.017182491757896438 0.019652834476718638 0 -0.018266832808277435 0.020901319540991867 0 -0.017469929145411765 0.020040831525679939 0 -0.017949714980917769 0.020160514118008357 0 -0.017469929145411765 0.020040831525679939 0 -0.017949714980917769 0.020160514118008357 0 -0.017584931197865274 0.019798853770436633 0 -0.017949714980917769 0.020160514118008357 0 -0.017584931197865274 0.019798853770436633 0 -0.018097827997806282 0.019946932106321768 0 -0.017175929111466388 0.019579214861692812 0 -0.017469929145411765 0.020040831525679939 0 -0.017584931197865274 0.019798853770436633 0 -0.017395296458954847 0.019665949950107103 0 -0.017584931197865274 0.019798853770436633 0 -0.017992884254327539 0.019742077549495883 0 -0.017584931197865274 0.019798853770436633 0 -0.018097827997806282 0.019946932106321768 0 -0.017992884254327539 0.019742077549495883 0 -0.018097827997806282 0.019946932106321768 0 -0.018476440890456681 0.019940226069743914 0 -0.017992884254327539 0.019742077549495883 0 -0.018476440890456681 0.019940226069743914 0 -0.017992884254327539 0.019742077549495883 0 -0.018457033750211814 0.019796679327725861 0 -0.018366861485953984 0.020146637856484177 0 -0.018097827997806282 0.019946932106321768 0 -0.018476440890456681 0.019940226069743914 0 -0.017992884254327539 0.019742077549495883 0 -0.018181718421766635 0.019615558106511149 0 -0.018457033750211814 0.019796679327725861 0 -0.017992884254327539 0.019742077549495883 0 -0.017736946553366748 0.019637570137653798 0 -0.018181718421766635 0.019615558106511149 0 -0.017395296458954847 0.019665949950107103 0 -0.017992884254327539 0.019742077549495883 0 -0.017736946553366748 0.019637570137653798 0 -0.017320823557554803 0.019669875859192571 0 -0.017736946553366748 0.019637570137653798 0 -0.017593660943829206 0.019624293008956552 0 -0.017930058840566081 0.019539373899369335 0 -0.017736946553366748 0.019637570137653798 0 -0.017593660943829206 0.019624293008956552 0 -0.017930058840566081 0.019539373899369335 0 -0.017736946553366748 0.019637570137653798 0 -0.018181718421766635 0.019615558106511149 0 -0.017930058840566081 0.019539373899369335 0 -0.018181718421766635 0.019615558106511149 0 -0.018245149199912519 0.019437591770644875 0 -0.018181718421766635 0.019615558106511149 0 -0.018604136816267488 0.019660228262029351 0 -0.018245149199912519 0.019437591770644875 0 -0.018697483238908293 0.019608577818640303 0 -0.018604136816267488 0.019660228262029351 0 -0.018245149199912519 0.019437591770644875 0 -0.022346110792823257 0.020940098677366379 0 -0.01878995558450796 0.020614858692459756 0 -0.021920458131850361 0.023850001871608562 0 -0.024146327452286672 0.022437627914935941 0 -0.022128807071070667 0.021810690808299716 0 -0.021920458131850361 0.023850001871608562 0 -0.022128807071070667 0.021810690808299716 0 -0.019913672807460234 0.021771811391964511 0 -0.022346110792823257 0.020940098677366379 0 -0.028402871425286202 0.020624934846024418 0 -0.018780197754338097 0.019559540169163423 0 -0.018769813105703251 0.019747389971983626 0 -0.018989870008435411 0.019766072453252116 0 -0.018780197754338097 0.019559540169163423 0 -0.018604136816267488 0.019660228262029351 0 -0.018769813105703251 0.019747389971983626 0 -0.022346110792823257 0.020940098677366379 0 -0.019884049197354182 0.021051744261758622 0 -0.018633098909577837 0.019808185584556142 0 -0.018769813105703251 0.019747389971983626 0 -0.018687521025184464 0.019953410886752426 0 -0.018604136816267488 0.019660228262029351 0 -0.018633098909577837 0.019808185584556142 0 -0.018769813105703251 0.019747389971983626 0 -0.018769813105703251 0.019747389971983626 0 -0.018687521025184464 0.019953410886752426 0 -0.018989870008435411 0.019766072453252116 0 -0.018181718421766635 0.019615558106511149 0 -0.018604136816267488 0.019660228262029351 0 -0.018457033750211814 0.019796679327725861 0 -0.018604136816267488 0.019660228262029351 0 -0.018633098909577837 0.019808185584556142 0 -0.018457033750211814 0.019796679327725861 0 -0.018476440890456681 0.019940226069743914 0 -0.018687521025184464 0.019953410886752426 0 -0.018810842403033847 0.020115133844200443 0 -0.018476440890456681 0.019940226069743914 0 -0.018457033750211814 0.019796679327725861 0 -0.018687521025184464 0.019953410886752426 0 -0.021649918134190732 0.019736047591843508 0 -0.020692689965025751 0.020715850480130214 0 -0.018633098909577837 0.019808185584556142 0 -0.018457033750211814 0.019796679327725861 0 -0.018687521025184464 0.019953410886752426 0 -0.025590529864079399 0.019454313723950234 0 -0.027397836349154738 0.022427533537282256 0 -0.02855545387397139 0.02069696312564373 0 -0.025590529864079399 0.019454313723950234 0 -0.02855545387397139 0.02069696312564373 0 -0.028371283006599246 0.017122391509250205 0 -0.021649918134190732 0.019736047591843508 0 -0.028402871425286202 0.020624934846024418 0 -0.025590529864079399 0.019454313723950234 0 -0.027397836349154738 0.022427533537282256 0 -0.024709784940678898 0.022641443416138628 0 -0.025590529864079399 0.019454313723950234 0 -0.024709784940678898 0.022641443416138628 0 -0.022711666936914864 0.020981326511109198 0 -0.024709784940678898 0.022641443416138628 0 -0.022711666936914864 0.020981326511109198 0 -0.022079586255509646 0.023321546771000921 0 -0.031339350326726675 0.023289657130386887 0 -0.032760988423901349 0.022323996285060065 0 -0.032497106761644606 0.024084780001300508 0 -0.031339350326726675 0.023289657130386887 0 -0.029770921218210816 0.022449146969493499 0 -0.031703007058798131 0.021455208903343032 0 -0.031339350326726675 0.023289657130386887 0 -0.031703007058798131 0.021455208903343032 0 -0.032760988423901349 0.022323996285060065 0 -0.029770921218210816 0.022449146969493499 0 -0.02855545387397139 0.02069696312564373 0 -0.031703007058798131 0.021455208903343032 0 -0.027397836349154738 0.022427533537282256 0 -0.029770921218210816 0.022449146969493499 0 -0.029540839120228996 0.024580430154905748 0 -0.027397836349154738 0.022427533537282256 0 -0.029770921218210816 0.022449146969493499 0 -0.02855545387397139 0.02069696312564373 0 -0.02855545387397139 0.02069696312564373 0 -0.031703007058798131 0.021455208903343032 0 -0.028371283006599246 0.017122391509250205 0 -0.032147472207584932 0.021076880246696197 0 -0.028402871425286202 0.020624934846024418 0 -0.031703007058798131 0.021455208903343032 0 -0.032590044729600143 0.021736863045058244 0 -0.032760988423901349 0.022323996285060065 0 -0.031703007058798131 0.021455208903343032 0 -0.032590044729600143 0.021736863045058244 0 -0.032295711964934137 0.021666570625719479 0 -0.032590044729600143 0.021736863045058244 0 -0.032295711964934137 0.021666570625719479 0 -0.032755367299114067 0.021605468318691354 0 -0.031703007058798131 0.021455208903343032 0 -0.032295711964934137 0.021666570625719479 0 -0.032298767666804437 0.021655820315912629 0 -0.032295711964934137 0.021666570625719479 0 -0.032298767666804437 0.021655820315912629 0 -0.032424563956553624 0.021602182834115073 0 -0.028402871425286202 0.020624934846024418 0 -0.033322591123559835 0.021752583372050448 0 -0.030659012280228597 0.022006776377397737 0 -0.031323832125886637 0.022664320840164096 0 -0.031631100372678578 0.021895296608055149 0 -0.022346110792823257 0.020940098677366379 0 -0.028822429299231456 0.021491846583985254 0 -0.030659012280228597 0.022006776377397737 0 -0.031631100372678578 0.021895296608055149 0 -0.032044093667077021 0.021313602113657543 0 -0.031323832125886637 0.022664320840164096 0 -0.031631100372678578 0.021895296608055149 0 -0.032424563956553624 0.021602182834115073 0 -0.031631100372678578 0.021895296608055149 0 -0.032044093667077021 0.021313602113657543 0 -0.032424563956553624 0.021602182834115073 0 -0.032044093667077021 0.021313602113657543 0 -0.032424563956553624 0.021602182834115073 0 -0.032748058383818168 0.02145309900910054 0 -0.032295711964934137 0.021666570625719479 0 -0.032755367299114067 0.021605468318691354 0 -0.032424563956553624 0.021602182834115073 0 -0.032755367299114067 0.021605468318691354 0 -0.032424563956553624 0.021602182834115073 0 -0.032748058383818168 0.02145309900910054 0 -0.032044093667077021 0.021313602113657543 0 -0.032748058383818168 0.02145309900910054 0 -0.032859358871270644 0.021241256026247903 0 -0.028822429299231456 0.021491846583985254 0 -0.029723769633675127 0.024814624608490946 0 -0.024146327452286672 0.022437627914935941 0 -0.024330466970281284 0.020818866181177884 0 -0.026392951283824982 0.021036532159606939 0 -0.024629724211193291 0.027585651393588467 0 -0.029723769633675127 0.024814624608490946 0 -0.026129434025476111 0.035075299344702937 0 -0.028279121208026121 0.035005518629846383 0 -0.028256980952667696 0.035938133270158414 0 -0.023659304227627145 0.019108805250997243 0 -0.024330466970281284 0.020818866181177884 0 -0.026392951283824982 0.021036532159606939 0 -0.023659304227627145 0.019108805250997243 0 -0.023125458119849535 0.020698786561193609 0 -0.021682125793585819 0.018981936862708947 0 -0.023659304227627145 0.019108805250997243 0 -0.023125458119849535 0.020698786561193609 0 -0.024330466970281284 0.020818866181177884 0 -0.024146327452286672 0.022437627914935941 0 -0.023125458119849535 0.020698786561193609 0 -0.022128807071070667 0.021810690808299716 0 -0.024146327452286672 0.022437627914935941 0 -0.023125458119849535 0.020698786561193609 0 -0.024330466970281284 0.020818866181177884 0 -0.023125458119849535 0.020698786561193609 0 -0.022128807071070667 0.021810690808299716 0 -0.021115761726265864 0.020345158525687992 0 -0.022128807071070667 0.021810690808299716 0 -0.019913672807460234 0.021771811391964511 0 -0.021115761726265864 0.020345158525687992 0 -0.019913672807460234 0.021771811391964511 0 -0.019665493985304067 0.019998500664285445 0 -0.021115761726265864 0.020345158525687992 0 -0.021682125793585819 0.018981936862708947 0 -0.021115761726265864 0.020345158525687992 0 -0.019947666760828656 0.01887024861615234 0 -0.019665493985304067 0.019998500664285445 0 -0.021115761726265864 0.020345158525687992 0 -0.019947666760828656 0.01887024861615234 0 -0.01898657334188256 0.019131102437881728 0 -0.019665493985304067 0.019998500664285445 0 -0.019947666760828656 0.01887024861615234 0 -0.023125458119849535 0.020698786561193609 0 -0.021682125793585819 0.018981936862708947 0 -0.021115761726265864 0.020345158525687992 0 -0.024629724211193291 0.027585651393588467 0 -0.021839802523691769 0.026080926960686122 0 -0.023659304227627145 0.019108805250997243 0 -0.021682125793585819 0.018981936862708947 0 -0.020955049594326498 0.017308850527036471 0 -0.026129434025476111 0.035075299344702937 0 -0.02382380642851064 0.034273699706052083 0 -0.025167668038841604 0.033854572496206339 0 -0.021682125793585819 0.018981936862708947 0 -0.019947666760828656 0.01887024861615234 0 -0.020244585063196326 0.01808641781297252 0 -0.018336866719968356 0.018317074926233971 0 -0.019947666760828656 0.01887024861615234 0 -0.020244585063196326 0.01808641781297252 0 -0.021682125793585819 0.018981936862708947 0 -0.020244585063196326 0.01808641781297252 0 -0.020955049594326498 0.017308850527036471 0 -0.018336866719968356 0.018317074926233971 0 -0.020244585063196326 0.01808641781297252 0 -0.020459113231426098 0.016980386172349038 0 -0.015957427894971309 0.020179259342366411 0 -0.018912200710445113 0.025601788452082073 0 -0.020244585063196326 0.01808641781297252 0 -0.020459113231426098 0.016980386172349038 0 -0.020955049594326498 0.017308850527036471 0 -0.014411742801995689 0.026276144535769427 0 -0.022795102777862369 0.032504267482729075 0 -0.023110246849637854 0.033860372223114346 0 -0.01443674296952412 0.027306682783875554 0 -0.018912200710445113 0.025601788452082073 0 -0.022795102777862369 0.032504267482729075 0 -0.02382380642851064 0.034273699706052083 0 -0.024038955649251514 0.033219141693452456 0 -0.022795102777862369 0.032504267482729075 0 -0.023110246849637854 0.033860372223114346 0 -0.02382380642851064 0.034273699706052083 0 -0.018912200710445113 0.025601788452082073 0 -0.021839802523691769 0.026080926960686122 0 -0.022795102777862369 0.032504267482729075 0 -0.023468065521498573 0.032652727137543788 0 -0.024038955649251514 0.033219141693452456 0 -0.023116102252319661 0.032662582374232751 0 -0.022795102777862369 0.032504267482729075 0 -0.023468065521498573 0.032652727137543788 0 -0.02382380642851064 0.034273699706052083 0 -0.025167668038841604 0.033854572496206339 0 -0.024038955649251514 0.033219141693452456 0 -0.023468065521498573 0.032652727137543788 0 -0.024038955649251514 0.033219141693452456 0 -0.024459172322445148 0.032906317653874959 0 -0.025167668038841604 0.033854572496206339 0 -0.024038955649251514 0.033219141693452456 0 -0.024459172322445148 0.032906317653874959 0 -0.025167668038841604 0.033854572496206339 0 -0.025956467848689442 0.033047752430099185 0 -0.026698238563993486 0.033880092767076833 0 -0.025167668038841604 0.033854572496206339 0 -0.024459172322445148 0.032906317653874959 0 -0.025956467848689442 0.033047752430099185 0 -0.027801576361460838 0.033013721740325012 0 -0.026698238563993486 0.033880092767076833 0 -0.027947371393456891 0.034280639384508177 0 -0.025956467848689442 0.033047752430099185 0 -0.027801576361460838 0.033013721740325012 0 -0.026698238563993486 0.033880092767076833 0 -0.026129434025476111 0.035075299344702937 0 -0.027947371393456891 0.034280639384508177 0 -0.028279121208026121 0.035005518629846383 0 -0.026129434025476111 0.035075299344702937 0 -0.026698238563993486 0.033880092767076833 0 -0.027947371393456891 0.034280639384508177 0 -0.026129434025476111 0.035075299344702937 0 -0.025167668038841604 0.033854572496206339 0 -0.026698238563993486 0.033880092767076833 0 -0.034710906500079325 0.025969416090683411 0 -0.034985333833124056 0.024644805887464812 0 -0.034430834653707006 0.024849167849921638 0 -0.032085123135932571 0.030339994082074998 0 -0.031976630416045301 0.027510997012578173 0 -0.029624405263539259 0.033853656275862933 0 -0.028835833529413938 0.034390315384407358 0 -0.029448790823451265 0.035019684131510374 0 -0.034710906500079325 0.025969416090683411 0 -0.033343404484622967 0.026604609059190133 0 -0.033988896224468448 0.025403896694123421 0 -0.034710906500079325 0.025969416090683411 0 -0.033988896224468448 0.025403896694123421 0 -0.034430834653707006 0.024849167849921638 0 -0.027947371393456891 0.034280639384508177 0 -0.028835833529413938 0.034390315384407358 0 -0.028279121208026121 0.035005518629846383 0 -0.027947371393456891 0.034280639384508177 0 -0.028835833529413938 0.034390315384407358 0 -0.028867309868963388 0.033653677373446086 0 -0.029624405263539259 0.033853656275862933 0 -0.028835833529413938 0.034390315384407358 0 -0.028867309868963388 0.033653677373446086 0 -0.030094630125326628 0.032673806100114659 0 -0.027801576361460838 0.033013721740325012 0 -0.028867309868963388 0.033653677373446086 0 -0.027801576361460838 0.033013721740325012 0 -0.027947371393456891 0.034280639384508177 0 -0.028867309868963388 0.033653677373446086 0 -0.030094630125326628 0.032673806100114659 0 -0.029624405263539259 0.033853656275862933 0 -0.028867309868963388 0.033653677373446086 0 -0.033394323732508967 0.028275120784180551 0 -0.034710906500079325 0.025969416090683411 0 -0.033343404484622967 0.026604609059190133 0 -0.031698966495101837 0.030260246369246371 0 -0.032085123135932571 0.030339994082074998 0 -0.030731293483114604 0.028813272878069576 0 -0.033343404484622967 0.026604609059190133 0 -0.034156647540296667 0.025084955626920893 0 -0.033510369664888802 0.027626894706535191 0 -0.034049958611411746 0.025446065346058748 0 -0.030731293483114604 0.028813272878069576 0 -0.033394323732508967 0.028275120784180551 0 -0.033343404484622967 0.026604609059190133 0 -0.035447122538341841 0.026152174284544086 0 -0.036224514741115862 0.026164387622840093 0 -0.035281065567195145 0.025510226050023826 0 -0.036224514741115862 0.026164387622840093 0 -0.035281065567195145 0.025510226050023826 0 -0.034156647540296667 0.025084955626920893 0 -0.035281065567195145 0.025510226050023826 0 -0.034156647540296667 0.025084955626920893 0 -0.03539813028345324 0.025108266380266912 0 -0.034156647540296667 0.025084955626920893 0 -0.034859903765817796 0.024880374542129265 0 -0.03539813028345324 0.025108266380266912 0 -0.033343404484622967 0.026604609059190133 0 -0.034156647540296667 0.025084955626920893 0 -0.033988896224468448 0.025403896694123421 0 -0.034156647540296667 0.025084955626920893 0 -0.033988896224468448 0.025403896694123421 0 -0.034090318642666838 0.024836360711265541 0 -0.033988896224468448 0.025403896694123421 0 -0.034090318642666838 0.024836360711265541 0 -0.034430834653707006 0.024849167849921638 0 -0.034090318642666838 0.024836360711265541 0 -0.034320948739595326 0.024971651606967665 0 -0.034587991947930975 0.023256115166164021 0 -0.034090318642666838 0.024836360711265541 0 -0.034859903765817796 0.024880374542129265 0 -0.034320948739595326 0.024971651606967665 0 -0.034859903765817796 0.024880374542129265 0 -0.034320948739595326 0.024971651606967665 0 -0.035512933137742383 0.024630589539575726 0 -0.034156647540296667 0.025084955626920893 0 -0.034090318642666838 0.024836360711265541 0 -0.034859903765817796 0.024880374542129265 0 -0.035138928190526421 0.021627663381209396 0 -0.036156498578730101 0.021913253236603696 0 -0.036158152935930964 0.021993389501268321 0 -0.03483400425657697 0.023304342272034824 0 -0.035691173726486676 0.023252810845464329 0 -0.035138928190526421 0.021627663381209396 0 -0.034574941765668075 0.02211520043165684 0 -0.034712896767119014 0.021917904007767282 0 -0.03483400425657697 0.023304342272034824 0 -0.034772206273295185 0.023289487848877802 0 -0.035138928190526421 0.021627663381209396 0 -0.034574941765668075 0.02211520043165684 0 -0.034587991947930975 0.023256115166164021 0 -0.034574941765668075 0.02211520043165684 0 -0.034588878589797041 0.022394341408692724 0 -0.034323824047951 0.021812272621770074 0 -0.031976630416045301 0.027510997012578173 0 -0.033689225812556178 0.021445893290984334 0 -0.034588878589797041 0.022394341408692724 0 -0.034788215903886532 0.022116049595266089 0 -0.034323824047951 0.021812272621770074 0 -0.034588878589797041 0.022394341408692724 0 -0.034587991947930975 0.023256115166164021 0 -0.034788215903886532 0.022116049595266089 0 -0.034574941765668075 0.02211520043165684 0 -0.034588878589797041 0.022394341408692724 0 -0.034587991947930975 0.023256115166164021 0 -0.034090318642666838 0.024836360711265541 0 -0.034587991947930975 0.023256115166164021 0 -0.034430834653707006 0.024849167849921638 0 -0.035027086936193462 0.023900041871266375 0 -0.034587991947930975 0.023256115166164021 0 -0.034788215903886532 0.022116049595266089 0 -0.035027086936193462 0.023900041871266375 0 -0.034587991947930975 0.023256115166164021 0 -0.034430834653707006 0.024849167849921638 0 -0.031976630416045301 0.027510997012578173 0 -0.035218538001615882 0.02460918183842108 0 -0.031976630416045301 0.027510997012578173 0 -0.029723769633675127 0.024814624608490946 0 -0.029448790823451265 0.035019684131510374 0 -0.028279121208026121 0.035005518629846383 0 -0.028256980952667696 0.035938133270158414 0 -0.028835833529413938 0.034390315384407358 0 -0.029448790823451265 0.035019684131510374 0 -0.028279121208026121 0.035005518629846383 0 -0.031630346806185171 0.02394582189560851 0 -0.033853286281418232 0.022474638050948858 0 -0.032885831147873433 0.021584061498663636 0 -0.029723769633675127 0.024814624608490946 0 -0.032084202988196295 0.023058190897150974 0 -0.031630346806185171 0.02394582189560851 0 -0.032885831147873433 0.021584061498663636 0 -0.032420308150787031 0.021616243521203657 0 -0.032885831147873433 0.021584061498663636 0 -0.032420308150787031 0.021616243521203657 0 -0.033076333884836384 0.021486712221655123 0 -0.032748058383818168 0.02145309900910054 0 -0.032912257783807894 0.021448789003841635 0 -0.033076333884836384 0.021486712221655123 0 -0.032885831147873433 0.021584061498663636 0 -0.032912257783807894 0.021448789003841635 0 -0.033076333884836384 0.021486712221655123 0 -0.032859358871270644 0.021241256026247903 0 -0.032885831147873433 0.021584061498663636 0 -0.032912257783807894 0.021448789003841635 0 -0.032748058383818168 0.02145309900910054 0 -0.032859358871270644 0.021241256026247903 0 -0.032912257783807894 0.021448789003841635 0 -0.032755367299114067 0.021605468318691354 0 -0.032748058383818168 0.02145309900910054 0 -0.033076333884836384 0.021486712221655123 0 -0.033689225812556178 0.021445893290984334 0 -0.03348195242847727 0.022037248960577169 0 -0.032420308150787031 0.021616243521203657 0 -0.033076333884836384 0.021486712221655123 0 -0.033518316467017167 0.021637161903018461 0 -0.032755367299114067 0.021605468318691354 0 -0.033076333884836384 0.021486712221655123 0 -0.033518316467017167 0.021637161903018461 0 -0.033518316467017167 0.021637161903018461 0 -0.034323824047951 0.021812272621770074 0 -0.03417159322916067 0.022037993113609562 0 -0.034323824047951 0.021812272621770074 0 -0.03417159322916067 0.022037993113609562 0 -0.034712896767119014 0.021917904007767282 0 -0.034788215903886532 0.022116049595266089 0 -0.033518316467017167 0.021637161903018461 0 -0.034323824047951 0.021812272621770074 0 -0.034574941765668075 0.02211520043165684 0 -0.034323824047951 0.021812272621770074 0 -0.034712896767119014 0.021917904007767282 0 -0.033518316467017167 0.021637161903018461 0 -0.03417159322916067 0.022037993113609562 0 -0.033387920110916285 0.022056176290685556 0 -0.032590044729600143 0.021736863045058244 0 -0.032755367299114067 0.021605468318691354 0 -0.033518316467017167 0.021637161903018461 0 -0.032590044729600143 0.021736863045058244 0 -0.033518316467017167 0.021637161903018461 0 -0.033387920110916285 0.022056176290685556 0 -0.033387920110916285 0.022056176290685556 0 -0.033716575314101396 0.022563622040890755 0 -0.032760988423901349 0.022323996285060065 0 -0.032590044729600143 0.021736863045058244 0 -0.033387920110916285 0.022056176290685556 0 -0.032760988423901349 0.022323996285060065 0 -0.03417159322916067 0.022037993113609562 0 -0.033716575314101396 0.022563622040890755 0 -0.034638020549938912 0.022694030138511692 0 -0.033716575314101396 0.022563622040890755 0 -0.034467882948203188 0.023201971840781977 0 -0.034638020549938912 0.022694030138511692 0 -0.03417159322916067 0.022037993113609562 0 -0.033387920110916285 0.022056176290685556 0 -0.033716575314101396 0.022563622040890755 0 -0.033716575314101396 0.022563622040890755 0 -0.034467882948203188 0.023201971840781977 0 -0.033601490957759925 0.023338945826739194 0 -0.034467882948203188 0.023201971840781977 0 -0.033601490957759925 0.023338945826739194 0 -0.034336788725498751 0.02366539395306403 0 -0.033601490957759925 0.023338945826739194 0 -0.032760988423901349 0.022323996285060065 0 -0.032497106761644606 0.024084780001300508 0 -0.033716575314101396 0.022563622040890755 0 -0.033601490957759925 0.023338945826739194 0 -0.032760988423901349 0.022323996285060065 0 -0.037554226503733613 0.019010238787840663 0 -0.037982508859792471 0.018023735678717127 0 -0.039070992986497806 0.018387108647477821 0 -0.034467882948203188 0.023201971840781977 0 -0.035024533028384409 0.023472063200197884 0 -0.034638020549938912 0.022694030138511692 0 -0.034467882948203188 0.023201971840781977 0 -0.034986878256200116 0.023643836104532603 0 -0.034336788725498751 0.02366539395306403 0 -0.034467882948203188 0.023201971840781977 0 -0.035024533028384409 0.023472063200197884 0 -0.034986878256200116 0.023643836104532603 0 -0.035024533028384409 0.023472063200197884 0 -0.034638020549938912 0.022694030138511692 0 -0.035376565565414887 0.022581560698839497 0 -0.034638020549938912 0.022694030138511692 0 -0.035376565565414887 0.022581560698839497 0 -0.034953343453802091 0.022211779146601062 0 -0.037554226503733613 0.019010238787840663 0 -0.039070992986497806 0.018387108647477821 0 -0.037998202051140323 0.020391212174846376 0 -0.037072055220072481 0.020831639703255182 0 -0.036670376752235896 0.021457433422981856 0 -0.037554226503733613 0.019010238787840663 0 -0.037998202051140323 0.020391212174846376 0 -0.036543808772692282 0.020707211835583487 0 -0.035376565565414887 0.022581560698839497 0 -0.034953343453802091 0.022211779146601062 0 -0.036156498578730101 0.021913253236603696 0 -0.037998202051140323 0.020391212174846376 0 -0.036156498578730101 0.021913253236603696 0 -0.036543808772692282 0.020707211835583487 0 -0.036670376752235896 0.021457433422981856 0 -0.036274904939802267 0.021805512686248373 0 -0.03417159322916067 0.022037993113609562 0 -0.034953343453802091 0.022211779146601062 0 -0.034712896767119014 0.021917904007767282 0 -0.03417159322916067 0.022037993113609562 0 -0.034638020549938912 0.022694030138511692 0 -0.034953343453802091 0.022211779146601062 0 -0.034953343453802091 0.022211779146601062 0 -0.034712896767119014 0.021917904007767282 0 -0.036156498578730101 0.021913253236603696 0 -0.035138928190526421 0.021627663381209396 0 -0.034712896767119014 0.021917904007767282 0 -0.036156498578730101 0.021913253236603696 0 -0.036156498578730101 0.021913253236603696 0 -0.03604469830206114 0.021575390915120143 0 -0.036158152935930964 0.021993389501268321 0 -0.03604469830206114 0.021575390915120143 0 -0.035749914864484977 0.02193999937739945 0 -0.035352176136141313 0.021138392516346638 0 -0.03604469830206114 0.021575390915120143 0 -0.035749914864484977 0.02193999937739945 0 -0.036158152935930964 0.021993389501268321 0 -0.03604469830206114 0.021575390915120143 0 -0.03573894084662467 0.020463176883206157 0 -0.035352176136141313 0.021138392516346638 0 -0.03604469830206114 0.021575390915120143 0 -0.036543808772692282 0.020707211835583487 0 -0.03573894084662467 0.020463176883206157 0 -0.036156498578730101 0.021913253236603696 0 -0.03604469830206114 0.021575390915120143 0 -0.036543808772692282 0.020707211835583487 0 -0.037554226503733613 0.019010238787840663 0 -0.036543808772692282 0.020707211835583487 0 -0.03640987065767292 0.019464976402309049 0 -0.03640987065767292 0.019464976402309049 0 -0.03573894084662467 0.020463176883206157 0 -0.035391271449878553 0.019251171162378598 0 -0.036543808772692282 0.020707211835583487 0 -0.03640987065767292 0.019464976402309049 0 -0.03573894084662467 0.020463176883206157 0 -0.03640987065767292 0.019464976402309049 0 -0.035391271449878553 0.019251171162378598 0 -0.036953340109634067 0.017578044644999367 0 -0.035391271449878553 0.019251171162378598 0 -0.0352298830095025 0.01804921725432912 0 -0.036953340109634067 0.017578044644999367 0 -0.037554226503733613 0.019010238787840663 0 -0.03640987065767292 0.019464976402309049 0 -0.036953340109634067 0.017578044644999367 0 -0.037554226503733613 0.019010238787840663 0 -0.037982508859792471 0.018023735678717127 0 -0.036953340109634067 0.017578044644999367 0 -0.034558333173536328 0.019277467826883256 0 -0.034592698407078175 0.01739817240262349 0 -0.034489555040170643 0.01884217462842306 0 -0.033835424711579389 0.019655245123851393 0 -0.033697581986282713 0.018169201597191355 0 -0.035256478983742477 0.018796143419718504 0 -0.035177626916149347 0.017258650773169213 0 -0.03499989804087824 0.017257430705275953 0 -0.034489555040170643 0.01884217462842306 0 -0.0352298830095025 0.01804921725432912 0 -0.033697581986282713 0.018169201597191355 0 -0.035000178837037099 0.019203506969735416 0 -0.035256478983742477 0.018796143419718504 0 -0.03499989804087824 0.017257430705275953 0 -0.034489555040170643 0.01884217462842306 0 -0.034552040553744889 0.019619607526573331 0 -0.033835424711579389 0.019655245123851393 0 -0.034489555040170643 0.01884217462842306 0 -0.035391271449878553 0.019251171162378598 0 -0.0352298830095025 0.01804921725432912 0 -0.034489555040170643 0.01884217462842306 0 -0.035391271449878553 0.019251171162378598 0 -0.034552040553744889 0.019619607526573331 0 -0.03573894084662467 0.020463176883206157 0 -0.035391271449878553 0.019251171162378598 0 -0.034929451030871 0.020286544834763335 0 -0.035391271449878553 0.019251171162378598 0 -0.034929451030871 0.020286544834763335 0 -0.034552040553744889 0.019619607526573331 0 -0.034558333173536328 0.019277467826883256 0 -0.034833332740579218 0.020692785523847134 0 -0.034405093455521986 0.020187682771252508 0 -0.033835424711579389 0.019655245123851393 0 -0.034305716051296349 0.021145641091155683 0 -0.035000178837037099 0.019203506969735416 0 -0.035256478983742477 0.018796143419718504 0 -0.035371881167651976 0.020325322095449749 0 -0.034929451030871 0.020286544834763335 0 -0.034405093455521986 0.020187682771252508 0 -0.034552040553744889 0.019619607526573331 0 -0.034405093455521986 0.020187682771252508 0 -0.034552040553744889 0.019619607526573331 0 -0.033835424711579389 0.019655245123851393 0 -0.035000178837037099 0.019203506969735416 0 -0.035371881167651976 0.020325322095449749 0 -0.034999508983819178 0.021150754082844808 0 -0.034929451030871 0.020286544834763335 0 -0.034405093455521986 0.020187682771252508 0 -0.034305716051296349 0.021145641091155683 0 -0.03573894084662467 0.020463176883206157 0 -0.034929451030871 0.020286544834763335 0 -0.035352176136141313 0.021138392516346638 0 -0.034929451030871 0.020286544834763335 0 -0.034305716051296349 0.021145641091155683 0 -0.035352176136141313 0.021138392516346638 0 -0.034305716051296349 0.021145641091155683 0 -0.035352176136141313 0.021138392516346638 0 -0.03515632751483512 0.021766392900374305 0 -0.03515632751483512 0.021766392900374305 0 -0.03507591293274806 0.022046364742723604 0 -0.035480447749240702 0.022775922759837582 0 -0.035749914864484977 0.02193999937739945 0 -0.035352176136141313 0.021138392516346638 0 -0.03515632751483512 0.021766392900374305 0 -0.035749914864484977 0.02193999937739945 0 -0.03515632751483512 0.021766392900374305 0 -0.035480447749240702 0.022775922759837582 0 -0.034833332740579218 0.020692785523847134 0 -0.035027999792730816 0.02188270553539115 0 -0.034305716051296349 0.021145641091155683 0 -0.03515632751483512 0.021766392900374305 0 -0.03507591293274806 0.022046364742723604 0 -0.035371881167651976 0.020325322095449749 0 -0.03507591293274806 0.022046364742723604 0 -0.034999508983819178 0.021150754082844808 0 -0.03507591293274806 0.022046364742723604 0 -0.035225492554095905 0.02297033324729093 0 -0.035480447749240702 0.022775922759837582 0 -0.03507591293274806 0.022046364742723604 0 -0.035225492554095905 0.02297033324729093 0 -0.034999217414926363 0.0230972471754207 0 -0.03507591293274806 0.022046364742723604 0 -0.034999508983819178 0.021150754082844808 0 -0.034999217414926363 0.0230972471754207 0 -0.035225492554095905 0.02297033324729093 0 -0.034999217414926363 0.0230972471754207 0 -0.035359737704622578 0.023953075934097012 0 -0.034999217414926363 0.0230972471754207 0 -0.035359737704622578 0.023953075934097012 0 -0.034999422690993667 0.025043146964345703 0 -0.035359737704622578 0.023953075934097012 0 -0.035591932744717281 0.024135663340912633 0 -0.035541962594591595 0.024682425617105406 0 -0.035359737704622578 0.023953075934097012 0 -0.035480447749240702 0.022775922759837582 0 -0.035591932744717281 0.024135663340912633 0 -0.035225492554095905 0.02297033324729093 0 -0.035359737704622578 0.023953075934097012 0 -0.035480447749240702 0.022775922759837582 0 -0.035749914864484977 0.02193999937739945 0 -0.035480447749240702 0.022775922759837582 0 -0.036158152935930964 0.021993389501268321 0 -0.035376840461544296 0.022851537871146601 0 -0.035691173726486676 0.023252810845464329 0 -0.035480447749240702 0.022775922759837582 0 -0.035512933137742383 0.024630589539575726 0 -0.035591932744717281 0.024135663340912633 0 -0.034859903765817796 0.024880374542129265 0 -0.035462836954074324 0.024647484077042967 0 -0.03539813028345324 0.025108266380266912 0 -0.034859903765817796 0.024880374542129265 0 -0.035512933137742383 0.024630589539575726 0 -0.035462836954074324 0.024647484077042967 0 -0.035512933137742383 0.024630589539575726 0 -0.035462836954074324 0.024647484077042967 0 -0.035591932744717281 0.024135663340912633 0 -0.035462836954074324 0.024647484077042967 0 -0.035591932744717281 0.024135663340912633 0 -0.035541962594591595 0.024682425617105406 0 -0.035541962594591595 0.024682425617105406 0 -0.03539813028345324 0.025108266380266912 0 -0.035485038279569212 0.026043369323864255 0 -0.035462836954074324 0.024647484077042967 0 -0.035541962594591595 0.024682425617105406 0 -0.03539813028345324 0.025108266380266912 0 -0.035447122538341841 0.026152174284544086 0 -0.03539813028345324 0.025108266380266912 0 -0.035485038279569212 0.026043369323864255 0 -0.035447122538341841 0.026152174284544086 0 -0.035281065567195145 0.025510226050023826 0 -0.03539813028345324 0.025108266380266912 0 -0.035541962594591595 0.024682425617105406 0 -0.035485038279569212 0.026043369323864255 0 -0.035385740660929269 0.025579626715890154 0 -0.034999344025874575 0.026989241327776026 0 -0.035385740660929269 0.025579626715890154 0 -0.034999422690993667 0.025043146964345703 0 -0.035359737704622578 0.023953075934097012 0 -0.035385740660929269 0.025579626715890154 0 -0.034999422690993667 0.025043146964345703 0 -0.035359737704622578 0.023953075934097012 0 -0.035541962594591595 0.024682425617105406 0 -0.035385740660929269 0.025579626715890154 0 -0.036279677166557452 0.011567921646882457 0 -0.036081004930685369 0.010946507841304871 0 -0.035777415358950376 0.011747128616007078 0 -0.036279677166557452 0.011567921646882457 0 -0.036081004930685369 0.010946507841304871 0 -0.036828767586631166 0.011208543235512094 0 -0.036360732099617703 0.01058728195691078 0 -0.035800294331749735 0.011566447023834147 0 -0.035552847599422822 0.010607510894528476 0 -0.034999995245243082 0.0096688974934008957 0 -0.036549487232057018 0.0096330018326961954 0 -0.035552847599422822 0.010607510894528476 0 -0.036549487232057018 0.0096330018326961954 0 -0.035777415358950376 0.011747128616007078 0 -0.035552847599422822 0.010607510894528476 0 -0.034999995245243082 0.0096688974934008957 0 -0.034999892411629742 0.011476742580161218 0 -0.034999995245243082 0.0096688974934008957 0 -0.036549487232057018 0.0096330018326961954 0 -0.036071280494298689 0.0083297960539226289 0 -0.036081004930685369 0.010946507841304871 0 -0.036734687645368504 0.010558268296166932 0 -0.03646262442061049 0.009650494069661281 0 -0.036081004930685369 0.010946507841304871 0 -0.036734687645368504 0.010558268296166932 0 -0.036828767586631166 0.011208543235512094 0 -0.036734687645368504 0.010558268296166932 0 -0.037363877855452851 0.010798543735543916 0 -0.036828767586631166 0.011208543235512094 0 -0.036954136996017267 0.0094795756426347584 0 -0.035999705987801577 0.0074862821787415107 0 -0.037363877855452851 0.010798543735543916 0 -0.038047948884757626 0.010847455810586595 0 -0.03724092883927952 0.010247519675118824 0 -0.036734687645368504 0.010558268296166932 0 -0.037363877855452851 0.010798543735543916 0 -0.03724092883927952 0.010247519675118824 0 -0.037363877855452851 0.010798543735543916 0 -0.037400976695614485 0.011212796312532896 0 -0.037863312047045183 0.011104518202457815 0 -0.037363877855452851 0.010798543735543916 0 -0.037863312047045183 0.011104518202457815 0 -0.038047948884757626 0.010847455810586595 0 -0.037400976695614485 0.011212796312532896 0 -0.037424058017168742 0.011659885107322151 0 -0.037863312047045183 0.011104518202457815 0 -0.037363877855452851 0.010798543735543916 0 -0.037400976695614485 0.011212796312532896 0 -0.036828767586631166 0.011208543235512094 0 -0.037400976695614485 0.011212796312532896 0 -0.037424058017168742 0.011659885107322151 0 -0.036828767586631166 0.011208543235512094 0 -0.037424058017168742 0.011659885107322151 0 -0.038141299723054224 0.01161668157714023 0 -0.037863312047045183 0.011104518202457815 0 -0.036279677166557452 0.011567921646882457 0 -0.036828767586631166 0.011208543235512094 0 -0.036755077254840486 0.012047748047647109 0 -0.037424058017168742 0.011659885107322151 0 -0.036828767586631166 0.011208543235512094 0 -0.036755077254840486 0.012047748047647109 0 -0.037424058017168742 0.011659885107322151 0 -0.037847660109586838 0.012432868347575954 0 -0.038141299723054224 0.01161668157714023 0 -0.036755077254840486 0.012047748047647109 0 -0.037847660109586838 0.012432868347575954 0 -0.037115613986166009 0.013186439975134636 0 -0.037424058017168742 0.011659885107322151 0 -0.036755077254840486 0.012047748047647109 0 -0.037847660109586838 0.012432868347575954 0 -0.037847660109586838 0.012432868347575954 0 -0.037115613986166009 0.013186439975134636 0 -0.038353775232291942 0.013418793283057067 0 -0.036755077254840486 0.012047748047647109 0 -0.036465542174899571 0.013000342953162838 0 -0.035705067369362326 0.012954764549928876 0 -0.036755077254840486 0.012047748047647109 0 -0.037115613986166009 0.013186439975134636 0 -0.036465542174899571 0.013000342953162838 0 -0.037115613986166009 0.013186439975134636 0 -0.036465542174899571 0.013000342953162838 0 -0.036304880005954963 0.013757448281183741 0 -0.036465542174899571 0.013000342953162838 0 -0.035705067369362326 0.012954764549928876 0 -0.036304880005954963 0.013757448281183741 0 -0.035705067369362326 0.012954764549928876 0 -0.035624734890820492 0.013578082546303896 0 -0.036304880005954963 0.013757448281183741 0 -0.036755077254840486 0.012047748047647109 0 -0.036154080929573361 0.012330154797350732 0 -0.036249810441568123 0.011923443167040875 0 -0.036723476818111035 0.012079838147852573 0 -0.035932658731595415 0.012637176212568605 0 -0.036154080929573361 0.012330154797350732 0 -0.036249810441568123 0.011923443167040875 0 -0.035777415358950376 0.011747128616007078 0 -0.036279677166557452 0.011567921646882457 0 -0.036249810441568123 0.011923443167040875 0 -0.035777415358950376 0.011747128616007078 0 -0.036279677166557452 0.011567921646882457 0 -0.036755077254840486 0.012047748047647109 0 -0.036249810441568123 0.011923443167040875 0 -0.035552847599422822 0.010607510894528476 0 -0.034999892411629742 0.011476742580161218 0 -0.035777415358950376 0.011747128616007078 0 -0.036154080929573361 0.012330154797350732 0 -0.035777415358950376 0.011747128616007078 0 -0.03500006401174946 0.013283282937188621 0 -0.034999892411629742 0.011476742580161218 0 -0.035777415358950376 0.011747128616007078 0 -0.03500006401174946 0.013283282937188621 0 -0.035932658731595415 0.012637176212568605 0 -0.035000125649984164 0.013283583326008236 0 -0.035705067369362326 0.012954764549928876 0 -0.034999591802921254 0.013285135662843303 0 -0.035624734890820492 0.013578082546303896 0 -0.034999591802921254 0.013285135662843303 0 -0.035736215309663678 0.014519353343869194 0 -0.035218865292595596 0.014940872962959527 0 -0.034999591802921254 0.013285135662843303 0 -0.035624734890820492 0.013578082546303896 0 -0.035736215309663678 0.014519353343869194 0 -0.035736215309663678 0.014519353343869194 0 -0.036464998661869016 0.014871779727780542 0 -0.036304880005954963 0.013757448281183741 0 -0.035624734890820492 0.013578082546303896 0 -0.035736215309663678 0.014519353343869194 0 -0.036304880005954963 0.013757448281183741 0 -0.035736215309663678 0.014519353343869194 0 -0.036058337526146275 0.015720846020412477 0 -0.036464998661869016 0.014871779727780542 0 -0.035736215309663678 0.014519353343869194 0 -0.035526985956859193 0.015429232878660373 0 -0.036058337526146275 0.015720846020412477 0 -0.034999591802921254 0.013285135662843303 0 -0.035218865292595596 0.014940872962959527 0 -0.034920473948687705 0.015365348671671714 0 -0.035736215309663678 0.014519353343869194 0 -0.035218865292595596 0.014940872962959527 0 -0.035526985956859193 0.015429232878660373 0 -0.034920473948687705 0.015365348671671714 0 -0.035069242935495057 0.015998621956794034 0 -0.035196957075283558 0.015641763863869701 0 -0.034920473948687705 0.015365348671671714 0 -0.035069242935495057 0.015998621956794034 0 -0.034774935414073047 0.016833871769698885 0 -0.035218865292595596 0.014940872962959527 0 -0.034920473948687705 0.015365348671671714 0 -0.035196957075283558 0.015641763863869701 0 -0.035011505273045009 0.015326227422324786 0 -0.034592698407078175 0.01739817240262349 0 -0.035069242935495057 0.015998621956794034 0 -0.035397465315659009 0.016155101014944273 0 -0.035196957075283558 0.015641763863869701 0 -0.035218865292595596 0.014940872962959527 0 -0.035196957075283558 0.015641763863869701 0 -0.035526985956859193 0.015429232878660373 0 -0.035397465315659009 0.016155101014944273 0 -0.035196957075283558 0.015641763863869701 0 -0.035526985956859193 0.015429232878660373 0 -0.035397465315659009 0.016155101014944273 0 -0.035526985956859193 0.015429232878660373 0 -0.036058337526146275 0.015720846020412477 0 -0.035397465315659009 0.016155101014944273 0 -0.036058337526146275 0.015720846020412477 0 -0.03591009658928785 0.017018367313951819 0 -0.035397465315659009 0.016155101014944273 0 -0.03591009658928785 0.017018367313951819 0 -0.034774935414073047 0.016833871769698885 0 -0.035069242935495057 0.015998621956794034 0 -0.035397465315659009 0.016155101014944273 0 -0.034774935414073047 0.016833871769698885 0 -0.035544981593880295 0.01754655431863817 0 -0.034592698407078175 0.01739817240262349 0 -0.034921214797948061 0.015366029542604315 0 -0.035176899084708314 0.017258302683966761 0 -0.034999949141639737 0.01725731644715095 0 -0.034592698407078175 0.01739817240262349 0 -0.034999302930330572 0.017257857510074436 0 -0.035544981593880295 0.01754655431863817 0 -0.036957491352515817 0.017568079570632732 0 -0.03591009658928785 0.017018367313951819 0 -0.036953340109634067 0.017578044644999367 0 -0.036911712952125517 0.015868842996642669 0 -0.036058337526146275 0.015720846020412477 0 -0.03591009658928785 0.017018367313951819 0 -0.036911712952125517 0.015868842996642669 0 -0.036058337526146275 0.015720846020412477 0 -0.036911712952125517 0.015868842996642669 0 -0.036464998661869016 0.014871779727780542 0 -0.036953340109634067 0.017578044644999367 0 -0.036911712952125517 0.015868842996642669 0 -0.038084227491982203 0.016178080596040197 0 -0.036911712952125517 0.015868842996642669 0 -0.03777169607196966 0.015165005962981913 0 -0.038084227491982203 0.016178080596040197 0 -0.036911712952125517 0.015868842996642669 0 -0.03777169607196966 0.015165005962981913 0 -0.03732217003816575 0.01435092666610068 0 -0.03777169607196966 0.015165005962981913 0 -0.03732217003816575 0.01435092666610068 0 -0.03823731465554963 0.014431585569364835 0 -0.036911712952125517 0.015868842996642669 0 -0.036464998661869016 0.014871779727780542 0 -0.03732217003816575 0.01435092666610068 0 -0.036464998661869016 0.014871779727780542 0 -0.036304880005954963 0.013757448281183741 0 -0.03732217003816575 0.01435092666610068 0 -0.037115613986166009 0.013186439975134636 0 -0.036304880005954963 0.013757448281183741 0 -0.03732217003816575 0.01435092666610068 0 -0.037115613986166009 0.013186439975134636 0 -0.03732217003816575 0.01435092666610068 0 -0.038353775232291942 0.013418793283057067 0 -0.03732217003816575 0.01435092666610068 0 -0.03823731465554963 0.014431585569364835 0 -0.038353775232291942 0.013418793283057067 0 -0.03823731465554963 0.014431585569364835 0 -0.039026908039322163 0.014216588011380199 0 -0.038353775232291942 0.013418793283057067 0 -0.039026908039322163 0.014216588011380199 0 -0.039467667220522154 0.013587858796316823 0 -0.038353775232291942 0.013418793283057067 0 -0.039026908039322163 0.014216588011380199 0 -0.039148418948888389 0.015041716981701415 0 -0.040034751714204682 0.014875239675409555 0 -0.039148418948888389 0.015041716981701415 0 -0.039017953356027327 0.015908078090264788 0 -0.040034751714204682 0.014875239675409555 0 -0.039880081251170839 0.015051216955236304 0 -0.038304906243820054 0.017106554576534313 0 -0.039026908039322163 0.014216588011380199 0 -0.039148418948888389 0.015041716981701415 0 -0.038517341236750803 0.015180734774883919 0 -0.039148418948888389 0.015041716981701415 0 -0.038517341236750803 0.015180734774883919 0 -0.039017953356027327 0.015908078090264788 0 -0.03777169607196966 0.015165005962981913 0 -0.03823731465554963 0.014431585569364835 0 -0.038517341236750803 0.015180734774883919 0 -0.03823731465554963 0.014431585569364835 0 -0.039026908039322163 0.014216588011380199 0 -0.038517341236750803 0.015180734774883919 0 -0.03777169607196966 0.015165005962981913 0 -0.038517341236750803 0.015180734774883919 0 -0.038084227491982203 0.016178080596040197 0 -0.038084227491982203 0.016178080596040197 0 -0.039017953356027327 0.015908078090264788 0 -0.038929745502750385 0.016696746822448927 0 -0.038517341236750803 0.015180734774883919 0 -0.038084227491982203 0.016178080596040197 0 -0.039017953356027327 0.015908078090264788 0 -0.039017953356027327 0.015908078090264788 0 -0.039668876832293573 0.016518099173875284 0 -0.040198937149187527 0.014951925586669697 0 -0.039017953356027327 0.015908078090264788 0 -0.039668876832293573 0.016518099173875284 0 -0.038929745502750385 0.016696746822448927 0 -0.039070992986497806 0.018387108647477821 0 -0.039668876832293573 0.016518099173875284 0 -0.038929745502750385 0.016696746822448927 0 -0.035079508533635541 0.023552289674407274 0 -0.034747171995877013 0.025145912079138508 0 -0.035031876314278627 0.023709111527162895 0 -0.034986878256200116 0.023643836104532603 0 -0.035081925968060652 0.023654280547446088 0 -0.035024533028384409 0.023472063200197884 0 -0.035031876314278627 0.023709111527162895 0 -0.034986878256200116 0.023643836104532603 0 -0.037072055220072481 0.020831639703255182 0 -0.037194378542322763 0.020542899574175821 0 -0.039070992986497806 0.018387108647477821 0 -0.038929745502750385 0.016696746822448927 0 -0.038439766903732291 0.017174337397533233 0 -0.037982508859792471 0.018023735678717127 0 -0.036953340109634067 0.017578044644999367 0 -0.038439766903732291 0.017174337397533233 0 -0.036953340109634067 0.017578044644999367 0 -0.038084227491982203 0.016178080596040197 0 -0.038439766903732291 0.017174337397533233 0 -0.037982508859792471 0.018023735678717127 0 -0.039070992986497806 0.018387108647477821 0 -0.038439766903732291 0.017174337397533233 0 -0.038084227491982203 0.016178080596040197 0 -0.038929745502750385 0.016696746822448927 0 -0.038439766903732291 0.017174337397533233 0 -0.03296119858704042 0.025014113173660302 0 -0.033570201600178359 0.024205413703073234 0 -0.033659568942849279 0.024958915052990843 0 -0.03296119858704042 0.025014113173660302 0 -0.032497106761644606 0.024084780001300508 0 -0.033570201600178359 0.024205413703073234 0 -0.03296119858704042 0.025014113173660302 0 -0.032497106761644606 0.024084780001300508 0 -0.032117858300847339 0.025313960862816228 0 -0.033601490957759925 0.023338945826739194 0 -0.032497106761644606 0.024084780001300508 0 -0.033570201600178359 0.024205413703073234 0 -0.033601490957759925 0.023338945826739194 0 -0.033570201600178359 0.024205413703073234 0 -0.034336788725498751 0.02366539395306403 0 -0.034986878256200116 0.023643836104532603 0 -0.03432138533821541 0.024830976575851017 0 -0.034707732385810389 0.025517573610710435 0 -0.033570201600178359 0.024205413703073234 0 -0.034336788725498751 0.02366539395306403 0 -0.034193417280919111 0.024295453505133107 0 -0.034986878256200116 0.023643836104532603 0 -0.034336788725498751 0.02366539395306403 0 -0.034193417280919111 0.024295453505133107 0 -0.034986878256200116 0.023643836104532603 0 -0.034193417280919111 0.024295453505133107 0 -0.03432138533821541 0.024830976575851017 0 -0.034193417280919111 0.024295453505133107 0 -0.03432138533821541 0.024830976575851017 0 -0.033659568942849279 0.024958915052990843 0 -0.033570201600178359 0.024205413703073234 0 -0.034193417280919111 0.024295453505133107 0 -0.033659568942849279 0.024958915052990843 0 -0.03432138533821541 0.024830976575851017 0 -0.033659568942849279 0.024958915052990843 0 -0.034011435374665305 0.025485756480364 0 -0.035031876314278627 0.023709111527162895 0 -0.035081925968060652 0.023654280547446088 0 -0.035128750886442149 0.02325534565649498 0 -0.037194378542322763 0.020542899574175821 0 -0.038304906243820054 0.017106554576534313 0 -0.033659568942849279 0.024958915052990843 0 -0.034011435374665305 0.025485756480364 0 -0.033404426372964834 0.025649147015340049 0 -0.03432138533821541 0.024830976575851017 0 -0.034011435374665305 0.025485756480364 0 -0.034707732385810389 0.025517573610710435 0 -0.034011435374665305 0.025485756480364 0 -0.034707732385810389 0.025517573610710435 0 -0.034164192327478173 0.025825554029119808 0 -0.034707732385810389 0.025517573610710435 0 -0.034164192327478173 0.025825554029119808 0 -0.034090074982024057 0.026296802870632723 0 -0.033847420820163988 0.025998469231025983 0 -0.033512083479423582 0.026214962102545834 0 -0.033404426372964834 0.025649147015340049 0 -0.034011435374665305 0.025485756480364 0 -0.033847420820163988 0.025998469231025983 0 -0.033404426372964834 0.025649147015340049 0 -0.034011435374665305 0.025485756480364 0 -0.034164192327478173 0.025825554029119808 0 -0.033847420820163988 0.025998469231025983 0 -0.033847420820163988 0.025998469231025983 0 -0.034090074982024057 0.026296802870632723 0 -0.033756685934714446 0.026373506879639484 0 -0.034164192327478173 0.025825554029119808 0 -0.033847420820163988 0.025998469231025983 0 -0.034090074982024057 0.026296802870632723 0 -0.033847420820163988 0.025998469231025983 0 -0.033512083479423582 0.026214962102545834 0 -0.033756685934714446 0.026373506879639484 0 -0.033091196427953024 0.026128515787312286 0 -0.033404426372964834 0.025649147015340049 0 -0.032691795350817884 0.025620582181724322 0 -0.033091196427953024 0.026128515787312286 0 -0.033057336678376154 0.026485017539638857 0 -0.033306908906944072 0.026424196624566174 0 -0.033512083479423582 0.026214962102545834 0 -0.033091196427953024 0.026128515787312286 0 -0.033306908906944072 0.026424196624566174 0 -0.033091196427953024 0.026128515787312286 0 -0.032526754392708426 0.026290367441593739 0 -0.033057336678376154 0.026485017539638857 0 -0.033512083479423582 0.026214962102545834 0 -0.033091196427953024 0.026128515787312286 0 -0.033404426372964834 0.025649147015340049 0 -0.03296119858704042 0.025014113173660302 0 -0.033659568942849279 0.024958915052990843 0 -0.033404426372964834 0.025649147015340049 0 -0.03296119858704042 0.025014113173660302 0 -0.033404426372964834 0.025649147015340049 0 -0.032691795350817884 0.025620582181724322 0 -0.03296119858704042 0.025014113173660302 0 -0.032691795350817884 0.025620582181724322 0 -0.032117858300847339 0.025313960862816228 0 -0.032691795350817884 0.025620582181724322 0 -0.031846372074985869 0.02599082787873495 0 -0.032117858300847339 0.025313960862816228 0 -0.032691795350817884 0.025620582181724322 0 -0.032526754392708426 0.026290367441593739 0 -0.031846372074985869 0.02599082787873495 0 -0.033091196427953024 0.026128515787312286 0 -0.032691795350817884 0.025620582181724322 0 -0.032526754392708426 0.026290367441593739 0 -0.032526754392708426 0.026290367441593739 0 -0.033160198005920558 0.026928336933619828 0 -0.031376127766511074 0.026556460786128142 0 -0.032711239355763568 0.019247497026342354 0 -0.032228858413964168 0.018959038515548188 0 -0.033079916634819767 0.018176682230250603 0 -0.03208567027701674 0.022489757764406041 0 -0.029602463908630715 0.022539920527688977 0 -0.032526754392708426 0.026290367441593739 0 -0.033057336678376154 0.026485017539638857 0 -0.033160198005920558 0.026928336933619828 0 -0.033512083479423582 0.026214962102545834 0 -0.033306908906944072 0.026424196624566174 0 -0.033541356825909974 0.026600938805550638 0 -0.033057336678376154 0.026485017539638857 0 -0.033250843847082469 0.026679890643617674 0 -0.033160198005920558 0.026928336933619828 0 -0.033057336678376154 0.026485017539638857 0 -0.033306908906944072 0.026424196624566174 0 -0.033250843847082469 0.026679890643617674 0 -0.033306908906944072 0.026424196624566174 0 -0.033250843847082469 0.026679890643617674 0 -0.033541356825909974 0.026600938805550638 0 -0.033250843847082469 0.026679890643617674 0 -0.033151208969902583 0.02690427511072763 0 -0.033541356825909974 0.026600938805550638 0 -0.031911174765369643 0.023584588091175102 0 -0.03208567027701674 0.022489757764406041 0 -0.035081925968060652 0.023654280547446088 0 -0.035174981538742288 0.023244584601850297 0 -0.035128750886442149 0.02325534565649498 0 -0.034707732385810389 0.025517573610710435 0 -0.034090074982024057 0.026296802870632723 0 -0.034115135783436036 0.027212781288798792 0 -0.034747171995877013 0.025145912079138508 0 -0.034045405136241172 0.021904245077020029 0 -0.033151208969902583 0.02690427511072763 0 -0.033795665642061753 0.026753253128027649 0 -0.034115135783436036 0.027212781288798792 0 -0.034090074982024057 0.026296802870632723 0 -0.033795665642061753 0.026753253128027649 0 -0.034115135783436036 0.027212781288798792 0 -0.034090074982024057 0.026296802870632723 0 -0.033756685934714446 0.026373506879639484 0 -0.033795665642061753 0.026753253128027649 0 -0.033756685934714446 0.026373506879639484 0 -0.033541356825909974 0.026600938805550638 0 -0.033795665642061753 0.026753253128027649 0 -0.033512083479423582 0.026214962102545834 0 -0.033756685934714446 0.026373506879639484 0 -0.033541356825909974 0.026600938805550638 0 -0.033151208969902583 0.02690427511072763 0 -0.033541356825909974 0.026600938805550638 0 -0.033795665642061753 0.026753253128027649 0 -0.03208567027701674 0.022489757764406041 0 -0.034045405136241172 0.021904245077020029 0 -0.032711239355763568 0.019247497026342354 0 -0.032228858413964168 0.018959038515548188 0 -0.032191305205861241 0.019071844208355029 0 -0.035722658782557357 0.018123698470715831 0 -0.034045405136241172 0.021904245077020029 0 -0.038304906243820054 0.017106554576534313 0 -0.039768822786170721 0.014399453863098578 0 -0.04019913653471071 0.014731821632834378 0 -0.039983065998843541 0.014914899366291789 0 -0.040198961596951258 0.01437365937356486 0 -0.035722658782557357 0.018123698470715831 0 -0.038304906243820054 0.017106554576534313 0 -0.035188574455652974 0.023171308909811381 0 -0.035174981538742288 0.023244584601850297 0 -0.035128750886442149 0.02325534565649498 0 -0.039026908039322163 0.014216588011380199 0 -0.040034751714204682 0.014875239675409555 0 -0.040198961596951258 0.01437365937356486 0 -0.039026908039322163 0.014216588011380199 0 -0.040198961596951258 0.01437365937356486 0 -0.040467568125529978 0.013960331376713112 0 -0.039026908039322163 0.014216588011380199 0 -0.039467667220522154 0.013587858796316823 0 -0.040077609414446526 0.013846472054618614 0 -0.040341489699579181 0.014064023384241092 0 -0.037112554453056681 0.013839959617039356 0 -0.035722658782557357 0.018123698470715831 0 -0.037112554453056681 0.013839959617039356 0 -0.04019913653471071 0.014731821632834378 0 -0.040198961596951258 0.01437365937356486 0 -0.040467568125529978 0.013960331376713112 0 -0.035722658782557357 0.018123698470715831 0 -0.030288541553793916 0.015510731165427788 0 -0.03208567027701674 0.022489757764406041 0 -0.030288541553793916 0.015510731165427788 0 -0.02993875645987058 0.01942786310998219 0 -0.029189318841142994 0.021298899604789423 0 -0.028173069033610536 0.02024017101597134 0 -0.034908978787357783 0.015109538033996997 0 -0.034470386764869174 0.016270708013899335 0 -0.033025454925427807 0.016612760912686927 0 -0.037112554453056681 0.013839959617039356 0 -0.030288541553793916 0.015510731165427788 0 -0.030288541553793916 0.015510731165427788 0 -0.030450139158033664 0.012833834435790543 0 -0.037112554453056681 0.013839959617039356 0 -0.037002874627673425 0.012775811144737317 0 -0.032960764607839747 0.01269644098795558 0 -0.032532795650449108 0.012793096856368908 0 -0.03270594099870567 0.013278375301137358 0 -0.032532795650449108 0.012793096856368908 0 -0.03270594099870567 0.013278375301137358 0 -0.032330277414048529 0.013243600640702626 0 -0.037002874627673425 0.012775811144737317 0 -0.031726266430000656 0.012547649813483309 0 -0.03270594099870567 0.013278375301137358 0 -0.032455020402582746 0.013861226918182531 0 -0.032403400478555479 0.013520639113005758 0 -0.03270594099870567 0.013278375301137358 0 -0.032403400478555479 0.013520639113005758 0 -0.032330277414048529 0.013243600640702626 0 -0.040405312281427491 0.01271765360864506 0 -0.039697911455754943 0.011952041079222665 0 -0.04071294215519046 0.011609558054430136 0 -0.040405312281427491 0.01271765360864506 0 -0.039697911455754943 0.011952041079222665 0 -0.03933128911695976 0.012852886759270224 0 -0.039467667220522154 0.013587858796316823 0 -0.040077609414446526 0.013846472054618614 0 -0.040405312281427491 0.01271765360864506 0 -0.039467667220522154 0.013587858796316823 0 -0.040405312281427491 0.01271765360864506 0 -0.03933128911695976 0.012852886759270224 0 -0.039467667220522154 0.013587858796316823 0 -0.03933128911695976 0.012852886759270224 0 -0.038353775232291942 0.013418793283057067 0 -0.03933128911695976 0.012852886759270224 0 -0.038353775232291942 0.013418793283057067 0 -0.038699938747399742 0.012275688834849424 0 -0.037847660109586838 0.012432868347575954 0 -0.038353775232291942 0.013418793283057067 0 -0.038699938747399742 0.012275688834849424 0 -0.037847660109586838 0.012432868347575954 0 -0.038699938747399742 0.012275688834849424 0 -0.038141299723054224 0.01161668157714023 0 -0.039697911455754943 0.011952041079222665 0 -0.038699938747399742 0.012275688834849424 0 -0.038812343294148045 0.011462780040631858 0 -0.039697911455754943 0.011952041079222665 0 -0.03933128911695976 0.012852886759270224 0 -0.038699938747399742 0.012275688834849424 0 -0.038812343294148045 0.011462780040631858 0 -0.0385637399434497 0.010877122435523356 0 -0.039586655567168574 0.010968263185716356 0 -0.038699938747399742 0.012275688834849424 0 -0.038812343294148045 0.011462780040631858 0 -0.038141299723054224 0.01161668157714023 0 -0.039191728276349161 0.011796102046995213 0 -0.036954136996017267 0.0094795756426347584 0 -0.038812343294148045 0.011462780040631858 0 -0.038141299723054224 0.01161668157714023 0 -0.038070642836050203 0.010846320870452614 0 -0.038141299723054224 0.01161668157714023 0 -0.037863312047045183 0.011104518202457815 0 -0.038070642836050203 0.010846320870452614 0 -0.03448399400255478 0.0046740414891415826 0 -0.03427129245239037 0.0050987844645925904 0 -0.0346928255315921 0.0054174139330407283 0 -0.037120579261490837 0.010260259278871491 0 -0.036954136996017267 0.0094795756426347584 0 -0.037909796276948612 0.010830128838747346 0 -0.03835065152869515 0.010270024881729241 0 -0.0385637399434497 0.010877122435523356 0 -0.038812343294148045 0.011462780040631858 0 -0.037909796276948612 0.010830128838747346 0 -0.0385637399434497 0.010877122435523356 0 -0.03448399400255478 0.0046740414891415826 0 -0.034162705625243761 0.0050482326904573369 0 -0.03427129245239037 0.0050987844645925904 0 -0.036954136996017267 0.0094795756426347584 0 -0.034047662479004516 0.0088294077959102588 0 -0.034047662479004516 0.0088294077959102588 0 -0.03373324850823247 0.0082627072363700704 0 -0.03835065152869515 0.010270024881729241 0 -0.0385637399434497 0.010877122435523356 0 -0.039586655567168574 0.010968263185716356 0 -0.034047662479004516 0.0088294077959102588 0 -0.033152658047234239 0.011791697329607997 0 -0.02745065683489727 0.012465287298665773 0 -0.026467346047773236 0.012135753811304764 0 -0.026730969169558565 0.012617472904375026 0 -0.026467346047773236 0.012135753811304764 0 -0.026180481499180664 0.012751247712964039 0 -0.026730969169558565 0.012617472904375026 0 -0.026467346047773236 0.012135753811304764 0 -0.025878029347015327 0.0123749015451141 0 -0.026180481499180664 0.012751247712964039 0 -0.025878029347015327 0.0123749015451141 0 -0.025348513844395747 0.01244601907827711 0 -0.025572155591359509 0.012996977239684671 0 -0.026467346047773236 0.012135753811304764 0 -0.025878029347015327 0.0123749015451141 0 -0.025620800129962196 0.011766608773861919 0 -0.025602727257639912 0.012120575902404377 0 -0.025878029347015327 0.0123749015451141 0 -0.025348513844395747 0.01244601907827711 0 -0.033152658047234239 0.011791697329607997 0 -0.031726266430000656 0.012547649813483309 0 -0.025602727257639912 0.012120575902404377 0 -0.025878029347015327 0.0123749015451141 0 -0.025620800129962196 0.011766608773861919 0 -0.025602727257639912 0.012120575902404377 0 -0.025557043322230955 0.011908663858979608 0 -0.025620800129962196 0.011766608773861919 0 -0.030580700796092684 0.012874851806497624 0 -0.031726266430000656 0.012547649813483309 0 -0.039697911455754943 0.011952041079222665 0 -0.038812343294148045 0.011462780040631858 0 -0.039586655567168574 0.010968263185716356 0 -0.039697911455754943 0.011952041079222665 0 -0.039586655567168574 0.010968263185716356 0 -0.04071294215519046 0.011609558054430136 0 -0.024152494494456958 0.013377841872152399 0 -0.024336680021894805 0.013871819949716438 0 -0.024706692701621527 0.013150284411109058 0 -0.025557043322230955 0.011908663858979608 0 -0.024745440965821697 0.012353517846086664 0 -0.025135000358164291 0.011504043563304591 0 -0.02437669156785336 0.013026273846304778 0 -0.027137299145587084 0.013245770573045008 0 -0.031726266430000656 0.012547649813483309 0 -0.027137299145587084 0.013245770573045008 0 -0.025557043322230955 0.011908663858979608 0 -0.025623440774211425 0.011749318034951458 0 -0.025135000358164291 0.011504043563304591 0 -0.025557043322230955 0.011908663858979608 0 -0.025348513844395747 0.01244601907827711 0 -0.024745440965821697 0.012353517846086664 0 -0.025602727257639912 0.012120575902404377 0 -0.025557043322230955 0.011908663858979608 0 -0.025348513844395747 0.01244601907827711 0 -0.025348513844395747 0.01244601907827711 0 -0.024745440965821697 0.012353517846086664 0 -0.025064166091341444 0.012992654506004436 0 -0.024152494494456958 0.013377841872152399 0 -0.024336680021894805 0.013871819949716438 0 -0.024037532843819279 0.013794795315701115 0 -0.024336680021894805 0.013871819949716438 0 -0.024037532843819279 0.013794795315701115 0 -0.024272590746988957 0.013981805335099603 0 -0.023699551994134042 0.014036187912384557 0 -0.024037532843819279 0.013794795315701115 0 -0.024272590746988957 0.013981805335099603 0 -0.023699551994134042 0.014036187912384557 0 -0.02347770087189284 0.013742559427040927 0 -0.022921897947846527 0.014105916809200331 0 -0.023699551994134042 0.014036187912384557 0 -0.02347770087189284 0.013742559427040927 0 -0.024037532843819279 0.013794795315701115 0 -0.022921897947846527 0.014105916809200331 0 -0.022095010353253765 0.014358040926939483 0 -0.022534914833807148 0.014660982753647224 0 -0.023699551994134042 0.014036187912384557 0 -0.022921897947846527 0.014105916809200331 0 -0.023368707805027294 0.014499126770030683 0 -0.02347770087189284 0.013742559427040927 0 -0.022921897947846527 0.014105916809200331 0 -0.022869045626836105 0.013595470308222727 0 -0.022921897947846527 0.014105916809200331 0 -0.022869045626836105 0.013595470308222727 0 -0.022247709204781058 0.013867751426240821 0 -0.022869045626836105 0.013595470308222727 0 -0.022217384886899939 0.013293402484296189 0 -0.022247709204781058 0.013867751426240821 0 -0.02347770087189284 0.013742559427040927 0 -0.022869045626836105 0.013595470308222727 0 -0.023372253441587883 0.013312653922609078 0 -0.022869045626836105 0.013595470308222727 0 -0.023372253441587883 0.013312653922609078 0 -0.022880698183924422 0.013019058636803535 0 -0.022869045626836105 0.013595470308222727 0 -0.022880698183924422 0.013019058636803535 0 -0.022217384886899939 0.013293402484296189 0 -0.024152494494456958 0.013377841872152399 0 -0.024037532843819279 0.013794795315701115 0 -0.023770742689997161 0.013465049342923615 0 -0.02347770087189284 0.013742559427040927 0 -0.024037532843819279 0.013794795315701115 0 -0.023770742689997161 0.013465049342923615 0 -0.02347770087189284 0.013742559427040927 0 -0.023770742689997161 0.013465049342923615 0 -0.023372253441587883 0.013312653922609078 0 -0.023770742689997161 0.013465049342923615 0 -0.023372253441587883 0.013312653922609078 0 -0.023739367457041156 0.013087590721961601 0 -0.024152494494456958 0.013377841872152399 0 -0.023770742689997161 0.013465049342923615 0 -0.023739367457041156 0.013087590721961601 0 -0.023421249679436373 0.012534609917096852 0 -0.025104763948598903 0.013251302857691789 0 -0.023739367457041156 0.013087590721961601 0 -0.023386921885787868 0.012806407489588854 0 -0.024192746784268766 0.012717530371334473 0 -0.023386921885787868 0.012806407489588854 0 -0.023190760333101329 0.012238832552119381 0 -0.024192746784268766 0.012717530371334473 0 -0.023901488116049287 0.01326494303805649 0 -0.025104763948598903 0.013251302857691789 0 -0.023372253441587883 0.013312653922609078 0 -0.023739367457041156 0.013087590721961601 0 -0.023386921885787868 0.012806407489588854 0 -0.022880698183924422 0.013019058636803535 0 -0.022450511568215321 0.012443912879723741 0 -0.022217384886899939 0.013293402484296189 0 -0.023386921885787868 0.012806407489588854 0 -0.022880698183924422 0.013019058636803535 0 -0.02298143656364077 0.012618083477175848 0 -0.023372253441587883 0.013312653922609078 0 -0.023386921885787868 0.012806407489588854 0 -0.022880698183924422 0.013019058636803535 0 -0.02298143656364077 0.012618083477175848 0 -0.022450511568215321 0.012443912879723741 0 -0.023190760333101329 0.012238832552119381 0 -0.023386921885787868 0.012806407489588854 0 -0.02298143656364077 0.012618083477175848 0 -0.023190760333101329 0.012238832552119381 0 -0.022880698183924422 0.013019058636803535 0 -0.02298143656364077 0.012618083477175848 0 -0.022450511568215321 0.012443912879723741 0 -0.023421249679436373 0.012534609917096852 0 -0.022288726847190504 0.011906292673274045 0 -0.022450511568215321 0.012443912879723741 0 -0.023190760333101329 0.012238832552119381 0 -0.02216141228604545 0.011830599102645965 0 -0.023378536739416624 0.012512222967082152 0 -0.023495132302269593 0.011448243567950094 0 -0.02216141228604545 0.011830599102645965 0 -0.02376547441292166 0.012877827712735148 0 -0.023378536739416624 0.012512222967082152 0 -0.02216141228604545 0.011830599102645965 0 -0.02376547441292166 0.012877827712735148 0 -0.024494092486081136 0.012738157538701519 0 -0.02548414181533417 0.013798106759526037 0 -0.023460505721453539 0.012279494262244095 0 -0.025489775252473076 0.014432703629243043 0 -0.023378536739416624 0.012512222967082152 0 -0.025001042895563551 0.012203189278262456 0 -0.023495132302269593 0.011448243567950094 0 -0.023378536739416624 0.012512222967082152 0 -0.024494092486081136 0.012738157538701519 0 -0.025031405508543162 0.012266691782933247 0 -0.024494092486081136 0.012738157538701519 0 -0.025031405508543162 0.012266691782933247 0 -0.02522470517901167 0.012885939741042652 0 -0.024494092486081136 0.012738157538701519 0 -0.02522470517901167 0.012885939741042652 0 -0.02548414181533417 0.013798106759526037 0 -0.02376547441292166 0.012877827712735148 0 -0.023378536739416624 0.012512222967082152 0 -0.024494092486081136 0.012738157538701519 0 -0.025489775252473076 0.014432703629243043 0 -0.025281873227476877 0.012996484127567962 0 -0.025131829038255369 0.012379589249943023 0 -0.025885720630305704 0.012735613182813018 0 -0.026476361761285989 0.012103337911039701 0 -0.025489775252473076 0.014432703629243043 0 -0.026649171726710923 0.017032222223474815 0 -0.025885720630305704 0.012735613182813018 0 -0.026672563944143714 0.012807836276396419 0 -0.026476361761285989 0.012103337911039701 0 -0.025885720630305704 0.012735613182813018 0 -0.02548414181533417 0.013798106759526037 0 -0.026672563944143714 0.012807836276396419 0 -0.025885720630305704 0.012735613182813018 0 -0.02522470517901167 0.012885939741042652 0 -0.02548414181533417 0.013798106759526037 0 -0.025031405508543162 0.012266691782933247 0 -0.025885720630305704 0.012735613182813018 0 -0.02522470517901167 0.012885939741042652 0 -0.027091024130034905 0.013725638287000895 0 -0.027823003785644881 0.014094800236896176 0 -0.027736708849765541 0.013651840538515127 0 -0.025104763948598903 0.013251302857691789 0 -0.027137299145587084 0.013245770573045008 0 -0.024152494494456958 0.013377841872152399 0 -0.024102444334613816 0.012814872458632257 0 -0.024706692701621527 0.013150284411109058 0 -0.027091024130034905 0.013725638287000895 0 -0.027736708849765541 0.013651840538515127 0 -0.027753817410570734 0.013203479694239514 0 -0.025104763948598903 0.013251302857691789 0 -0.027275269871383651 0.012808902877802463 0 -0.024152494494456958 0.013377841872152399 0 -0.023739367457041156 0.013087590721961601 0 -0.024102444334613816 0.012814872458632257 0 -0.027137299145587084 0.013245770573045008 0 -0.030450139158033664 0.012833834435790543 0 -0.032403400478555479 0.013520639113005758 0 -0.032121883900073839 0.013699022265300276 0 -0.032330277414048529 0.013243600640702626 0 -0.027823003785644881 0.014094800236896176 0 -0.027736708849765541 0.013651840538515127 0 -0.0281086814767148 0.013385116906315509 0 -0.032455020402582746 0.013861226918182531 0 -0.032403400478555479 0.013520639113005758 0 -0.032121883900073839 0.013699022265300276 0 -0.027828967454078382 0.011917929167347199 0 -0.026672563944143714 0.012807836276396419 0 -0.026476361761285989 0.012103337911039701 0 -0.028397452220238262 0.012727517550461098 0 -0.0281086814767148 0.013385116906315509 0 -0.027753817410570734 0.013203479694239514 0 -0.027736708849765541 0.013651840538515127 0 -0.0281086814767148 0.013385116906315509 0 -0.027753817410570734 0.013203479694239514 0 -0.030288541553793916 0.015510731165427788 0 -0.027275269871383651 0.012808902877802463 0 -0.028173069033610536 0.02024017101597134 0 -0.027604409842406575 0.021586263191723423 0 -0.026710866881711176 0.019954496741368281 0 -0.030288541553793916 0.015510731165427788 0 -0.026649171726710923 0.017032222223474815 0 -0.029189318841142994 0.021298899604789423 0 -0.028173069033610536 0.02024017101597134 0 -0.027604409842406575 0.021586263191723423 0 -0.025985836839497675 0.021925989623814569 0 -0.027604409842406575 0.021586263191723423 0 -0.026040928822584183 0.020886538169339875 0 -0.027604409842406575 0.021586263191723423 0 -0.026710866881711176 0.019954496741368281 0 -0.026040928822584183 0.020886538169339875 0 -0.026710866881711176 0.019954496741368281 0 -0.02555196956029028 0.020187856694224453 0 -0.026040928822584183 0.020886538169339875 0 -0.026710866881711176 0.019954496741368281 0 -0.02817256086697181 0.018854664748774539 0 -0.026387778656889845 0.018279812780660584 0 -0.026710866881711176 0.019954496741368281 0 -0.026387778656889845 0.018279812780660584 0 -0.025329075155763749 0.019345280909449262 0 -0.028173069033610536 0.02024017101597134 0 -0.026710866881711176 0.019954496741368281 0 -0.02817256086697181 0.018854664748774539 0 -0.02993875645987058 0.01942786310998219 0 -0.028173069033610536 0.02024017101597134 0 -0.02817256086697181 0.018854664748774539 0 -0.031846372074985869 0.02599082787873495 0 -0.031093216521849643 0.025910536669369856 0 -0.031376127766511074 0.026556460786128142 0 -0.032526754392708426 0.026290367441593739 0 -0.031846372074985869 0.02599082787873495 0 -0.031376127766511074 0.026556460786128142 0 -0.032117858300847339 0.025313960862816228 0 -0.031093216521849643 0.025910536669369856 0 -0.031356674383245214 0.024685400124621781 0 -0.031846372074985869 0.02599082787873495 0 -0.032117858300847339 0.025313960862816228 0 -0.031093216521849643 0.025910536669369856 0 -0.031093216521849643 0.025910536669369856 0 -0.031376127766511074 0.026556460786128142 0 -0.029883586014853421 0.026128429513969088 0 -0.031075004012229686 0.02597749368328035 0 -0.028142417700686172 0.024760351951172994 0 -0.031093216521849643 0.025910536669369856 0 -0.02861610148074048 0.026933218553197278 0 -0.029540839120228996 0.024580430154905748 0 -0.029602463908630715 0.022539920527688977 0 -0.028142417700686172 0.024760351951172994 0 -0.031339350326726675 0.023289657130386887 0 -0.029770921218210816 0.022449146969493499 0 -0.029540839120228996 0.024580430154905748 0 -0.02861610148074048 0.026933218553197278 0 -0.029540839120228996 0.024580430154905748 0 -0.026779244450579692 0.024354382669581003 0 -0.031339350326726675 0.023289657130386887 0 -0.029540839120228996 0.024580430154905748 0 -0.031356674383245214 0.024685400124621781 0 -0.031339350326726675 0.023289657130386887 0 -0.032497106761644606 0.024084780001300508 0 -0.031356674383245214 0.024685400124621781 0 -0.032497106761644606 0.024084780001300508 0 -0.032117858300847339 0.025313960862816228 0 -0.031356674383245214 0.024685400124621781 0 -0.031093216521849643 0.025910536669369856 0 -0.029540839120228996 0.024580430154905748 0 -0.031356674383245214 0.024685400124621781 0 -0.024709784940678898 0.022641443416138628 0 -0.023375082991617103 0.025356162819350991 0 -0.022079586255509646 0.023321546771000921 0 -0.024709784940678898 0.022641443416138628 0 -0.023375082991617103 0.025356162819350991 0 -0.026779244450579692 0.024354382669581003 0 -0.023375082991617103 0.025356162819350991 0 -0.022079586255509646 0.023321546771000921 0 -0.020516200917248196 0.025168063132506809 0 -0.027397836349154738 0.022427533537282256 0 -0.024709784940678898 0.022641443416138628 0 -0.026779244450579692 0.024354382669581003 0 -0.027397836349154738 0.022427533537282256 0 -0.029540839120228996 0.024580430154905748 0 -0.026779244450579692 0.024354382669581003 0 -0.02861610148074048 0.026933218553197278 0 -0.023375082991617103 0.025356162819350991 0 -0.026779244450579692 0.024354382669581003 0 -0.028614929804219272 0.027027343387724823 0 -0.023375082991617103 0.025356162819350991 0 -0.023139317784987581 0.02817204543187175 0 -0.026387778656889845 0.018279812780660584 0 -0.023761935919047284 0.018772927731976748 0 -0.025329075155763749 0.019345280909449262 0 -0.028142417700686172 0.024760351951172994 0 -0.023899214511321824 0.026082086770514754 0 -0.028142417700686172 0.024760351951172994 0 -0.023389847207189077 0.023111641883226695 0 -0.023375082991617103 0.025356162819350991 0 -0.023139317784987581 0.02817204543187175 0 -0.020516200917248196 0.025168063132506809 0 -0.023761935919047284 0.018772927731976748 0 -0.025329075155763749 0.019345280909449262 0 -0.024730394851257446 0.0199049577660451 0 -0.023761935919047284 0.018772927731976748 0 -0.023989609183989454 0.020007959896204484 0 -0.022648273401380935 0.02044306230489187 0 -0.023989609183989454 0.020007959896204484 0 -0.024730394851257446 0.0199049577660451 0 -0.024932821176501294 0.02075799084411319 0 -0.023761935919047284 0.018772927731976748 0 -0.023989609183989454 0.020007959896204484 0 -0.024730394851257446 0.0199049577660451 0 -0.025329075155763749 0.019345280909449262 0 -0.024730394851257446 0.0199049577660451 0 -0.02555196956029028 0.020187856694224453 0 -0.026710866881711176 0.019954496741368281 0 -0.025329075155763749 0.019345280909449262 0 -0.02555196956029028 0.020187856694224453 0 -0.025489775252473076 0.014432703629243043 0 -0.023961683992989088 0.016345604451834996 0 -0.025985836839497675 0.021925989623814569 0 -0.024932821176501294 0.02075799084411319 0 -0.024318209159147893 0.021150618994407337 0 -0.02555196956029028 0.020187856694224453 0 -0.026040928822584183 0.020886538169339875 0 -0.024932821176501294 0.02075799084411319 0 -0.024730394851257446 0.0199049577660451 0 -0.02555196956029028 0.020187856694224453 0 -0.024932821176501294 0.02075799084411319 0 -0.025985836839497675 0.021925989623814569 0 -0.026040928822584183 0.020886538169339875 0 -0.024932821176501294 0.02075799084411319 0 -0.025044233852133453 0.021316467663531263 0 -0.022211441460533405 0.017682614961642529 0 -0.023495132302269593 0.011448243567950094 0 -0.022129473297550058 0.010873075283660836 0 -0.02216141228604545 0.011830599102645965 0 -0.024932821176501294 0.02075799084411319 0 -0.024318209159147893 0.021150618994407337 0 -0.022567580013850116 0.02020429490274351 0 -0.023989609183989454 0.020007959896204484 0 -0.024932821176501294 0.02075799084411319 0 -0.022648273401380935 0.02044306230489187 0 -0.023961683992989088 0.016345604451834996 0 -0.022211441460533405 0.017682614961642529 0 -0.022129473297550058 0.010873075283660836 0 -0.021504594630741995 0.011529537967907262 0 -0.02216141228604545 0.011830599102645965 0 -0.019114426020493135 0.016280541712593296 0 -0.0205165837591261 0.012046213024913516 0 -0.022129473297550058 0.010873075283660836 0 -0.021504594630741995 0.011529537967907262 0 -0.021051768258698911 0.010756873964692109 0 -0.021504594630741995 0.011529537967907262 0 -0.021051768258698911 0.010756873964692109 0 -0.020741015608265027 0.012069727743224836 0 -0.01972378395400938 0.01385160109415628 0 -0.019718984719148295 0.013849311728190615 0 -0.019769109610342367 0.013822604818274698 0 -0.022648273401380935 0.02044306230489187 0 -0.020971677005952871 0.019672033314640833 0 -0.021047209015395123 0.019330760760542944 0 -0.021676601632308092 0.018946459868219259 0 -0.018902927240411482 0.018459420089406122 0 -0.019070803752375107 0.017690800110887864 0 -0.016002247444148656 0.026060803708125854 0 -0.015940783914424512 0.025974947451245112 0 -0.015833475085887071 0.026025789253195823 0 -0.019114426020493135 0.016280541712593296 0 -0.018966327655444638 0.022126374129086118 0 -0.016002247444148656 0.026060803708125854 0 -0.016020744493804775 0.025992269096048251 0 -0.015940783914424512 0.025974947451245112 0 -0.018966327655444638 0.022126374129086118 0 -0.018891202079628695 0.024629490610863575 0 -0.017278328392248164 0.026689469988567551 0 -0.016812356795665513 0.026753158896851498 0 -0.016702647738986932 0.025928499016594067 0 -0.018891202079628695 0.024629490610863575 0 -0.017176762651118442 0.024681310606816522 0 -0.01909416429159819 0.024652627535609255 0 -0.01927216157994412 0.023837630159665925 0 -0.017962976638175952 0.024098673312669974 0 -0.018966327655444638 0.022126374129086118 0 -0.017176762651118442 0.024681310606816522 0 -0.023761935919047284 0.018772927731976748 0 -0.022648273401380935 0.02044306230489187 0 -0.021047209015395123 0.019330760760542944 0 -0.023389847207189077 0.023111641883226695 0 -0.018891202079628695 0.024629490610863575 0 -0.022211441460533405 0.017682614961642529 0 -0.019114426020493135 0.016280541712593296 0 -0.022211441460533405 0.017682614961642529 0 -0.018966327655444638 0.022126374129086118 0 -0.023139317784987581 0.02817204543187175 0 -0.017104824518153119 0.029080761577861648 0 -0.020516200917248196 0.025168063132506809 0 -0.020516200917248196 0.025168063132506809 0 -0.017768295649491544 0.025579206486953016 0 -0.018188154813009366 0.024333928681337099 0 -0.018891202079628695 0.024629490610863575 0 -0.01746293123558388 0.026941920094836914 0 -0.016702647738986932 0.025928499016594067 0 -0.017768295649491544 0.025579206486953016 0 -0.016518899280868977 0.024201081789101332 0 -0.017104824518153119 0.029080761577861648 0 -0.020516200917248196 0.025168063132506809 0 -0.017768295649491544 0.025579206486953016 0 -0.017278328392248164 0.026689469988567551 0 -0.016702647738986932 0.025928499016594067 0 -0.017768295649491544 0.025579206486953016 0 -0.018188154813009366 0.024333928681337099 0 -0.016518899280868977 0.024201081789101332 0 -0.018675031472370422 0.02264442420196423 0 -0.018266832808277435 0.020901319540991867 0 -0.016518899280868977 0.024201081789101332 0 -0.018675031472370422 0.02264442420196423 0 -0.017768295649491544 0.025579206486953016 0 -0.018188154813009366 0.024333928681337099 0 -0.016518899280868977 0.024201081789101332 0 -0.018245998018362533 0.020892924032006176 0 -0.017095257816106067 0.021698525968258067 0 -0.022079586255509646 0.023321546771000921 0 -0.020516200917248196 0.025168063132506809 0 -0.018675031472370422 0.02264442420196423 0 -0.020516200917248196 0.025168063132506809 0 -0.018188154813009366 0.024333928681337099 0 -0.018675031472370422 0.02264442420196423 0 -0.017012740507820805 0.019174875782752579 0 -0.016950650631327897 0.018397933332447387 0 -0.017014228766495377 0.018790544866291642 0 -0.017275037769563201 0.019295875846424813 0 -0.01769912445157772 0.018178535100128537 0 -0.01745718903575056 0.019408238948235866 0 -0.017844977888768425 0.017726796535325239 0 -0.018485132909446759 0.017972229780363915 0 -0.017469929145411765 0.020040831525679939 0 -0.017182491757896438 0.019652834476718638 0 -0.01745718903575056 0.019408238948235866 0 -0.017182491757896438 0.019652834476718638 0 -0.01745718903575056 0.019408238948235866 0 -0.017251066235092143 0.018167321173915705 0 -0.017095257816106067 0.021698525968258067 0 -0.016083614572706885 0.022310659000526808 0 -0.016702647738986932 0.025928499016594067 0 -0.016518899280868977 0.024201081789101332 0 -0.016126636288957497 0.025535650819380338 0 -0.016518899280868977 0.024201081789101332 0 -0.016126636288957497 0.025535650819380338 0 -0.015561681825595888 0.025740984819833546 0 -0.016702647738986932 0.025928499016594067 0 -0.016126636288957497 0.025535650819380338 0 -0.015779179829782917 0.026039919202983614 0 -0.016126636288957497 0.025535650819380338 0 -0.015561681825595888 0.025740984819833546 0 -0.015779179829782917 0.026039919202983614 0 -0.015561681825595888 0.025740984819833546 0 -0.015779179829782917 0.026039919202983614 0 -0.015628596994595706 0.02594009866112499 0 -0.01745718903575056 0.019408238948235866 0 -0.017251066235092143 0.018167321173915705 0 -0.017844977888768425 0.017726796535325239 0 -0.016083614572706885 0.022310659000526808 0 -0.018169338216878612 0.018788425863525502 0 -0.015561681825595888 0.025740984819833546 0 -0.015628596994595706 0.02594009866112499 0 -0.015552640390619644 0.02596577484125883 0 -0.017251066235092143 0.018167321173915705 0 -0.017844977888768425 0.017726796535325239 0 -0.017900823203382366 0.016647158182956104 0 -0.017448453582327619 0.020092940319344228 0 -0.018169338216878612 0.018788425863525502 0 -0.015561681825595888 0.025740984819833546 0 -0.015552640390619644 0.02596577484125883 0 -0.015434381907072 0.026039891390736751 0 -0.019682228010213638 0.013800861113841085 0 -0.019558643081835532 0.01389099481526629 0 -0.019423077523453871 0.013699988551311751 0 -0.015552640390619644 0.02596577484125883 0 -0.015708253389212185 0.026076018921425321 0 -0.015434381907072 0.026039891390736751 0 -0.015552640390619644 0.02596577484125883 0 -0.015654236411266287 0.026005805799766801 0 -0.015708253389212185 0.026076018921425321 0 -0.015628596994595706 0.02594009866112499 0 -0.015552640390619644 0.02596577484125883 0 -0.015654236411266287 0.026005805799766801 0 -0.019114426020493135 0.016280541712593296 0 -0.017448453582327619 0.020092940319344228 0 -0.016002247444148656 0.026060803708125854 0 -0.015833475085887071 0.026025789253195823 0 -0.015708253389212185 0.026076018921425321 0 -0.017176762651118442 0.024681310606816522 0 -0.015992943835515559 0.025897035933610951 0 -0.016812356795665513 0.026753158896851498 0 -0.016702647738986932 0.025928499016594067 0 -0.015779179829782917 0.026039919202983614 0 -0.015867963546243716 0.026006886553607823 0 -0.015779179829782917 0.026039919202983614 0 -0.015833475085887071 0.026025789253195823 0 -0.017176762651118442 0.024681310606816522 0 -0.016030107710905447 0.02526541295919385 0 -0.015779179829782917 0.026039919202983614 0 -0.015654236411266287 0.026005805799766801 0 -0.015708253389212185 0.026076018921425321 0 -0.015779179829782917 0.026039919202983614 0 -0.015833475085887071 0.026025789253195823 0 -0.015708253389212185 0.026076018921425321 0 -0.015779179829782917 0.026039919202983614 0 -0.015628596994595706 0.02594009866112499 0 -0.015654236411266287 0.026005805799766801 0 -0.01972378395400938 0.01385160109415628 0 -0.019682228010213638 0.013800861113841085 0 -0.019718984719148295 0.013849311728190615 0 -0.019682228010213638 0.013800861113841085 0 -0.019663501411647147 0.013856054350543051 0 -0.019718984719148295 0.013849311728190615 0 -0.019663501411647147 0.013856054350543051 0 -0.019718984719148295 0.013849311728190615 0 -0.019693471527626513 0.013870069255167717 0 -0.019558643081835532 0.01389099481526629 0 -0.01947342421448129 0.013937611088349903 0 -0.019693471527626513 0.013870069255167717 0 -0.019558643081835532 0.01389099481526629 0 -0.019331484878083283 0.014037120777448916 0 -0.019423077523453871 0.013699988551311751 0 -0.019682228010213638 0.013800861113841085 0 -0.019663501411647147 0.013856054350543051 0 -0.019558643081835532 0.01389099481526629 0 -0.019663501411647147 0.013856054350543051 0 -0.019558643081835532 0.01389099481526629 0 -0.019693471527626513 0.013870069255167717 0 -0.019558643081835532 0.01389099481526629 0 -0.01947342421448129 0.013937611088349903 0 -0.019331484878083283 0.014037120777448916 0 -0.01947342421448129 0.013937611088349903 0 -0.019800748105293389 0.013786802708095824 0 -0.019693471527626513 0.013870069255167717 0 -0.01947342421448129 0.013937611088349903 0 -0.019800748105293389 0.013786802708095824 0 -0.019495856388369599 0.013888533968612966 0 -0.019800748105293389 0.013786802708095824 0 -0.019635785722999833 0.013940551461414007 0 -0.020270164846742343 0.013639585511538365 0 -0.019800748105293389 0.013786802708095824 0 -0.019635785722999833 0.013940551461414007 0 -0.019495856388369599 0.013888533968612966 0 -0.019800748105293389 0.013786802708095824 0 -0.019769109610342367 0.013822604818274698 0 -0.020270164846742343 0.013639585511538365 0 -0.0205165837591261 0.012046213024913516 0 -0.020142614533210243 0.014018178241577231 0 -0.019800748105293389 0.013786802708095824 0 -0.019693471527626513 0.013870069255167717 0 -0.019769109610342367 0.013822604818274698 0 -0.019718984719148295 0.013849311728190615 0 -0.019693471527626513 0.013870069255167717 0 -0.019769109610342367 0.013822604818274698 0 -0.021504594630741995 0.011529537967907262 0 -0.020741015608265027 0.012069727743224836 0 -0.021681808804576829 0.012147312943616755 0 -0.020741015608265027 0.012069727743224836 0 -0.021681808804576829 0.012147312943616755 0 -0.021474266875813799 0.012828661941642011 0 -0.022450511568215321 0.012443912879723741 0 -0.021681808804576829 0.012147312943616755 0 -0.021474266875813799 0.012828661941642011 0 -0.021504594630741995 0.011529537967907262 0 -0.02216141228604545 0.011830599102645965 0 -0.021681808804576829 0.012147312943616755 0 -0.022450511568215321 0.012443912879723741 0 -0.02216141228604545 0.011830599102645965 0 -0.021681808804576829 0.012147312943616755 0 -0.022450511568215321 0.012443912879723741 0 -0.021474266875813799 0.012828661941642011 0 -0.022217384886899939 0.013293402484296189 0 -0.020741015608265027 0.012069727743224836 0 -0.021474266875813799 0.012828661941642011 0 -0.020270164846742343 0.013639585511538365 0 -0.021474266875813799 0.012828661941642011 0 -0.021290854739463821 0.014005391918198292 0 -0.020270164846742343 0.013639585511538365 0 -0.021474266875813799 0.012828661941642011 0 -0.021290854739463821 0.014005391918198292 0 -0.022217384886899939 0.013293402484296189 0 -0.021290854739463821 0.014005391918198292 0 -0.022217384886899939 0.013293402484296189 0 -0.022247709204781058 0.013867751426240821 0 -0.021290854739463821 0.014005391918198292 0 -0.022095010353253765 0.014358040926939483 0 -0.021451567133648007 0.014642576522094258 0 -0.021290854739463821 0.014005391918198292 0 -0.022247709204781058 0.013867751426240821 0 -0.022095010353253765 0.014358040926939483 0 -0.022921897947846527 0.014105916809200331 0 -0.022247709204781058 0.013867751426240821 0 -0.022095010353253765 0.014358040926939483 0 -0.021290854739463821 0.014005391918198292 0 -0.020743897729877191 0.014766789901516699 0 -0.021451567133648007 0.014642576522094258 0 -0.020141015155045384 0.014236767892913171 0 -0.019934870923494951 0.014869424660318596 0 -0.020743897729877191 0.014766789901516699 0 -0.021290854739463821 0.014005391918198292 0 -0.020141015155045384 0.014236767892913171 0 -0.020743897729877191 0.014766789901516699 0 -0.020141015155045384 0.014236767892913171 0 -0.019555299073536005 0.014439886169923493 0 -0.019934870923494951 0.014869424660318596 0 -0.020141015155045384 0.014236767892913171 0 -0.019555299073536005 0.014439886169923493 0 -0.019635785722999833 0.013940551461414007 0 -0.020141015155045384 0.014236767892913171 0 -0.019635785722999833 0.013940551461414007 0 -0.020270164846742343 0.013639585511538365 0 -0.021290854739463821 0.014005391918198292 0 -0.020141015155045384 0.014236767892913171 0 -0.020270164846742343 0.013639585511538365 0 -0.020285547950205977 0.015441740743607546 0 -0.020374130260002666 0.016002076724138597 0 -0.019719879420966136 0.016148200264914384 0 -0.020285547950205977 0.015441740743607546 0 -0.021111690760405578 0.015298881052152706 0 -0.020792896494693736 0.015760983763281451 0 -0.020285547950205977 0.015441740743607546 0 -0.020374130260002666 0.016002076724138597 0 -0.020792896494693736 0.015760983763281451 0 -0.020374130260002666 0.016002076724138597 0 -0.020792896494693736 0.015760983763281451 0 -0.020933010917387959 0.016168992751880412 0 -0.020285547950205977 0.015441740743607546 0 -0.019719879420966136 0.016148200264914384 0 -0.01942425416280559 0.015254210992689832 0 -0.019555299073536005 0.014439886169923493 0 -0.019934870923494951 0.014869424660318596 0 -0.01942425416280559 0.015254210992689832 0 -0.020285547950205977 0.015441740743607546 0 -0.019934870923494951 0.014869424660318596 0 -0.01942425416280559 0.015254210992689832 0 -0.020285547950205977 0.015441740743607546 0 -0.020743897729877191 0.014766789901516699 0 -0.021111690760405578 0.015298881052152706 0 -0.020285547950205977 0.015441740743607546 0 -0.019934870923494951 0.014869424660318596 0 -0.020743897729877191 0.014766789901516699 0 -0.020743897729877191 0.014766789901516699 0 -0.021451567133648007 0.014642576522094258 0 -0.021111690760405578 0.015298881052152706 0 -0.021111690760405578 0.015298881052152706 0 -0.021820268851658092 0.015027702554754482 0 -0.021688105990380568 0.015533291133087683 0 -0.021451567133648007 0.014642576522094258 0 -0.021111690760405578 0.015298881052152706 0 -0.021820268851658092 0.015027702554754482 0 -0.022095010353253765 0.014358040926939483 0 -0.021820268851658092 0.015027702554754482 0 -0.022534914833807148 0.014660982753647224 0 -0.022095010353253765 0.014358040926939483 0 -0.021451567133648007 0.014642576522094258 0 -0.021820268851658092 0.015027702554754482 0 -0.021820268851658092 0.015027702554754482 0 -0.022520199018603537 0.015433452768390045 0 -0.022534914833807148 0.014660982753647224 0 -0.021820268851658092 0.015027702554754482 0 -0.021688105990380568 0.015533291133087683 0 -0.022520199018603537 0.015433452768390045 0 -0.021688105990380568 0.015533291133087683 0 -0.021778468684845783 0.01600136702976087 0 -0.022520199018603537 0.015433452768390045 0 -0.022107989309040302 0.015338471478810361 0 -0.022638999069191552 0.015215821451354888 0 -0.021688105990380568 0.015533291133087683 0 -0.021778468684845783 0.01600136702976087 0 -0.021291103961429577 0.015890646542533905 0 -0.021111690760405578 0.015298881052152706 0 -0.021291103961429577 0.015890646542533905 0 -0.020792896494693736 0.015760983763281451 0 -0.021111690760405578 0.015298881052152706 0 -0.021688105990380568 0.015533291133087683 0 -0.021291103961429577 0.015890646542533905 0 -0.021291103961429577 0.015890646542533905 0 -0.020792896494693736 0.015760983763281451 0 -0.020933010917387959 0.016168992751880412 0 -0.021389678563554532 0.014547745860906788 0 -0.020493468482941205 0.015033018445641037 0 -0.020535561469665294 0.015302374284751917 0 -0.021291103961429577 0.015890646542533905 0 -0.020933010917387959 0.016168992751880412 0 -0.020961846397836121 0.016368400495133505 0 -0.020933010917387959 0.016168992751880412 0 -0.020954912633141479 0.016341807065608394 0 -0.020627109984268092 0.016509636951343807 0 -0.021778468684845783 0.01600136702976087 0 -0.021291103961429577 0.015890646542533905 0 -0.020961846397836121 0.016368400495133505 0 -0.022107989309040302 0.015338471478810361 0 -0.020205212166842138 0.015141736705045341 0 -0.020390752509319224 0.015713772808594356 0 -0.020205212166842138 0.015141736705045341 0 -0.022107989309040302 0.015338471478810361 0 -0.019895243433028637 0.014049235942007236 0 -0.019895243433028637 0.014049235942007236 0 -0.019390087250443413 0.013224175471223723 0 -0.020205212166842138 0.015141736705045341 0 -0.01917639221345005 0.013651901711641141 0 -0.019826910538693069 0.014021227563214543 0 -0.01979660525284364 0.01424483972487273 0 -0.019567953689967676 0.014163554956450813 0 -0.020205212166842138 0.015141736705045341 0 -0.019895243433028637 0.014049235942007236 0 -0.019826910538693069 0.014021227563214543 0 -0.01985427998513151 0.014192901826110898 0 -0.01979660525284364 0.01424483972487273 0 -0.022630739275265762 0.015343980415089171 0 -0.022745166355753299 0.015601260243383661 0 -0.0232714514786177 0.015234712600194836 0 -0.022630739275265762 0.015343980415089171 0 -0.022403974205869669 0.015566414934960101 0 -0.022745166355753299 0.015601260243383661 0 -0.024307904312778149 0.014575504377188585 0 -0.021768325212256676 0.012985711291703171 0 -0.025228949492558939 0.013277844910060043 0 -0.025193866461620557 0.012877775072222899 0 -0.025028316655578361 0.013107535626656973 0 -0.025228949492558939 0.013277844910060043 0 -0.025569778709861185 0.012857859342935226 0 -0.025193866461620557 0.012877775072222899 0 -0.018215229099531133 0.012079481832834534 0 -0.01822502377318979 0.012067161585450438 0 -0.018187262405188549 0.011930659106976594 0 -0.022403974205869669 0.015566414934960101 0 -0.022745166355753299 0.015601260243383661 0 -0.022456157580376172 0.015825916687112158 0 -0.019895243433028637 0.014049235942007236 0 -0.021768325212256676 0.012985711291703171 0 -0.01822502377318979 0.012067161585450438 0 -0.018238882410373532 0.011984749168998292 0 -0.018187262405188549 0.011930659106976594 0 -0.019390087250443413 0.013224175471223723 0 -0.016159096484444632 0.010579311680871369 0 -0.017430265826944877 0.012368855109840558 0 -0.017885494952798085 0.011604007988359803 0 -0.017092565962187677 0.012029213561320164 0 -0.01822502377318979 0.012067161585450438 0 -0.018238882410373532 0.011984749168998292 0 -0.018312498008190414 0.011947970938182799 0 -0.01917639221345005 0.013651901711641141 0 -0.016275365359064917 0.011021576294673666 0 -0.018182167753019562 0.011711001432916378 0 -0.017430265826944877 0.012368855109840558 0 -0.017885494952798085 0.011604007988359803 0 -0.01917639221345005 0.013651901711641141 0 -0.018965409863309978 0.014460452253562992 0 -0.020374130260002666 0.016002076724138597 0 -0.020627109984268092 0.016509636951343807 0 -0.019719879420966136 0.016148200264914384 0 -0.019390087250443413 0.013224175471223723 0 -0.01917639221345005 0.013651901711641141 0 -0.020374130260002666 0.016002076724138597 0 -0.020933010917387959 0.016168992751880412 0 -0.020627109984268092 0.016509636951343807 0 -0.01743233657891375 0.012198553210229614 0 -0.017578086791816893 0.012919418727431974 0 -0.017059931660903509 0.012401508223420924 0 -0.01832647830987727 0.012516187468221945 0 -0.01743233657891375 0.012198553210229614 0 -0.017578086791816893 0.012919418727431974 0 -0.016275365359064917 0.011021576294673666 0 -0.015465265240249128 0.010411859735888238 0 -0.014377700897321578 0.008972930519238342 0 -0.014375340535898442 0.0089652892000583635 0 -0.014391196597957663 0.0089596258965627083 0 -0.014377700897321578 0.008972930519238342 0 -0.014391196597957663 0.0089596258965627083 0 -0.014400885772508068 0.0089591810043239996 0 -0.014377700897321578 0.008972930519238342 0 -0.0143784810123506 0.0089750536815544537 0 -0.014400885772508068 0.0089591810043239996 0 -0.014377700897321578 0.008972930519238342 0 -0.014373469260618145 0.0089768271817497868 0 -0.014370329285948363 0.0089686227598710019 0 -0.01613104789119315 0.010970886557488041 0 -0.016275365359064917 0.011021576294673666 0 -0.014355222563139309 0.0089705256385700042 0 -0.014370329285948363 0.0089686227598710019 0 -0.014361402010611557 0.0089633975801106866 0 -0.014355222563139309 0.0089705256385700042 0 -0.014361402010611557 0.0089633975801106866 0 -0.014344415084940391 0.0089618316156848035 0 -0.014355222563139309 0.0089705256385700042 0 -0.014373469260618145 0.0089768271817497868 0 -0.014370329285948363 0.0089686227598710019 0 -0.016159096484444632 0.010579311680871369 0 -0.016275365359064917 0.011021576294673666 0 -0.014370329285948363 0.0089686227598710019 0 -0.014361402010611557 0.0089633975801106866 0 -0.014375340535898442 0.0089652892000583635 0 -0.014375340535898442 0.0089652892000583635 0 -0.014377678407710447 0.0089575325808622219 0 -0.014391196597957663 0.0089596258965627083 0 -0.014377700897321578 0.008972930519238342 0 -0.014370329285948363 0.0089686227598710019 0 -0.014375340535898442 0.0089652892000583635 0 -0.014361402010611557 0.0089633975801106866 0 -0.014375340535898442 0.0089652892000583635 0 -0.014377678407710447 0.0089575325808622219 0 -0.014377678407710447 0.0089575325808622219 0 -0.014364450747457517 0.0089458398876964516 0 -0.014388868650559676 0.0089424519790851521 0 -0.014364450747457517 0.0089458398876964516 0 -0.014369136457426874 0.0089123077320045572 0 -0.014388868650559676 0.0089424519790851521 0 -0.014361402010611557 0.0089633975801106866 0 -0.014377678407710447 0.0089575325808622219 0 -0.014364450747457517 0.0089458398876964516 0 -0.014344415084940391 0.0089618316156848035 0 -0.014329664624618443 0.0089182777115885924 0 -0.01427681525319951 0.0089283713985059965 0 -0.014361402010611557 0.0089633975801106866 0 -0.014364450747457517 0.0089458398876964516 0 -0.014344415084940391 0.0089618316156848035 0 -0.016159096484444632 0.010579311680871369 0 -0.015310549972259791 0.0099933346535468412 0 -0.014364450747457517 0.0089458398876964516 0 -0.014344415084940391 0.0089618316156848035 0 -0.014329664624618443 0.0089182777115885924 0 -0.014329664624618443 0.0089182777115885924 0 -0.014369136457426874 0.0089123077320045572 0 -0.014323177491484252 0.0088692173511134391 0 -0.014329664624618443 0.0089182777115885924 0 -0.014277319546228058 0.0088845526660501807 0 -0.014323177491484252 0.0088692173511134391 0 -0.014364450747457517 0.0089458398876964516 0 -0.014329664624618443 0.0089182777115885924 0 -0.014369136457426874 0.0089123077320045572 0 -0.018238882410373532 0.011984749168998292 0 -0.018312498008190414 0.011947970938182799 0 -0.018230017058881311 0.011859290895277224 0 -0.016159096484444632 0.010579311680871369 0 -0.016576060579314957 0.010183462476364835 0 -0.014302043411224348 0.0090130930815479418 0 -0.014344415084940391 0.0089618316156848035 0 -0.01427681525319951 0.0089283713985059965 0 -0.014302043411224348 0.0090130930815479418 0 -0.01427681525319951 0.0089283713985059965 0 -0.014193427788409938 0.0089183515048540715 0 -0.014277319546228058 0.0088845526660501807 0 -0.01427681525319951 0.0089283713985059965 0 -0.014217009768350615 0.0088756812693097913 0 -0.014329664624618443 0.0089182777115885924 0 -0.014277319546228058 0.0088845526660501807 0 -0.01427681525319951 0.0089283713985059965 0 -0.01427681525319951 0.0089283713985059965 0 -0.014193427788409938 0.0089183515048540715 0 -0.014217009768350615 0.0088756812693097913 0 -0.016576060579314957 0.010183462476364835 0 -0.015506933663360818 0.0099065317881154823 0 -0.014185019959640591 0.0089186793957324439 0 -0.014217009768350615 0.0088756812693097913 0 -0.014153770978594908 0.0088040025627430119 0 -0.014217009768350615 0.0088756812693097913 0 -0.014251065076944507 0.0087993874459772678 0 -0.014153770978594908 0.0088040025627430119 0 -0.014277319546228058 0.0088845526660501807 0 -0.014251065076944507 0.0087993874459772678 0 -0.014323177491484252 0.0088692173511134391 0 -0.014277319546228058 0.0088845526660501807 0 -0.014217009768350615 0.0088756812693097913 0 -0.014251065076944507 0.0087993874459772678 0 -0.014251065076944507 0.0087993874459772678 0 -0.014133590323301417 0.0087266767431307471 0 -0.014153770978594908 0.0088040025627430119 0 -0.014251065076944507 0.0087993874459772678 0 -0.014323177491484252 0.0088692173511134391 0 -0.014386040532411647 0.0087983147556603466 0 -0.014369136457426874 0.0089123077320045572 0 -0.014374243632383083 0.0088667331389269549 0 -0.014323177491484252 0.0088692173511134391 0 -0.014374243632383083 0.0088667331389269549 0 -0.014323177491484252 0.0088692173511134391 0 -0.014386040532411647 0.0087983147556603466 0 -0.014386040532411647 0.0087983147556603466 0 -0.014303764621951888 0.0086849433330777187 0 -0.01441757627167058 0.0086691799574038619 0 -0.014251065076944507 0.0087993874459772678 0 -0.014386040532411647 0.0087983147556603466 0 -0.014303764621951888 0.0086849433330777187 0 -0.014303764621951888 0.0086849433330777187 0 -0.014251837464238476 0.0084504608333655813 0 -0.01441757627167058 0.0086691799574038619 0 -0.014251065076944507 0.0087993874459772678 0 -0.014303764621951888 0.0086849433330777187 0 -0.014133590323301417 0.0087266767431307471 0 -0.014133590323301417 0.0087266767431307471 0 -0.014251837464238476 0.0084504608333655813 0 -0.01401978402419319 0.0084530779161110323 0 -0.014303764621951888 0.0086849433330777187 0 -0.014133590323301417 0.0087266767431307471 0 -0.014251837464238476 0.0084504608333655813 0 -0.014251837464238476 0.0084504608333655813 0 -0.01401978402419319 0.0084530779161110323 0 -0.014075457503976532 0.0082023078984316353 0 -0.014251837464238476 0.0084504608333655813 0 -0.014466816893971517 0.0084480923190512619 0 -0.01441757627167058 0.0086691799574038619 0 -0.016453134996032997 0.003215208058241238 0 -0.017247329351433593 0.0056821747807911122 0 -0.018620798797503689 -0.0013552072853780584 0 -0.019294581887438638 -0.002168741472324522 0 -0.019680823045224616 -0.00013731271081896614 0 -0.018620798797503689 -0.0013552072853780584 0 -0.018571746702476691 -0.00031331031393836572 0 -0.01754157398056707 -0.0015045279010791012 0 -0.018620798797503689 -0.0013552072853780584 0 -0.019294581887438638 -0.002168741472324522 0 -0.018056665289667914 -0.0026131150826904288 0 -0.013713318061743701 0.0081999271962777502 0 -0.01401978402419319 0.0084530779161110323 0 -0.014075457503976532 0.0082023078984316353 0 -0.013713318061743701 0.0081999271962777502 0 -0.01401978402419319 0.0084530779161110323 0 -0.013834714269771725 0.0086844962213977299 0 -0.014133590323301417 0.0087266767431307471 0 -0.01401978402419319 0.0084530779161110323 0 -0.013834714269771725 0.0086844962213977299 0 -0.014133590323301417 0.0087266767431307471 0 -0.014104033321107047 0.0087199788542541515 0 -0.014153770978594908 0.0088040025627430119 0 -0.013355013685516457 0.008265360804131483 0 -0.017247329351433593 0.0056821747807911122 0 -0.017247329351433593 0.0056821747807911122 0 -0.022690210803764717 0.0057619552127052493 0 -0.02067211692969341 0.0071111957657677867 0 -0.019854273588348376 0.0069882698478227149 0 -0.020809216342810202 0.0080026625437384022 0 -0.018620798797503689 -0.0013552072853780584 0 -0.019680823045224616 -0.00013731271081896614 0 -0.018571746702476691 -0.00031331031393836572 0 -0.022690210803764717 0.0057619552127052493 0 -0.020615888429542872 0.010547619879336579 0 -0.025211607010299432 0.012068658218731433 0 -0.025503596729783824 0.012402722162586158 0 -0.025279486472756591 0.01258942121935663 0 -0.025211607010299432 0.012068658218731433 0 -0.025279486472756591 0.01258942121935663 0 -0.024995082648965394 0.012480043137680448 0 -0.014104033321107047 0.0087199788542541515 0 -0.014153770978594908 0.0088040025627430119 0 -0.014112094317389957 0.0088181331332155555 0 -0.017247329351433593 0.0056821747807911122 0 -0.020615888429542872 0.010547619879336579 0 -0.016576060579314957 0.010183462476364835 0 -0.020615888429542872 0.010547619879336579 0 -0.014185019959640591 0.0089186793957324439 0 -0.014153770978594908 0.0088040025627430119 0 -0.014112094317389957 0.0088181331332155555 0 -0.02022725880340237 0.011240977234545453 0 -0.019845152824663509 0.010843795003887316 0 -0.019960256318069025 0.011565761538199349 0 -0.020615888429542872 0.010547619879336579 0 -0.021768325212256676 0.012985711291703171 0 -0.018238882410373532 0.011984749168998292 0 -0.018230017058881311 0.011859290895277224 0 -0.018187262405188549 0.011930659106976594 0 -0.025503596729783824 0.012402722162586158 0 -0.025569778709861185 0.012857859342935226 0 -0.025279486472756591 0.01258942121935663 0 -0.016576060579314957 0.010183462476364835 0 -0.021768325212256676 0.012985711291703171 0 -0.025279486472756591 0.01258942121935663 0 -0.025193866461620557 0.012877775072222899 0 -0.024995082648965394 0.012480043137680448 0 -0.025569778709861185 0.012857859342935226 0 -0.025279486472756591 0.01258942121935663 0 -0.025193866461620557 0.012877775072222899 0 -0.025193866461620557 0.012877775072222899 0 -0.024897222477067115 0.012800001249875556 0 -0.024995082648965394 0.012480043137680448 0 -0.024897222477067115 0.012800001249875556 0 -0.024759062949974632 0.012554757859264278 0 -0.024995082648965394 0.012480043137680448 0 -0.024897222477067115 0.012800001249875556 0 -0.024629217789621564 0.012727674158872179 0 -0.024759257265307307 0.013045612517176626 0 -0.024897222477067115 0.012800001249875556 0 -0.024629217789621564 0.012727674158872179 0 -0.024759062949974632 0.012554757859264278 0 -0.024629217789621564 0.012727674158872179 0 -0.024613356767528228 0.01245523755876121 0 -0.024759062949974632 0.012554757859264278 0 -0.024613356767528228 0.01245523755876121 0 -0.024759062949974632 0.012554757859264278 0 -0.024746397010792089 0.012310372064872684 0 -0.024759062949974632 0.012554757859264278 0 -0.024746397010792089 0.012310372064872684 0 -0.024995082648965394 0.012480043137680448 0 -0.024613356767528228 0.01245523755876121 0 -0.024746397010792089 0.012310372064872684 0 -0.024567644382580908 0.012236811459915998 0 -0.025211607010299432 0.012068658218731433 0 -0.024995082648965394 0.012480043137680448 0 -0.024863418099570725 0.012153793752160363 0 -0.024746397010792089 0.012310372064872684 0 -0.024995082648965394 0.012480043137680448 0 -0.024863418099570725 0.012153793752160363 0 -0.024251840453177138 0.0029703603996546601 0 -0.02248905748038596 0.0027032761969713209 0 -0.023435006206535925 0.0020952225163387867 0 -0.025211607010299432 0.012068658218731433 0 -0.024863418099570725 0.012153793752160363 0 -0.024663760732479719 0.011972310013373285 0 -0.022690210803764717 0.0057619552127052493 0 -0.024372084596338522 0.0085515196933262823 0 -0.022690210803764717 0.0057619552127052493 0 -0.020142780545392088 -0.00012042994031346846 0 -0.02558434998411796 0.011945072471025392 0 -0.024372084596338522 0.0085515196933262823 0 -0.024746397010792089 0.012310372064872684 0 -0.024863418099570725 0.012153793752160363 0 -0.024688897900332293 0.012002891727510392 0 -0.024746397010792089 0.012310372064872684 0 -0.024567644382580908 0.012236811459915998 0 -0.024688897900332293 0.012002891727510392 0 -0.024567644382580908 0.012236811459915998 0 -0.024688897900332293 0.012002891727510392 0 -0.024482988162075892 0.011969014098210924 0 -0.024372084596338522 0.0085515196933262823 0 -0.025124502703042752 0.0096117848415887951 0 -0.024944510518989896 0.0076566262891062907 0 -0.025361452925815629 0.0079655500161229329 0 -0.025420707704574583 0.0077157898179513835 0 -0.024372084596338522 0.0085515196933262823 0 -0.025394868426775952 0.0044250732057353479 0 -0.02248905748038596 0.0027032761969713209 0 -0.022515330792972223 0.0019142726362122323 0 -0.023435006206535925 0.0020952225163387867 0 -0.02248905748038596 0.0027032761969713209 0 -0.022515330792972223 0.0019142726362122323 0 -0.021917941585532327 0.0022446302164065659 0 -0.022515330792972223 0.0019142726362122323 0 -0.022609981193353019 0.0012050483347810876 0 -0.022119554362018356 0.001316237611258626 0 -0.022515330792972223 0.0019142726362122323 0 -0.021917941585532327 0.0022446302164065659 0 -0.022119554362018356 0.001316237611258626 0 -0.01754157398056707 -0.0015045279010791012 0 -0.016922230281677837 -0.002739669537277781 0 -0.016635954180991341 -0.0026781053646108138 0 -0.022515330792972223 0.0019142726362122323 0 -0.023435006206535925 0.0020952225163387867 0 -0.022609981193353019 0.0012050483347810876 0 -0.020142780545392088 -0.00012042994031346846 0 -0.019216732085399361 -0.0016365761153676638 0 -0.01754157398056707 -0.0015045279010791012 0 -0.017430215276137563 -0.0024653789689058122 0 -0.016922230281677837 -0.002739669537277781 0 -0.01754157398056707 -0.0015045279010791012 0 -0.018056665289667914 -0.0026131150826904288 0 -0.017430215276137563 -0.0024653789689058122 0 -0.018620798797503689 -0.0013552072853780584 0 -0.01754157398056707 -0.0015045279010791012 0 -0.018056665289667914 -0.0026131150826904288 0 -0.028730498437408891 0.0054208527406304557 0 -0.027249162138409545 0.0083572264136405894 0 -0.025788026806659682 0.012919476473219078 0 -0.026127036170197283 0.013115685337434846 0 -0.025412157575570856 0.013037934403034829 0 -0.031347944920999599 0.0031683070137440445 0 -0.028225123436519242 0.0038973078817873983 0 -0.02984049856058282 0.0021962158878002995 0 -0.025788026806659682 0.012919476473219078 0 -0.026062478884462538 0.012580003731296965 0 -0.025361675103885678 0.012844791072987553 0 -0.025590390801066332 0.011663836609980655 0 -0.025624869702886289 0.013116796007010004 0 -0.028730498437408891 0.0054208527406304557 0 -0.025590390801066332 0.011663836609980655 0 -0.027019080752674621 0.0067086256323022099 0 -0.026973658582363367 0.0066866815675860718 0 -0.026999005645235181 0.0066766900587767949 0 -0.025788026806659682 0.012919476473219078 0 -0.026062478884462538 0.012580003731296965 0 -0.026127036170197283 0.013115685337434846 0 -0.028730498437408891 0.0054208527406304557 0 -0.029036277520682444 0.0041772844653625452 0 -0.031347944920999599 0.0031683070137440445 0 -0.03123124687605814 0.0023820598454665095 0 -0.02984049856058282 0.0021962158878002995 0 -0.031341822419777537 0.0031579917816440903 0 -0.032298651971268896 0.0029437761400899491 0 -0.03123124687605814 0.0023820598454665095 0 -0.028730498437408891 0.0054208527406304557 0 -0.031001122482333419 0.00033340978133050448 0 -0.027724168680811224 0.00023209395967234531 0 -0.02747911725294205 6.88152982661791e-05 0 -0.027425671358862598 0.00028248833289515991 0 -0.027019080752674621 0.0067086256323022099 0 -0.026998345768350532 0.006709114466765545 0 -0.026973658582363367 0.0066866815675860718 0 -0.031001122482333419 0.00033340978133050448 0 -0.026235537942270636 -0.0040576057741448105 0 -0.025394868426775952 0.0044250732057353479 0 -0.026235537942270636 -0.0040576057741448105 0 -0.026921881715629137 0.0066768314885393143 0 -0.026973658582363367 0.0066866815675860718 0 -0.026925475573453046 0.0066599819934657191 0 -0.026973658582363367 0.0066866815675860718 0 -0.026925475573453046 0.0066599819934657191 0 -0.026999005645235181 0.0066766900587767949 0 -0.031001122482333419 0.00033340978133050448 0 -0.025394868426775952 0.0044250732057353479 0 -0.026998345768350532 0.006709114466765545 0 -0.026921881715629137 0.0066768314885393143 0 -0.026973658582363367 0.0066866815675860718 0 -0.02461425135312801 0.011716281217983626 0 -0.024344517228968594 0.012082332501611205 0 -0.024127515765086389 0.011653456726854677 0 -0.024567644382580908 0.012236811459915998 0 -0.024482988162075892 0.011969014098210924 0 -0.024388886443998063 0.012496344992026252 0 -0.02461425135312801 0.011716281217983626 0 -0.024344517228968594 0.012082332501611205 0 -0.024388886443998063 0.012496344992026252 0 -0.025124502703042752 0.0096117848415887951 0 -0.025590390801066332 0.011663836609980655 0 -0.025124502703042752 0.0096117848415887951 0 -0.024170130823878061 0.013386430501680603 0 -0.024344517228968594 0.012082332501611205 0 -0.024127515765086389 0.011653456726854677 0 -0.024240606351388048 0.012452575234932078 0 -0.025394868426775952 0.0044250732057353479 0 -0.025124502703042752 0.0096117848415887951 0 -0.025578558203529844 0.013440583543079667 0 -0.025707112763609426 0.013187981886281213 0 -0.025611906847452508 0.013617371222044672 0 -0.025590390801066332 0.011663836609980655 0 -0.024856156667440857 0.013169821219828265 0 -0.025707112763609426 0.013187981886281213 0 -0.025516527279485387 0.01322975490707845 0 -0.025412157575570856 0.013037934403034829 0 -0.025578558203529844 0.013440583543079667 0 -0.025707112763609426 0.013187981886281213 0 -0.025571867766753922 0.013310142102276743 0 -0.025707112763609426 0.013187981886281213 0 -0.025516527279485387 0.01322975490707845 0 -0.025571867766753922 0.013310142102276743 0 -0.025571867766753922 0.013310142102276743 0 -0.025530497477262642 0.013400217242251541 0 -0.02547434922772767 0.013363537808499661 0 -0.025516527279485387 0.01322975490707845 0 -0.025571867766753922 0.013310142102276743 0 -0.02547434922772767 0.013363537808499661 0 -0.025578558203529844 0.013440583543079667 0 -0.025571867766753922 0.013310142102276743 0 -0.025530497477262642 0.013400217242251541 0 -0.025578558203529844 0.013440583543079667 0 -0.025530497477262642 0.013400217242251541 0 -0.025492891697422609 0.013483118583586747 0 -0.025530497477262642 0.013400217242251541 0 -0.025492891697422609 0.013483118583586747 0 -0.02547434922772767 0.013363537808499661 0 -0.025578558203529844 0.013440583543079667 0 -0.025517635416836479 0.013530563359368315 0 -0.025542335051086336 0.013574872457163878 0 -0.025492891697422609 0.013483118583586747 0 -0.025475018107967005 0.013572268244538287 0 -0.02543674925307602 0.013559935600587875 0 -0.025492891697422609 0.013483118583586747 0 -0.025517635416836479 0.013530563359368315 0 -0.025475018107967005 0.013572268244538287 0 -0.025578558203529844 0.013440583543079667 0 -0.025492891697422609 0.013483118583586747 0 -0.025517635416836479 0.013530563359368315 0 -0.025578558203529844 0.013440583543079667 0 -0.025542335051086336 0.013574872457163878 0 -0.025611906847452508 0.013617371222044672 0 -0.025542335051086336 0.013574872457163878 0 -0.025533132783823468 0.013643649205912737 0 -0.025501621558832996 0.013610626922291456 0 -0.025542335051086336 0.013574872457163878 0 -0.025533132783823468 0.013643649205912737 0 -0.025611906847452508 0.013617371222044672 0 -0.025533132783823468 0.013643649205912737 0 -0.025501621558832996 0.013610626922291456 0 -0.025493494571274564 0.013667237171719361 0 -0.025501621558832996 0.013610626922291456 0 -0.025464159283546371 0.013648118501189041 0 -0.025493494571274564 0.013667237171719361 0 -0.025475018107967005 0.013572268244538287 0 -0.025501621558832996 0.013610626922291456 0 -0.025464159283546371 0.013648118501189041 0 -0.025517635416836479 0.013530563359368315 0 -0.025542335051086336 0.013574872457163878 0 -0.025501621558832996 0.013610626922291456 0 -0.025517635416836479 0.013530563359368315 0 -0.025475018107967005 0.013572268244538287 0 -0.025501621558832996 0.013610626922291456 0 -0.024613356767528228 0.01245523755876121 0 -0.024567644382580908 0.012236811459915998 0 -0.024388886443998063 0.012496344992026252 0 -0.024344517228968594 0.012082332501611205 0 -0.024388886443998063 0.012496344992026252 0 -0.024240606351388048 0.012452575234932078 0 -0.024629217789621564 0.012727674158872179 0 -0.024613356767528228 0.01245523755876121 0 -0.024388886443998063 0.012496344992026252 0 -0.024629217789621564 0.012727674158872179 0 -0.024388886443998063 0.012496344992026252 0 -0.024393737746648235 0.013034162768471472 0 -0.024856156667440857 0.013169821219828265 0 -0.024840028320349435 0.013357894590447507 0 -0.024388886443998063 0.012496344992026252 0 -0.024240606351388048 0.012452575234932078 0 -0.024393737746648235 0.013034162768471472 0 -0.025611906847452508 0.013617371222044672 0 -0.025413474611390784 0.013754548732135859 0 -0.025292003203453425 0.013818855971290128 0 -0.025533132783823468 0.013643649205912737 0 -0.025611906847452508 0.013617371222044672 0 -0.025413474611390784 0.013754548732135859 0 -0.025466811534869512 0.013699084385060954 0 -0.025464159283546371 0.013648118501189041 0 -0.025465994764699591 0.013708601391342204 0 -0.025466811534869512 0.013699084385060954 0 -0.025464159283546371 0.013648118501189041 0 -0.025493494571274564 0.013667237171719361 0 -0.025533132783823468 0.013643649205912737 0 -0.025493494571274564 0.013667237171719361 0 -0.025413474611390784 0.013754548732135859 0 -0.025466811534869512 0.013699084385060954 0 -0.025493494571274564 0.013667237171719361 0 -0.025413474611390784 0.013754548732135859 0 -0.025413474611390784 0.013754548732135859 0 -0.025465994764699591 0.013708601391342204 0 -0.025457286268312469 0.013734150992931385 0 -0.025466811534869512 0.013699084385060954 0 -0.025413474611390784 0.013754548732135859 0 -0.025465994764699591 0.013708601391342204 0 -0.025413474611390784 0.013754548732135859 0 -0.025457286268312469 0.013734150992931385 0 -0.025424937798932526 0.01375194970990911 0 -0.02535276361723383 0.013763218188824413 0 -0.025237967224944962 0.013686948553401369 0 -0.025292003203453425 0.013818855971290128 0 -0.025413474611390784 0.013754548732135859 0 -0.025424937798932526 0.01375194970990911 0 -0.02535276361723383 0.013763218188824413 0 -0.025413474611390784 0.013754548732135859 0 -0.02535276361723383 0.013763218188824413 0 -0.025292003203453425 0.013818855971290128 0 -0.025424937798932526 0.01375194970990911 0 -0.02535276361723383 0.013763218188824413 0 -0.025430085462121641 0.013740932001575442 0 -0.02535276361723383 0.013763218188824413 0 -0.025430085462121641 0.013740932001575442 0 -0.02540026639685624 0.013725732466357948 0 -0.025430085462121641 0.013740932001575442 0 -0.02540026639685624 0.013725732466357948 0 -0.025492404125514543 0.013730809702579255 0 -0.02540026639685624 0.013725732466357948 0 -0.025237967224944962 0.013686948553401369 0 -0.025536975229630474 0.013678307987764969 0 -0.02535276361723383 0.013763218188824413 0 -0.02540026639685624 0.013725732466357948 0 -0.025237967224944962 0.013686948553401369 0 -0.025237967224944962 0.013686948553401369 0 -0.024723378880549863 0.013546113308144999 0 -0.025193226468487293 0.013550881121547349 0 -0.025237967224944962 0.013686948553401369 0 -0.025193226468487293 0.013550881121547349 0 -0.025536975229630474 0.013678307987764969 0 -0.024723378880549863 0.013546113308144999 0 -0.024393737746648235 0.013034162768471472 0 -0.024722509777404741 0.013372968857443804 0 -0.024742850929245261 0.013511420437481887 0 -0.024840028320349435 0.013357894590447507 0 -0.025237967224944962 0.013686948553401369 0 -0.024723378880549863 0.013546113308144999 0 -0.025292003203453425 0.013818855971290128 0 -0.024723378880549863 0.013546113308144999 0 -0.024722509777404741 0.013372968857443804 0 -0.024616713577760078 0.013533868555447822 0 -0.024629217789621564 0.012727674158872179 0 -0.024393737746648235 0.013034162768471472 0 -0.024759257265307307 0.013045612517176626 0 -0.024393737746648235 0.013034162768471472 0 -0.024759257265307307 0.013045612517176626 0 -0.024722509777404741 0.013372968857443804 0 -0.024759257265307307 0.013045612517176626 0 -0.024722509777404741 0.013372968857443804 0 -0.024865680670523308 0.013269383126231823 0 -0.025193866461620557 0.012877775072222899 0 -0.024897222477067115 0.012800001249875556 0 -0.025028316655578361 0.013107535626656973 0 -0.024897222477067115 0.012800001249875556 0 -0.024759257265307307 0.013045612517176626 0 -0.025028316655578361 0.013107535626656973 0 -0.024759257265307307 0.013045612517176626 0 -0.025028316655578361 0.013107535626656973 0 -0.024865680670523308 0.013269383126231823 0 -0.024307904312778149 0.014575504377188585 0 -0.024052407632137653 0.014373523219233433 0 -0.025228949492558939 0.013277844910060043 0 -0.024970256470651628 0.013342596334359825 0 -0.024934045533694799 0.013596210549567557 0 -0.024970256470651628 0.013342596334359825 0 -0.024793843770893852 0.013438965192242037 0 -0.024934045533694799 0.013596210549567557 0 -0.025228949492558939 0.013277844910060043 0 -0.025028316655578361 0.013107535626656973 0 -0.024970256470651628 0.013342596334359825 0 -0.025028316655578361 0.013107535626656973 0 -0.024970256470651628 0.013342596334359825 0 -0.024865680670523308 0.013269383126231823 0 -0.024970256470651628 0.013342596334359825 0 -0.024865680670523308 0.013269383126231823 0 -0.024793843770893852 0.013438965192242037 0 -0.024722509777404741 0.013372968857443804 0 -0.024793843770893852 0.013438965192242037 0 -0.024616713577760078 0.013533868555447822 0 -0.024722509777404741 0.013372968857443804 0 -0.024865680670523308 0.013269383126231823 0 -0.024793843770893852 0.013438965192242037 0 -0.024793843770893852 0.013438965192242037 0 -0.024616713577760078 0.013533868555447822 0 -0.024668342342234067 0.013616635923113962 0 -0.024616713577760078 0.013533868555447822 0 -0.024668342342234067 0.013616635923113962 0 -0.024272590746988957 0.013981805335099603 0 -0.024793843770893852 0.013438965192242037 0 -0.024668342342234067 0.013616635923113962 0 -0.024934045533694799 0.013596210549567557 0 -0.022630739275265762 0.015343980415089171 0 -0.0232714514786177 0.015234712600194836 0 -0.023294820532420227 0.014905700864349267 0 -0.02228073336948521 0.015473192180754314 0 -0.022821596503701393 0.014981042825682363 0 -0.023294820532420227 0.014905700864349267 0 -0.022107989309040302 0.015338471478810361 0 -0.023389282436159429 0.014924377322153983 0 -0.0232714514786177 0.015234712600194836 0 -0.023294820532420227 0.014905700864349267 0 -0.023581432208657469 0.014518324845959376 0 -0.022520199018603537 0.015433452768390045 0 -0.023368707805027294 0.014499126770030683 0 -0.022534914833807148 0.014660982753647224 0 -0.022821596503701393 0.014981042825682363 0 -0.023294820532420227 0.014905700864349267 0 -0.023368707805027294 0.014499126770030683 0 -0.022638999069191552 0.015215821451354888 0 -0.023296887691413377 0.014587297120237609 0 -0.023294820532420227 0.014905700864349267 0 -0.023368707805027294 0.014499126770030683 0 -0.023581432208657469 0.014518324845959376 0 -0.022921897947846527 0.014105916809200331 0 -0.023368707805027294 0.014499126770030683 0 -0.022534914833807148 0.014660982753647224 0 -0.0232714514786177 0.015234712600194836 0 -0.023581432208657469 0.014518324845959376 0 -0.024272590746988957 0.013981805335099603 0 -0.024668342342234067 0.013616635923113962 0 -0.024934045533694799 0.013596210549567557 0 -0.024272590746988957 0.013981805335099603 0 -0.024052407632137653 0.014373523219233433 0 -0.024299040107483256 0.014016002728513657 0 -0.023699551994134042 0.014036187912384557 0 -0.023368707805027294 0.014499126770030683 0 -0.023581432208657469 0.014518324845959376 0 -0.023699551994134042 0.014036187912384557 0 -0.023581432208657469 0.014518324845959376 0 -0.024272590746988957 0.013981805335099603 0 -0.024745440965821697 0.012353517846086664 0 -0.024403074565195061 0.013655373261318965 0 -0.025064166091341444 0.012992654506004436 0 -0.02437669156785336 0.013026273846304778 0 -0.024432569182799967 0.013622488886181436 0 -0.024336680021894805 0.013871819949716438 0 -0.024272590746988957 0.013981805335099603 0 -0.024403074565195061 0.013655373261318965 0 -0.024616713577760078 0.013533868555447822 0 -0.024272590746988957 0.013981805335099603 0 -0.024403074565195061 0.013655373261318965 0 -0.024403074565195061 0.013655373261318965 0 -0.025064166091341444 0.012992654506004436 0 -0.025070611420394739 0.013375667549607707 0 -0.025348513844395747 0.01244601907827711 0 -0.025064166091341444 0.012992654506004436 0 -0.025572155591359509 0.012996977239684671 0 -0.025064166091341444 0.012992654506004436 0 -0.025070611420394739 0.013375667549607707 0 -0.025572155591359509 0.012996977239684671 0 -0.025070611420394739 0.013375667549607707 0 -0.025193226468487293 0.013550881121547349 0 -0.024721850210491801 0.013532488853744733 0 -0.025070611420394739 0.013375667549607707 0 -0.025552485400990418 0.013478870403480515 0 -0.025572155591359509 0.012996977239684671 0 -0.025070611420394739 0.013375667549607707 0 -0.025193226468487293 0.013550881121547349 0 -0.025552485400990418 0.013478870403480515 0 -0.024403074565195061 0.013655373261318965 0 -0.025070611420394739 0.013375667549607707 0 -0.024721850210491801 0.013532488853744733 0 -0.024723378880549863 0.013546113308144999 0 -0.025193226468487293 0.013550881121547349 0 -0.024721850210491801 0.013532488853744733 0 -0.024723378880549863 0.013546113308144999 0 -0.024616713577760078 0.013533868555447822 0 -0.024721850210491801 0.013532488853744733 0 -0.024616713577760078 0.013533868555447822 0 -0.024403074565195061 0.013655373261318965 0 -0.024721850210491801 0.013532488853744733 0 -0.029827487561710192 0.0096209449472152118 0 -0.029840452963560766 0.0096862758412670658 0 -0.02600422111894779 0.013256261229665575 0 -0.026193893537434464 0.013604774211186142 0 -0.025781740584567631 0.013653688541642919 0 -0.02600422111894779 0.013256261229665575 0 -0.026842155673487272 0.013114770689080986 0 -0.026193893537434464 0.013604774211186142 0 -0.02600422111894779 0.013256261229665575 0 -0.025552485400990418 0.013478870403480515 0 -0.025781740584567631 0.013653688541642919 0 -0.02600422111894779 0.013256261229665575 0 -0.025552485400990418 0.013478870403480515 0 -0.025572155591359509 0.012996977239684671 0 -0.025193226468487293 0.013550881121547349 0 -0.025552485400990418 0.013478870403480515 0 -0.025536975229630474 0.013678307987764969 0 -0.02600422111894779 0.013256261229665575 0 -0.025572155591359509 0.012996977239684671 0 -0.026180481499180664 0.012751247712964039 0 -0.025878029347015327 0.0123749015451141 0 -0.025572155591359509 0.012996977239684671 0 -0.026180481499180664 0.012751247712964039 0 -0.026180481499180664 0.012751247712964039 0 -0.026842155673487272 0.013114770689080986 0 -0.026730969169558565 0.012617472904375026 0 -0.02600422111894779 0.013256261229665575 0 -0.026180481499180664 0.012751247712964039 0 -0.026842155673487272 0.013114770689080986 0 -0.034139619331388066 0.0050479890117291369 0 -0.033574835844116829 0.005638300097893241 0 -0.034207720521299008 0.0055726924506324807 0 -0.034047662479004516 0.0088294077959102588 0 -0.029827487561710192 0.0096209449472152118 0 -0.02745065683489727 0.012465287298665773 0 -0.026842155673487272 0.013114770689080986 0 -0.026730969169558565 0.012617472904375026 0 -0.034139619331388066 0.0050479890117291369 0 -0.03427129245239037 0.0050987844645925904 0 -0.034207720521299008 0.0055726924506324807 0 -0.03427129245239037 0.0050987844645925904 0 -0.034207720521299008 0.0055726924506324807 0 -0.0346928255315921 0.0054174139330407283 0 -0.034207720521299008 0.0055726924506324807 0 -0.03464729110706128 0.0060232419781366276 0 -0.033783810019406973 0.0063096841459929602 0 -0.034207720521299008 0.0055726924506324807 0 -0.03464729110706128 0.0060232419781366276 0 -0.0346928255315921 0.0054174139330407283 0 -0.033574835844116829 0.005638300097893241 0 -0.034207720521299008 0.0055726924506324807 0 -0.033783810019406973 0.0063096841459929602 0 -0.033574835844116829 0.005638300097893241 0 -0.033783810019406973 0.0063096841459929602 0 -0.032980104793802215 0.0062635293625072658 0 -0.033783810019406973 0.0063096841459929602 0 -0.033478712372924463 0.0072485638786566053 0 -0.033113022494845733 0.0067524203470885127 0 -0.033783810019406973 0.0063096841459929602 0 -0.034467990709461702 0.0067233347711909194 0 -0.033478712372924463 0.0072485638786566053 0 -0.03464729110706128 0.0060232419781366276 0 -0.033783810019406973 0.0063096841459929602 0 -0.034467990709461702 0.0067233347711909194 0 -0.034467990709461702 0.0067233347711909194 0 -0.034523488779028999 0.0074197091679779918 0 -0.033478712372924463 0.0072485638786566053 0 -0.031712500315220729 0.010843142428623902 0 -0.030657791853626649 0.010353608029166812 0 -0.029138978822228465 0.013906914103564391 0 -0.02727403654115634 0.013566094993635414 0 -0.027994371550236999 0.014340853588791757 0 -0.02727403654115634 0.013566094993635414 0 -0.025638409211800207 0.013798176363619666 0 -0.027111247823559181 0.014916692307660644 0 -0.033478712372924463 0.0072485638786566053 0 -0.033113022494845733 0.0067524203470885127 0 -0.032349004310320714 0.0070155309283346538 0 -0.030657791853626649 0.010353608029166812 0 -0.027574380264394547 0.010982495998730371 0 -0.02727403654115634 0.013566094993635414 0 -0.025563209382545846 0.013417411303580686 0 -0.025638409211800207 0.013798176363619666 0 -0.033783810019406973 0.0063096841459929602 0 -0.033113022494845733 0.0067524203470885127 0 -0.032980104793802215 0.0062635293625072658 0 -0.029840452963560766 0.0096862758412670658 0 -0.027574380264394547 0.010982495998730371 0 -0.026193893537434464 0.013604774211186142 0 -0.025781740584567631 0.013653688541642919 0 -0.0256630875694836 0.013809759382761782 0 -0.033113022494845733 0.0067524203470885127 0 -0.032980104793802215 0.0062635293625072658 0 -0.032349004310320714 0.0070155309283346538 0 -0.025552485400990418 0.013478870403480515 0 -0.025536975229630474 0.013678307987764969 0 -0.025781740584567631 0.013653688541642919 0 -0.025536975229630474 0.013678307987764969 0 -0.025781740584567631 0.013653688541642919 0 -0.025559746331656578 0.013749601398307955 0 -0.025781740584567631 0.013653688541642919 0 -0.025559746331656578 0.013749601398307955 0 -0.0256630875694836 0.013809759382761782 0 -0.025536975229630474 0.013678307987764969 0 -0.025559746331656578 0.013749601398307955 0 -0.025492404125514543 0.013730809702579255 0 -0.02540026639685624 0.013725732466357948 0 -0.025536975229630474 0.013678307987764969 0 -0.025492404125514543 0.013730809702579255 0 -0.025430085462121641 0.013740932001575442 0 -0.025492404125514543 0.013730809702579255 0 -0.025482830882013426 0.013720796566812075 0 -0.025559746331656578 0.013749601398307955 0 -0.025492404125514543 0.013730809702579255 0 -0.025519976072199711 0.013678537218909284 0 -0.025492404125514543 0.013730809702579255 0 -0.025519976072199711 0.013678537218909284 0 -0.025482830882013426 0.013720796566812075 0 -0.025519976072199711 0.013678537218909284 0 -0.025482830882013426 0.013720796566812075 0 -0.025521027812741185 0.013723830540244109 0 -0.025482830882013426 0.013720796566812075 0 -0.025521027812741185 0.013723830540244109 0 -0.02548932676093545 0.01373929492937272 0 -0.025424937798932526 0.01375194970990911 0 -0.025430085462121641 0.013740932001575442 0 -0.025482830882013426 0.013720796566812075 0 -0.025509525346371291 0.013570890810374752 0 -0.025563209382545846 0.013417411303580686 0 -0.025638409211800207 0.013798176363619666 0 -0.027226059737587766 0.011424913371704978 0 -0.027574380264394547 0.010982495998730371 0 -0.025559746331656578 0.013749601398307955 0 -0.025519976072199711 0.013678537218909284 0 -0.025509525346371291 0.013570890810374752 0 -0.026965682727871775 0.011283386600988543 0 -0.027574380264394547 0.010982495998730371 0 -0.025559746331656578 0.013749601398307955 0 -0.025509525346371291 0.013570890810374752 0 -0.025446476004535108 0.013649910893913389 0 -0.025519976072199711 0.013678537218909284 0 -0.025509525346371291 0.013570890810374752 0 -0.025521027812741185 0.013723830540244109 0 -0.025509525346371291 0.013570890810374752 0 -0.025521027812741185 0.013723830540244109 0 -0.025638409211800207 0.013798176363619666 0 -0.025638409211800207 0.013798176363619666 0 -0.025563333313611197 0.013748465436502414 0 -0.025506184960672394 0.013603271693434168 0 -0.025521027812741185 0.013723830540244109 0 -0.025638409211800207 0.013798176363619666 0 -0.025563333313611197 0.013748465436502414 0 -0.025424937798932526 0.01375194970990911 0 -0.025482830882013426 0.013720796566812075 0 -0.02548932676093545 0.01373929492937272 0 -0.025521027812741185 0.013723830540244109 0 -0.025563333313611197 0.013748465436502414 0 -0.02548932676093545 0.01373929492937272 0 -0.025563333313611197 0.013748465436502414 0 -0.02548932676093545 0.01373929492937272 0 -0.025512995883872843 0.013718003241329012 0 -0.025457286268312469 0.013734150992931385 0 -0.02548932676093545 0.01373929492937272 0 -0.025512995883872843 0.013718003241329012 0 -0.025457286268312469 0.013734150992931385 0 -0.025424937798932526 0.01375194970990911 0 -0.02548932676093545 0.01373929492937272 0 -0.025457286268312469 0.013734150992931385 0 -0.025478007310171819 0.013712684898592472 0 -0.025512995883872843 0.013718003241329012 0 -0.025465994764699591 0.013708601391342204 0 -0.025478007310171819 0.013712684898592472 0 -0.025469354788940881 0.013664411374839943 0 -0.025465994764699591 0.013708601391342204 0 -0.025457286268312469 0.013734150992931385 0 -0.025478007310171819 0.013712684898592472 0 -0.025478007310171819 0.013712684898592472 0 -0.025512995883872843 0.013718003241329012 0 -0.025469354788940881 0.013664411374839943 0 -0.025512995883872843 0.013718003241329012 0 -0.025469354788940881 0.013664411374839943 0 -0.025506184960672394 0.013603271693434168 0 -0.025563333313611197 0.013748465436502414 0 -0.025512995883872843 0.013718003241329012 0 -0.025506184960672394 0.013603271693434168 0 -0.025469354788940881 0.013664411374839943 0 -0.025506184960672394 0.013603271693434168 0 -0.025424126958796804 0.013600361449207909 0 -0.025465994764699591 0.013708601391342204 0 -0.025453139052950338 0.013642108428740075 0 -0.025469354788940881 0.013664411374839943 0 -0.025464159283546371 0.013648118501189041 0 -0.025465994764699591 0.013708601391342204 0 -0.025453139052950338 0.013642108428740075 0 -0.025453139052950338 0.013642108428740075 0 -0.025469354788940881 0.013664411374839943 0 -0.025424126958796804 0.013600361449207909 0 -0.025638409211800207 0.013798176363619666 0 -0.025506184960672394 0.013603271693434168 0 -0.025193472101175982 0.01341986991564567 0 -0.025702348929335986 0.013669417865222678 0 -0.025908602233622503 0.014617448635500836 0 -0.025506184960672394 0.013603271693434168 0 -0.025634427472255233 0.013076606587250942 0 -0.025193472101175982 0.01341986991564567 0 -0.025506184960672394 0.013603271693434168 0 -0.025634427472255233 0.013076606587250942 0 -0.02614530213641449 0.012608409367810765 0 -0.025630699706380232 0.01322597927595119 0 -0.025487415228257402 0.013814063583572947 0 -0.025366300606230432 0.012963087415724554 0 -0.025634427472255233 0.013076606587250942 0 -0.025193472101175982 0.01341986991564567 0 -0.025366300606230432 0.012963087415724554 0 -0.025634427472255233 0.013076606587250942 0 -0.025445764370707235 0.012663272815869082 0 -0.025634427472255233 0.013076606587250942 0 -0.025771607905993702 0.012695466419587395 0 -0.025445764370707235 0.012663272815869082 0 -0.025771607905993702 0.012695466419587395 0 -0.025445764370707235 0.012663272815869082 0 -0.0258224608691483 0.012447503822397923 0 -0.025634427472255233 0.013076606587250942 0 -0.025771607905993702 0.012695466419587395 0 -0.02614530213641449 0.012608409367810765 0 -0.025771607905993702 0.012695466419587395 0 -0.02614530213641449 0.012608409367810765 0 -0.0258224608691483 0.012447503822397923 0 -0.025366300606230432 0.012963087415724554 0 -0.025445764370707235 0.012663272815869082 0 -0.025088057942852408 0.012725869915026271 0 -0.025506184960672394 0.013603271693434168 0 -0.025424126958796804 0.013600361449207909 0 -0.025309999591926736 0.013534660447056332 0 -0.025436037798081717 0.01360015455600596 0 -0.025424126958796804 0.013600361449207909 0 -0.025395054046664034 0.013558509017398803 0 -0.025436037798081717 0.01360015455600596 0 -0.025395054046664034 0.013558509017398803 0 -0.02543674925307602 0.013559935600587875 0 -0.025475018107967005 0.013572268244538287 0 -0.025436037798081717 0.01360015455600596 0 -0.02543674925307602 0.013559935600587875 0 -0.025464159283546371 0.013648118501189041 0 -0.025453139052950338 0.013642108428740075 0 -0.025436037798081717 0.01360015455600596 0 -0.025475018107967005 0.013572268244538287 0 -0.025464159283546371 0.013648118501189041 0 -0.025436037798081717 0.01360015455600596 0 -0.025453139052950338 0.013642108428740075 0 -0.025436037798081717 0.01360015455600596 0 -0.025424126958796804 0.013600361449207909 0 -0.025424126958796804 0.013600361449207909 0 -0.025309999591926736 0.013534660447056332 0 -0.025395054046664034 0.013558509017398803 0 -0.025309999591926736 0.013534660447056332 0 -0.025377892404605421 0.013506191754548312 0 -0.025395781328333041 0.013423770660813935 0 -0.025309999591926736 0.013534660447056332 0 -0.025377892404605421 0.013506191754548312 0 -0.025395054046664034 0.013558509017398803 0 -0.025377892404605421 0.013506191754548312 0 -0.025420740940028556 0.013507605217561586 0 -0.025395054046664034 0.013558509017398803 0 -0.025377892404605421 0.013506191754548312 0 -0.025420740940028556 0.013507605217561586 0 -0.025395781328333041 0.013423770660813935 0 -0.025420740940028556 0.013507605217561586 0 -0.025395054046664034 0.013558509017398803 0 -0.02543674925307602 0.013559935600587875 0 -0.025492891697422609 0.013483118583586747 0 -0.025420740940028556 0.013507605217561586 0 -0.02543674925307602 0.013559935600587875 0 -0.025492891697422609 0.013483118583586747 0 -0.025420740940028556 0.013507605217561586 0 -0.02547434922772767 0.013363537808499661 0 -0.025487415228257402 0.013814063583572947 0 -0.027249162138409545 0.0083572264136405894 0 -0.025309999591926736 0.013534660447056332 0 -0.025421388161988887 0.01329649184078981 0 -0.025412157575570856 0.013037934403034829 0 -0.02614530213641449 0.012608409367810765 0 -0.02597140746148522 0.01137553284882533 0 -0.026759006134178986 0.010635328151529757 0 -0.025309999591926736 0.013534660447056332 0 -0.025361675103885678 0.012844791072987553 0 -0.025412157575570856 0.013037934403034829 0 -0.025420740940028556 0.013507605217561586 0 -0.025395781328333041 0.013423770660813935 0 -0.02547434922772767 0.013363537808499661 0 -0.025395781328333041 0.013423770660813935 0 -0.025421388161988887 0.01329649184078981 0 -0.02547434922772767 0.013363537808499661 0 -0.025516527279485387 0.01322975490707845 0 -0.025421388161988887 0.01329649184078981 0 -0.02547434922772767 0.013363537808499661 0 -0.025516527279485387 0.01322975490707845 0 -0.025421388161988887 0.01329649184078981 0 -0.025412157575570856 0.013037934403034829 0 -0.025309999591926736 0.013534660447056332 0 -0.025395781328333041 0.013423770660813935 0 -0.025421388161988887 0.01329649184078981 0 -0.02614530213641449 0.012608409367810765 0 -0.025833976226444944 0.012029237255485424 0 -0.02597140746148522 0.01137553284882533 0 -0.0258224608691483 0.012447503822397923 0 -0.025833976226444944 0.012029237255485424 0 -0.025366295311172363 0.011673550990330376 0 -0.02614530213641449 0.012608409367810765 0 -0.0258224608691483 0.012447503822397923 0 -0.025833976226444944 0.012029237255485424 0 -0.025272312731244494 0.012736362288036001 0 -0.026641854624104198 0.0093253387108539008 0 -0.025445764370707235 0.012663272815869082 0 -0.0258224608691483 0.012447503822397923 0 -0.024973155625507677 0.012073137041691178 0 -0.0258224608691483 0.012447503822397923 0 -0.025366295311172363 0.011673550990330376 0 -0.024271303568352828 0.011607873062517572 0 -0.025366295311172363 0.011673550990330376 0 -0.024984250145450294 0.011039725617725293 0 -0.024271303568352828 0.011607873062517572 0 -0.025366295311172363 0.011673550990330376 0 -0.02597140746148522 0.01137553284882533 0 -0.024984250145450294 0.011039725617725293 0 -0.025833976226444944 0.012029237255485424 0 -0.025366295311172363 0.011673550990330376 0 -0.02597140746148522 0.01137553284882533 0 -0.02597140746148522 0.01137553284882533 0 -0.024984250145450294 0.011039725617725293 0 -0.026759006134178986 0.010635328151529757 0 -0.028907453283751033 0.0050081628135576449 0 -0.027249162138409545 0.0083572264136405894 0 -0.027565277329048697 0.0045544967895204767 0 -0.029580262465709647 0.002921869147488051 0 -0.030951499547276894 0.0037823614363371532 0 -0.033337355612121623 -0.00070942157803817007 0 -0.03393755678172157 -0.0012032821072094802 0 -0.032948173682564252 -0.0011195278897595464 0 -0.028907453283751033 0.0050081628135576449 0 -0.032107851814598784 0.00057539256878424104 0 -0.029580262465709647 0.002921869147488051 0 -0.030951499547276894 0.0037823614363371532 0 -0.031618764872491781 0.0012552569067215975 0 -0.025788026806659682 0.012919476473219078 0 -0.025361675103885678 0.012844791072987553 0 -0.025412157575570856 0.013037934403034829 0 -0.031954825817517483 -0.00091910651364284174 0 -0.032614655112702708 -0.00055599922268436601 0 -0.032451853561920187 -0.0013555895830403514 0 -0.031872968481335383 0.0011595188114532132 0 -0.030804743426928578 0.0045515569393263068 0 -0.031954825817517483 -0.00091910651364284174 0 -0.031897181858689359 -0.0015348985572575169 0 -0.032451853561920187 -0.0013555895830403514 0 -0.028907453283751033 0.0050081628135576449 0 -0.030804743426928578 0.0045515569393263068 0 -0.033337355612121623 -0.00070942157803817007 0 -0.032948173682564252 -0.0011195278897595464 0 -0.032614655112702708 -0.00055599922268436601 0 -0.032948173682564252 -0.0011195278897595464 0 -0.032614655112702708 -0.00055599922268436601 0 -0.032451853561920187 -0.0013555895830403514 0 -0.028392337518054929 0.0058317010607849499 0 -0.029046413832271085 0.0056955384591937204 0 -0.028751871675745663 0.0055559079004426255 0 -0.029323722050127544 0.0084028226361427694 0 -0.02897122746963094 0.0082410574474935834 0 -0.0296475362372365 0.0077147789222673296 0 -0.024973155625507677 0.012073137041691178 0 -0.024371992874948838 0.012560646923125236 0 -0.025088057942852408 0.012725869915026271 0 -0.030804743426928578 0.0045515569393263068 0 -0.026641854624104198 0.0093253387108539008 0 -0.028907453283751033 0.0050081628135576449 0 -0.026641854624104198 0.0093253387108539008 0 -0.025445764370707235 0.012663272815869082 0 -0.024973155625507677 0.012073137041691178 0 -0.025088057942852408 0.012725869915026271 0 -0.026641854624104198 0.0093253387108539008 0 -0.028661948813361333 0.011235193117543285 0 -0.029323722050127544 0.0084028226361427694 0 -0.0296475362372365 0.0077147789222673296 0 -0.030191910828065431 0.0082046439383514237 0 -0.030804743426928578 0.0045515569393263068 0 -0.031429310250368089 0.0061366975811538542 0 -0.032424829050356929 0.0035805291997980855 0 -0.031617617611843923 0.0032142137060333317 0 -0.032546364138136899 0.0030033392857243793 0 -0.030885062695530867 0.0080589435214945705 0 -0.032314946085034608 0.0079992107937050076 0 -0.031792668142624179 0.0088848452974313093 0 -0.028661948813361333 0.011235193117543285 0 -0.031429310250368089 0.0061366975811538542 0 -0.028661948813361333 0.011235193117543285 0 -0.030727984084949519 0.011481909160320459 0 -0.028634333549041095 0.016293699720591737 0 -0.028495806443919528 0.014962714787348291 0 -0.029835066614936026 0.015387974377059242 0 -0.028661948813361333 0.011235193117543285 0 -0.025908602233622503 0.014617448635500836 0 -0.024371992874948838 0.012560646923125236 0 -0.025088057942852408 0.012725869915026271 0 -0.025193472101175982 0.01341986991564567 0 -0.028634333549041095 0.016293699720591737 0 -0.027111247823559181 0.014916692307660644 0 -0.028495806443919528 0.014962714787348291 0 -0.025366300606230432 0.012963087415724554 0 -0.025088057942852408 0.012725869915026271 0 -0.025193472101175982 0.01341986991564567 0 -0.027111247823559181 0.014916692307660644 0 -0.027994371550236999 0.014340853588791757 0 -0.028495806443919528 0.014962714787348291 0 -0.02727403654115634 0.013566094993635414 0 -0.027111247823559181 0.014916692307660644 0 -0.027994371550236999 0.014340853588791757 0 -0.029138978822228465 0.013906914103564391 0 -0.028495806443919528 0.014962714787348291 0 -0.029835066614936026 0.015387974377059242 0 -0.029138978822228465 0.013906914103564391 0 -0.027994371550236999 0.014340853588791757 0 -0.028495806443919528 0.014962714787348291 0 -0.031712500315220729 0.010843142428623902 0 -0.033892981292943367 0.0092627227373924797 0 -0.029138978822228465 0.013906914103564391 0 -0.03108981250210445 0.014384713572605854 0 -0.029835066614936026 0.015387974377059242 0 -0.033233494539442431 0.0062091526636632527 0 -0.033075419582090183 0.007274786766689397 0 -0.032059461189847989 0.0071308893314236572 0 -0.033892981292943367 0.0092627227373924797 0 -0.030727984084949519 0.011481909160320459 0 -0.034433473296609042 0.0074089714586268989 0 -0.035661161476477465 0.0077659966993640526 0 -0.036243457421118286 0.0060046441093709975 0 -0.033233494539442431 0.0062091526636632527 0 -0.033075419582090183 0.007274786766689397 0 -0.034146377015673655 0.0064687474683175665 0 -0.033892981292943367 0.0092627227373924797 0 -0.035626664733566231 0.0057798152875732966 0 -0.035301989716770545 0.0038563713737377022 0 -0.035626664733566231 0.0057798152875732966 0 -0.033075419582090183 0.007274786766689397 0 -0.032314946085034608 0.0079992107937050076 0 -0.033474765869005794 0.0084878672533483697 0 -0.033075419582090183 0.007274786766689397 0 -0.033474765869005794 0.0084878672533483697 0 -0.034146377015673655 0.0064687474683175665 0 -0.037628809712765811 0.001928614559711923 0 -0.036740704484592789 0.0030644502969797292 0 -0.037101305074255804 0.0037088692554580992 0 -0.030885062695530867 0.0080589435214945705 0 -0.032059461189847989 0.0071308893314236572 0 -0.032314946085034608 0.0079992107937050076 0 -0.033075419582090183 0.007274786766689397 0 -0.032059461189847989 0.0071308893314236572 0 -0.032314946085034608 0.0079992107937050076 0 -0.031429310250368089 0.0061366975811538542 0 -0.035301989716770545 0.0038563713737377022 0 -0.032560777377985975 0.0030204152493031561 0 -0.032814638423969332 0.003250601296037668 0 -0.033592508060823881 0.0027860496829610853 0 -0.032314946085034608 0.0079992107937050076 0 -0.031792668142624179 0.0088848452974313093 0 -0.033474765869005794 0.0084878672533483697 0 -0.031429310250368089 0.0061366975811538542 0 -0.03156161656593863 0.0045676634731067695 0 -0.035301989716770545 0.0038563713737377022 0 -0.034865635899184358 0.00024278350285843704 0 -0.037599618480637025 0.0017773605681670425 0 -0.037140792993893806 0.00046317358303971546 0 -0.038137327942261615 7.9458481683076411e-05 0 -0.037140792993893806 0.00046317358303971546 0 -0.036782386161378577 -0.00025319082431367085 0 -0.037513016972505898 -0.00023944121617054979 0 -0.037140792993893806 0.00046317358303971546 0 -0.038137327942261615 7.9458481683076411e-05 0 -0.037513016972505898 -0.00023944121617054979 0 -0.032424829050356929 0.0035805291997980855 0 -0.032814638423969332 0.003250601296037668 0 -0.033208442984263217 0.0039247559167197681 0 -0.031954825817517483 -0.00091910651364284174 0 -0.031312328531673629 -0.0012575207909814481 0 -0.031897181858689359 -0.0015348985572575169 0 -0.032814638423969332 0.003250601296037668 0 -0.033592508060823881 0.0027860496829610853 0 -0.033208442984263217 0.0039247559167197681 0 -0.031872968481335383 0.0011595188114532132 0 -0.034865635899184358 0.00024278350285843704 0 -0.032424829050356929 0.0035805291997980855 0 -0.032546364138136899 0.0030033392857243793 0 -0.032814638423969332 0.003250601296037668 0 -0.034999965516737945 0.0008522977561662427 0 -0.036243473843866392 0.00024982403758871914 0 -0.03646071920055842 0.001085621466097681 0 -0.034999965516737945 0.0008522977561662427 0 -0.036243473843866392 0.00024982403758871914 0 -0.034999963789935168 -0.00073480424405525922 0 -0.037140792993893806 0.00046317358303971546 0 -0.036243473843866392 0.00024982403758871914 0 -0.036782386161378577 -0.00025319082431367085 0 -0.037140792993893806 0.00046317358303971546 0 -0.036243473843866392 0.00024982403758871914 0 -0.03646071920055842 0.001085621466097681 0 -0.035301989716770545 0.0038563713737377022 0 -0.036793067881467627 0.001964825896680524 0 -0.037599618480637025 0.0017773605681670425 0 -0.036310139055360915 0.0020858370854293417 0 -0.03646071920055842 0.001085621466097681 0 -0.037599618480637025 0.0017773605681670425 0 -0.037140792993893806 0.00046317358303971546 0 -0.03646071920055842 0.001085621466097681 0 -0.034999965516737945 0.0008522977561662427 0 -0.036310139055360915 0.0020858370854293417 0 -0.03646071920055842 0.001085621466097681 0 -0.034999965516737945 0.0008522977561662427 0 -0.036310139055360915 0.0020858370854293417 0 -0.03499997334312855 0.0024392459951161293 0 -0.036340727010322225 0.0021942295446752886 0 -0.035000063939393998 0.0024393807528560862 0 -0.035789581807017766 0.0033564478262861448 0 -0.036793067881467627 0.001964825896680524 0 -0.034999776828176961 0.002439422846896409 0 -0.037628809712765811 0.001928614559711923 0 -0.036340727010322225 0.0021942295446752886 0 -0.036740704484592789 0.0030644502969797292 0 -0.036340727010322225 0.0021942295446752886 0 -0.036740704484592789 0.0030644502969797292 0 -0.035789581807017766 0.0033564478262861448 0 -0.035626664733566231 0.0057798152875732966 0 -0.036518584705632982 0.0058166635419137297 0 -0.037147014112341212 0.0037056754726076963 0 -0.036603762142759316 0.0040598994890625115 0 -0.036670772353627042 0.0051612987463768058 0 -0.036740704484592789 0.0030644502969797292 0 -0.036975072487061569 0.0036659229173845527 0 -0.037101305074255804 0.0037088692554580992 0 -0.036740704484592789 0.0030644502969797292 0 -0.036975072487061569 0.0036659229173845527 0 -0.036428776175506085 0.0035952109102059789 0 -0.036975072487061569 0.0036659229173845527 0 -0.037147014112341212 0.0037056754726076963 0 -0.036603762142759316 0.0040598994890625115 0 -0.035770935035065315 0.0057139030580223718 0 -0.035626664733566231 0.0057798152875732966 0 -0.036975072487061569 0.0036659229173845527 0 -0.036428776175506085 0.0035952109102059789 0 -0.036603762142759316 0.0040598994890625115 0 -0.036740704484592789 0.0030644502969797292 0 -0.036428776175506085 0.0035952109102059789 0 -0.035789581807017766 0.0033564478262861448 0 -0.036428776175506085 0.0035952109102059789 0 -0.035789581807017766 0.0033564478262861448 0 -0.035980212608028826 0.0039620511364195938 0 -0.036428776175506085 0.0035952109102059789 0 -0.036603762142759316 0.0040598994890625115 0 -0.035980212608028826 0.0039620511364195938 0 -0.036603762142759316 0.0040598994890625115 0 -0.035980212608028826 0.0039620511364195938 0 -0.035986761914455399 0.0046747091529621768 0 -0.035000063939393998 0.0024393807528560862 0 -0.035789581807017766 0.0033564478262861448 0 -0.034999762552797714 0.0042470320227880679 0 -0.035789581807017766 0.0033564478262861448 0 -0.035980212608028826 0.0039620511364195938 0 -0.034999762552797714 0.0042470320227880679 0 -0.035980212608028826 0.0039620511364195938 0 -0.034999762552797714 0.0042470320227880679 0 -0.035986761914455399 0.0046747091529621768 0 -0.035986761914455399 0.0046747091529621768 0 -0.035550348899555884 0.0052689393665262176 0 -0.036294325041651615 0.0060972901982481653 0 -0.034999762552797714 0.0042470320227880679 0 -0.035550348899555884 0.0052689393665262176 0 -0.035000141212074266 0.0060543352052209809 0 -0.034999762552797714 0.0042470320227880679 0 -0.035986761914455399 0.0046747091529621768 0 -0.035550348899555884 0.0052689393665262176 0 -0.035550348899555884 0.0052689393665262176 0 -0.035000141212074266 0.0060543352052209809 0 -0.036294325041651615 0.0060972901982481653 0 -0.035000141212074266 0.0060543352052209809 0 -0.036294325041651615 0.0060972901982481653 0 -0.036066699409122403 0.0066534972471450774 0 -0.036100011155499656 0.0064110932109289441 0 -0.036294325041651615 0.0060972901982481653 0 -0.036066699409122403 0.0066534972471450774 0 -0.036100011155499656 0.0064110932109289441 0 -0.036294325041651615 0.0060972901982481653 0 -0.03598210983255154 0.0064704671552274018 0 -0.036603762142759316 0.0040598994890625115 0 -0.035986761914455399 0.0046747091529621768 0 -0.036294325041651615 0.0060972901982481653 0 -0.036294325041651615 0.0060972901982481653 0 -0.036262296000154653 0.0068698294010791855 0 -0.03598210983255154 0.0064704671552274018 0 -0.036603762142759316 0.0040598994890625115 0 -0.036294325041651615 0.0060972901982481653 0 -0.036670772353627042 0.0051612987463768058 0 -0.036355461901823025 0.0061389940630236896 0 -0.036518584705632982 0.0058166635419137297 0 -0.035536712682415768 0.007594758560926629 0 -0.036262296000154653 0.0068698294010791855 0 -0.035692439671610975 0.0069388533595819589 0 -0.035536712682415768 0.007594758560926629 0 -0.035692439671610975 0.0069388533595819589 0 -0.035142314710478274 0.0069266057647715202 0 -0.033892981292943367 0.0092627227373924797 0 -0.036518584705632982 0.0058166635419137297 0 -0.035692439671610975 0.0069388533595819589 0 -0.035142314710478274 0.0069266057647715202 0 -0.035608022938493723 0.0065386080295946197 0 -0.036262296000154653 0.0068698294010791855 0 -0.035692439671610975 0.0069388533595819589 0 -0.03598210983255154 0.0064704671552274018 0 -0.035692439671610975 0.0069388533595819589 0 -0.03598210983255154 0.0064704671552274018 0 -0.035608022938493723 0.0065386080295946197 0 -0.034523488779028999 0.0074197091679779918 0 -0.035536712682415768 0.007594758560926629 0 -0.035142314710478274 0.0069266057647715202 0 -0.034467990709461702 0.0067233347711909194 0 -0.034523488779028999 0.0074197091679779918 0 -0.035142314710478274 0.0069266057647715202 0 -0.034467990709461702 0.0067233347711909194 0 -0.035142314710478274 0.0069266057647715202 0 -0.035027924219109177 0.006375730622778744 0 -0.035027924219109177 0.006375730622778744 0 -0.035608022938493723 0.0065386080295946197 0 -0.035227705633755081 0.0058942328919057915 0 -0.03464729110706128 0.0060232419781366276 0 -0.034467990709461702 0.0067233347711909194 0 -0.035027924219109177 0.006375730622778744 0 -0.035142314710478274 0.0069266057647715202 0 -0.035027924219109177 0.006375730622778744 0 -0.035608022938493723 0.0065386080295946197 0 -0.036100011155499656 0.0064110932109289441 0 -0.03598210983255154 0.0064704671552274018 0 -0.035608022938493723 0.0065386080295946197 0 -0.035608022938493723 0.0065386080295946197 0 -0.03581828886543284 0.0056284117234746602 0 -0.035227705633755081 0.0058942328919057915 0 -0.035594417823841623 0.0059957489967696889 0 -0.036297665410197383 0.0072928405461740514 0 -0.036100011155499656 0.0064110932109289441 0 -0.035608022938493723 0.0065386080295946197 0 -0.036121481174506705 0.0062585656674148957 0 -0.03464729110706128 0.0060232419781366276 0 -0.035227705633755081 0.0058942328919057915 0 -0.0346928255315921 0.0054174139330407283 0 -0.03464729110706128 0.0060232419781366276 0 -0.035027924219109177 0.006375730622778744 0 -0.035227705633755081 0.0058942328919057915 0 -0.03448399400255478 0.0046740414891415826 0 -0.0346928255315921 0.0054174139330407283 0 -0.035175297482048687 0.0051499134042794848 0 -0.035227705633755081 0.0058942328919057915 0 -0.0346928255315921 0.0054174139330407283 0 -0.035175297482048687 0.0051499134042794848 0 -0.036734687645368504 0.010558268296166932 0 -0.03646262442061049 0.009650494069661281 0 -0.03724092883927952 0.010247519675118824 0 -0.03581828886543284 0.0056284117234746602 0 -0.035227705633755081 0.0058942328919057915 0 -0.035175297482048687 0.0051499134042794848 0 -0.036297665410197383 0.0072928405461740514 0 -0.035999705987801577 0.0074862821787415107 0 -0.036549487232057018 0.0096330018326961954 0 -0.037280818409652493 0.0075843524156120751 0 -0.036071280494298689 0.0083297960539226289 0 -0.036360732099617703 0.01058728195691078 0 -0.036297665410197383 0.0072928405461740514 0 -0.036071280494298689 0.0083297960539226289 0 -0.034999871291853293 0.007861278229750213 0 -0.036066699409122403 0.0066534972471450774 0 -0.034999995245243082 0.0096688974934008957 0 -0.036071280494298689 0.0083297960539226289 0 -0.034999871291853293 0.007861278229750213 0 -0.035000141212074266 0.0060543352052209809 0 -0.034999871291853293 0.007861278229750213 0 -0.036066699409122403 0.0066534972471450774 0 -0.037280818409652493 0.0075843524156120751 0 -0.036071280494298689 0.0083297960539226289 0 -0.036066699409122403 0.0066534972471450774 0 -0.036297665410197383 0.0072928405461740514 0 -0.036173737593161087 0.0066169813952009059 0 -0.036100011155499656 0.0064110932109289441 0 -0.036121481174506705 0.0062585656674148957 0 -0.036066699409122403 0.0066534972471450774 0 -0.014970409836825845 0.015917516360235043 0 -0.014447961545557917 0.015396885716187114 0 -0.014810064707337277 0.015646188586487499 0 -0.014970409836825845 0.015917516360235043 0 -0.014447961545557917 0.015396885716187114 0 -0.014819771358717723 0.01550482279594899 0 -0.014447961545557917 0.015396885716187114 0 -0.014819771358717723 0.01550482279594899 0 -0.014388448829552637 0.014881643861883063 0 -0.014819771358717723 0.01550482279594899 0 -0.014388448829552637 0.014881643861883063 0 -0.01499499418616311 0.01571178468041308 0 -0.014970409836825845 0.015917516360235043 0 -0.014819771358717723 0.01550482279594899 0 -0.01520755536215895 0.015905025391891123 0 -0.014819771358717723 0.01550482279594899 0 -0.01520755536215895 0.015905025391891123 0 -0.01499499418616311 0.01571178468041308 0 -0.01520755536215895 0.015905025391891123 0 -0.015677030673161896 0.016201262533563396 0 -0.015743412459506924 0.016427746954529771 0 -0.014970409836825845 0.015917516360235043 0 -0.01520755536215895 0.015905025391891123 0 -0.015743412459506924 0.016427746954529771 0 -0.015677030673161896 0.016201262533563396 0 -0.016107979789781793 0.016464333003265254 0 -0.015743412459506924 0.016427746954529771 0 -0.016107979789781793 0.016464333003265254 0 -0.015743412459506924 0.016427746954529771 0 -0.016361294488821971 0.01678915455724931 0 -0.015743412459506924 0.016427746954529771 0 -0.016081832943132486 0.017129147868585288 0 -0.016361294488821971 0.01678915455724931 0 -0.014970409836825845 0.015917516360235043 0 -0.015743412459506924 0.016427746954529771 0 -0.015461660616358374 0.017045459374146203 0 -0.015012377228772258 0.015984418641146466 0 -0.015263991186986221 0.016324836203239993 0 -0.015461660616358374 0.017045459374146203 0 -0.016081832943132486 0.017129147868585288 0 -0.015861573776626347 0.017588715460661347 0 -0.015743412459506924 0.016427746954529771 0 -0.015461660616358374 0.017045459374146203 0 -0.016081832943132486 0.017129147868585288 0 -0.016081832943132486 0.017129147868585288 0 -0.015861573776626347 0.017588715460661347 0 -0.016271657891899566 0.017493505060816848 0 -0.015861573776626347 0.017588715460661347 0 -0.016271657891899566 0.017493505060816848 0 -0.016171052833620827 0.017981580010375527 0 -0.015053261918775786 0.015639861416649855 0 -0.015442539072354104 0.015887043750718827 0 -0.015116031949608059 0.015770928436500391 0 -0.015442539072354104 0.015887043750718827 0 -0.015116031949608059 0.015770928436500391 0 -0.015465548991835394 0.015936726590233308 0 -0.015263991186986221 0.016324836203239993 0 -0.015685102225622621 0.016850814948746979 0 -0.015116031949608059 0.015770928436500391 0 -0.01469247314131992 0.015856703935094113 0 -0.015465548991835394 0.015936726590233308 0 -0.015116031949608059 0.015770928436500391 0 -0.01469247314131992 0.015856703935094113 0 -0.014810064707337277 0.015646188586487499 0 -0.015053261918775786 0.015639861416649855 0 -0.015116031949608059 0.015770928436500391 0 -0.014810064707337277 0.015646188586487499 0 -0.014970409836825845 0.015917516360235043 0 -0.015053261918775786 0.015639861416649855 0 -0.014810064707337277 0.015646188586487499 0 -0.01469247314131992 0.015856703935094113 0 -0.014810064707337277 0.015646188586487499 0 -0.014265103719991198 0.015630572987961486 0 -0.014447961545557917 0.015396885716187114 0 -0.014810064707337277 0.015646188586487499 0 -0.014265103719991198 0.015630572987961486 0 -0.01469247314131992 0.015856703935094113 0 -0.014265103719991198 0.015630572987961486 0 -0.013825821139121244 0.015997550967211515 0 -0.013825821139121244 0.015997550967211515 0 -0.013305619750541356 0.015407964473869967 0 -0.012812945372394399 0.016156175831218235 0 -0.014265103719991198 0.015630572987961486 0 -0.013825821139121244 0.015997550967211515 0 -0.013305619750541356 0.015407964473869967 0 -0.013305619750541356 0.015407964473869967 0 -0.012035768125313078 0.015354065861739662 0 -0.012812945372394399 0.016156175831218235 0 -0.013305619750541356 0.015407964473869967 0 -0.012035768125313078 0.015354065861739662 0 -0.012138018285671391 0.014650597927862391 0 -0.014447961545557917 0.015396885716187114 0 -0.014265103719991198 0.015630572987961486 0 -0.013305619750541356 0.015407964473869967 0 -0.012035768125313078 0.015354065861739662 0 -0.011809577116696151 0.016014652301938884 0 -0.012812945372394399 0.016156175831218235 0 -0.010845561123101069 0.015410112642441586 0 -0.012035768125313078 0.015354065861739662 0 -0.011809577116696151 0.016014652301938884 0 -0.012035768125313078 0.015354065861739662 0 -0.010745006972902506 0.014505318218371576 0 -0.012138018285671391 0.014650597927862391 0 -0.010845561123101069 0.015410112642441586 0 -0.012035768125313078 0.015354065861739662 0 -0.010745006972902506 0.014505318218371576 0 -0.01021058752620713 0.013633618104523548 0 -0.010745006972902506 0.014505318218371576 0 -0.011299629498218489 0.013830948351364209 0 -0.010745006972902506 0.014505318218371576 0 -0.012138018285671391 0.014650597927862391 0 -0.011299629498218489 0.013830948351364209 0 -0.012232138938727115 0.013980995165143202 0 -0.011299629498218489 0.013830948351364209 0 -0.011936792281001293 0.013439089758689004 0 -0.012232138938727115 0.013980995165143202 0 -0.012884224528806327 0.01355189021317227 0 -0.011936792281001293 0.013439089758689004 0 -0.012138018285671391 0.014650597927862391 0 -0.012232138938727115 0.013980995165143202 0 -0.011299629498218489 0.013830948351364209 0 -0.01021058752620713 0.013633618104523548 0 -0.011299629498218489 0.013830948351364209 0 -0.011317033157466619 0.013143208176205052 0 -0.0058326451966057508 0.016133777540864501 0 -0.0063444675055069049 0.015904427240767963 0 -0.014447961545557917 0.015396885716187114 0 -0.013335843152438957 0.014781080453855462 0 -0.014388448829552637 0.014881643861883063 0 -0.014447961545557917 0.015396885716187114 0 -0.013305619750541356 0.015407964473869967 0 -0.013335843152438957 0.014781080453855462 0 -0.012138018285671391 0.014650597927862391 0 -0.012232138938727115 0.013980995165143202 0 -0.013335843152438957 0.014781080453855462 0 -0.013305619750541356 0.015407964473869967 0 -0.012138018285671391 0.014650597927862391 0 -0.013335843152438957 0.014781080453855462 0 -0.012232138938727115 0.013980995165143202 0 -0.013335843152438957 0.014781080453855462 0 -0.012884224528806327 0.01355189021317227 0 -0.013335843152438957 0.014781080453855462 0 -0.014388448829552637 0.014881643861883063 0 -0.012884224528806327 0.01355189021317227 0 -0.014448477468431909 0.014874184873808594 0 -0.014515877116908341 0.014459947392561762 0 -0.014388448829552637 0.014881643861883063 0 -0.013912677319203665 0.012888025942039505 0 -0.012884224528806327 0.01355189021317227 0 -0.012884224528806327 0.01355189021317227 0 -0.013049321018567461 0.012503586967972857 0 -0.012127736271960806 0.012860074745384628 0 -0.013912677319203665 0.012888025942039505 0 -0.012884224528806327 0.01355189021317227 0 -0.013049321018567461 0.012503586967972857 0 -0.013049321018567461 0.012503586967972857 0 -0.012127736271960806 0.012860074745384628 0 -0.012429727308322043 0.012322140125299311 0 -0.013049321018567461 0.012503586967972857 0 -0.012429727308322043 0.012322140125299311 0 -0.012972270509565238 0.011953925718570031 0 -0.013912677319203665 0.012888025942039505 0 -0.013049321018567461 0.012503586967972857 0 -0.013485121317300036 0.011842001223542896 0 -0.014515877116908341 0.014459947392561762 0 -0.014660886448028402 0.013665203545930888 0 -0.01523462168711481 0.015793707899591197 0 -0.015350405097349534 0.016082931852274433 0 -0.015256123008447722 0.016000095034504936 0 -0.011299629498218489 0.013830948351364209 0 -0.011317033157466619 0.013143208176205052 0 -0.011936792281001293 0.013439089758689004 0 -0.012884224528806327 0.01355189021317227 0 -0.011936792281001293 0.013439089758689004 0 -0.012127736271960806 0.012860074745384628 0 -0.011317033157466619 0.013143208176205052 0 -0.011936792281001293 0.013439089758689004 0 -0.012127736271960806 0.012860074745384628 0 -0.0063444675055069049 0.015904427240767963 0 -0.0098501597761810975 0.014130704174408351 0 -0.011317033157466619 0.013143208176205052 0 -0.012127736271960806 0.012860074745384628 0 -0.012343270631286344 0.012342140118902526 0 -0.0021150942680954765 0.018259558545460033 0 -0.0034049475031416067 0.01732795807961289 0 -0.0023572497827926164 0.017480122436193377 0 -0.0034049475031416067 0.01732795807961289 0 -0.0023572497827926164 0.017480122436193377 0 -0.0025303141014124345 0.016466526317202027 0 -0.011910265855238869 0.012152882748369084 0 -0.0098501597761810975 0.014130704174408351 0 -0.0012457625258546249 0.017694318623454379 0 -0.0021150942680954765 0.018259558545460033 0 -0.0023572497827926164 0.017480122436193377 0 -0.0012457625258546249 0.017694318623454379 0 -0.0023572497827926164 0.017480122436193377 0 -0.0025303141014124345 0.016466526317202027 0 -0.0016171622119310108 0.01744817000056359 0 -0.001010934959620291 0.017475904500605328 0 -0.0011291434473956964 0.017642225495895975 0 -0.0011532864622340198 0.017675454090709412 0 -0.0011019161568515212 0.017656604170210602 0 -0.0012457625258546249 0.017694318623454379 0 -0.0011291434473956964 0.017642225495895975 0 -0.0011532864622340198 0.017675454090709412 0 -0.0034049475031416067 0.01732795807961289 0 -0.0025303141014124345 0.016466526317202027 0 -0.0038293667077398648 0.016316161597602016 0 -0.0011532864622340198 0.017675454090709412 0 -0.0011480850265685881 0.017684173987929177 0 -0.0012010135096605142 0.017692684399436085 0 -0.001010934959620291 0.017475904500605328 0 -0.0065375357178244116 0.015245825135029418 0 -0.0011532864622340198 0.017675454090709412 0 -0.0011480850265685881 0.017684173987929177 0 -0.0011019161568515212 0.017656604170210602 0 -0.013485121317300036 0.011842001223542896 0 -0.012972270509565238 0.011953925718570031 0 -0.013114200143805802 0.011616235316818751 0 -0.015350405097349534 0.016082931852274433 0 -0.015326857750374869 0.016101844196955969 0 -0.015323477365539188 0.016096466989722738 0 -0.013049321018567461 0.012503586967972857 0 -0.013485121317300036 0.011842001223542896 0 -0.012972270509565238 0.011953925718570031 0 -0.0025303141014124345 0.016466526317202027 0 -0.0038293667077398648 0.016316161597602016 0 -0.0042188585683668664 0.015238415079980416 0 -0.0098501597761810975 0.014130704174408351 0 -0.013421434563423202 0.011367760965446097 0 -0.012503225090283078 0.012408701166305373 0 -0.012972270509565238 0.011953925718570031 0 -0.012777643739244849 0.01179609937000781 0 -0.0098501597761810975 0.014130704174408351 0 -0.008362870432947412 0.013897190458116021 0 -0.012972270509565238 0.011953925718570031 0 -0.012777643739244849 0.01179609937000781 0 -0.013114200143805802 0.011616235316818751 0 -0.012777643739244849 0.01179609937000781 0 -0.013114200143805802 0.011616235316818751 0 -0.012984158502187702 0.011386838806699469 0 -0.01328179605749291 0.011185437377664911 0 -0.013114200143805802 0.011616235316818751 0 -0.012984158502187702 0.011386838806699469 0 -0.008362870432947412 0.013897190458116021 0 -0.0065375357178244116 0.015245825135029418 0 -0.011839640726115498 0.015183053939469901 0 -0.0065375357178244116 0.015245825135029418 0 -0.011839640726115498 0.015183053939469901 0 -0.014660886448028402 0.013665203545930888 0 -0.01328179605749291 0.011185437377664911 0 -0.013485121317300036 0.011842001223542896 0 -0.013114200143805802 0.011616235316818751 0 -0.015301910464978759 0.016092460869496946 0 -0.015350405097349534 0.016082931852274433 0 -0.015326857750374869 0.016101844196955969 0 -0.015320779639458356 0.016092005654113204 0 -0.015301910464978759 0.016092460869496946 0 -0.015326857750374869 0.016101844196955969 0 -0.015344804468873692 0.016093675676965766 0 -0.015369831422059889 0.016119964543419185 0 -0.015326857750374869 0.016101844196955969 0 -0.015320779639458356 0.016092005654113204 0 -0.015344804468873692 0.016093675676965766 0 -0.015326857750374869 0.016101844196955969 0 -0.015344804468873692 0.016093675676965766 0 -0.015369831422059889 0.016119964543419185 0 -0.015447241003613115 0.016088489178677209 0 -0.015369831422059889 0.016119964543419185 0 -0.015326857750374869 0.016101844196955969 0 -0.015323477365539188 0.016096466989722738 0 -0.015447241003613115 0.016088489178677209 0 -0.015500196014038512 0.016152003414930644 0 -0.015675133344365946 0.016130957016541318 0 -0.015369831422059889 0.016119964543419185 0 -0.015447241003613115 0.016088489178677209 0 -0.015500196014038512 0.016152003414930644 0 -0.015369831422059889 0.016119964543419185 0 -0.015500196014038512 0.016152003414930644 0 -0.015366483435317846 0.016116955964825944 0 -0.015500196014038512 0.016152003414930644 0 -0.0155374244229426 0.016181488571088018 0 -0.015728844911782822 0.016226760303126326 0 -0.015500196014038512 0.016152003414930644 0 -0.0155374244229426 0.016181488571088018 0 -0.015366483435317846 0.016116955964825944 0 -0.0155374244229426 0.016181488571088018 0 -0.015366483435317846 0.016116955964825944 0 -0.015333221962655191 0.016049921991901354 0 -0.015369831422059889 0.016119964543419185 0 -0.015323477365539188 0.016096466989722738 0 -0.015366483435317846 0.016116955964825944 0 -0.015350405097349534 0.016082931852274433 0 -0.015323477365539188 0.016096466989722738 0 -0.015256123008447722 0.016000095034504936 0 -0.015323477365539188 0.016096466989722738 0 -0.015366483435317846 0.016116955964825944 0 -0.015256123008447722 0.016000095034504936 0 -0.015366483435317846 0.016116955964825944 0 -0.015256123008447722 0.016000095034504936 0 -0.015333221962655191 0.016049921991901354 0 -0.01523462168711481 0.015793707899591197 0 -0.015256123008447722 0.016000095034504936 0 -0.01499499418616311 0.01571178468041308 0 -0.015256123008447722 0.016000095034504936 0 -0.015333221962655191 0.016049921991901354 0 -0.01499499418616311 0.01571178468041308 0 -0.015333221962655191 0.016049921991901354 0 -0.015419549618397314 0.016040241941763258 0 -0.015644922097921947 0.016206284956409998 0 -0.0155374244229426 0.016181488571088018 0 -0.015333221962655191 0.016049921991901354 0 -0.015644922097921947 0.016206284956409998 0 -0.015333221962655191 0.016049921991901354 0 -0.01499499418616311 0.01571178468041308 0 -0.015419549618397314 0.016040241941763258 0 -0.01520755536215895 0.015905025391891123 0 -0.01499499418616311 0.01571178468041308 0 -0.015419549618397314 0.016040241941763258 0 -0.014388448829552637 0.014881643861883063 0 -0.01523462168711481 0.015793707899591197 0 -0.01499499418616311 0.01571178468041308 0 -0.015677030673161896 0.016201262533563396 0 -0.016107979789781793 0.016464333003265254 0 -0.015862501541442902 0.01628627891875117 0 -0.016107979789781793 0.016464333003265254 0 -0.015862501541442902 0.01628627891875117 0 -0.016313957724663711 0.016501623093029539 0 -0.01520755536215895 0.015905025391891123 0 -0.015677030673161896 0.016201262533563396 0 -0.015419549618397314 0.016040241941763258 0 -0.015677030673161896 0.016201262533563396 0 -0.015862501541442902 0.01628627891875117 0 -0.015419549618397314 0.016040241941763258 0 -0.015862501541442902 0.01628627891875117 0 -0.015419549618397314 0.016040241941763258 0 -0.015644922097921947 0.016206284956409998 0 -0.015862501541442902 0.01628627891875117 0 -0.015644922097921947 0.016206284956409998 0 -0.016028557385658209 0.016387185503949631 0 -0.015644922097921947 0.016206284956409998 0 -0.016028557385658209 0.016387185503949631 0 -0.015817415108804942 0.016298399153531002 0 -0.015862501541442902 0.01628627891875117 0 -0.016028557385658209 0.016387185503949631 0 -0.016313957724663711 0.016501623093029539 0 -0.016028557385658209 0.016387185503949631 0 -0.016313957724663711 0.016501623093029539 0 -0.016372139932765931 0.016549638236515968 0 -0.01623466958107446 0.016489443073778611 0 -0.015817415108804942 0.016298399153531002 0 -0.01597766515859584 0.016342189330732625 0 -0.016028557385658209 0.016387185503949631 0 -0.01623466958107446 0.016489443073778611 0 -0.016372139932765931 0.016549638236515968 0 -0.016028557385658209 0.016387185503949631 0 -0.01623466958107446 0.016489443073778611 0 -0.015817415108804942 0.016298399153531002 0 -0.0155374244229426 0.016181488571088018 0 -0.015644922097921947 0.016206284956409998 0 -0.015817415108804942 0.016298399153531002 0 -0.015817415108804942 0.016298399153531002 0 -0.015728844911782822 0.016226760303126326 0 -0.01597766515859584 0.016342189330732625 0 -0.0155374244229426 0.016181488571088018 0 -0.015817415108804942 0.016298399153531002 0 -0.015728844911782822 0.016226760303126326 0 -0.015728844911782822 0.016226760303126326 0 -0.015933350765322096 0.01626395269718249 0 -0.01597766515859584 0.016342189330732625 0 -0.01593601851935569 0.016126785195881923 0 -0.015933350765322096 0.01626395269718249 0 -0.015675133344365946 0.016130957016541318 0 -0.015500196014038512 0.016152003414930644 0 -0.015728844911782822 0.016226760303126326 0 -0.015675133344365946 0.016130957016541318 0 -0.015728844911782822 0.016226760303126326 0 -0.015933350765322096 0.01626395269718249 0 -0.015675133344365946 0.016130957016541318 0 -0.01623466958107446 0.016489443073778611 0 -0.016215401280297567 0.016428927679519572 0 -0.016627700947080805 0.016655814457671878 0 -0.015933350765322096 0.01626395269718249 0 -0.016215401280297567 0.016428927679519572 0 -0.01597766515859584 0.016342189330732625 0 -0.01623466958107446 0.016489443073778611 0 -0.016215401280297567 0.016428927679519572 0 -0.01597766515859584 0.016342189330732625 0 -0.015933350765322096 0.01626395269718249 0 -0.016215401280297567 0.016428927679519572 0 -0.016145238079098817 0.016287934382405701 0 -0.01593601851935569 0.016126785195881923 0 -0.015933350765322096 0.01626395269718249 0 -0.016145238079098817 0.016287934382405701 0 -0.016215401280297567 0.016428927679519572 0 -0.016145238079098817 0.016287934382405701 0 -0.016412190118601493 0.016446214628914001 0 -0.016412190118601493 0.016446214628914001 0 -0.016670520696923059 0.016574005693685005 0 -0.016627700947080805 0.016655814457671878 0 -0.016215401280297567 0.016428927679519572 0 -0.016412190118601493 0.016446214628914001 0 -0.016627700947080805 0.016655814457671878 0 -0.016627700947080805 0.016655814457671878 0 -0.016656710916629656 0.016704569208003419 0 -0.017007634697174603 0.016937811722967495 0 -0.017143669017951651 0.016892113569150224 0 -0.016670520696923059 0.016574005693685005 0 -0.016627700947080805 0.016655814457671878 0 -0.01623466958107446 0.016489443073778611 0 -0.016656710916629656 0.016704569208003419 0 -0.016372139932765931 0.016549638236515968 0 -0.01623466958107446 0.016489443073778611 0 -0.016627700947080805 0.016655814457671878 0 -0.016656710916629656 0.016704569208003419 0 -0.016656710916629656 0.016704569208003419 0 -0.016372139932765931 0.016549638236515968 0 -0.016604585143429069 0.01665210192398978 0 -0.016897872258163655 0.016856886684112428 0 -0.017007634697174603 0.016937811722967495 0 -0.017049637825291928 0.017096430600471314 0 -0.016656710916629656 0.016704569208003419 0 -0.016897872258163655 0.016856886684112428 0 -0.017007634697174603 0.016937811722967495 0 -0.016656710916629656 0.016704569208003419 0 -0.016897872258163655 0.016856886684112428 0 -0.016604585143429069 0.01665210192398978 0 -0.017127010242667606 0.017322812171113158 0 -0.017143669017951651 0.016892113569150224 0 -0.017007634697174603 0.016937811722967495 0 -0.017127010242667606 0.017322812171113158 0 -0.017007634697174603 0.016937811722967495 0 -0.017084769515565482 0.017252915538383075 0 -0.017143669017951651 0.016892113569150224 0 -0.016627700947080805 0.016655814457671878 0 -0.017007634697174603 0.016937811722967495 0 -0.017127010242667606 0.017322812171113158 0 -0.017125226232772177 0.017568781361898798 0 -0.017084769515565482 0.017252915538383075 0 -0.017125226232772177 0.017568781361898798 0 -0.017084769515565482 0.017252915538383075 0 -0.017110167606637805 0.017444151079054525 0 -0.017084769515565482 0.017252915538383075 0 -0.017110167606637805 0.017444151079054525 0 -0.017049637825291928 0.017096430600471314 0 -0.017007634697174603 0.016937811722967495 0 -0.017084769515565482 0.017252915538383075 0 -0.017049637825291928 0.017096430600471314 0 -0.017140381829609641 0.017815129598829374 0 -0.017110167606637805 0.017444151079054525 0 -0.017114575105046177 0.017701448244077982 0 -0.017125226232772177 0.017568781361898798 0 -0.017140381829609641 0.017815129598829374 0 -0.017110167606637805 0.017444151079054525 0 -0.017110167606637805 0.017444151079054525 0 -0.017092502681578744 0.017275063551669339 0 -0.017114575105046177 0.017701448244077982 0 -0.017110167606637805 0.017444151079054525 0 -0.017092502681578744 0.017275063551669339 0 -0.017049637825291928 0.017096430600471314 0 -0.017092502681578744 0.017275063551669339 0 -0.017049637825291928 0.017096430600471314 0 -0.017040386510348966 0.016918447669268661 0 -0.016897872258163655 0.016856886684112428 0 -0.017049637825291928 0.017096430600471314 0 -0.017040386510348966 0.016918447669268661 0 -0.017092502681578744 0.017275063551669339 0 -0.017074700793512931 0.017102056279422836 0 -0.017062084363919285 0.017598764228348975 0 -0.017092502681578744 0.017275063551669339 0 -0.017040386510348966 0.016918447669268661 0 -0.017074700793512931 0.017102056279422836 0 -0.017199071683100437 0.016674380101223595 0 -0.017660575009252805 0.016576526089358886 0 -0.017040386510348966 0.016918447669268661 0 -0.017074700793512931 0.017102056279422836 0 -0.017146664298905448 0.01669072875601087 0 -0.017074700793512931 0.017102056279422836 0 -0.017146664298905448 0.01669072875601087 0 -0.016989796941626212 0.017185200064754092 0 -0.017146664298905448 0.01669072875601087 0 -0.018296230998051975 0.015898297067504227 0 -0.017919513836260278 0.016627739874344485 0 -0.017040386510348966 0.016918447669268661 0 -0.017146664298905448 0.01669072875601087 0 -0.016786085215639568 0.016688151083661115 0 -0.016107979789781793 0.016464333003265254 0 -0.016313957724663711 0.016501623093029539 0 -0.016550178710884853 0.016696098509674833 0 -0.016786085215639568 0.016688151083661115 0 -0.016313957724663711 0.016501623093029539 0 -0.016550178710884853 0.016696098509674833 0 -0.016786085215639568 0.016688151083661115 0 -0.016313957724663711 0.016501623093029539 0 -0.016604585143429069 0.01665210192398978 0 -0.016313957724663711 0.016501623093029539 0 -0.016372139932765931 0.016549638236515968 0 -0.016604585143429069 0.01665210192398978 0 -0.016897872258163655 0.016856886684112428 0 -0.017040386510348966 0.016918447669268661 0 -0.016786085215639568 0.016688151083661115 0 -0.016897872258163655 0.016856886684112428 0 -0.016786085215639568 0.016688151083661115 0 -0.016604585143429069 0.01665210192398978 0 -0.017844977888768425 0.017726796535325239 0 -0.018081316820241878 0.017175797556267112 0 -0.018485132909446759 0.017972229780363915 0 -0.018081316820241878 0.017175797556267112 0 -0.018485132909446759 0.017972229780363915 0 -0.018434145739800616 0.016896011123942772 0 -0.017844977888768425 0.017726796535325239 0 -0.018081316820241878 0.017175797556267112 0 -0.017900823203382366 0.016647158182956104 0 -0.018485132909446759 0.017972229780363915 0 -0.018839897982365579 0.016600094781831259 0 -0.018434145739800616 0.016896011123942772 0 -0.016950650631327897 0.018397933332447387 0 -0.017014228766495377 0.018790544866291642 0 -0.017059787053010762 0.018508602258484594 0 -0.017169896207194123 0.01865701748182285 0 -0.017059787053010762 0.018508602258484594 0 -0.017099620917581583 0.018078360001319332 0 -0.016950650631327897 0.018397933332447387 0 -0.017059787053010762 0.018508602258484594 0 -0.01702802509820282 0.018095174031333688 0 -0.017059787053010762 0.018508602258484594 0 -0.01702802509820282 0.018095174031333688 0 -0.017099620917581583 0.018078360001319332 0 -0.018485132909446759 0.017972229780363915 0 -0.019321435694835867 0.01617645859555477 0 -0.018839897982365579 0.016600094781831259 0 -0.016950650631327897 0.018397933332447387 0 -0.01702802509820282 0.018095174031333688 0 -0.016975112035256916 0.017749929290852475 0 -0.01769912445157772 0.018178535100128537 0 -0.018108645394771215 0.017003461565158178 0 -0.01702802509820282 0.018095174031333688 0 -0.017099620917581583 0.018078360001319332 0 -0.017062084363919285 0.017598764228348975 0 -0.01702802509820282 0.018095174031333688 0 -0.017062084363919285 0.017598764228348975 0 -0.016975112035256916 0.017749929290852475 0 -0.017202131500799991 0.018314958509895313 0 -0.017099620917581583 0.018078360001319332 0 -0.017144514339283899 0.018010124457032775 0 -0.017099620917581583 0.018078360001319332 0 -0.017144514339283899 0.018010124457032775 0 -0.017114575105046177 0.017701448244077982 0 -0.017140381829609641 0.017815129598829374 0 -0.017144514339283899 0.018010124457032775 0 -0.017114575105046177 0.017701448244077982 0 -0.017092502681578744 0.017275063551669339 0 -0.017114575105046177 0.017701448244077982 0 -0.017062084363919285 0.017598764228348975 0 -0.017099620917581583 0.018078360001319332 0 -0.017114575105046177 0.017701448244077982 0 -0.017062084363919285 0.017598764228348975 0 -0.017074700793512931 0.017102056279422836 0 -0.017062084363919285 0.017598764228348975 0 -0.016989796941626212 0.017185200064754092 0 -0.018296230998051975 0.015898297067504227 0 -0.018753830586228155 0.016607910142923954 0 -0.017919513836260278 0.016627739874344485 0 -0.019060167540750041 0.015633883540107127 0 -0.018967557893220507 0.015216861226837925 0 -0.018296230998051975 0.015898297067504227 0 -0.018925889956505921 0.016020859789346635 0 -0.018753830586228155 0.016607910142923954 0 -0.018925889956505921 0.016020859789346635 0 -0.019160445417608734 0.015642586631169977 0 -0.018753830586228155 0.016607910142923954 0 -0.017660575009252805 0.016576526089358886 0 -0.018108645394771215 0.017003461565158178 0 -0.017062084363919285 0.017598764228348975 0 -0.016989796941626212 0.017185200064754092 0 -0.016975112035256916 0.017749929290852475 0 -0.018296230998051975 0.015898297067504227 0 -0.018925889956505921 0.016020859789346635 0 -0.019321435694835867 0.01617645859555477 0 -0.018925889956505921 0.016020859789346635 0 -0.019321435694835867 0.01617645859555477 0 -0.019160445417608734 0.015642586631169977 0 -0.019321435694835867 0.01617645859555477 0 -0.018839897982365579 0.016600094781831259 0 -0.019160445417608734 0.015642586631169977 0 -0.018839897982365579 0.016600094781831259 0 -0.019160445417608734 0.015642586631169977 0 -0.018587405387924232 0.01617836753700486 0 -0.019160445417608734 0.015642586631169977 0 -0.019080890392426879 0.014434245966375298 0 -0.019306643572407814 0.013712805081224848 0 -0.019160445417608734 0.015642586631169977 0 -0.019080890392426879 0.014434245966375298 0 -0.018587405387924232 0.01617836753700486 0 -0.019580019440888136 0.013173660288315679 0 -0.018169338216878612 0.018788425863525502 0 -0.019080890392426879 0.014434245966375298 0 -0.019331484878083283 0.014037120777448916 0 -0.019423077523453871 0.013699988551311751 0 -0.019080890392426879 0.014434245966375298 0 -0.019209356612812055 0.014112098777042562 0 -0.019331484878083283 0.014037120777448916 0 -0.01947342421448129 0.013937611088349903 0 -0.019209356612812055 0.014112098777042562 0 -0.019331484878083283 0.014037120777448916 0 -0.019080890392426879 0.014434245966375298 0 -0.018587405387924232 0.01617836753700486 0 -0.017748657800766544 0.016555509745670213 0 -0.018839897982365579 0.016600094781831259 0 -0.018587405387924232 0.01617836753700486 0 -0.018434145739800616 0.016896011123942772 0 -0.018587405387924232 0.01617836753700486 0 -0.018434145739800616 0.016896011123942772 0 -0.018130679675329921 0.016574634058660019 0 -0.018587405387924232 0.01617836753700486 0 -0.017748657800766544 0.016555509745670213 0 -0.018130679675329921 0.016574634058660019 0 -0.018081316820241878 0.017175797556267112 0 -0.018434145739800616 0.016896011123942772 0 -0.018130679675329921 0.016574634058660019 0 -0.018081316820241878 0.017175797556267112 0 -0.017900823203382366 0.016647158182956104 0 -0.018130679675329921 0.016574634058660019 0 -0.018169338216878612 0.018788425863525502 0 -0.017937510382057612 0.018251041244080089 0 -0.019635785722999833 0.013940551461414007 0 -0.019495856388369599 0.013888533968612966 0 -0.019244415006679293 0.013924314699489985 0 -0.019495856388369599 0.013888533968612966 0 -0.019294488499540002 0.013935792046435524 0 -0.019244415006679293 0.013924314699489985 0 -0.01947342421448129 0.013937611088349903 0 -0.019495856388369599 0.013888533968612966 0 -0.019294488499540002 0.013935792046435524 0 -0.01947342421448129 0.013937611088349903 0 -0.019209356612812055 0.014112098777042562 0 -0.019294488499540002 0.013935792046435524 0 -0.019080890392426879 0.014434245966375298 0 -0.019182963203737993 0.013896626810501446 0 -0.019306643572407814 0.013712805081224848 0 -0.019294488499540002 0.013935792046435524 0 -0.019182963203737993 0.013896626810501446 0 -0.019244415006679293 0.013924314699489985 0 -0.019080890392426879 0.014434245966375298 0 -0.019209356612812055 0.014112098777042562 0 -0.019182963203737993 0.013896626810501446 0 -0.019209356612812055 0.014112098777042562 0 -0.019294488499540002 0.013935792046435524 0 -0.019182963203737993 0.013896626810501446 0 -0.019182963203737993 0.013896626810501446 0 -0.019244415006679293 0.013924314699489985 0 -0.019074761245186912 0.013789872803950439 0 -0.019244415006679293 0.013924314699489985 0 -0.019074761245186912 0.013789872803950439 0 -0.0188720508922974 0.013987487602827803 0 -0.019182963203737993 0.013896626810501446 0 -0.019074761245186912 0.013789872803950439 0 -0.019306643572407814 0.013712805081224848 0 -0.018753830586228155 0.016607910142923954 0 -0.017919513836260278 0.016627739874344485 0 -0.017642140932448633 0.017171221885118017 0 -0.019074761245186912 0.013789872803950439 0 -0.019306643572407814 0.013712805081224848 0 -0.018315085612294803 0.013585227337066613 0 -0.018967557893220507 0.015216861226837925 0 -0.017987937382786239 0.015385577605436898 0 -0.019074761245186912 0.013789872803950439 0 -0.0188720508922974 0.013987487602827803 0 -0.018315085612294803 0.013585227337066613 0 -0.018275717232787082 0.014193278947051923 0 -0.0188720508922974 0.013987487602827803 0 -0.018315085612294803 0.013585227337066613 0 -0.018275717232787082 0.014193278947051923 0 -0.018553578651060974 0.014583244576801274 0 -0.018127978753610476 0.014958801369573836 0 -0.0182817929107724 0.014204068860354784 0 -0.018703526352941834 0.014608709700085119 0 -0.018275717232787082 0.014193278947051923 0 -0.018830928980651664 0.014268691200448819 0 -0.018747662274000865 0.014576623376727814 0 -0.018830928980651664 0.014268691200448819 0 -0.018747662274000865 0.014576623376727814 0 -0.019075728536515863 0.014559723562805098 0 -0.018275717232787082 0.014193278947051923 0 -0.018830928980651664 0.014268691200448819 0 -0.0188720508922974 0.013987487602827803 0 -0.018830928980651664 0.014268691200448819 0 -0.0188720508922974 0.013987487602827803 0 -0.01910691115032909 0.014276877584999636 0 -0.019244415006679293 0.013924314699489985 0 -0.01910691115032909 0.014276877584999636 0 -0.019373975768757476 0.014189651020037511 0 -0.019244415006679293 0.013924314699489985 0 -0.0188720508922974 0.013987487602827803 0 -0.01910691115032909 0.014276877584999636 0 -0.01910691115032909 0.014276877584999636 0 -0.019075728536515863 0.014559723562805098 0 -0.019316158103629171 0.014620045738661632 0 -0.018830928980651664 0.014268691200448819 0 -0.01910691115032909 0.014276877584999636 0 -0.019075728536515863 0.014559723562805098 0 -0.01910691115032909 0.014276877584999636 0 -0.019373975768757476 0.014189651020037511 0 -0.019316158103629171 0.014620045738661632 0 -0.019555299073536005 0.014439886169923493 0 -0.019373975768757476 0.014189651020037511 0 -0.019316158103629171 0.014620045738661632 0 -0.019495163384259589 0.014473261534197472 0 -0.01911674480001422 0.014716407922081653 0 -0.019555299073536005 0.014439886169923493 0 -0.019635785722999833 0.013940551461414007 0 -0.019373975768757476 0.014189651020037511 0 -0.019635785722999833 0.013940551461414007 0 -0.019244415006679293 0.013924314699489985 0 -0.019373975768757476 0.014189651020037511 0 -0.016361294488821971 0.01678915455724931 0 -0.016832982432360987 0.016876983811544011 0 -0.01656393921502463 0.017183797544766472 0 -0.016832982432360987 0.016876983811544011 0 -0.017083382726043372 0.017315522231584231 0 -0.01656393921502463 0.017183797544766472 0 -0.016107979789781793 0.016464333003265254 0 -0.016361294488821971 0.01678915455724931 0 -0.016550178710884853 0.016696098509674833 0 -0.016786085215639568 0.016688151083661115 0 -0.016550178710884853 0.016696098509674833 0 -0.016832982432360987 0.016876983811544011 0 -0.016361294488821971 0.01678915455724931 0 -0.016550178710884853 0.016696098509674833 0 -0.016832982432360987 0.016876983811544011 0 -0.017146664298905448 0.01669072875601087 0 -0.016786085215639568 0.016688151083661115 0 -0.016832982432360987 0.016876983811544011 0 -0.017146664298905448 0.01669072875601087 0 -0.016832982432360987 0.016876983811544011 0 -0.017642140932448633 0.017171221885118017 0 -0.016832982432360987 0.016876983811544011 0 -0.017642140932448633 0.017171221885118017 0 -0.017083382726043372 0.017315522231584231 0 -0.017146664298905448 0.01669072875601087 0 -0.017919513836260278 0.016627739874344485 0 -0.017642140932448633 0.017171221885118017 0 -0.017987937382786239 0.015385577605436898 0 -0.017196496778780986 0.015554908484646451 0 -0.018275717232787082 0.014193278947051923 0 -0.018315085612294803 0.013585227337066613 0 -0.017312551431275903 0.013787614789120233 0 -0.018275717232787082 0.014193278947051923 0 -0.01739982272190526 0.014575193630079593 0 -0.018127978753610476 0.014958801369573836 0 -0.018275717232787082 0.014193278947051923 0 -0.017312551431275903 0.013787614789120233 0 -0.01739982272190526 0.014575193630079593 0 -0.017312551431275903 0.013787614789120233 0 -0.016183193282943306 0.014169399931925918 0 -0.01739982272190526 0.014575193630079593 0 -0.017196496778780986 0.015554908484646451 0 -0.016377047043638408 0.015965663574714996 0 -0.017083382726043372 0.017315522231584231 0 -0.016645399154497836 0.017574425252743209 0 -0.01656393921502463 0.017183797544766472 0 -0.016081832943132486 0.017129147868585288 0 -0.016361294488821971 0.01678915455724931 0 -0.01656393921502463 0.017183797544766472 0 -0.016081832943132486 0.017129147868585288 0 -0.01656393921502463 0.017183797544766472 0 -0.016271657891899566 0.017493505060816848 0 -0.016645399154497836 0.017574425252743209 0 -0.01656393921502463 0.017183797544766472 0 -0.016271657891899566 0.017493505060816848 0 -0.016645399154497836 0.017574425252743209 0 -0.016271657891899566 0.017493505060816848 0 -0.016171052833620827 0.017981580010375527 0 -0.016377047043638408 0.015965663574714996 0 -0.015657301149804698 0.015949783282443931 0 -0.015057203842663161 0.014747762281056362 0 -0.015416013052227808 0.01488072725560329 0 -0.015819751694044308 0.014687726364466016 0 -0.016183193282943306 0.014169399931925918 0 -0.015057203842663161 0.014747762281056362 0 -0.015819751694044308 0.014687726364466016 0 -0.015416013052227808 0.01488072725560329 0 -0.01564223132245356 0.015038871426263867 0 -0.015819751694044308 0.014687726364466016 0 -0.015657301149804698 0.015949783282443931 0 -0.015025329995956602 0.014943084541123929 0 -0.015057203842663161 0.014747762281056362 0 -0.015159471849109287 0.015093969803229036 0 -0.015416013052227808 0.01488072725560329 0 -0.01518678507561968 0.015424392123109166 0 -0.015049811890323473 0.01508394178270717 0 -0.015255790893136535 0.015022554715959282 0 -0.01518678507561968 0.015424392123109166 0 -0.015159471849109287 0.015093969803229036 0 -0.015049811890323473 0.01508394178270717 0 -0.015159471849109287 0.015093969803229036 0 -0.015416013052227808 0.01488072725560329 0 -0.01564223132245356 0.015038871426263867 0 -0.015159471849109287 0.015093969803229036 0 -0.01564223132245356 0.015038871426263867 0 -0.015670925368428089 0.015458994092364706 0 -0.015159471849109287 0.015093969803229036 0 -0.015670925368428089 0.015458994092364706 0 -0.015049811890323473 0.01508394178270717 0 -0.015049811890323473 0.01508394178270717 0 -0.014924701429168555 0.01382696268656255 0 -0.015281189621560528 0.014536123659016704 0 -0.015049811890323473 0.01508394178270717 0 -0.015255790893136535 0.015022554715959282 0 -0.015281189621560528 0.014536123659016704 0 -0.016045287788562936 0.015195566540006119 0 -0.015819751694044308 0.014687726364466016 0 -0.016713446334809565 0.015148911493567788 0 -0.016045287788562936 0.015195566540006119 0 -0.016713446334809565 0.015148911493567788 0 -0.016342135403600817 0.015873373660607704 0 -0.01564223132245356 0.015038871426263867 0 -0.015670925368428089 0.015458994092364706 0 -0.016045287788562936 0.015195566540006119 0 -0.015670925368428089 0.015458994092364706 0 -0.016045287788562936 0.015195566540006119 0 -0.016342135403600817 0.015873373660607704 0 -0.01564223132245356 0.015038871426263867 0 -0.016045287788562936 0.015195566540006119 0 -0.015819751694044308 0.014687726364466016 0 -0.016183193282943306 0.014169399931925918 0 -0.015819751694044308 0.014687726364466016 0 -0.016713446334809565 0.015148911493567788 0 -0.01739982272190526 0.014575193630079593 0 -0.01753506233520484 0.015299430115530388 0 -0.016713446334809565 0.015148911493567788 0 -0.016183193282943306 0.014169399931925918 0 -0.01739982272190526 0.014575193630079593 0 -0.016713446334809565 0.015148911493567788 0 -0.01739982272190526 0.014575193630079593 0 -0.01753506233520484 0.015299430115530388 0 -0.018127978753610476 0.014958801369573836 0 -0.01753506233520484 0.015299430115530388 0 -0.016713446334809565 0.015148911493567788 0 -0.017275067957327864 0.016280787864731194 0 -0.016713446334809565 0.015148911493567788 0 -0.017275067957327864 0.016280787864731194 0 -0.016342135403600817 0.015873373660607704 0 -0.017275067957327864 0.016280787864731194 0 -0.016355771224439947 0.016887404510342399 0 -0.016342135403600817 0.015873373660607704 0 -0.014085836460292867 0.0089465785037921765 0 -0.01424366971555749 0.0088897995750051514 0 -0.01421493897223596 0.008947273004432944 0 -0.015694532255126993 0.012757900673342653 0 -0.016162655495743916 0.012161311786258998 0 -0.01753506233520484 0.015299430115530388 0 -0.017275067957327864 0.016280787864731194 0 -0.018099809779617632 0.015696699217767424 0 -0.014085836460292867 0.0089465785037921765 0 -0.014102185971582592 0.008983225977314508 0 -0.01421493897223596 0.008947273004432944 0 -0.014085836460292867 0.0089465785037921765 0 -0.014102185971582592 0.008983225977314508 0 -0.014054120142044879 0.0090149672734425295 0 -0.015694532255126993 0.012757900673342653 0 -0.014727415566665049 0.011772639850465871 0 -0.014085836460292867 0.0089465785037921765 0 -0.014038369172737576 0.0090248116924148396 0 -0.014054120142044879 0.0090149672734425295 0 -0.012909500594019735 0.011832159696410355 0 -0.014451042367534759 0.012232901824514789 0 -0.013855021656285198 0.013473700624073805 0 -0.014727415566665049 0.011772639850465871 0 -0.015009287700070345 0.01521103783116619 0 -0.012909500594019735 0.011832159696410355 0 -0.014451042367534759 0.012232901824514789 0 -0.014518881184500855 0.010859730245482837 0 -0.014451042367534759 0.012232901824514789 0 -0.015287304794638266 0.011190489431722496 0 -0.015434482211661249 0.012745565582031014 0 -0.014451042367534759 0.012232901824514789 0 -0.014924701429168555 0.01382696268656255 0 -0.015434482211661249 0.012745565582031014 0 -0.014936419406409955 0.014909809418399282 0 -0.015009287700070345 0.01521103783116619 0 -0.014451042367534759 0.012232901824514789 0 -0.014924701429168555 0.01382696268656255 0 -0.013855021656285198 0.013473700624073805 0 -0.015049811890323473 0.01508394178270717 0 -0.014924701429168555 0.01382696268656255 0 -0.013855021656285198 0.013473700624073805 0 -0.015670925368428089 0.015458994092364706 0 -0.015049811890323473 0.01508394178270717 0 -0.015813973131612886 0.016151698303579171 0 -0.016355771224439947 0.016887404510342399 0 -0.016342135403600817 0.015873373660607704 0 -0.015813973131612886 0.016151698303579171 0 -0.015670925368428089 0.015458994092364706 0 -0.016342135403600817 0.015873373660607704 0 -0.015813973131612886 0.016151698303579171 0 -0.019719879420966136 0.016148200264914384 0 -0.018843287198277686 0.015805610628740526 0 -0.01942425416280559 0.015254210992689832 0 -0.018843287198277686 0.015805610628740526 0 -0.01942425416280559 0.015254210992689832 0 -0.018856080503332453 0.015273463274241757 0 -0.019555299073536005 0.014439886169923493 0 -0.01942425416280559 0.015254210992689832 0 -0.018888594328800409 0.014821410031609914 0 -0.01942425416280559 0.015254210992689832 0 -0.018888594328800409 0.014821410031609914 0 -0.018856080503332453 0.015273463274241757 0 -0.018888594328800409 0.014821410031609914 0 -0.018856080503332453 0.015273463274241757 0 -0.01826902799463883 0.015213348250781385 0 -0.01911674480001422 0.014716407922081653 0 -0.018487596628409868 0.014850824686506364 0 -0.019075728536515863 0.014559723562805098 0 -0.019316158103629171 0.014620045738661632 0 -0.019040851177100509 0.014824149937938402 0 -0.016405832579720885 0.012242286152470298 0 -0.016950977323756448 0.013149924639123884 0 -0.014403781581756333 0.0089335985197188383 0 -0.014352030654981564 0.0088940414634880692 0 -0.014363614866711189 0.0089209803755831048 0 -0.016554956589476769 0.012831062556702503 0 -0.017367027999891524 0.013657561226281218 0 -0.017882965541483629 0.013312450880369784 0 -0.016405832579720885 0.012242286152470298 0 -0.018487596628409868 0.014850824686506364 0 -0.018843287198277686 0.015805610628740526 0 -0.018856080503332453 0.015273463274241757 0 -0.01826902799463883 0.015213348250781385 0 -0.014352030654981564 0.0088940414634880692 0 -0.01424366971555749 0.0088897995750051514 0 -0.014321432064607389 0.00891173818663832 0 -0.014352030654981564 0.0088940414634880692 0 -0.014321432064607389 0.00891173818663832 0 -0.014363614866711189 0.0089209803755831048 0 -0.018487596628409868 0.014850824686506364 0 -0.016950977323756448 0.013149924639123884 0 -0.018553578651060974 0.014583244576801274 0 -0.018922353349633405 0.014975389085505341 0 -0.018674512821667957 0.015142110860718264 0 -0.018553578651060974 0.014583244576801274 0 -0.018674512821667957 0.015142110860718264 0 -0.018127978753610476 0.014958801369573836 0 -0.018747662274000865 0.014576623376727814 0 -0.019075728536515863 0.014559723562805098 0 -0.019040851177100509 0.014824149937938402 0 -0.018703526352941834 0.014608709700085119 0 -0.018487596628409868 0.014850824686506364 0 -0.016950977323756448 0.013149924639123884 0 -0.018970173574554085 0.015398845439953488 0 -0.01753506233520484 0.015299430115530388 0 -0.018127978753610476 0.014958801369573836 0 -0.018099809779617632 0.015696699217767424 0 -0.018801913624254294 0.01519073683542071 0 -0.018127978753610476 0.014958801369573836 0 -0.018099809779617632 0.015696699217767424 0 -0.016950977323756448 0.013149924639123884 0 -0.016162655495743916 0.012161311786258998 0 -0.01424366971555749 0.0088897995750051514 0 -0.01421493897223596 0.008947273004432944 0 -0.014290553469375952 0.0089240823204715311 0 -0.01424366971555749 0.0088897995750051514 0 -0.014290553469375952 0.0089240823204715311 0 -0.014321432064607389 0.00891173818663832 0 -0.01421493897223596 0.008947273004432944 0 -0.014338974745509846 0.008943105996834854 0 -0.014290553469375952 0.0089240823204715311 0 -0.014102185971582592 0.008983225977314508 0 -0.01421493897223596 0.008947273004432944 0 -0.014246061371832326 0.0089680346515884565 0 -0.01421493897223596 0.008947273004432944 0 -0.014338974745509846 0.008943105996834854 0 -0.014246061371832326 0.0089680346515884565 0 -0.014338974745509846 0.008943105996834854 0 -0.014350190059245781 0.0089314103156075443 0 -0.014290553469375952 0.0089240823204715311 0 -0.014350190059245781 0.0089314103156075443 0 -0.014290553469375952 0.0089240823204715311 0 -0.014321432064607389 0.00891173818663832 0 -0.014350190059245781 0.0089314103156075443 0 -0.014321432064607389 0.00891173818663832 0 -0.014363614866711189 0.0089209803755831048 0 -0.014350190059245781 0.0089314103156075443 0 -0.014363614866711189 0.0089209803755831048 0 -0.014389334294295108 0.0089437419151937678 0 -0.014350190059245781 0.0089314103156075443 0 -0.014389334294295108 0.0089437419151937678 0 -0.014385528140250221 0.0089447571560942723 0 -0.014403781581756333 0.0089335985197188383 0 -0.014363614866711189 0.0089209803755831048 0 -0.014389334294295108 0.0089437419151937678 0 -0.014338974745509846 0.008943105996834854 0 -0.014350190059245781 0.0089314103156075443 0 -0.014385528140250221 0.0089447571560942723 0 -0.014338974745509846 0.008943105996834854 0 -0.014385528140250221 0.0089447571560942723 0 -0.014398064675673859 0.0089367914024981593 0 -0.014385528140250221 0.0089447571560942723 0 -0.014391051624791788 0.0089471833768721021 0 -0.014398064675673859 0.0089367914024981593 0 -0.014389334294295108 0.0089437419151937678 0 -0.014385528140250221 0.0089447571560942723 0 -0.014391196597957663 0.0089596258965627083 0 -0.014385528140250221 0.0089447571560942723 0 -0.014391051624791788 0.0089471833768721021 0 -0.014391196597957663 0.0089596258965627083 0 -0.014391051624791788 0.0089471833768721021 0 -0.014391196597957663 0.0089596258965627083 0 -0.014388868650559676 0.0089424519790851521 0 -0.014377678407710447 0.0089575325808622219 0 -0.014391196597957663 0.0089596258965627083 0 -0.014388868650559676 0.0089424519790851521 0 -0.014389334294295108 0.0089437419151937678 0 -0.014391196597957663 0.0089596258965627083 0 -0.014400885772508068 0.0089591810043239996 0 -0.01743233657891375 0.012198553210229614 0 -0.016539625796215589 0.011892336577560496 0 -0.017059931660903509 0.012401508223420924 0 -0.018965409863309978 0.014460452253562992 0 -0.016405832579720885 0.012242286152470298 0 -0.016405832579720885 0.012242286152470298 0 -0.015465265240249128 0.010411859735888238 0 -0.014403781581756333 0.0089335985197188383 0 -0.014389334294295108 0.0089437419151937678 0 -0.014400885772508068 0.0089591810043239996 0 -0.014405365865723472 0.0088909296599859154 0 -0.014424978901652206 0.0088956007760038376 0 -0.014429381527723996 0.0088133202999846998 0 -0.014386040532411647 0.0087983147556603466 0 -0.014405365865723472 0.0088909296599859154 0 -0.014429381527723996 0.0088133202999846998 0 -0.014374243632383083 0.0088667331389269549 0 -0.014386040532411647 0.0087983147556603466 0 -0.014405365865723472 0.0088909296599859154 0 -0.014369136457426874 0.0089123077320045572 0 -0.014374243632383083 0.0088667331389269549 0 -0.014405365865723472 0.0088909296599859154 0 -0.014391051624791788 0.0089471833768721021 0 -0.014388868650559676 0.0089424519790851521 0 -0.014398064675673859 0.0089367914024981593 0 -0.014405365865723472 0.0088909296599859154 0 -0.014388868650559676 0.0089424519790851521 0 -0.014398064675673859 0.0089367914024981593 0 -0.014369136457426874 0.0089123077320045572 0 -0.014405365865723472 0.0088909296599859154 0 -0.014388868650559676 0.0089424519790851521 0 -0.014398064675673859 0.0089367914024981593 0 -0.014424978901652206 0.0088956007760038376 0 -0.014365799129723229 0.008950026163963079 0 -0.014405365865723472 0.0088909296599859154 0 -0.014398064675673859 0.0089367914024981593 0 -0.014424978901652206 0.0088956007760038376 0 -0.014347203363594034 0.0090010067714193006 0 -0.014365799129723229 0.008950026163963079 0 -0.014246061371832326 0.0089680346515884565 0 -0.014424978901652206 0.0088956007760038376 0 -0.014347203363594034 0.0090010067714193006 0 -0.014365799129723229 0.008950026163963079 0 -0.014338974745509846 0.008943105996834854 0 -0.014398064675673859 0.0089367914024981593 0 -0.014365799129723229 0.008950026163963079 0 -0.014338974745509846 0.008943105996834854 0 -0.014365799129723229 0.008950026163963079 0 -0.014246061371832326 0.0089680346515884565 0 -0.013517694158880137 0.0088721014472781905 0 -0.01400934928119929 0.0090446631424559824 0 -0.013777662032455137 0.0089051853177276041 0 -0.013924194789627505 0.0089165950388722555 0 -0.013993226201278486 0.0090276012577916193 0 -0.014347203363594034 0.0090010067714193006 0 -0.014246061371832326 0.0089680346515884565 0 -0.01400934928119929 0.0090446631424559824 0 -0.013517694158880137 0.0088721014472781905 0 -0.013777662032455137 0.0089051853177276041 0 -0.013710774121750103 0.0087767239698573855 0 -0.013517694158880137 0.0088721014472781905 0 -0.013532231342764748 0.0085932502092411159 0 -0.013710774121750103 0.0087767239698573855 0 -0.013532231342764748 0.0085932502092411159 0 -0.013899692908977008 0.0082514817320764322 0 -0.013485711580676117 0.0082941680389097133 0 -0.013532231342764748 0.0085932502092411159 0 -0.013257226833996825 0.0085772165215282081 0 -0.013485711580676117 0.0082941680389097133 0 -0.013924194789627505 0.0089165950388722555 0 -0.013876466109298793 0.0086988610203574662 0 -0.013517694158880137 0.0088721014472781905 0 -0.013532231342764748 0.0085932502092411159 0 -0.013257226833996825 0.0085772165215282081 0 -0.014424978901652206 0.0088956007760038376 0 -0.014347203363594034 0.0090010067714193006 0 -0.014479547670844669 0.008784720155896094 0 -0.013257226833996825 0.0085772165215282081 0 -0.013129952278603864 0.008323795648213516 0 -0.013244070035373281 0.0081974316595851953 0 -0.014424978901652206 0.0088956007760038376 0 -0.014479547670844669 0.008784720155896094 0 -0.014429381527723996 0.0088133202999846998 0 -0.014479547670844669 0.008784720155896094 0 -0.014466816893971517 0.0084480923190512619 0 -0.01441757627167058 0.0086691799574038619 0 -0.013876466109298793 0.0086988610203574662 0 -0.013760128396828553 0.0082497717970785884 0 -0.014479547670844669 0.008784720155896094 0 -0.01441757627167058 0.0086691799574038619 0 -0.014429381527723996 0.0088133202999846998 0 -0.014386040532411647 0.0087983147556603466 0 -0.01441757627167058 0.0086691799574038619 0 -0.014429381527723996 0.0088133202999846998 0 -0.014473560038515309 0.0098367377170338853 0 -0.01424490755619026 0.010440297440743899 0 -0.013795911160057383 0.009992154188906064 0 -0.014473560038515309 0.0098367377170338853 0 -0.015315198720352726 0.0098343531994222258 0 -0.014518881184500855 0.010859730245482837 0 -0.015315198720352726 0.0098343531994222258 0 -0.014518881184500855 0.010859730245482837 0 -0.015287304794638266 0.011190489431722496 0 -0.014451042367534759 0.012232901824514789 0 -0.014518881184500855 0.010859730245482837 0 -0.015287304794638266 0.011190489431722496 0 -0.014473560038515309 0.0098367377170338853 0 -0.014518881184500855 0.010859730245482837 0 -0.01424490755619026 0.010440297440743899 0 -0.014727415566665049 0.011772639850465871 0 -0.014166669837875637 0.011030794334024964 0 -0.014173199268973478 0.010993608009728453 0 -0.014518881184500855 0.010859730245482837 0 -0.01424490755619026 0.010440297440743899 0 -0.014038369172737576 0.0090248116924148396 0 -0.014054120142044879 0.0090149672734425295 0 -0.014054569154703734 0.0089998272278205144 0 -0.014173199268973478 0.010993608009728453 0 -0.01424490755619026 0.010440297440743899 0 -0.013795911160057383 0.009992154188906064 0 -0.014727415566665049 0.011772639850465871 0 -0.01375459940660311 0.0091034717008507109 0 -0.014102185971582592 0.008983225977314508 0 -0.014246061371832326 0.0089680346515884565 0 -0.01400934928119929 0.0090446631424559824 0 -0.014054120142044879 0.0090149672734425295 0 -0.01400934928119929 0.0090446631424559824 0 -0.014054569154703734 0.0089998272278205144 0 -0.014102185971582592 0.008983225977314508 0 -0.014054120142044879 0.0090149672734425295 0 -0.01400934928119929 0.0090446631424559824 0 -0.013777662032455137 0.0089051853177276041 0 -0.014054569154703734 0.0089998272278205144 0 -0.013710774121750103 0.0087767239698573855 0 -0.01400934928119929 0.0090446631424559824 0 -0.013777662032455137 0.0089051853177276041 0 -0.014054569154703734 0.0089998272278205144 0 -0.014473560038515309 0.0098367377170338853 0 -0.013795911160057383 0.009992154188906064 0 -0.01417370803484273 0.0090132970391821037 0 -0.013795911160057383 0.009992154188906064 0 -0.01417370803484273 0.0090132970391821037 0 -0.013710774121750103 0.0087767239698573855 0 -0.01375459940660311 0.0091034717008507109 0 -0.013809991146596225 0.0090264306809447609 0 -0.01417370803484273 0.0090132970391821037 0 -0.013710774121750103 0.0087767239698573855 0 -0.013899692908977008 0.0082514817320764322 0 -0.013532231342764748 0.0085932502092411159 0 -0.013710774121750103 0.0087767239698573855 0 -0.013899692908977008 0.0082514817320764322 0 -0.01417370803484273 0.0090132970391821037 0 -0.013899692908977008 0.0082514817320764322 0 -0.014522115767223289 0.0083278081354819563 0 -0.014522115767223289 0.0083278081354819563 0 -0.014811387580452494 0.009058164865251515 0 -0.01502717360633314 0.0084344475913295785 0 -0.01417370803484273 0.0090132970391821037 0 -0.014522115767223289 0.0083278081354819563 0 -0.014811387580452494 0.009058164865251515 0 -0.014473560038515309 0.0098367377170338853 0 -0.01417370803484273 0.0090132970391821037 0 -0.014811387580452494 0.009058164865251515 0 -0.014473560038515309 0.0098367377170338853 0 -0.015315198720352726 0.0098343531994222258 0 -0.014811387580452494 0.009058164865251515 0 -0.015315198720352726 0.0098343531994222258 0 -0.014811387580452494 0.009058164865251515 0 -0.015445063005212282 0.0088662024041482358 0 -0.014811387580452494 0.009058164865251515 0 -0.01502717360633314 0.0084344475913295785 0 -0.015445063005212282 0.0088662024041482358 0 -0.01502717360633314 0.0084344475913295785 0 -0.015445063005212282 0.0088662024041482358 0 -0.015556608536497941 0.0082807228799384094 0 -0.015445063005212282 0.0088662024041482358 0 -0.015955180900810093 0.0088409419950767551 0 -0.015556608536497941 0.0082807228799384094 0 -0.015445063005212282 0.0088662024041482358 0 -0.015955180900810093 0.0088409419950767551 0 -0.015854863917209371 0.0093254678096779606 0 -0.015955180900810093 0.0088409419950767551 0 -0.016331242963663596 0.0094180467781644177 0 -0.016467181811129415 0.0088408185222301466 0 -0.015955180900810093 0.0088409419950767551 0 -0.016331242963663596 0.0094180467781644177 0 -0.015854863917209371 0.0093254678096779606 0 -0.016331242963663596 0.0094180467781644177 0 -0.015854863917209371 0.0093254678096779606 0 -0.016029496474111251 0.0097402048068185917 0 -0.015315198720352726 0.0098343531994222258 0 -0.015445063005212282 0.0088662024041482358 0 -0.015854863917209371 0.0093254678096779606 0 -0.015315198720352726 0.0098343531994222258 0 -0.015854863917209371 0.0093254678096779606 0 -0.016029496474111251 0.0097402048068185917 0 -0.016416080886302357 0.0096372564885194821 0 -0.016315001839917617 0.0094450312968912872 0 -0.016095669350885296 0.0095773540468062877 0 -0.016416080886302357 0.0096372564885194821 0 -0.016510525269957249 0.0093786251771396292 0 -0.016315001839917617 0.0094450312968912872 0 -0.016510525269957249 0.0093786251771396292 0 -0.016517037299917256 0.009403272336045182 0 -0.016315001839917617 0.0094450312968912872 0 -0.016416080886302357 0.0096372564885194821 0 -0.016510525269957249 0.0093786251771396292 0 -0.01649643911426249 0.0093289401175478421 0 -0.016510525269957249 0.0093786251771396292 0 -0.016517037299917256 0.009403272336045182 0 -0.016467181811129415 0.0088408185222301466 0 -0.016331242963663596 0.0094180467781644177 0 -0.016517037299917256 0.009403272336045182 0 -0.016467181811129415 0.0088408185222301466 0 -0.016331242963663596 0.0094180467781644177 0 -0.016517037299917256 0.009403272336045182 0 -0.016525833642433648 0.0097026941632260312 0 -0.016517037299917256 0.009403272336045182 0 -0.016315001839917617 0.0094450312968912872 0 -0.01652242612220917 0.0095087067877840555 0 -0.016525833642433648 0.0097026941632260312 0 -0.016514015250078569 0.0099144096222149557 0 -0.016488442716963446 0.0098516230955894082 0 -0.01652242612220917 0.0095087067877840555 0 -0.016525833642433648 0.0097026941632260312 0 -0.016514015250078569 0.0099144096222149557 0 -0.016517037299917256 0.009403272336045182 0 -0.01652242612220917 0.0095087067877840555 0 -0.016525833642433648 0.0097026941632260312 0 -0.014293137007653965 0.014850035425795455 0 -0.015508822369650071 0.012988400169036527 0 -0.014463412505041739 0.018260904750676293 0 -0.015013399347294487 0.018177082642074936 0 -0.014477855836541705 0.018049319098203793 0 -0.014463412505041739 0.018260904750676293 0 -0.013919992566176638 0.018315866091706559 0 -0.014477855836541705 0.018049319098203793 0 -0.014293137007653965 0.014850035425795455 0 -0.011839176792693364 0.017669671803386175 0 -0.013161675250809178 0.013114239468659885 0 -0.014293137007653965 0.014850035425795455 0 -0.01012361871964992 0.017052364590076703 0 -0.0099347997078388303 0.017676067782616087 0 -0.010155825944449179 0.017658914750210631 0 -0.01012361871964992 0.017052364590076703 0 -0.010155825944449179 0.017658914750210631 0 -0.010562275493261298 0.017341366033736438 0 -0.015315198720352726 0.0098343531994222258 0 -0.016029496474111251 0.0097402048068185917 0 -0.01594002041999 0.010549053540284995 0 -0.016331242963663596 0.0094180467781644177 0 -0.016525833642433648 0.0097026941632260312 0 -0.016488442716963446 0.0098516230955894082 0 -0.016331242963663596 0.0094180467781644177 0 -0.016029496474111251 0.0097402048068185917 0 -0.016488442716963446 0.0098516230955894082 0 -0.016029496474111251 0.0097402048068185917 0 -0.016488442716963446 0.0098516230955894082 0 -0.01594002041999 0.010549053540284995 0 -0.016514015250078569 0.0099144096222149557 0 -0.016488442716963446 0.0098516230955894082 0 -0.016465615828616848 0.0099362629117362572 0 -0.016488442716963446 0.0098516230955894082 0 -0.016415030398103762 0.011019015579352191 0 -0.01594002041999 0.010549053540284995 0 -0.016697653646089286 0.0091079151726236977 0 -0.015508822369650071 0.012988400169036527 0 -0.016488442716963446 0.0098516230955894082 0 -0.017010846627966369 0.011487532540374597 0 -0.016415030398103762 0.011019015579352191 0 -0.017010846627966369 0.011487532540374597 0 -0.016415030398103762 0.011019015579352191 0 -0.017053936125871624 0.012069957505118391 0 -0.01594002041999 0.010549053540284995 0 -0.015287304794638266 0.011190489431722496 0 -0.016039178624903592 0.01178231205463764 0 -0.015315198720352726 0.0098343531994222258 0 -0.01594002041999 0.010549053540284995 0 -0.015287304794638266 0.011190489431722496 0 -0.016415030398103762 0.011019015579352191 0 -0.01594002041999 0.010549053540284995 0 -0.016039178624903592 0.01178231205463764 0 -0.015287304794638266 0.011190489431722496 0 -0.016039178624903592 0.01178231205463764 0 -0.015434482211661249 0.012745565582031014 0 -0.016039178624903592 0.01178231205463764 0 -0.015434482211661249 0.012745565582031014 0 -0.016185092451904064 0.013060005355487203 0 -0.014924701429168555 0.01382696268656255 0 -0.015434482211661249 0.012745565582031014 0 -0.01566258140430022 0.013982175391756139 0 -0.015434482211661249 0.012745565582031014 0 -0.016185092451904064 0.013060005355487203 0 -0.01566258140430022 0.013982175391756139 0 -0.014924701429168555 0.01382696268656255 0 -0.01566258140430022 0.013982175391756139 0 -0.015281189621560528 0.014536123659016704 0 -0.015010358381111744 0.0179403661809702 0 -0.014555367366737557 0.017587250899109352 0 -0.015136548540590773 0.017024224343163297 0 -0.016185092451904064 0.013060005355487203 0 -0.01566258140430022 0.013982175391756139 0 -0.016673785845565319 0.014478696841235511 0 -0.016185092451904064 0.013060005355487203 0 -0.017053936125871624 0.012069957505118391 0 -0.016673785845565319 0.014478696841235511 0 -0.015842853747308497 0.014875986470142086 0 -0.015891720481639827 0.01572074152446936 0 -0.016039178624903592 0.01178231205463764 0 -0.016185092451904064 0.013060005355487203 0 -0.017053936125871624 0.012069957505118391 0 -0.016415030398103762 0.011019015579352191 0 -0.016039178624903592 0.01178231205463764 0 -0.017053936125871624 0.012069957505118391 0 -0.015508822369650071 0.012988400169036527 0 -0.015842853747308497 0.014875986470142086 0 -0.015013399347294487 0.018177082642074936 0 -0.015010358381111744 0.0179403661809702 0 -0.014760776944586971 0.017993077133490749 0 -0.015013399347294487 0.018177082642074936 0 -0.014760776944586971 0.017993077133490749 0 -0.014477855836541705 0.018049319098203793 0 -0.014760776944586971 0.017993077133490749 0 -0.014477855836541705 0.018049319098203793 0 -0.014555367366737557 0.017587250899109352 0 -0.014477855836541705 0.018049319098203793 0 -0.014555367366737557 0.017587250899109352 0 -0.01405808412373789 0.017909610544107963 0 -0.015010358381111744 0.0179403661809702 0 -0.014760776944586971 0.017993077133490749 0 -0.014555367366737557 0.017587250899109352 0 -0.014555367366737557 0.017587250899109352 0 -0.01405808412373789 0.017909610544107963 0 -0.013808116040144942 0.017531124580558364 0 -0.013919992566176638 0.018315866091706559 0 -0.014477855836541705 0.018049319098203793 0 -0.01405808412373789 0.017909610544107963 0 -0.013919992566176638 0.018315866091706559 0 -0.013508093169847012 0.017925909716430759 0 -0.01405808412373789 0.017909610544107963 0 -0.013508093169847012 0.017925909716430759 0 -0.01405808412373789 0.017909610544107963 0 -0.013808116040144942 0.017531124580558364 0 -0.014555367366737557 0.017587250899109352 0 -0.013808116040144942 0.017531124580558364 0 -0.014178414234467453 0.016960970707924627 0 -0.013808116040144942 0.017531124580558364 0 -0.014178414234467453 0.016960970707924627 0 -0.013282158114310284 0.017206202275720853 0 -0.014555367366737557 0.017587250899109352 0 -0.014178414234467453 0.016960970707924627 0 -0.015136548540590773 0.017024224343163297 0 -0.014178414234467453 0.016960970707924627 0 -0.014705471401695269 0.016409074709059446 0 -0.015136548540590773 0.017024224343163297 0 -0.014178414234467453 0.016960970707924627 0 -0.014161435599510835 0.016354335540715349 0 -0.013524204329266012 0.016587653972491026 0 -0.014178414234467453 0.016960970707924627 0 -0.013524204329266012 0.016587653972491026 0 -0.013282158114310284 0.017206202275720853 0 -0.014178414234467453 0.016960970707924627 0 -0.014161435599510835 0.016354335540715349 0 -0.014705471401695269 0.016409074709059446 0 -0.013825821139121244 0.015997550967211515 0 -0.014161435599510835 0.016354335540715349 0 -0.013524204329266012 0.016587653972491026 0 -0.01469247314131992 0.015856703935094113 0 -0.013825821139121244 0.015997550967211515 0 -0.014161435599510835 0.016354335540715349 0 -0.01469247314131992 0.015856703935094113 0 -0.014705471401695269 0.016409074709059446 0 -0.015465548991835394 0.015936726590233308 0 -0.01469247314131992 0.015856703935094113 0 -0.014161435599510835 0.016354335540715349 0 -0.014705471401695269 0.016409074709059446 0 -0.015442539072354104 0.015887043750718827 0 -0.015465548991835394 0.015936726590233308 0 -0.015568056003781744 0.015486999463661832 0 -0.015465548991835394 0.015936726590233308 0 -0.015568056003781744 0.015486999463661832 0 -0.016673785845565319 0.014478696841235511 0 -0.015685102225622621 0.016850814948746979 0 -0.015657301149804698 0.015949783282443931 0 -0.015442539072354104 0.015887043750718827 0 -0.01518678507561968 0.015424392123109166 0 -0.015568056003781744 0.015486999463661832 0 -0.01566258140430022 0.013982175391756139 0 -0.015525342765679856 0.014926141802180935 0 -0.016673785845565319 0.014478696841235511 0 -0.01518678507561968 0.015424392123109166 0 -0.015255790893136535 0.015022554715959282 0 -0.015525342765679856 0.014926141802180935 0 -0.01518678507561968 0.015424392123109166 0 -0.015568056003781744 0.015486999463661832 0 -0.015525342765679856 0.014926141802180935 0 -0.01566258140430022 0.013982175391756139 0 -0.015281189621560528 0.014536123659016704 0 -0.015525342765679856 0.014926141802180935 0 -0.015255790893136535 0.015022554715959282 0 -0.015281189621560528 0.014536123659016704 0 -0.015525342765679856 0.014926141802180935 0 -0.015545772672856246 0.015843386231030297 0 -0.015891720481639827 0.01572074152446936 0 -0.014705471401695269 0.016409074709059446 0 -0.015465548991835394 0.015936726590233308 0 -0.015136548540590773 0.017024224343163297 0 -0.015568056003781744 0.015486999463661832 0 -0.015525342765679856 0.014926141802180935 0 -0.016673785845565319 0.014478696841235511 0 -0.012151052517077977 0.016776354668434156 0 -0.011130002718011643 0.016420639075713124 0 -0.011678357113771763 0.017298695158621084 0 -0.011130002718011643 0.016420639075713124 0 -0.011678357113771763 0.017298695158621084 0 -0.010944008967705822 0.017353853029047028 0 -0.0093712262405410071 0.01588528630683278 0 -0.010845561123101069 0.015410112642441586 0 -0.011130002718011643 0.016420639075713124 0 -0.010845561123101069 0.015410112642441586 0 -0.011130002718011643 0.016420639075713124 0 -0.011809577116696151 0.016014652301938884 0 -0.012151052517077977 0.016776354668434156 0 -0.011130002718011643 0.016420639075713124 0 -0.011809577116696151 0.016014652301938884 0 -0.012151052517077977 0.016776354668434156 0 -0.011809577116696151 0.016014652301938884 0 -0.012812945372394399 0.016156175831218235 0 -0.013825821139121244 0.015997550967211515 0 -0.012812945372394399 0.016156175831218235 0 -0.013524204329266012 0.016587653972491026 0 -0.012812945372394399 0.016156175831218235 0 -0.013524204329266012 0.016587653972491026 0 -0.012813963580167401 0.016898388465647746 0 -0.013524204329266012 0.016587653972491026 0 -0.012813963580167401 0.016898388465647746 0 -0.013282158114310284 0.017206202275720853 0 -0.012151052517077977 0.016776354668434156 0 -0.012812945372394399 0.016156175831218235 0 -0.012813963580167401 0.016898388465647746 0 -0.012151052517077977 0.016776354668434156 0 -0.012813963580167401 0.016898388465647746 0 -0.012285819539222056 0.017487549893243005 0 -0.012813963580167401 0.016898388465647746 0 -0.012285819539222056 0.017487549893243005 0 -0.013282158114310284 0.017206202275720853 0 -0.012285819539222056 0.017487549893243005 0 -0.013282158114310284 0.017206202275720853 0 -0.013082089578133503 0.017694560663485723 0 -0.013808116040144942 0.017531124580558364 0 -0.013282158114310284 0.017206202275720853 0 -0.013082089578133503 0.017694560663485723 0 -0.013508093169847012 0.017925909716430759 0 -0.013082089578133503 0.017694560663485723 0 -0.012730366004263116 0.018137531192666499 0 -0.013508093169847012 0.017925909716430759 0 -0.013808116040144942 0.017531124580558364 0 -0.013082089578133503 0.017694560663485723 0 -0.012285819539222056 0.017487549893243005 0 -0.013082089578133503 0.017694560663485723 0 -0.012730366004263116 0.018137531192666499 0 -0.012285819539222056 0.017487549893243005 0 -0.011739696055470032 0.017600292952865221 0 -0.012730366004263116 0.018137531192666499 0 -0.012285819539222056 0.017487549893243005 0 -0.011564066527756704 0.017544612574678368 0 -0.011739696055470032 0.017600292952865221 0 -0.012285819539222056 0.017487549893243005 0 -0.011678357113771763 0.017298695158621084 0 -0.011564066527756704 0.017544612574678368 0 -0.012151052517077977 0.016776354668434156 0 -0.012285819539222056 0.017487549893243005 0 -0.011678357113771763 0.017298695158621084 0 -0.011678357113771763 0.017298695158621084 0 -0.010944008967705822 0.017353853029047028 0 -0.011564066527756704 0.017544612574678368 0 -0.011737280639588586 0.017374441397440005 0 -0.011739696055470032 0.017600292952865221 0 -0.011784397133373901 0.017078995117245803 0 -0.011737280639588586 0.017374441397440005 0 -0.011564066527756704 0.017544612574678368 0 -0.011739696055470032 0.017600292952865221 0 -0.011739696055470032 0.017600292952865221 0 -0.01166212060479742 0.016972030717792342 0 -0.011418340424591488 0.016903673399984033 0 -0.01166212060479742 0.016972030717792342 0 -0.011418340424591488 0.016903673399984033 0 -0.011514370834623306 0.016580581977282131 0 -0.01166212060479742 0.016972030717792342 0 -0.011784397133373901 0.017078995117245803 0 -0.011649142378075178 0.016592784196362138 0 -0.011739696055470032 0.017600292952865221 0 -0.01166212060479742 0.016972030717792342 0 -0.011784397133373901 0.017078995117245803 0 -0.011839176792693364 0.017669671803386175 0 -0.011950595867861735 0.017884893675373936 0 -0.010155825944449179 0.017658914750210631 0 -0.011036695903888911 0.017609382823464418 0 -0.010562275493261298 0.017341366033736438 0 -0.013919992566176638 0.018315866091706559 0 -0.013508093169847012 0.017925909716430759 0 -0.012730366004263116 0.018137531192666499 0 -0.01177099916679317 0.017645419600234725 0 -0.011950595867861735 0.017884893675373936 0 -0.011739696055470032 0.017600292952865221 0 -0.011036695903888911 0.017609382823464418 0 -0.011418340424591488 0.016903673399984033 0 -0.011418340424591488 0.016903673399984033 0 -0.011024133377445599 0.016900879876002421 0 -0.011382301040742459 0.016379427000355228 0 -0.011036695903888911 0.017609382823464418 0 -0.011418340424591488 0.016903673399984033 0 -0.011024133377445599 0.016900879876002421 0 -0.01012361871964992 0.017052364590076703 0 -0.011024133377445599 0.016900879876002421 0 -0.010562275493261298 0.017341366033736438 0 -0.011036695903888911 0.017609382823464418 0 -0.011024133377445599 0.016900879876002421 0 -0.010562275493261298 0.017341366033736438 0 -0.016315001839917617 0.0094450312968912872 0 -0.01652242612220917 0.0095087067877840555 0 -0.015676872694074619 0.0093903640469650967 0 -0.01012361871964992 0.017052364590076703 0 -0.011024133377445599 0.016900879876002421 0 -0.011155454460791157 0.015812259364670383 0 -0.013161675250809178 0.013114239468659885 0 -0.013691930442258833 0.012229902477796033 0 -0.01012361871964992 0.017052364590076703 0 -0.011155454460791157 0.015812259364670383 0 -0.011625500525743291 0.014974127043472465 0 -0.011024133377445599 0.016900879876002421 0 -0.011155454460791157 0.015812259364670383 0 -0.011382301040742459 0.016379427000355228 0 -0.011155454460791157 0.015812259364670383 0 -0.011382301040742459 0.016379427000355228 0 -0.011476495443845077 0.016349669091139947 0 -0.011382301040742459 0.016379427000355228 0 -0.011476495443845077 0.016349669091139947 0 -0.011514370834623306 0.016580581977282131 0 -0.011418340424591488 0.016903673399984033 0 -0.011382301040742459 0.016379427000355228 0 -0.011514370834623306 0.016580581977282131 0 -0.011155454460791157 0.015812259364670383 0 -0.013909527470951739 0.014473962498265703 0 -0.011625500525743291 0.014974127043472465 0 -0.011256338827706693 0.015871993186800978 0 -0.012656753021388648 0.015321053029071861 0 -0.013909527470951739 0.014473962498265703 0 -0.011625500525743291 0.014974127043472465 0 -0.014446840876880933 0.011063248959366561 0 -0.013691930442258833 0.012229902477796033 0 -0.014404558981644354 0.011095763496306168 0 -0.015676872694074619 0.0093903640469650967 0 -0.015854418535939548 0.0099418441004793714 0 -0.015209709159932723 0.010522716514734605 0 -0.016416080886302357 0.0096372564885194821 0 -0.015854418535939548 0.0099418441004793714 0 -0.016095669350885296 0.0095773540468062877 0 -0.015676872694074619 0.0093903640469650967 0 -0.015854418535939548 0.0099418441004793714 0 -0.016095669350885296 0.0095773540468062877 0 -0.016315001839917617 0.0094450312968912872 0 -0.015676872694074619 0.0093903640469650967 0 -0.016095669350885296 0.0095773540468062877 0 -0.011860095455937459 0.01678479115806385 0 -0.011784397133373901 0.017078995117245803 0 -0.011649142378075178 0.016592784196362138 0 -0.011860095455937459 0.01678479115806385 0 -0.011763257872385639 0.016390585916343157 0 -0.011649142378075178 0.016592784196362138 0 -0.011476495443845077 0.016349669091139947 0 -0.011514370834623306 0.016580581977282131 0 -0.011649142378075178 0.016592784196362138 0 -0.01166212060479742 0.016972030717792342 0 -0.011514370834623306 0.016580581977282131 0 -0.011649142378075178 0.016592784196362138 0 -0.012656753021388648 0.015321053029071861 0 -0.014002043167220568 0.014895204501509931 0 -0.011476495443845077 0.016349669091139947 0 -0.011649142378075178 0.016592784196362138 0 -0.011728296128533504 0.016369521073288301 0 -0.011763257872385639 0.016390585916343157 0 -0.011649142378075178 0.016592784196362138 0 -0.011728296128533504 0.016369521073288301 0 -0.011763257872385639 0.016390585916343157 0 -0.011728296128533504 0.016369521073288301 0 -0.011664174285951474 0.016553870148121971 0 -0.014002043167220568 0.014895204501509931 0 -0.014380966976494845 0.010143444420725537 0 -0.016480526218068517 0.012547567112343195 0 -0.015858891776054509 0.011048293346345536 0 -0.018456341210445534 0.011300079442050798 0 -0.016480526218068517 0.012547567112343195 0 -0.015858891776054509 0.011048293346345536 0 -0.014446840876880933 0.011063248959366561 0 -0.013909527470951739 0.014473962498265703 0 -0.016480526218068517 0.012547567112343195 0 -0.014446840876880933 0.011063248959366561 0 -0.015830586175016186 -0.0028390464228767705 0 -0.015124094897138124 -0.0024824816638613204 0 -0.015626303520486648 -0.0030122997141327715 0 -0.016291677354542757 0.0026394529768438237 0 -0.014770581644973895 0.004257482359367985 0 -0.015858891776054509 0.011048293346345536 0 -0.014446840876880933 0.011063248959366561 0 -0.014429925940693061 0.010855065661733837 0 -0.015830586175016186 -0.0028390464228767705 0 -0.015884460450939518 -0.0027956155472826766 0 -0.015124094897138124 -0.0024824816638613204 0 -0.015858891776054509 0.011048293346345536 0 -0.016308108544416597 0.009757926037813669 0 -0.014429925940693061 0.010855065661733837 0 -0.015830586175016186 -0.0028390464228767705 0 -0.015885775753812451 -0.0028107228898921208 0 -0.01586954390353602 -0.003013090001743541 0 -0.015023389065850897 0.002945293134667347 0 -0.01489469918127604 0.0028764462024400985 0 -0.014907676638620209 0.0029656731560584937 0 -0.015858891776054509 0.011048293346345536 0 -0.016308108544416597 0.009757926037813669 0 -0.018456341210445534 0.011300079442050798 0 -0.016291677354542757 0.0026394529768438237 0 -0.014380966976494845 0.010143444420725537 0 -0.016291677354542757 0.0026394529768438237 0 -0.015329130799614515 -0.00033353229349213494 0 -0.016006996793503932 0.0022499738099435039 0 -0.016291677354542757 0.0026394529768438237 0 -0.016416080886302357 0.0096372564885194821 0 -0.015854418535939548 0.0099418441004793714 0 -0.015763368779126135 0.010798286252531724 0 -0.015854418535939548 0.0099418441004793714 0 -0.015763368779126135 0.010798286252531724 0 -0.015209709159932723 0.010522716514734605 0 -0.015763368779126135 0.010798286252531724 0 -0.015209709159932723 0.010522716514734605 0 -0.014429925940693061 0.010855065661733837 0 -0.015676872694074619 0.0093903640469650967 0 -0.015209709159932723 0.010522716514734605 0 -0.014446840876880933 0.011063248959366561 0 -0.015209709159932723 0.010522716514734605 0 -0.014446840876880933 0.011063248959366561 0 -0.014429925940693061 0.010855065661733837 0 -0.015124094897138124 -0.0024824816638613204 0 -0.014566283978878911 -0.0029449765460976213 0 -0.015014866878167421 -0.0030444797516987554 0 -0.015163316020084449 0.0040152427227304359 0 -0.014770581644973895 0.004257482359367985 0 -0.014414651664571449 -0.0022476561494349759 0 -0.015124094897138124 -0.0024824816638613204 0 -0.014566283978878911 -0.0029449765460976213 0 -0.014414651664571449 -0.0022476561494349759 0 -0.014566283978878911 -0.0029449765460976213 0 -0.013908283415430017 -0.002685073362307481 0 -0.014566283978878911 -0.0029449765460976213 0 -0.014581229944784935 -0.0038677225453490512 0 -0.013941406535714532 -0.0032896688491851523 0 -0.015124094897138124 -0.0024824816638613204 0 -0.015014866878167421 -0.0030444797516987554 0 -0.01540115788113158 -0.003246265276969479 0 -0.014566283978878911 -0.0029449765460976213 0 -0.015014866878167421 -0.0030444797516987554 0 -0.015077873352306303 -0.0035311456319318656 0 -0.015014866878167421 -0.0030444797516987554 0 -0.015077873352306303 -0.0035311456319318656 0 -0.01540115788113158 -0.003246265276969479 0 -0.015077873352306303 -0.0035311456319318656 0 -0.015301768703197549 -0.0040573017138297446 0 -0.014581229944784935 -0.0038677225453490512 0 -0.015077873352306303 -0.0035311456319318656 0 -0.015301768703197549 -0.0040573017138297446 0 -0.015461327949694945 -0.0036310478083423025 0 -0.014566283978878911 -0.0029449765460976213 0 -0.015077873352306303 -0.0035311456319318656 0 -0.014581229944784935 -0.0038677225453490512 0 -0.015885775753812451 -0.0028107228898921208 0 -0.016085561192761812 -0.0031153691763495363 0 -0.016395647938174437 -0.0031796629326189085 0 -0.015995019359842638 -0.0033366456575339375 0 -0.016051403008614327 -0.0032718271658380292 0 -0.016074896823206987 -0.0033886133621889424 0 -0.015995019359842638 -0.0033366456575339375 0 -0.016051403008614327 -0.0032718271658380292 0 -0.015967596224034271 -0.0032408955879685173 0 -0.015967596224034271 -0.0032408955879685173 0 -0.015891923519870184 -0.0033307570723933467 0 -0.015840039495936025 -0.0031764917971671613 0 -0.015995019359842638 -0.0033366456575339375 0 -0.015967596224034271 -0.0032408955879685173 0 -0.015891923519870184 -0.0033307570723933467 0 -0.015995019359842638 -0.0033366456575339375 0 -0.015891923519870184 -0.0033307570723933467 0 -0.015984863208205663 -0.0034522550245462596 0 -0.015891923519870184 -0.0033307570723933467 0 -0.015842584397828624 -0.0034607360798987268 0 -0.015984863208205663 -0.0034522550245462596 0 -0.015984863208205663 -0.0034522550245462596 0 -0.016074896823206987 -0.0033886133621889424 0 -0.0160958454310898 -0.0035444979407851084 0 -0.015995019359842638 -0.0033366456575339375 0 -0.015984863208205663 -0.0034522550245462596 0 -0.016074896823206987 -0.0033886133621889424 0 -0.016074896823206987 -0.0033886133621889424 0 -0.016180600156899552 -0.0034133382781385492 0 -0.0160958454310898 -0.0035444979407851084 0 -0.016074896823206987 -0.0033886133621889424 0 -0.016180600156899552 -0.0034133382781385492 0 -0.016139966924140232 -0.0033178048736095759 0 -0.016180600156899552 -0.0034133382781385492 0 -0.016255490272611105 -0.0034385514394910106 0 -0.016221196075530124 -0.0035469072599402596 0 -0.016180600156899552 -0.0034133382781385492 0 -0.016255490272611105 -0.0034385514394910106 0 -0.016270393472802173 -0.0033542674409624217 0 -0.016180600156899552 -0.0034133382781385492 0 -0.016270393472802173 -0.0033542674409624217 0 -0.016211494786937869 -0.0033114037539681684 0 -0.016255490272611105 -0.0034385514394910106 0 -0.016270393472802173 -0.0033542674409624217 0 -0.016301192540672235 -0.0033983418673631627 0 -0.016270393472802173 -0.0033542674409624217 0 -0.016211494786937869 -0.0033114037539681684 0 -0.0162824248996052 -0.0032720942729193357 0 -0.016211494786937869 -0.0033114037539681684 0 -0.0162824248996052 -0.0032720942729193357 0 -0.016189047744127789 -0.0032369688852154931 0 -0.016051403008614327 -0.0032718271658380292 0 -0.016074896823206987 -0.0033886133621889424 0 -0.016139966924140232 -0.0033178048736095759 0 -0.016180600156899552 -0.0034133382781385492 0 -0.016211494786937869 -0.0033114037539681684 0 -0.016139966924140232 -0.0033178048736095759 0 -0.016139966924140232 -0.0033178048736095759 0 -0.016116849947112669 -0.0032360403521775496 0 -0.016189047744127789 -0.0032369688852154931 0 -0.016211494786937869 -0.0033114037539681684 0 -0.016139966924140232 -0.0033178048736095759 0 -0.016189047744127789 -0.0032369688852154931 0 -0.016051403008614327 -0.0032718271658380292 0 -0.016139966924140232 -0.0033178048736095759 0 -0.016116849947112669 -0.0032360403521775496 0 -0.016085561192761812 -0.0031153691763495363 0 -0.016395647938174437 -0.0031796629326189085 0 -0.016287620349323882 -0.0031988349096645228 0 -0.016116849947112669 -0.0032360403521775496 0 -0.016085561192761812 -0.0031153691763495363 0 -0.016189047744127789 -0.0032369688852154931 0 -0.016051403008614327 -0.0032718271658380292 0 -0.016116849947112669 -0.0032360403521775496 0 -0.016085561192761812 -0.0031153691763495363 0 -0.016085561192761812 -0.0031153691763495363 0 -0.016189047744127789 -0.0032369688852154931 0 -0.016287620349323882 -0.0031988349096645228 0 -0.0162824248996052 -0.0032720942729193357 0 -0.016189047744127789 -0.0032369688852154931 0 -0.016287620349323882 -0.0031988349096645228 0 -0.016085561192761812 -0.0031153691763495363 0 -0.015942050770183475 -0.003143383757146618 0 -0.01586954390353602 -0.003013090001743541 0 -0.016051403008614327 -0.0032718271658380292 0 -0.015967596224034271 -0.0032408955879685173 0 -0.016085561192761812 -0.0031153691763495363 0 -0.015967596224034271 -0.0032408955879685173 0 -0.016085561192761812 -0.0031153691763495363 0 -0.015942050770183475 -0.003143383757146618 0 -0.015967596224034271 -0.0032408955879685173 0 -0.015942050770183475 -0.003143383757146618 0 -0.015840039495936025 -0.0031764917971671613 0 -0.015942050770183475 -0.003143383757146618 0 -0.015840039495936025 -0.0031764917971671613 0 -0.01586954390353602 -0.003013090001743541 0 -0.015885775753812451 -0.0028107228898921208 0 -0.016085561192761812 -0.0031153691763495363 0 -0.01586954390353602 -0.003013090001743541 0 -0.015840039495936025 -0.0031764917971671613 0 -0.01586954390353602 -0.003013090001743541 0 -0.015626303520486648 -0.0030122997141327715 0 -0.015626303520486648 -0.0030122997141327715 0 -0.01540115788113158 -0.003246265276969479 0 -0.015726193465587578 -0.0033096172504638037 0 -0.015840039495936025 -0.0031764917971671613 0 -0.015626303520486648 -0.0030122997141327715 0 -0.015726193465587578 -0.0033096172504638037 0 -0.015830586175016186 -0.0028390464228767705 0 -0.01586954390353602 -0.003013090001743541 0 -0.015626303520486648 -0.0030122997141327715 0 -0.015124094897138124 -0.0024824816638613204 0 -0.015626303520486648 -0.0030122997141327715 0 -0.01540115788113158 -0.003246265276969479 0 -0.015077873352306303 -0.0035311456319318656 0 -0.01540115788113158 -0.003246265276969479 0 -0.015461327949694945 -0.0036310478083423025 0 -0.01540115788113158 -0.003246265276969479 0 -0.015683008652854588 -0.0035457202943868765 0 -0.015461327949694945 -0.0036310478083423025 0 -0.01540115788113158 -0.003246265276969479 0 -0.015726193465587578 -0.0033096172504638037 0 -0.015683008652854588 -0.0035457202943868765 0 -0.015891923519870184 -0.0033307570723933467 0 -0.015840039495936025 -0.0031764917971671613 0 -0.015726193465587578 -0.0033096172504638037 0 -0.015842584397828624 -0.0034607360798987268 0 -0.015726193465587578 -0.0033096172504638037 0 -0.015683008652854588 -0.0035457202943868765 0 -0.015891923519870184 -0.0033307570723933467 0 -0.015842584397828624 -0.0034607360798987268 0 -0.015726193465587578 -0.0033096172504638037 0 -0.015842584397828624 -0.0034607360798987268 0 -0.015683008652854588 -0.0035457202943868765 0 -0.015934383374656597 -0.0036358966955102111 0 -0.015683008652854588 -0.0035457202943868765 0 -0.015461327949694945 -0.0036310478083423025 0 -0.015786950333945792 -0.0038099167600230488 0 -0.015683008652854588 -0.0035457202943868765 0 -0.015786950333945792 -0.0038099167600230488 0 -0.015934383374656597 -0.0036358966955102111 0 -0.015301768703197549 -0.0040573017138297446 0 -0.015461327949694945 -0.0036310478083423025 0 -0.015626783915637519 -0.004055051352720448 0 -0.015626783915637519 -0.004055051352720448 0 -0.015786950333945792 -0.0038099167600230488 0 -0.015914656846370886 -0.0040782553922849322 0 -0.015461327949694945 -0.0036310478083423025 0 -0.015626783915637519 -0.004055051352720448 0 -0.015786950333945792 -0.0038099167600230488 0 -0.015786950333945792 -0.0038099167600230488 0 -0.016036756532425766 -0.0038394823543167287 0 -0.015914656846370886 -0.0040782553922849322 0 -0.016036756532425766 -0.0038394823543167287 0 -0.016136789209650254 -0.0040995284581517924 0 -0.015914656846370886 -0.0040782553922849322 0 -0.015786950333945792 -0.0038099167600230488 0 -0.016036756532425766 -0.0038394823543167287 0 -0.015934383374656597 -0.0036358966955102111 0 -0.016036756532425766 -0.0038394823543167287 0 -0.015934383374656597 -0.0036358966955102111 0 -0.016060882033265739 -0.0036753739978201191 0 -0.015934383374656597 -0.0036358966955102111 0 -0.016060882033265739 -0.0036753739978201191 0 -0.0160958454310898 -0.0035444979407851084 0 -0.015984863208205663 -0.0034522550245462596 0 -0.015934383374656597 -0.0036358966955102111 0 -0.0160958454310898 -0.0035444979407851084 0 -0.015842584397828624 -0.0034607360798987268 0 -0.015984863208205663 -0.0034522550245462596 0 -0.015934383374656597 -0.0036358966955102111 0 -0.016221196075530124 -0.0035469072599402596 0 -0.016281329756818057 -0.0036368243076816517 0 -0.016323048535606274 -0.0035508790301489448 0 -0.016255490272611105 -0.0034385514394910106 0 -0.016221196075530124 -0.0035469072599402596 0 -0.016323048535606274 -0.0035508790301489448 0 -0.016221196075530124 -0.0035469072599402596 0 -0.0160958454310898 -0.0035444979407851084 0 -0.016177935870275672 -0.0036993095136989979 0 -0.016180600156899552 -0.0034133382781385492 0 -0.016221196075530124 -0.0035469072599402596 0 -0.0160958454310898 -0.0035444979407851084 0 -0.016060882033265739 -0.0036753739978201191 0 -0.0160958454310898 -0.0035444979407851084 0 -0.016177935870275672 -0.0036993095136989979 0 -0.016036756532425766 -0.0038394823543167287 0 -0.016060882033265739 -0.0036753739978201191 0 -0.016177935870275672 -0.0036993095136989979 0 -0.016221196075530124 -0.0035469072599402596 0 -0.016177935870275672 -0.0036993095136989979 0 -0.016281329756818057 -0.0036368243076816517 0 -0.016177935870275672 -0.0036993095136989979 0 -0.016281329756818057 -0.0036368243076816517 0 -0.01630227137847547 -0.0037494272044447294 0 -0.01630227137847547 -0.0037494272044447294 0 -0.016266451694222653 -0.0039175330401695638 0 -0.016382089734299013 -0.0038592858715149167 0 -0.016177935870275672 -0.0036993095136989979 0 -0.01630227137847547 -0.0037494272044447294 0 -0.016266451694222653 -0.0039175330401695638 0 -0.016036756532425766 -0.0038394823543167287 0 -0.016177935870275672 -0.0036993095136989979 0 -0.016266451694222653 -0.0039175330401695638 0 -0.016036756532425766 -0.0038394823543167287 0 -0.016266451694222653 -0.0039175330401695638 0 -0.016136789209650254 -0.0040995284581517924 0 -0.016136789209650254 -0.0040995284581517924 0 -0.01627996500744474 -0.0044691696353631504 0 -0.016395586119297055 -0.0041797227976247782 0 -0.016266451694222653 -0.0039175330401695638 0 -0.016136789209650254 -0.0040995284581517924 0 -0.016395586119297055 -0.0041797227976247782 0 -0.016136789209650254 -0.0040995284581517924 0 -0.016014398559283181 -0.004412703058397323 0 -0.01627996500744474 -0.0044691696353631504 0 -0.016136789209650254 -0.0040995284581517924 0 -0.015914656846370886 -0.0040782553922849322 0 -0.016014398559283181 -0.004412703058397323 0 -0.015914656846370886 -0.0040782553922849322 0 -0.016014398559283181 -0.004412703058397323 0 -0.015785515328286794 -0.0043377171289300702 0 -0.016014398559283181 -0.004412703058397323 0 -0.015807841156495892 -0.0046620009787703325 0 -0.015785515328286794 -0.0043377171289300702 0 -0.016014398559283181 -0.004412703058397323 0 -0.016159289824183899 -0.0048536804838178573 0 -0.015807841156495892 -0.0046620009787703325 0 -0.016014398559283181 -0.004412703058397323 0 -0.01627996500744474 -0.0044691696353631504 0 -0.016159289824183899 -0.0048536804838178573 0 -0.01627996500744474 -0.0044691696353631504 0 -0.016159289824183899 -0.0048536804838178573 0 -0.016585735478166195 -0.0047695397917589897 0 -0.016159289824183899 -0.0048536804838178573 0 -0.015820691507123265 -0.0050677544805169464 0 -0.015807841156495892 -0.0046620009787703325 0 -0.016159289824183899 -0.0048536804838178573 0 -0.015820691507123265 -0.0050677544805169464 0 -0.016096887460343254 -0.0054790606679151008 0 -0.016159289824183899 -0.0048536804838178573 0 -0.016096887460343254 -0.0054790606679151008 0 -0.016591310082589645 -0.0053805800488491151 0 -0.016159289824183899 -0.0048536804838178573 0 -0.016585735478166195 -0.0047695397917589897 0 -0.016591310082589645 -0.0053805800488491151 0 -0.015445368992179997 -0.0049172929989863539 0 -0.015075051330824169 -0.0052373965911821346 0 -0.015592601223821452 -0.0054459760121701641 0 -0.015820691507123265 -0.0050677544805169464 0 -0.015445368992179997 -0.0049172929989863539 0 -0.015592601223821452 -0.0054459760121701641 0 -0.015820691507123265 -0.0050677544805169464 0 -0.016096887460343254 -0.0054790606679151008 0 -0.015592601223821452 -0.0054459760121701641 0 -0.015820691507123265 -0.0050677544805169464 0 -0.015445368992179997 -0.0049172929989863539 0 -0.015807841156495892 -0.0046620009787703325 0 -0.015445368992179997 -0.0049172929989863539 0 -0.015500096892943144 -0.0044335133127829263 0 -0.015807841156495892 -0.0046620009787703325 0 -0.015500096892943144 -0.0044335133127829263 0 -0.015807841156495892 -0.0046620009787703325 0 -0.015785515328286794 -0.0043377171289300702 0 -0.015626783915637519 -0.004055051352720448 0 -0.015500096892943144 -0.0044335133127829263 0 -0.015785515328286794 -0.0043377171289300702 0 -0.015626783915637519 -0.004055051352720448 0 -0.015914656846370886 -0.0040782553922849322 0 -0.015785515328286794 -0.0043377171289300702 0 -0.015301768703197549 -0.0040573017138297446 0 -0.015626783915637519 -0.004055051352720448 0 -0.015500096892943144 -0.0044335133127829263 0 -0.015301768703197549 -0.0040573017138297446 0 -0.015500096892943144 -0.0044335133127829263 0 -0.014964162857143037 -0.0045199027898893867 0 -0.015301768703197549 -0.0040573017138297446 0 -0.014581229944784935 -0.0038677225453490512 0 -0.014964162857143037 -0.0045199027898893867 0 -0.015445368992179997 -0.0049172929989863539 0 -0.015500096892943144 -0.0044335133127829263 0 -0.014964162857143037 -0.0045199027898893867 0 -0.014581229944784935 -0.0038677225453490512 0 -0.014964162857143037 -0.0045199027898893867 0 -0.014031242296304309 -0.0045144592247693066 0 -0.014964162857143037 -0.0045199027898893867 0 -0.014462146257949301 -0.0054566679909946901 0 -0.014031242296304309 -0.0045144592247693066 0 -0.014964162857143037 -0.0045199027898893867 0 -0.015075051330824169 -0.0052373965911821346 0 -0.014462146257949301 -0.0054566679909946901 0 -0.015445368992179997 -0.0049172929989863539 0 -0.014964162857143037 -0.0045199027898893867 0 -0.015075051330824169 -0.0052373965911821346 0 -0.015075051330824169 -0.0052373965911821346 0 -0.015156390808504672 -0.005951057955674072 0 -0.014462146257949301 -0.0054566679909946901 0 -0.015075051330824169 -0.0052373965911821346 0 -0.015156390808504672 -0.005951057955674072 0 -0.015592601223821452 -0.0054459760121701641 0 -0.014462146257949301 -0.0054566679909946901 0 -0.014509399631824349 -0.0063026413833927354 0 -0.013738232864127614 -0.0059246278872283984 0 -0.015156390808504672 -0.005951057955674072 0 -0.014462146257949301 -0.0054566679909946901 0 -0.014509399631824349 -0.0063026413833927354 0 -0.015156390808504672 -0.005951057955674072 0 -0.014509399631824349 -0.0063026413833927354 0 -0.01508640872592806 -0.0066071857360048142 0 -0.015156390808504672 -0.005951057955674072 0 -0.01508640872592806 -0.0066071857360048142 0 -0.015684075733610199 -0.0066272084438359705 0 -0.015684075733610199 -0.0066272084438359705 0 -0.016358087170069053 -0.006592942052479657 0 -0.015883389192279909 -0.0060104234958299136 0 -0.015156390808504672 -0.005951057955674072 0 -0.015684075733610199 -0.0066272084438359705 0 -0.015883389192279909 -0.0060104234958299136 0 -0.016358087170069053 -0.006592942052479657 0 -0.016495485469177534 -0.0059764882823781021 0 -0.016873819909135595 -0.0065410929259062042 0 -0.016358087170069053 -0.006592942052479657 0 -0.016495485469177534 -0.0059764882823781021 0 -0.015883389192279909 -0.0060104234958299136 0 -0.016495485469177534 -0.0059764882823781021 0 -0.016096887460343254 -0.0054790606679151008 0 -0.015883389192279909 -0.0060104234958299136 0 -0.016495485469177534 -0.0059764882823781021 0 -0.016096887460343254 -0.0054790606679151008 0 -0.016591310082589645 -0.0053805800488491151 0 -0.016096887460343254 -0.0054790606679151008 0 -0.015592601223821452 -0.0054459760121701641 0 -0.015883389192279909 -0.0060104234958299136 0 -0.015156390808504672 -0.005951057955674072 0 -0.015592601223821452 -0.0054459760121701641 0 -0.015883389192279909 -0.0060104234958299136 0 -0.012813704966609437 -0.0058721494500556517 0 -0.012303975147859374 -0.0055032410195115207 0 -0.012826952494088856 -0.0052513405267368609 0 -0.012813704966609437 -0.0058721494500556517 0 -0.012303975147859374 -0.0055032410195115207 0 -0.012109620072253935 -0.0061619737360352478 0 -0.012303975147859374 -0.0055032410195115207 0 -0.012003940444551373 -0.0056531026213201092 0 -0.012109620072253935 -0.0061619737360352478 0 -0.012303975147859374 -0.0055032410195115207 0 -0.012003940444551373 -0.0056531026213201092 0 -0.012034627733609712 -0.0052998652471989652 0 -0.012163896107682516 -0.0064615846360590104 0 -0.012883966822335722 -0.006750212287353452 0 -0.012613684652839215 -0.0072335202805458715 0 -0.012947619359002188 -0.0060459582659177728 0 -0.012110407415794345 -0.0063219631441092175 0 -0.013086851352381631 -0.0062211476518283775 0 -0.012163896107682516 -0.0064615846360590104 0 -0.012883966822335722 -0.006750212287353452 0 -0.013086851352381631 -0.0062211476518283775 0 -0.012883966822335722 -0.006750212287353452 0 -0.013333442066543339 -0.0066227974479609528 0 -0.012883966822335722 -0.006750212287353452 0 -0.013333442066543339 -0.0066227974479609528 0 -0.013163376673228956 -0.0072276126254775478 0 -0.01336837436480412 -0.0066480863395936432 0 -0.014289220869410068 -0.0071020133257504786 0 -0.013333442066543339 -0.0066227974479609528 0 -0.013738232864127614 -0.0059246278872283984 0 -0.014038792975242765 -0.0068520886341863017 0 -0.014509399631824349 -0.0063026413833927354 0 -0.013738232864127614 -0.0059246278872283984 0 -0.014038792975242765 -0.0068520886341863017 0 -0.014427193312511216 -0.0054917085226985135 0 -0.013698175426815363 -0.0057739557415081473 0 -0.012947619359002188 -0.0060459582659177728 0 -0.013698175426815363 -0.0057739557415081473 0 -0.012813704966609437 -0.0058721494500556517 0 -0.01361005038699337 -0.005653154268525605 0 -0.012826952494088856 -0.0052513405267368609 0 -0.013086851352381631 -0.0062211476518283775 0 -0.013333442066543339 -0.0066227974479609528 0 -0.013738232864127614 -0.0059246278872283984 0 -0.01361005038699337 -0.005653154268525605 0 -0.013293754760986942 -0.0048055792368901637 0 -0.012826952494088856 -0.0052513405267368609 0 -0.01361005038699337 -0.005653154268525605 0 -0.013293754760986942 -0.0048055792368901637 0 -0.014031242296304309 -0.0045144592247693066 0 -0.014462146257949301 -0.0054566679909946901 0 -0.01361005038699337 -0.005653154268525605 0 -0.014031242296304309 -0.0045144592247693066 0 -0.013293754760986942 -0.0048055792368901637 0 -0.012563169712157544 -0.0046599974448687945 0 -0.013179647717179811 -0.0040180120435051019 0 -0.013293754760986942 -0.0048055792368901637 0 -0.014031242296304309 -0.0045144592247693066 0 -0.013179647717179811 -0.0040180120435051019 0 -0.012980548522926828 -0.0039902016316788087 0 -0.013389167225746559 -0.0036776802262047503 0 -0.013297383829290873 -0.0034582380492713472 0 -0.013259181677533831 -0.0032109080546886518 0 -0.013568212175328453 -0.0033322829431707171 0 -0.013293754760986942 -0.0048055792368901637 0 -0.012563169712157544 -0.0046599974448687945 0 -0.012826952494088856 -0.0052513405267368609 0 -0.012303975147859374 -0.0055032410195115207 0 -0.012563169712157544 -0.0046599974448687945 0 -0.012826952494088856 -0.0052513405267368609 0 -0.013297383829290873 -0.0034582380492713472 0 -0.013058521110430122 -0.0036316070872666989 0 -0.013084335280753305 -0.0033810332060249192 0 -0.012980548522926828 -0.0039902016316788087 0 -0.012385145702041661 -0.0048646516204736414 0 -0.012303975147859374 -0.0055032410195115207 0 -0.012563169712157544 -0.0046599974448687945 0 -0.0119584954546518 -0.0052342356998723956 0 -0.012331821532532091 -0.0053098812542514825 0 -0.012385145702041661 -0.0048646516204736414 0 -0.013297383829290873 -0.0034582380492713472 0 -0.013084335280753305 -0.0033810332060249192 0 -0.013259181677533831 -0.0032109080546886518 0 -0.013084335280753305 -0.0033810332060249192 0 -0.013259181677533831 -0.0032109080546886518 0 -0.012956332862318412 -0.0031243202524863407 0 -0.013259181677533831 -0.0032109080546886518 0 -0.013162365380389559 -0.0029122365651588302 0 -0.012956332862318412 -0.0031243202524863407 0 -0.013259181677533831 -0.0032109080546886518 0 -0.013568212175328453 -0.0033322829431707171 0 -0.013504393989199814 -0.0030299158319587417 0 -0.013259181677533831 -0.0032109080546886518 0 -0.013162365380389559 -0.0029122365651588302 0 -0.013504393989199814 -0.0030299158319587417 0 -0.013162365380389559 -0.0029122365651588302 0 -0.013504393989199814 -0.0030299158319587417 0 -0.013408961380399355 -0.0025618123585528381 0 -0.01584447990027997 0.0068849677267927133 0 -0.015437887680804627 0.0075210146177857526 0 -0.015129207111422863 0.0069468567831598186 0 -0.014545965314003435 0.0020625136827881656 0 -0.014145262841277019 0.001642141516516326 0 -0.014581229944784935 -0.0038677225453490512 0 -0.014031242296304309 -0.0045144592247693066 0 -0.013941406535714532 -0.0032896688491851523 0 -0.014031242296304309 -0.0045144592247693066 0 -0.013179647717179811 -0.0040180120435051019 0 -0.013941406535714532 -0.0032896688491851523 0 -0.013568212175328453 -0.0033322829431707171 0 -0.013504393989199814 -0.0030299158319587417 0 -0.013941406535714532 -0.0032896688491851523 0 -0.013389167225746559 -0.0036776802262047503 0 -0.013911018532146643 -0.0032956404043363208 0 -0.013504393989199814 -0.0030299158319587417 0 -0.013941406535714532 -0.0032896688491851523 0 -0.013908283415430017 -0.002685073362307481 0 -0.014566283978878911 -0.0029449765460976213 0 -0.013941406535714532 -0.0032896688491851523 0 -0.013908283415430017 -0.002685073362307481 0 -0.013504393989199814 -0.0030299158319587417 0 -0.013908283415430017 -0.002685073362307481 0 -0.013408961380399355 -0.0025618123585528381 0 -0.013908283415430017 -0.002685073362307481 0 -0.01381318486119355 -0.0020669161804915564 0 -0.013408961380399355 -0.0025618123585528381 0 -0.0155967544063354 0.0066188795716523785 0 -0.016743822495455953 0.0089947031631424177 0 -0.016510525269957249 0.0093786251771396292 0 -0.01649643911426249 0.0093289401175478421 0 -0.016467181811129415 0.0088408185222301466 0 -0.017479692996622612 0.0084682736272934274 0 -0.016553880745177621 0.0075925532380632281 0 -0.016467181811129415 0.0088408185222301466 0 -0.0155967544063354 0.0066188795716523785 0 -0.014799377229487792 0.0020313552854010256 0 -0.014414651664571449 -0.0022476561494349759 0 -0.013908283415430017 -0.002685073362307481 0 -0.01381318486119355 -0.0020669161804915564 0 -0.015163316020084449 0.0040152427227304359 0 -0.0155967544063354 0.0066188795716523785 0 -0.016416080886302357 0.0096372564885194821 0 -0.015763368779126135 0.010798286252531724 0 -0.017084806477724934 0.010206113004696904 0 -0.017212715896429781 0.009837435675151775 0 -0.0155967544063354 0.0066188795716523785 0 -0.01584447990027997 0.0068849677267927133 0 -0.015943922091205636 0.0079793021197410163 0 -0.015437887680804627 0.0075210146177857526 0 -0.014545965314003435 0.0020625136827881656 0 -0.014799377229487792 0.0020313552854010256 0 -0.01584447990027997 0.0068849677267927133 0 -0.016553880745177621 0.0075925532380632281 0 -0.015943922091205636 0.0079793021197410163 0 -0.015955180900810093 0.0088409419950767551 0 -0.016467181811129415 0.0088408185222301466 0 -0.015943922091205636 0.0079793021197410163 0 -0.016553880745177621 0.0075925532380632281 0 -0.016467181811129415 0.0088408185222301466 0 -0.015943922091205636 0.0079793021197410163 0 -0.015943922091205636 0.0079793021197410163 0 -0.015556608536497941 0.0082807228799384094 0 -0.015437887680804627 0.0075210146177857526 0 -0.015955180900810093 0.0088409419950767551 0 -0.015943922091205636 0.0079793021197410163 0 -0.015556608536497941 0.0082807228799384094 0 -0.015556608536497941 0.0082807228799384094 0 -0.015437887680804627 0.0075210146177857526 0 -0.014808978949419837 0.0076469175820062405 0 -0.01502717360633314 0.0084344475913295785 0 -0.015556608536497941 0.0082807228799384094 0 -0.014808978949419837 0.0076469175820062405 0 -0.015437887680804627 0.0075210146177857526 0 -0.014808978949419837 0.0076469175820062405 0 -0.015129207111422863 0.0069468567831598186 0 -0.014808978949419837 0.0076469175820062405 0 -0.015129207111422863 0.0069468567831598186 0 -0.014592904047083775 0.0067746542009429235 0 -0.014808978949419837 0.0076469175820062405 0 -0.01414296255536154 0.0072361891136822369 0 -0.014592904047083775 0.0067746542009429235 0 -0.014522115767223289 0.0083278081354819563 0 -0.01502717360633314 0.0084344475913295785 0 -0.014808978949419837 0.0076469175820062405 0 -0.014522115767223289 0.0083278081354819563 0 -0.014808978949419837 0.0076469175820062405 0 -0.01425278286676045 0.0078422286020761213 0 -0.013899692908977008 0.0082514817320764322 0 -0.014522115767223289 0.0083278081354819563 0 -0.01425278286676045 0.0078422286020761213 0 -0.013899692908977008 0.0082514817320764322 0 -0.01425278286676045 0.0078422286020761213 0 -0.013693570690231176 0.0074112420624026006 0 -0.013899692908977008 0.0082514817320764322 0 -0.013693570690231176 0.0074112420624026006 0 -0.013212236743784056 0.0074809209844082418 0 -0.013693570690231176 0.0074112420624026006 0 -0.01414296255536154 0.0072361891136822369 0 -0.013844464218481695 0.0064339382263131038 0 -0.01425278286676045 0.0078422286020761213 0 -0.013693570690231176 0.0074112420624026006 0 -0.01414296255536154 0.0072361891136822369 0 -0.014808978949419837 0.0076469175820062405 0 -0.01425278286676045 0.0078422286020761213 0 -0.01414296255536154 0.0072361891136822369 0 -0.014175463625870115 0.0066597218556898466 0 -0.014168983175090619 0.0062654150048587626 0 -0.014592904047083775 0.0067746542009429235 0 -0.01414296255536154 0.0072361891136822369 0 -0.014175463625870115 0.0066597218556898466 0 -0.014592904047083775 0.0067746542009429235 0 -0.014175463625870115 0.0066597218556898466 0 -0.013844464218481695 0.0064339382263131038 0 -0.014168983175090619 0.0062654150048587626 0 -0.01414296255536154 0.0072361891136822369 0 -0.014175463625870115 0.0066597218556898466 0 -0.013844464218481695 0.0064339382263131038 0 -0.014746500244465326 0.0057100884013666867 0 -0.013674822916464298 0.0058054037845916891 0 -0.014375412367074902 0.0050570366211079463 0 -0.013844464218481695 0.0064339382263131038 0 -0.014746500244465326 0.0057100884013666867 0 -0.013674822916464298 0.0058054037845916891 0 -0.013947433653017406 0.0062935163360727546 0 -0.014428746880429878 0.0064501179516902943 0 -0.014428746880429878 0.0064501179516902943 0 -0.013332273812337044 0.00095288165649896276 0 -0.014168983175090619 0.0062654150048587626 0 -0.014592904047083775 0.0067746542009429235 0 -0.014664212768161088 0.0058147693264619174 0 -0.015212211118504921 0.0063066572471243256 0 -0.014592904047083775 0.0067746542009429235 0 -0.014664212768161088 0.0058147693264619174 0 -0.014145262841277019 0.001642141516516326 0 -0.013332273812337044 0.00095288165649896276 0 -0.015212211118504921 0.0063066572471243256 0 -0.015129207111422863 0.0069468567831598186 0 -0.014592904047083775 0.0067746542009429235 0 -0.01584447990027997 0.0068849677267927133 0 -0.015212211118504921 0.0063066572471243256 0 -0.015129207111422863 0.0069468567831598186 0 -0.012942326048508203 0.0074203129590683951 0 -0.012400456639777043 0.0080281692709879456 0 -0.012515739948594519 0.0068731087777570577 0 -0.012516313461392328 0.0062725098955626734 0 -0.012295165523774248 0.0062305798258739577 0 -0.012515739948594519 0.0068731087777570577 0 -0.012295165523774248 0.0062305798258739577 0 -0.012206674275352712 0.0062764604853332287 0 -0.013129952278603864 0.008323795648213516 0 -0.013244070035373281 0.0081974316595851953 0 -0.013127603503446163 0.0081053150435554631 0 -0.012515739948594519 0.0068731087777570577 0 -0.012879459629849578 0.0062828025792197473 0 -0.012516313461392328 0.0062725098955626734 0 -0.013257226833996825 0.0085772165215282081 0 -0.013244070035373281 0.0081974316595851953 0 -0.013485711580676117 0.0082941680389097133 0 -0.012515739948594519 0.0068731087777570577 0 -0.013271398710589454 0.0066953030437609026 0 -0.012879459629849578 0.0062828025792197473 0 -0.012515739948594519 0.0068731087777570577 0 -0.013212236743784056 0.0074809209844082418 0 -0.013271398710589454 0.0066953030437609026 0 -0.012942326048508203 0.0074203129590683951 0 -0.013369376593989063 0.0079159164895009435 0 -0.013913737293138696 0.0082196385645440066 0 -0.013369376593989063 0.0079159164895009435 0 -0.013693570690231176 0.0074112420624026006 0 -0.013212236743784056 0.0074809209844082418 0 -0.013271398710589454 0.0066953030437609026 0 -0.013693570690231176 0.0074112420624026006 0 -0.013844464218481695 0.0064339382263131038 0 -0.013271398710589454 0.0066953030437609026 0 -0.013844464218481695 0.0064339382263131038 0 -0.013271398710589454 0.0066953030437609026 0 -0.013674822916464298 0.0058054037845916891 0 -0.013271398710589454 0.0066953030437609026 0 -0.013674822916464298 0.0058054037845916891 0 -0.013247252784471458 0.0056766506712075324 0 -0.013674822916464298 0.0058054037845916891 0 -0.013247252784471458 0.0056766506712075324 0 -0.013689484189982752 0.0051420011682759836 0 -0.013247252784471458 0.0056766506712075324 0 -0.012879459629849578 0.0062828025792197473 0 -0.012840101400577569 0.0056342990584737464 0 -0.013247252784471458 0.0056766506712075324 0 -0.012840101400577569 0.0056342990584737464 0 -0.013010040479474672 0.0048683826079749795 0 -0.013271398710589454 0.0066953030437609026 0 -0.013247252784471458 0.0056766506712075324 0 -0.012879459629849578 0.0062828025792197473 0 -0.012516313461392328 0.0062725098955626734 0 -0.01255281905532965 0.0059326570092824455 0 -0.012385587604579813 0.006090616122487306 0 -0.012879459629849578 0.0062828025792197473 0 -0.012516313461392328 0.0062725098955626734 0 -0.01255281905532965 0.0059326570092824455 0 -0.012879459629849578 0.0062828025792197473 0 -0.012840101400577569 0.0056342990584737464 0 -0.01255281905532965 0.0059326570092824455 0 -0.012840101400577569 0.0056342990584737464 0 -0.01255281905532965 0.0059326570092824455 0 -0.012477829833368134 0.0053984841931370578 0 -0.01255281905532965 0.0059326570092824455 0 -0.012343192454960026 0.0059147597420397061 0 -0.012477829833368134 0.0053984841931370578 0 -0.012343192454960026 0.0059147597420397061 0 -0.012288939449349078 0.0060681840617201324 0 -0.012385587604579813 0.006090616122487306 0 -0.01255281905532965 0.0059326570092824455 0 -0.012343192454960026 0.0059147597420397061 0 -0.012385587604579813 0.006090616122487306 0 -0.014690276008125079 -0.00028033397001340837 0 -0.014036729846763943 0.0020799416956494917 0 -0.012343192454960026 0.0059147597420397061 0 -0.012253525422317488 0.0059382955779467188 0 -0.012552943692566636 0.0055452187955338204 0 -0.011545634083547741 0.0066231259854463952 0 -0.014036729846763943 0.0020799416956494917 0 -0.012343192454960026 0.0059147597420397061 0 -0.012253525422317488 0.0059382955779467188 0 -0.012288939449349078 0.0060681840617201324 0 -0.012288939449349078 0.0060681840617201324 0 -0.012385587604579813 0.006090616122487306 0 -0.012295165523774248 0.0062305798258739577 0 -0.012516313461392328 0.0062725098955626734 0 -0.012385587604579813 0.006090616122487306 0 -0.012295165523774248 0.0062305798258739577 0 -0.016562049120589166 -0.0058124582318319507 0 -0.016787404792919531 -0.005889829645840049 0 -0.0167493581338422 -0.0058189818977648269 0 -0.016562049120589166 -0.0058124582318319507 0 -0.016673691617867838 -0.0059035024768312435 0 -0.016787404792919531 -0.005889829645840049 0 -0.016703686840734075 -0.0060157706053716575 0 -0.016673691617867838 -0.0059035024768312435 0 -0.016441881795320572 -0.0058729587234860377 0 -0.016562049120589166 -0.0058124582318319507 0 -0.016673691617867838 -0.0059035024768312435 0 -0.016441881795320572 -0.0058729587234860377 0 -0.014036729846763943 0.0020799416956494917 0 -0.015078254298754461 -0.00069642751599856268 0 -0.014036729846763943 0.0020799416956494917 0 -0.012201485395955598 0.005237725644361247 0 -0.012840101400577569 0.0056342990584737464 0 -0.012477829833368134 0.0053984841931370578 0 -0.013010040479474672 0.0048683826079749795 0 -0.016562049120589166 -0.0058124582318319507 0 -0.016294927270561182 -0.0057311727005457704 0 -0.016420485688490437 -0.0057419149705444459 0 -0.016562049120589166 -0.0058124582318319507 0 -0.016441881795320572 -0.0058729587234860377 0 -0.016294927270561182 -0.0057311727005457704 0 -0.012842283512316916 0.0050229120511562763 0 -0.013107333581150231 0.0044731869041185462 0 -0.013010040479474672 0.0048683826079749795 0 -0.013247252784471458 0.0056766506712075324 0 -0.013010040479474672 0.0048683826079749795 0 -0.01335447024847458 0.0049197540592464074 0 -0.013107333581150231 0.0044731869041185462 0 -0.013010040479474672 0.0048683826079749795 0 -0.01335447024847458 0.0049197540592464074 0 -0.01335447024847458 0.0049197540592464074 0 -0.013689484189982752 0.0051420011682759836 0 -0.013803580817797818 0.0045029785398784609 0 -0.013247252784471458 0.0056766506712075324 0 -0.01335447024847458 0.0049197540592464074 0 -0.013689484189982752 0.0051420011682759836 0 -0.013107333581150231 0.0044731869041185462 0 -0.013803580817797818 0.0045029785398784609 0 -0.013784138506356975 0.0035501704836997804 0 -0.013107333581150231 0.0044731869041185462 0 -0.01335447024847458 0.0049197540592464074 0 -0.013803580817797818 0.0045029785398784609 0 -0.016294927270561182 -0.0057311727005457704 0 -0.016268137696189875 -0.0056957527750596936 0 -0.016320004627238135 -0.0057149166418720603 0 -0.015078254298754461 -0.00069642751599856268 0 -0.013451857265400682 -0.003791970489265389 0 -0.016268137696189875 -0.0056957527750596936 0 -0.016319916990035578 -0.0056791590056877389 0 -0.016320004627238135 -0.0057149166418720603 0 -0.013451857265400682 -0.003791970489265389 0 -0.011531552151759475 -0.0064877988834061186 0 -0.014638717048643677 -0.0070250487614581482 0 -0.015524526774178135 -0.0062888203579563803 0 -0.014284938633490571 -0.0066564928714671553 0 -0.015524526774178135 -0.0062888203579563803 0 -0.014284938633490571 -0.0066564928714671553 0 -0.01529442051404579 -0.0058635868363159718 0 -0.011247119351169527 -0.0081822039493212335 0 -0.01123899054087023 -0.0083317282617154428 0 -0.011162547114660179 -0.0082770835031018251 0 -0.011531552151759475 -0.0064877988834061186 0 -0.013265801520183074 -0.0071097383045047643 0 -0.013451857265400682 -0.003791970489265389 0 -0.015970521126574072 -0.0060779492177658757 0 -0.015524526774178135 -0.0062888203579563803 0 -0.016330114631015261 -0.0055935545897113229 0 -0.01529442051404579 -0.0058635868363159718 0 -0.016319916990035578 -0.0056791590056877389 0 -0.016362190488048777 -0.0057024142252347573 0 -0.016320004627238135 -0.0057149166418720603 0 -0.015970521126574072 -0.0060779492177658757 0 -0.016302594151303005 -0.0056180021025378692 0 -0.016319916990035578 -0.0056791590056877389 0 -0.016369953943800242 -0.0056776829783025699 0 -0.016330114631015261 -0.0055935545897113229 0 -0.016319916990035578 -0.0056791590056877389 0 -0.016369953943800242 -0.0056776829783025699 0 -0.016362190488048777 -0.0057024142252347573 0 -0.016369953943800242 -0.0056776829783025699 0 -0.016362190488048777 -0.0057024142252347573 0 -0.016437993981166781 -0.0057134785654097617 0 -0.016294927270561182 -0.0057311727005457704 0 -0.016320004627238135 -0.0057149166418720603 0 -0.016420485688490437 -0.0057419149705444459 0 -0.016362190488048777 -0.0057024142252347573 0 -0.016320004627238135 -0.0057149166418720603 0 -0.016420485688490437 -0.0057419149705444459 0 -0.016562049120589166 -0.0058124582318319507 0 -0.016420485688490437 -0.0057419149705444459 0 -0.016574055367434361 -0.005740574620597504 0 -0.016420485688490437 -0.0057419149705444459 0 -0.016437993981166781 -0.0057134785654097617 0 -0.016574055367434361 -0.005740574620597504 0 -0.016362190488048777 -0.0057024142252347573 0 -0.016420485688490437 -0.0057419149705444459 0 -0.016437993981166781 -0.0057134785654097617 0 -0.016463161709020502 -0.0056903826902097816 0 -0.016574055367434361 -0.005740574620597504 0 -0.016558629037237264 -0.0056532024416643054 0 -0.016369953943800242 -0.0056776829783025699 0 -0.016437993981166781 -0.0057134785654097617 0 -0.016463161709020502 -0.0056903826902097816 0 -0.016369953943800242 -0.0056776829783025699 0 -0.016463161709020502 -0.0056903826902097816 0 -0.016330114631015261 -0.0055935545897113229 0 -0.016437993981166781 -0.0057134785654097617 0 -0.016463161709020502 -0.0056903826902097816 0 -0.016574055367434361 -0.005740574620597504 0 -0.016574055367434361 -0.005740574620597504 0 -0.01679369777195832 -0.0057537592832836593 0 -0.0167493581338422 -0.0058189818977648269 0 -0.016574055367434361 -0.005740574620597504 0 -0.016655401334076805 -0.005688488265471402 0 -0.016558629037237264 -0.0056532024416643054 0 -0.016574055367434361 -0.005740574620597504 0 -0.016655401334076805 -0.005688488265471402 0 -0.01679369777195832 -0.0057537592832836593 0 -0.016562049120589166 -0.0058124582318319507 0 -0.016574055367434361 -0.005740574620597504 0 -0.0167493581338422 -0.0058189818977648269 0 -0.010996216580153366 -0.0051729140529388311 0 -0.011629790910969499 -0.0046342318091192759 0 -0.011032175865004247 -0.0041286964391535176 0 -0.010996216580153366 -0.0051729140529388311 0 -0.011656555871847517 -0.0051332120400586038 0 -0.011629790910969499 -0.0046342318091192759 0 -0.010996216580153366 -0.0051729140529388311 0 -0.011656555871847517 -0.0051332120400586038 0 -0.011627953043752944 -0.0056190163390374111 0 -0.013058521110430122 -0.0036316070872666989 0 -0.013084335280753305 -0.0033810332060249192 0 -0.012889623592232049 -0.0034803289047885531 0 -0.012256625181146679 -0.0051273011641050021 0 -0.011656555871847517 -0.0051332120400586038 0 -0.011627953043752944 -0.0056190163390374111 0 -0.012256625181146679 -0.0051273011641050021 0 -0.011656555871847517 -0.0051332120400586038 0 -0.011629790910969499 -0.0046342318091192759 0 -0.012385145702041661 -0.0048646516204736414 0 -0.012508742436133258 -0.0041614345769218752 0 -0.012956332862318412 -0.0031243202524863407 0 -0.012889623592232049 -0.0034803289047885531 0 -0.012722550952668525 -0.0033163590442719 0 -0.013084335280753305 -0.0033810332060249192 0 -0.012956332862318412 -0.0031243202524863407 0 -0.012889623592232049 -0.0034803289047885531 0 -0.012508742436133258 -0.0041614345769218752 0 -0.013332273812337044 0.00095288165649896276 0 -0.014746500244465326 0.0057100884013666867 0 -0.015479200620545652 0.0050635335112968584 0 -0.014375412367074902 0.0050570366211079463 0 -0.015479200620545652 0.0050635335112968584 0 -0.014375412367074902 0.0050570366211079463 0 -0.014607615707949226 0.0043064793307466065 0 -0.013674822916464298 0.0058054037845916891 0 -0.013689484189982752 0.0051420011682759836 0 -0.014375412367074902 0.0050570366211079463 0 -0.013689484189982752 0.0051420011682759836 0 -0.013803580817797818 0.0045029785398784609 0 -0.014375412367074902 0.0050570366211079463 0 -0.013803580817797818 0.0045029785398784609 0 -0.014375412367074902 0.0050570366211079463 0 -0.014607615707949226 0.0043064793307466065 0 -0.013803580817797818 0.0045029785398784609 0 -0.013784138506356975 0.0035501704836997804 0 -0.014607615707949226 0.0043064793307466065 0 -0.010996216580153366 -0.0051729140529388311 0 -0.011032175865004247 -0.0041286964391535176 0 -0.010061629235154031 -0.0050138123824806265 0 -0.013332273812337044 0.00095288165649896276 0 -0.012064884623224276 -9.1602866789191836e-05 0 -0.010996216580153366 -0.0051729140529388311 0 -0.010061629235154031 -0.0050138123824806265 0 -0.010419332452961366 -0.0060256115063315446 0 -0.010061629235154031 -0.0050138123824806265 0 -0.010419332452961366 -0.0060256115063315446 0 -0.0098821370149960175 -0.0058437050840571209 0 -0.010419332452961366 -0.0060256115063315446 0 -0.0098821370149960175 -0.0058437050840571209 0 -0.0099639364555104935 -0.0063903757583758537 0 -0.013451857265400682 -0.003791970489265389 0 -0.012064884623224276 -9.1602866789191836e-05 0 -0.0091231812664650958 -0.0058837526490700415 0 -0.0098821370149960175 -0.0058437050840571209 0 -0.0094569461910418724 -0.00611726040652571 0 -0.0091231812664650958 -0.0058837526490700415 0 -0.010061629235154031 -0.0050138123824806265 0 -0.0098821370149960175 -0.0058437050840571209 0 -0.0098821370149960175 -0.0058437050840571209 0 -0.0094569461910418724 -0.00611726040652571 0 -0.009671126191605468 -0.0061334248653491571 0 -0.0091231812664650958 -0.0058837526490700415 0 -0.0093857930768131079 -0.0061790615010231201 0 -0.0094569461910418724 -0.00611726040652571 0 -0.011247119351169527 -0.0081822039493212335 0 -0.011330780561510415 -0.0082874336054828569 0 -0.01123899054087023 -0.0083317282617154428 0 -0.011531552151759475 -0.0064877988834061186 0 -0.010576935478212476 -0.0076628596627175815 0 -0.0093803814972997866 -0.0061834606795425897 0 -0.0099639364555104935 -0.0063903757583758537 0 -0.01006669872460032 -0.0069895417288027457 0 -0.011531552151759475 -0.0064877988834061186 0 -0.011312500854629709 -0.0065786831491771187 0 -0.0093803814972997866 -0.0061834606795425897 0 -0.0094569461910418724 -0.00611726040652571 0 -0.009671126191605468 -0.0061334248653491571 0 -0.0098821370149960175 -0.0058437050840571209 0 -0.0099639364555104935 -0.0063903757583758537 0 -0.009671126191605468 -0.0061334248653491571 0 -0.0093803814972997866 -0.0061834606795425897 0 -0.0099639364555104935 -0.0063903757583758537 0 -0.009671126191605468 -0.0061334248653491571 0 -0.010419332452961366 -0.0060256115063315446 0 -0.011231412411006912 -0.006617813678219329 0 -0.01006669872460032 -0.0069895417288027457 0 -0.010419332452961366 -0.0060256115063315446 0 -0.0099639364555104935 -0.0063903757583758537 0 -0.01006669872460032 -0.0069895417288027457 0 -0.010419332452961366 -0.0060256115063315446 0 -0.011231412411006912 -0.006617813678219329 0 -0.011043234342565598 -0.0058313938534889581 0 -0.010996216580153366 -0.0051729140529388311 0 -0.010419332452961366 -0.0060256115063315446 0 -0.011043234342565598 -0.0058313938534889581 0 -0.011231412411006912 -0.006617813678219329 0 -0.011043234342565598 -0.0058313938534889581 0 -0.011627953043752944 -0.0056190163390374111 0 -0.010996216580153366 -0.0051729140529388311 0 -0.011043234342565598 -0.0058313938534889581 0 -0.011627953043752944 -0.0056190163390374111 0 -0.012003940444551373 -0.0056531026213201092 0 -0.012034627733609712 -0.0052998652471989652 0 -0.011627953043752944 -0.0056190163390374111 0 -0.012385145702041661 -0.0048646516204736414 0 -0.011596797907975116 -0.0056389832840944521 0 -0.012003940444551373 -0.0056531026213201092 0 -0.012109620072253935 -0.0061619737360352478 0 -0.011627953043752944 -0.0056190163390374111 0 -0.012110407415794345 -0.0063219631441092175 0 -0.011276316703269713 -0.0065936564731775256 0 -0.012109620072253935 -0.0061619737360352478 0 -0.011231412411006912 -0.006617813678219329 0 -0.011627953043752944 -0.0056190163390374111 0 -0.012163896107682516 -0.0064615846360590104 0 -0.011231412411006912 -0.006617813678219329 0 -0.012019505315418939 -0.0073786406049816556 0 -0.011231412411006912 -0.006617813678219329 0 -0.012019505315418939 -0.0073786406049816556 0 -0.011549337669032721 -0.0078997832996503172 0 -0.012019505315418939 -0.0073786406049816556 0 -0.011549337669032721 -0.0078997832996503172 0 -0.012019645235305992 -0.0082371372229615054 0 -0.011549337669032721 -0.0078997832996503172 0 -0.011585123649835912 -0.0084945239722858269 0 -0.012019645235305992 -0.0082371372229615054 0 -0.011439302402625225 -0.0083972627735123626 0 -0.011381433183732704 -0.0085366126664740017 0 -0.011585123649835912 -0.0084945239722858269 0 -0.011549337669032721 -0.0078997832996503172 0 -0.010786488148613077 -0.0078044174549523112 0 -0.011585123649835912 -0.0084945239722858269 0 -0.01114310135054581 -0.0081037227719828568 0 -0.011531735981495492 -0.008466952726353413 0 -0.011231412411006912 -0.006617813678219329 0 -0.010786488148613077 -0.0078044174549523112 0 -0.01006669872460032 -0.0069895417288027457 0 -0.011231412411006912 -0.006617813678219329 0 -0.011549337669032721 -0.0078997832996503172 0 -0.010786488148613077 -0.0078044174549523112 0 -0.01114310135054581 -0.0081037227719828568 0 -0.010576935478212476 -0.0076628596627175815 0 -0.011439302402625225 -0.0083972627735123626 0 -0.011330780561510415 -0.0082874336054828569 0 -0.011295213564215074 -0.0084332583780376176 0 -0.011330780561510415 -0.0082874336054828569 0 -0.01123899054087023 -0.0083317282617154428 0 -0.011295213564215074 -0.0084332583780376176 0 -0.01123899054087023 -0.0083317282617154428 0 -0.011295213564215074 -0.0084332583780376176 0 -0.011165598132165885 -0.0084812176592786569 0 -0.011439302402625225 -0.0083972627735123626 0 -0.011295213564215074 -0.0084332583780376176 0 -0.011381433183732704 -0.0085366126664740017 0 -0.011381433183732704 -0.0085366126664740017 0 -0.011251662587009194 -0.0086606079958738823 0 -0.011478822657780824 -0.0087059945953800247 0 -0.011295213564215074 -0.0084332583780376176 0 -0.011381433183732704 -0.0085366126664740017 0 -0.011251662587009194 -0.0086606079958738823 0 -0.011295213564215074 -0.0084332583780376176 0 -0.011251662587009194 -0.0086606079958738823 0 -0.011165598132165885 -0.0084812176592786569 0 -0.012092588456179471 -0.0090128838156352843 0 -0.011876023517729775 -0.0094272966102037035 0 -0.012936218529635586 -0.0097457958117217122 0 -0.012934343573203297 -0.009674099393260539 0 -0.013147976936624391 -0.0097227852846753348 0 -0.012896128307785268 -0.012315472271392035 0 -0.012923476368640656 -0.012151330322687037 0 -0.012551994530891853 -0.014591309966134364 0 -0.0127207179465473 -0.014665709817298381 0 -0.012652738165662062 -0.014537107979220877 0 -0.011251662587009194 -0.0086606079958738823 0 -0.011478822657780824 -0.0087059945953800247 0 -0.011433244759765147 -0.0089664127032330378 0 -0.012092588456179471 -0.0090128838156352843 0 -0.012056362146246892 -0.010366662386279845 0 -0.012936218529635586 -0.0097457958117217122 0 -0.012934343573203297 -0.009674099393260539 0 -0.012718506045465211 -0.0096278529959650892 0 -0.012896128307785268 -0.012315472271392035 0 -0.012056362146246892 -0.010366662386279845 0 -0.011478822657780824 -0.0087059945953800247 0 -0.011671889131595361 -0.0089523333708065051 0 -0.011433244759765147 -0.0089664127032330378 0 -0.011478822657780824 -0.0087059945953800247 0 -0.011671889131595361 -0.0089523333708065051 0 -0.011880432809895919 -0.0088370916103125887 0 -0.011880432809895919 -0.0088370916103125887 0 -0.011585123649835912 -0.0084945239722858269 0 -0.012019645235305992 -0.0082371372229615054 0 -0.011478822657780824 -0.0087059945953800247 0 -0.011880432809895919 -0.0088370916103125887 0 -0.011585123649835912 -0.0084945239722858269 0 -0.01181461316636862 -0.0090193279749555058 0 -0.012000841171212156 -0.0083782213889732476 0 -0.011381433183732704 -0.0085366126664740017 0 -0.011478822657780824 -0.0087059945953800247 0 -0.011585123649835912 -0.0084945239722858269 0 -0.014884426490030486 -0.0087120094411551174 0 -0.017178162089806909 -0.0054777562403109398 0 -0.01670098426893683 -0.0056325617109135948 0 -0.016620241297847248 -0.0054944283627118787 0 -0.016839656251159272 -0.0055533636849461384 0 -0.01670098426893683 -0.0056325617109135948 0 -0.016558629037237264 -0.0056532024416643054 0 -0.016620241297847248 -0.0054944283627118787 0 -0.01670098426893683 -0.0056325617109135948 0 -0.016655401334076805 -0.005688488265471402 0 -0.016558629037237264 -0.0056532024416643054 0 -0.01670098426893683 -0.0056325617109135948 0 -0.016655401334076805 -0.005688488265471402 0 -0.01679369777195832 -0.0057537592832836593 0 -0.016463161709020502 -0.0056903826902097816 0 -0.016558629037237264 -0.0056532024416643054 0 -0.016330114631015261 -0.0055935545897113229 0 -0.016558629037237264 -0.0056532024416643054 0 -0.016330114631015261 -0.0055935545897113229 0 -0.016241676998200758 -0.0052309660607969891 0 -0.016567913579107408 -0.0057771385345896254 0 -0.014369652206955515 -0.0071916345064163296 0 -0.016558629037237264 -0.0056532024416643054 0 -0.016463707379298861 -0.005605070399212435 0 -0.016620241297847248 -0.0054944283627118787 0 -0.014369652206955515 -0.0071916345064163296 0 -0.014884426490030486 -0.0087120094411551174 0 -0.013371953334336445 -0.01000161356696689 0 -0.013366125161295223 -0.0097737610594639743 0 -0.01358635946722714 -0.0098327859498415805 0 -0.014369652206955515 -0.0071916345064163296 0 -0.011876023517729775 -0.0094272966102037035 0 -0.013371953334336445 -0.01000161356696689 0 -0.013150737189635348 -0.0098677736224772692 0 -0.013366125161295223 -0.0097737610594639743 0 -0.011095106733558673 -0.0083588198615878479 0 -0.011162547114660179 -0.0082770835031018251 0 -0.011165598132165885 -0.0084812176592786569 0 -0.014369652206955515 -0.0071916345064163296 0 -0.013265801520183074 -0.0071097383045047643 0 -0.016330114631015261 -0.0055935545897113229 0 -0.016241676998200758 -0.0052309660607969891 0 -0.01529442051404579 -0.0058635868363159718 0 -0.01123899054087023 -0.0083317282617154428 0 -0.011162547114660179 -0.0082770835031018251 0 -0.011165598132165885 -0.0084812176592786569 0 -0.012936218529635586 -0.0097457958117217122 0 -0.013150737189635348 -0.0098677736224772692 0 -0.013147976936624391 -0.0097227852846753348 0 -0.0127207179465473 -0.014665709817298381 0 -0.01274695057775955 -0.014671905191494385 0 -0.012652738165662062 -0.014537107979220877 0 -0.0127207179465473 -0.014665709817298381 0 -0.01274695057775955 -0.014671905191494385 0 -0.012728709055639192 -0.014657362516910655 0 -0.012923476368640656 -0.012151330322687037 0 -0.012855843662083768 -0.01248242973639537 0 -0.013150737189635348 -0.0098677736224772692 0 -0.013147976936624391 -0.0097227852846753348 0 -0.013366125161295223 -0.0097737610594639743 0 -0.012855843662083768 -0.01248242973639537 0 -0.014884426490030486 -0.0087120094411551174 0 -0.012728709055639192 -0.014657362516910655 0 -0.012626948927379873 -0.014681481826833549 0 -0.012584935181571676 -0.014566624522474807 0 -0.012728709055639192 -0.014657362516910655 0 -0.012626948927379873 -0.014681481826833549 0 -0.012647225959315124 -0.014788109148273568 0 -0.01274695057775955 -0.014671905191494385 0 -0.012728709055639192 -0.014657362516910655 0 -0.012647225959315124 -0.014788109148273568 0 -0.012928167587136706 -0.014989854734309778 0 -0.012647225959315124 -0.014788109148273568 0 -0.01269475131296674 -0.015060439255781455 0 -0.012823930122711075 -0.014829303269797617 0 -0.01264530722308958 -0.014787166623675298 0 -0.012647225959315124 -0.014788109148273568 0 -0.012557895935605244 -0.014909668060506765 0 -0.01269475131296674 -0.015060439255781455 0 -0.012687960995705129 -0.014911984539607445 0 -0.012010796058881716 -0.014814326146177 0 -0.012557895935605244 -0.014909668060506765 0 -0.012541157669543021 -0.014738695544557066 0 -0.012480856903337115 -0.014782518576013206 0 -0.012626948927379873 -0.014681481826833549 0 -0.012647225959315124 -0.014788109148273568 0 -0.012541157669543021 -0.014738695544557066 0 -0.012647225959315124 -0.014788109148273568 0 -0.012557895935605244 -0.014909668060506765 0 -0.012541157669543021 -0.014738695544557066 0 -0.012626948927379873 -0.014681481826833549 0 -0.012541157669543021 -0.014738695544557066 0 -0.012584935181571676 -0.014566624522474807 0 -0.014884426490030486 -0.0087120094411551174 0 -0.014750255915158854 -0.010200554282570112 0 -0.012541157669543021 -0.014738695544557066 0 -0.012584935181571676 -0.014566624522474807 0 -0.012480219579245378 -0.014695010319902911 0 -0.012426909264637253 -0.015322330883530038 0 -0.012564841993130571 -0.015205119761504385 0 -0.012622404887191987 -0.015381745876150486 0 -0.013379508719927243 -0.018705680741006859 0 -0.013485420213852439 -0.018372264864923753 0 -0.01363894804561828 -0.018712125694489896 0 -0.012426909264637253 -0.015322330883530038 0 -0.012431496278183834 -0.01510465057892627 0 -0.012564841993130571 -0.015205119761504385 0 -0.012426909264637253 -0.015322330883530038 0 -0.012431496278183834 -0.01510465057892627 0 -0.012353222397949264 -0.015108582760756373 0 -0.012557895935605244 -0.014909668060506765 0 -0.012431496278183834 -0.01510465057892627 0 -0.012328617533065913 -0.01495744716308247 0 -0.012431496278183834 -0.01510465057892627 0 -0.012328617533065913 -0.01495744716308247 0 -0.012353222397949264 -0.015108582760756373 0 -0.012557895935605244 -0.014909668060506765 0 -0.012431496278183834 -0.01510465057892627 0 -0.012552981449476759 -0.015072515920946205 0 -0.012431496278183834 -0.01510465057892627 0 -0.012552981449476759 -0.015072515920946205 0 -0.012564841993130571 -0.015205119761504385 0 -0.012552981449476759 -0.015072515920946205 0 -0.012564841993130571 -0.015205119761504385 0 -0.01269475131296674 -0.015060439255781455 0 -0.012564841993130571 -0.015205119761504385 0 -0.01269475131296674 -0.015060439255781455 0 -0.012716219693923565 -0.015261308982797745 0 -0.012557895935605244 -0.014909668060506765 0 -0.012552981449476759 -0.015072515920946205 0 -0.01269475131296674 -0.015060439255781455 0 -0.01269475131296674 -0.015060439255781455 0 -0.012716219693923565 -0.015261308982797745 0 -0.012877185182268045 -0.015211918640862633 0 -0.012426909264637253 -0.015322330883530038 0 -0.012622404887191987 -0.015381745876150486 0 -0.012629524204890222 -0.015611695847098029 0 -0.012716219693923565 -0.015261308982797745 0 -0.012622404887191987 -0.015381745876150486 0 -0.012845128425367268 -0.015441515251483582 0 -0.012564841993130571 -0.015205119761504385 0 -0.012716219693923565 -0.015261308982797745 0 -0.012622404887191987 -0.015381745876150486 0 -0.012845128425367268 -0.015441515251483582 0 -0.012877185182268045 -0.015211918640862633 0 -0.013021322920203722 -0.015299851254552155 0 -0.012716219693923565 -0.015261308982797745 0 -0.012845128425367268 -0.015441515251483582 0 -0.012877185182268045 -0.015211918640862633 0 -0.012928167587136706 -0.014989854734309778 0 -0.01269475131296674 -0.015060439255781455 0 -0.012877185182268045 -0.015211918640862633 0 -0.012928167587136706 -0.014989854734309778 0 -0.012877185182268045 -0.015211918640862633 0 -0.013049704396798548 -0.015197367986175169 0 -0.013049704396798548 -0.015197367986175169 0 -0.013179355550195638 -0.015317197880544609 0 -0.013021322920203722 -0.015299851254552155 0 -0.012877185182268045 -0.015211918640862633 0 -0.013049704396798548 -0.015197367986175169 0 -0.013021322920203722 -0.015299851254552155 0 -0.012823930122711075 -0.014829303269797617 0 -0.012893043650259261 -0.014850600468222463 0 -0.012928167587136706 -0.014989854734309778 0 -0.013049704396798548 -0.015197367986175169 0 -0.013215939887610353 -0.015189571982755008 0 -0.013049704396798548 -0.015197367986175169 0 -0.013179355550195638 -0.015317197880544609 0 -0.013215939887610353 -0.015189571982755008 0 -0.012845128425367268 -0.015441515251483582 0 -0.013021322920203722 -0.015299851254552155 0 -0.01312556206323936 -0.015411211727219779 0 -0.013179355550195638 -0.015317197880544609 0 -0.013021322920203722 -0.015299851254552155 0 -0.01312556206323936 -0.015411211727219779 0 -0.01312556206323936 -0.015411211727219779 0 -0.013093838488829111 -0.015555049590957467 0 -0.013304958321962792 -0.015424408511834577 0 -0.012845128425367268 -0.015441515251483582 0 -0.013093838488829111 -0.015555049590957467 0 -0.012676609372217651 -0.015974195049442218 0 -0.012845128425367268 -0.015441515251483582 0 -0.01312556206323936 -0.015411211727219779 0 -0.013093838488829111 -0.015555049590957467 0 -0.012676609372217651 -0.015974195049442218 0 -0.013303847874040505 -0.01585289677018099 0 -0.013329130178938426 -0.017555430269513551 0 -0.013093838488829111 -0.015555049590957467 0 -0.012676609372217651 -0.015974195049442218 0 -0.013303847874040505 -0.01585289677018099 0 -0.012403560808084489 -0.017493696531255331 0 -0.0125804787423898 -0.017967700326352032 0 -0.012604388991178673 -0.017538513775234073 0 -0.01259478023166296 -0.016799695097375771 0 -0.012647177162166939 -0.016812524993068307 0 -0.012845128425367268 -0.015441515251483582 0 -0.012676609372217651 -0.015974195049442218 0 -0.012629524204890222 -0.015611695847098029 0 -0.012742035976294284 -0.016945232653876905 0 -0.012647177162166939 -0.016812524993068307 0 -0.012622404887191987 -0.015381745876150486 0 -0.012845128425367268 -0.015441515251483582 0 -0.012629524204890222 -0.015611695847098029 0 -0.0125804787423898 -0.017967700326352032 0 -0.012604388991178673 -0.017538513775234073 0 -0.013504614975874307 -0.018018389031143712 0 -0.0184148972274913 -0.023295816818486803 0 -0.017460847568829149 -0.022955658221582968 0 -0.01751239871068027 -0.022193927910436586 0 -0.015510519794019169 -0.020432049875867445 0 -0.015511095184053355 -0.020111501612733187 0 -0.0184148972274913 -0.023295816818486803 0 -0.017460847568829149 -0.022955658221582968 0 -0.017637766071112067 -0.023729846004644152 0 -0.0125804787423898 -0.017967700326352032 0 -0.013504614975874307 -0.018018389031143712 0 -0.013485420213852439 -0.018372264864923753 0 -0.013379508719927243 -0.018705680741006859 0 -0.0125804787423898 -0.017967700326352032 0 -0.013485420213852439 -0.018372264864923753 0 -0.013098286721947487 -0.015545083148226261 0 -0.013223049097194203 -0.015528956874742986 0 -0.013039160151548601 -0.015674342937316878 0 -0.013098286721947487 -0.015545083148226261 0 -0.012931465174662891 -0.015574095598571458 0 -0.013039160151548601 -0.015674342937316878 0 -0.013098286721947487 -0.015545083148226261 0 -0.013223049097194203 -0.015528956874742986 0 -0.013232989796656214 -0.015487985840056093 0 -0.013098286721947487 -0.015545083148226261 0 -0.013232989796656214 -0.015487985840056093 0 -0.013015275940522038 -0.015450729404473215 0 -0.013098286721947487 -0.015545083148226261 0 -0.013015275940522038 -0.015450729404473215 0 -0.012931465174662891 -0.015574095598571458 0 -0.013015275940522038 -0.015450729404473215 0 -0.012699469299939998 -0.015587303101896424 0 -0.012931465174662891 -0.015574095598571458 0 -0.011632928631455581 -0.012460575969177035 0 -0.012215117003880371 -0.01292991354631323 0 -0.012146025043703925 -0.01229365139093872 0 -0.012335154105338779 -0.013667177520719033 0 -0.011974357492967691 -0.01318309226489817 0 -0.011632928631455581 -0.012460575969177035 0 -0.011715186164219174 -0.011840270554378984 0 -0.012146025043703925 -0.01229365139093872 0 -0.012335154105338779 -0.013667177520719033 0 -0.012095976878248508 -0.011356114148723024 0 -0.012335154105338779 -0.013667177520719033 0 -0.012365588097674912 -0.013205877827524441 0 -0.012059781264714726 -0.012655629788863452 0 -0.012047666561416179 -0.012804282813047652 0 -0.012332524538044041 -0.012870632797328344 0 -0.012699469299939998 -0.015587303101896424 0 -0.012931465174662891 -0.015574095598571458 0 -0.013039160151548601 -0.015674342937316878 0 -0.011880432809895919 -0.0088370916103125887 0 -0.011846302844404966 -0.0092552947110653254 0 -0.011824449116128812 -0.009193601800286005 0 -0.012095976878248508 -0.011356114148723024 0 -0.012365588097674912 -0.013205877827524441 0 -0.011671889131595361 -0.0089523333708065051 0 -0.011880432809895919 -0.0088370916103125887 0 -0.011824449116128812 -0.009193601800286005 0 -0.011846302844404966 -0.0092552947110653254 0 -0.011824449116128812 -0.009193601800286005 0 -0.01182298276374983 -0.0092204133235181587 0 -0.01181461316636862 -0.0090193279749555058 0 -0.012095976878248508 -0.011356114148723024 0 -0.011671889131595361 -0.0089523333708065051 0 -0.011824449116128812 -0.009193601800286005 0 -0.011433244759765147 -0.0089664127032330378 0 -0.01209321278428366 -0.01428909922544183 0 -0.01227593574973542 -0.014456477590869503 0 -0.012405133101487388 -0.014401072174115671 0 -0.013223049097194203 -0.015528956874742986 0 -0.013039160151548601 -0.015674342937316878 0 -0.013330765209654387 -0.015474045113153463 0 -0.011824449116128812 -0.009193601800286005 0 -0.01182298276374983 -0.0092204133235181587 0 -0.011831259357998112 -0.0092690584394667045 0 -0.012365588097674912 -0.013205877827524441 0 -0.012928949974262907 -0.015096970954055679 0 -0.01157373183589306 -0.0088569393332571349 0 -0.012056362146246892 -0.010366662386279845 0 -0.012365588097674912 -0.013205877827524441 0 -0.012056362146246892 -0.010366662386279845 0 -0.012551994530891853 -0.014591309966134364 0 -0.01227593574973542 -0.014456477590869503 0 -0.012405133101487388 -0.014401072174115671 0 -0.013330765209654387 -0.015474045113153463 0 -0.013289592500032464 -0.015379678165372918 0 -0.013332316932826585 -0.015466749374685005 0 -0.013223049097194203 -0.015528956874742986 0 -0.013330765209654387 -0.015474045113153463 0 -0.013332316932826585 -0.015466749374685005 0 -0.012928949974262907 -0.015096970954055679 0 -0.012893043650259261 -0.014850600468222463 0 -0.013330765209654387 -0.015474045113153463 0 -0.013215939887610353 -0.015189571982755008 0 -0.013289592500032464 -0.015379678165372918 0 -0.012551994530891853 -0.014591309966134364 0 -0.012405133101487388 -0.014401072174115671 0 -0.012652738165662062 -0.014537107979220877 0 -0.013179355550195638 -0.015317197880544609 0 -0.013215939887610353 -0.015189571982755008 0 -0.013289592500032464 -0.015379678165372918 0 -0.013179355550195638 -0.015317197880544609 0 -0.01312556206323936 -0.015411211727219779 0 -0.013304958321962792 -0.015424408511834577 0 -0.013179355550195638 -0.015317197880544609 0 -0.013289592500032464 -0.015379678165372918 0 -0.013304958321962792 -0.015424408511834577 0 -0.013289592500032464 -0.015379678165372918 0 -0.013304958321962792 -0.015424408511834577 0 -0.013332316932826585 -0.015466749374685005 0 -0.013223049097194203 -0.015528956874742986 0 -0.013232989796656214 -0.015487985840056093 0 -0.013332316932826585 -0.015466749374685005 0 -0.013304958321962792 -0.015424408511834577 0 -0.013332316932826585 -0.015466749374685005 0 -0.013379536939192435 -0.015478787502059494 0 -0.013232989796656214 -0.015487985840056093 0 -0.013332316932826585 -0.015466749374685005 0 -0.013379536939192435 -0.015478787502059494 0 -0.013232989796656214 -0.015487985840056093 0 -0.013341925530434709 -0.015450897344792066 0 -0.013379536939192435 -0.015478787502059494 0 -0.013341925530434709 -0.015450897344792066 0 -0.013379536939192435 -0.015478787502059494 0 -0.013479796078122802 -0.015550247171719036 0 -0.013341925530434709 -0.015450897344792066 0 -0.013479796078122802 -0.015550247171719036 0 -0.013407299352354598 -0.01547442970599682 0 -0.013093838488829111 -0.015555049590957467 0 -0.013479796078122802 -0.015550247171719036 0 -0.013303847874040505 -0.01585289677018099 0 -0.013093838488829111 -0.015555049590957467 0 -0.013304958321962792 -0.015424408511834577 0 -0.013479796078122802 -0.015550247171719036 0 -0.013304958321962792 -0.015424408511834577 0 -0.013379536939192435 -0.015478787502059494 0 -0.013479796078122802 -0.015550247171719036 0 -0.013479796078122802 -0.015550247171719036 0 -0.013303847874040505 -0.01585289677018099 0 -0.013866113695068807 -0.015863954752388526 0 -0.013959118290881175 -0.015796744013254475 0 -0.014627435349652952 -0.015814697302092957 0 -0.013479796078122802 -0.015550247171719036 0 -0.013866113695068807 -0.015863954752388526 0 -0.013407299352354598 -0.01547442970599682 0 -0.013866113695068807 -0.015863954752388526 0 -0.013407299352354598 -0.01547442970599682 0 -0.013181748289265367 -0.015036243881052399 0 -0.013407299352354598 -0.01547442970599682 0 -0.012889306921824379 -0.015063818430484006 0 -0.013067566829911057 -0.01527144370362218 0 -0.013407299352354598 -0.01547442970599682 0 -0.012889306921824379 -0.015063818430484006 0 -0.013181748289265367 -0.015036243881052399 0 -0.013341925530434709 -0.015450897344792066 0 -0.013407299352354598 -0.01547442970599682 0 -0.013067566829911057 -0.01527144370362218 0 -0.013232989796656214 -0.015487985840056093 0 -0.013015275940522038 -0.015450729404473215 0 -0.013067566829911057 -0.01527144370362218 0 -0.013232989796656214 -0.015487985840056093 0 -0.013341925530434709 -0.015450897344792066 0 -0.013067566829911057 -0.01527144370362218 0 -0.012335154105338779 -0.013667177520719033 0 -0.012469849260225515 -0.014922167602140556 0 -0.013015275940522038 -0.015450729404473215 0 -0.012699469299939998 -0.015587303101896424 0 -0.012567236236598407 -0.014874277725917687 0 -0.013015275940522038 -0.015450729404473215 0 -0.013067566829911057 -0.01527144370362218 0 -0.012567236236598407 -0.014874277725917687 0 -0.011751149663161039 -0.012600866877453319 0 -0.012567236236598407 -0.014874277725917687 0 -0.012215117003880371 -0.01292991354631323 0 -0.012567236236598407 -0.014874277725917687 0 -0.013164901349172581 -0.014885067178537163 0 -0.012753579100084057 -0.015073335366160302 0 -0.012889306921824379 -0.015063818430484006 0 -0.012567236236598407 -0.014874277725917687 0 -0.012753579100084057 -0.015073335366160302 0 -0.012889306921824379 -0.015063818430484006 0 -0.013067566829911057 -0.01527144370362218 0 -0.012567236236598407 -0.014874277725917687 0 -0.012567236236598407 -0.014874277725917687 0 -0.013164901349172581 -0.014885067178537163 0 -0.01288564429821413 -0.014054551071131438 0 -0.013306071726806706 -0.011988104148692377 0 -0.013726878024172544 -0.0125499838215381 0 -0.013101215463807898 -0.012889771571330857 0 -0.012654886711784405 -0.01231745137598261 0 -0.013306071726806706 -0.011988104148692377 0 -0.013101215463807898 -0.012889771571330857 0 -0.012654886711784405 -0.01231745137598261 0 -0.013306071726806706 -0.011988104148692377 0 -0.012951024503233408 -0.011313306571218691 0 -0.013306071726806706 -0.011988104148692377 0 -0.012951024503233408 -0.011313306571218691 0 -0.013663870035136362 -0.011434707933798591 0 -0.013164901349172581 -0.014885067178537163 0 -0.01288564429821413 -0.014054551071131438 0 -0.013624384313925861 -0.013270765135959329 0 -0.012567236236598407 -0.014874277725917687 0 -0.01288564429821413 -0.014054551071131438 0 -0.012215117003880371 -0.01292991354631323 0 -0.012803596696477805 -0.013386853830588765 0 -0.01324409024973852 -0.01231632083256972 0 -0.01288564429821413 -0.014054551071131438 0 -0.012886204030025978 -0.012820995627479711 0 -0.013624384313925861 -0.013270765135959329 0 -0.012215117003880371 -0.01292991354631323 0 -0.012146025043703925 -0.01229365139093872 0 -0.012886204030025978 -0.012820995627479711 0 -0.01288564429821413 -0.014054551071131438 0 -0.012215117003880371 -0.01292991354631323 0 -0.012886204030025978 -0.012820995627479711 0 -0.012464835808194241 -0.011923769039849166 0 -0.012886204030025978 -0.012820995627479711 0 -0.013291928731335542 -0.01064944091179373 0 -0.011715186164219174 -0.011840270554378984 0 -0.012146025043703925 -0.01229365139093872 0 -0.012464835808194241 -0.011923769039849166 0 -0.012095976878248508 -0.011356114148723024 0 -0.012274785176664796 -0.01168578384025281 0 -0.012146025043703925 -0.01229365139093872 0 -0.012464835808194241 -0.011923769039849166 0 -0.012886204030025978 -0.012820995627479711 0 -0.012951024503233408 -0.011313306571218691 0 -0.013589098636814326 -0.010861085493007246 0 -0.013663870035136362 -0.011434707933798591 0 -0.012886204030025978 -0.012820995627479711 0 -0.013624384313925861 -0.013270765135959329 0 -0.013291928731335542 -0.01064944091179373 0 -0.012951024503233408 -0.011313306571218691 0 -0.013291928731335542 -0.01064944091179373 0 -0.013589098636814326 -0.010861085493007246 0 -0.01324409024973852 -0.01231632083256972 0 -0.013326216536621896 -0.010823906399784304 0 -0.013291928731335542 -0.01064944091179373 0 -0.013589098636814326 -0.010861085493007246 0 -0.013717953140290255 -0.0099457615219378671 0 -0.011807823184504173 -0.0096242140163249335 0 -0.011555332196021544 -0.011598138162719372 0 -0.012423254076798732 -0.010695790876183093 0 -0.013291928731335542 -0.01064944091179373 0 -0.012423254076798732 -0.010695790876183093 0 -0.012859381223171968 -0.0099347046016201764 0 -0.011555332196021544 -0.011598138162719372 0 -0.012464835808194241 -0.011923769039849166 0 -0.012423254076798732 -0.010695790876183093 0 -0.012464835808194241 -0.011923769039849166 0 -0.013291928731335542 -0.01064944091179373 0 -0.012423254076798732 -0.010695790876183093 0 -0.014158861880257584 -0.010577097653525007 0 -0.014672045986479434 -0.010582978825504213 0 -0.01454189014886146 -0.0099134701910176086 0 -0.014158861880257584 -0.010577097653525007 0 -0.013717953140290255 -0.0099457615219378671 0 -0.01454189014886146 -0.0099134701910176086 0 -0.014158861880257584 -0.010577097653525007 0 -0.013589098636814326 -0.010861085493007246 0 -0.013717953140290255 -0.0099457615219378671 0 -0.014158861880257584 -0.010577097653525007 0 -0.013589098636814326 -0.010861085493007246 0 -0.014003247863063069 -0.011072008838062097 0 -0.013589098636814326 -0.010861085493007246 0 -0.014003247863063069 -0.011072008838062097 0 -0.013663870035136362 -0.011434707933798591 0 -0.014003247863063069 -0.011072008838062097 0 -0.014204567411872227 -0.011452301446921741 0 -0.013663870035136362 -0.011434707933798591 0 -0.014003247863063069 -0.011072008838062097 0 -0.014433919214290875 -0.01104331831379563 0 -0.014204567411872227 -0.011452301446921741 0 -0.014158861880257584 -0.010577097653525007 0 -0.014003247863063069 -0.011072008838062097 0 -0.014433919214290875 -0.01104331831379563 0 -0.014158861880257584 -0.010577097653525007 0 -0.014672045986479434 -0.010582978825504213 0 -0.014433919214290875 -0.01104331831379563 0 -0.014433919214290875 -0.01104331831379563 0 -0.014644243288698941 -0.011398781080077537 0 -0.014204567411872227 -0.011452301446921741 0 -0.014644243288698941 -0.011398781080077537 0 -0.014204567411872227 -0.011452301446921741 0 -0.01455541685156574 -0.011848409521701622 0 -0.014204567411872227 -0.011452301446921741 0 -0.01455541685156574 -0.011848409521701622 0 -0.013955623989132738 -0.011930328859379205 0 -0.013306071726806706 -0.011988104148692377 0 -0.013663870035136362 -0.011434707933798591 0 -0.013955623989132738 -0.011930328859379205 0 -0.014204567411872227 -0.011452301446921741 0 -0.013663870035136362 -0.011434707933798591 0 -0.013955623989132738 -0.011930328859379205 0 -0.013306071726806706 -0.011988104148692377 0 -0.013955623989132738 -0.011930328859379205 0 -0.013726878024172544 -0.0125499838215381 0 -0.013955623989132738 -0.011930328859379205 0 -0.013726878024172544 -0.0125499838215381 0 -0.014307956084932428 -0.012281742304641961 0 -0.01455541685156574 -0.011848409521701622 0 -0.014307956084932428 -0.012281742304641961 0 -0.01478036468999866 -0.01232333679850455 0 -0.01455541685156574 -0.011848409521701622 0 -0.013955623989132738 -0.011930328859379205 0 -0.014307956084932428 -0.012281742304641961 0 -0.013726878024172544 -0.0125499838215381 0 -0.014307956084932428 -0.012281742304641961 0 -0.014351422921383103 -0.012871819934429747 0 -0.01478036468999866 -0.01232333679850455 0 -0.014943507100046792 -0.012890145262409575 0 -0.014351422921383103 -0.012871819934429747 0 -0.014307956084932428 -0.012281742304641961 0 -0.01478036468999866 -0.01232333679850455 0 -0.014351422921383103 -0.012871819934429747 0 -0.01478036468999866 -0.01232333679850455 0 -0.015192437470030701 -0.012269006937664681 0 -0.014943507100046792 -0.012890145262409575 0 -0.014965791027436219 -0.011985690738106078 0 -0.01478036468999866 -0.01232333679850455 0 -0.015192437470030701 -0.012269006937664681 0 -0.01455541685156574 -0.011848409521701622 0 -0.014965791027436219 -0.011985690738106078 0 -0.01478036468999866 -0.01232333679850455 0 -0.014965791027436219 -0.011985690738106078 0 -0.015192437470030701 -0.012269006937664681 0 -0.01534035853587868 -0.011887129436297132 0 -0.015192437470030701 -0.012269006937664681 0 -0.015412627265128353 -0.012160585077392294 0 -0.01534035853587868 -0.011887129436297132 0 -0.015192437470030701 -0.012269006937664681 0 -0.015553319607004269 -0.012389367331843317 0 -0.015433535531777945 -0.012927237649051555 0 -0.015553319607004269 -0.012389367331843317 0 -0.015744267476200054 -0.012423382037676504 0 -0.015631650103402388 -0.012135049176081098 0 -0.015852120735640112 -0.012322537005247004 0 -0.015873806125933785 -0.01197875364340043 0 -0.016071677553890797 -0.012622113878098034 0 -0.015900676073805967 -0.012507258077064133 0 -0.016071677553890797 -0.012622113878098034 0 -0.015762745834932687 -0.01273326968426188 0 -0.015900676073805967 -0.012507258077064133 0 -0.015852120735640112 -0.012322537005247004 0 -0.016071677553890797 -0.012622113878098034 0 -0.015900676073805967 -0.012507258077064133 0 -0.015744267476200054 -0.012423382037676504 0 -0.015762745834932687 -0.01273326968426188 0 -0.015553319607004269 -0.012389367331843317 0 -0.015744267476200054 -0.012423382037676504 0 -0.015762745834932687 -0.01273326968426188 0 -0.015744267476200054 -0.012423382037676504 0 -0.015852120735640112 -0.012322537005247004 0 -0.015631650103402388 -0.012135049176081098 0 -0.015900676073805967 -0.012507258077064133 0 -0.015744267476200054 -0.012423382037676504 0 -0.015852120735640112 -0.012322537005247004 0 -0.015873806125933785 -0.01197875364340043 0 -0.015631650103402388 -0.012135049176081098 0 -0.015612210989912435 -0.011744585687634909 0 -0.015852120735640112 -0.012322537005247004 0 -0.015873806125933785 -0.01197875364340043 0 -0.015631650103402388 -0.012135049176081098 0 -0.015631650103402388 -0.012135049176081098 0 -0.01534035853587868 -0.011887129436297132 0 -0.015612210989912435 -0.011744585687634909 0 -0.015192437470030701 -0.012269006937664681 0 -0.015553319607004269 -0.012389367331843317 0 -0.015412627265128353 -0.012160585077392294 0 -0.015553319607004269 -0.012389367331843317 0 -0.015412627265128353 -0.012160585077392294 0 -0.015631650103402388 -0.012135049176081098 0 -0.015412627265128353 -0.012160585077392294 0 -0.015631650103402388 -0.012135049176081098 0 -0.01534035853587868 -0.011887129436297132 0 -0.01534035853587868 -0.011887129436297132 0 -0.015612210989912435 -0.011744585687634909 0 -0.015304304882918311 -0.011461311195846521 0 -0.015873806125933785 -0.01197875364340043 0 -0.015612210989912435 -0.011744585687634909 0 -0.015813181700239497 -0.011521975619472073 0 -0.015612210989912435 -0.011744585687634909 0 -0.015813181700239497 -0.011521975619472073 0 -0.01564088457665163 -0.011390734508760277 0 -0.015813181700239497 -0.011521975619472073 0 -0.01564088457665163 -0.011390734508760277 0 -0.015850624068604761 -0.011127854304828171 0 -0.01564088457665163 -0.011390734508760277 0 -0.015304304882918311 -0.011461311195846521 0 -0.015516772679491421 -0.01094621171433894 0 -0.015612210989912435 -0.011744585687634909 0 -0.01564088457665163 -0.011390734508760277 0 -0.015304304882918311 -0.011461311195846521 0 -0.015304304882918311 -0.011461311195846521 0 -0.01496378753756364 -0.01160758546043714 0 -0.014968699185475548 -0.011056282141907159 0 -0.014644243288698941 -0.011398781080077537 0 -0.01496378753756364 -0.01160758546043714 0 -0.014968699185475548 -0.011056282141907159 0 -0.01455541685156574 -0.011848409521701622 0 -0.014965791027436219 -0.011985690738106078 0 -0.01496378753756364 -0.01160758546043714 0 -0.014644243288698941 -0.011398781080077537 0 -0.01455541685156574 -0.011848409521701622 0 -0.01496378753756364 -0.01160758546043714 0 -0.014965791027436219 -0.011985690738106078 0 -0.01534035853587868 -0.011887129436297132 0 -0.01496378753756364 -0.01160758546043714 0 -0.01534035853587868 -0.011887129436297132 0 -0.015304304882918311 -0.011461311195846521 0 -0.01496378753756364 -0.01160758546043714 0 -0.0013091581690000077 -0.0023589643226696491 0 -0.0013980125229414021 -0.0025082091226687401 0 -0.0010085777754270373 -0.0025609048516075398 0 -0.00089341477931501869 -0.0079137820691124999 0 2.9233929047541771e-05 -0.0036637027908728178 0 -0.015873806125933785 -0.01197875364340043 0 -0.016071677553890797 -0.012622113878098034 0 -0.016088917055359999 -0.011417016407099499 0 -0.013532773295970413 -0.012069288710142468 0 -0.016570630329507226 -0.011527395843778999 0 -0.0066835434774193845 -0.0088838684639363508 0 -0.0092506207807641853 -0.0066327521932010077 0 -0.01605049723891399 -0.012130225267843565 0 -0.015824938552511214 -0.012131668913603812 0 -0.016088917055359999 -0.011417016407099499 0 -0.0013980125229414021 -0.0025082091226687401 0 -0.0015271191160372778 -0.002426242947315371 0 -0.0013830593217710678 -0.0028579561550816797 0 -0.00089341477931501869 -0.0079137820691124999 0 -0.0066835434774193845 -0.0088838684639363508 0 -0.0013554023832503955 -0.0024479046543951352 0 -0.0013980125229414021 -0.0025082091226687401 0 -0.0015271191160372778 -0.002426242947315371 0 -0.0066835434774193845 -0.0088838684639363508 0 -0.013532773295970413 -0.012069288710142468 0 -0.016431293330897195 -0.011243084428534758 0 -0.016088917055359999 -0.011417016407099499 0 -0.015850624068604761 -0.011127854304828171 0 -0.01605049723891399 -0.012130225267843565 0 -0.016431293330897195 -0.011243084428534758 0 -0.016088917055359999 -0.011417016407099499 0 -0.015873806125933785 -0.01197875364340043 0 -0.015813181700239497 -0.011521975619472073 0 -0.016088917055359999 -0.011417016407099499 0 -0.015813181700239497 -0.011521975619472073 0 -0.016088917055359999 -0.011417016407099499 0 -0.015850624068604761 -0.011127854304828171 0 -0.0013980125229414021 -0.0025082091226687401 0 -0.0013830593217710678 -0.0028579561550816797 0 -0.0010085777754270373 -0.0025609048516075398 0 -0.0013830593217710678 -0.0028579561550816797 0 -0.00094957800101014083 -0.0030320712646157619 0 -0.0010085777754270373 -0.0025609048516075398 0 -0.0092506207807641853 -0.0066327521932010077 0 -0.0088786166268528428 -0.0067600693038569462 0 -0.0013830593217710678 -0.0028579561550816797 0 -0.0012031745602371819 -0.0033155279966309128 0 -0.00094957800101014083 -0.0030320712646157619 0 -0.016431293330897195 -0.011243084428534758 0 -0.01593491774667305 -0.010550427863051097 0 -0.015850624068604761 -0.011127854304828171 0 -0.016431293330897195 -0.011243084428534758 0 -0.01593491774667305 -0.010550427863051097 0 -0.016695259982610955 -0.0099994774749195599 0 -0.01593491774667305 -0.010550427863051097 0 -0.016695259982610955 -0.0099994774749195599 0 -0.01589106654119855 -0.0097400824616597007 0 -0.014968699185475548 -0.011056282141907159 0 -0.015516772679491421 -0.01094621171433894 0 -0.015257587320408588 -0.010327867565099512 0 -0.014672045986479434 -0.010582978825504213 0 -0.014968699185475548 -0.011056282141907159 0 -0.015257587320408588 -0.010327867565099512 0 -0.014672045986479434 -0.010582978825504213 0 -0.014433919214290875 -0.01104331831379563 0 -0.014968699185475548 -0.011056282141907159 0 -0.014433919214290875 -0.01104331831379563 0 -0.014644243288698941 -0.011398781080077537 0 -0.014968699185475548 -0.011056282141907159 0 -0.015304304882918311 -0.011461311195846521 0 -0.014968699185475548 -0.011056282141907159 0 -0.015516772679491421 -0.01094621171433894 0 -0.01593491774667305 -0.010550427863051097 0 -0.015516772679491421 -0.01094621171433894 0 -0.015257587320408588 -0.010327867565099512 0 -0.01564088457665163 -0.011390734508760277 0 -0.015516772679491421 -0.01094621171433894 0 -0.015850624068604761 -0.011127854304828171 0 -0.01593491774667305 -0.010550427863051097 0 -0.015516772679491421 -0.01094621171433894 0 -0.015850624068604761 -0.011127854304828171 0 -0.01593491774667305 -0.010550427863051097 0 -0.015257587320408588 -0.010327867565099512 0 -0.01589106654119855 -0.0097400824616597007 0 -0.014672045986479434 -0.010582978825504213 0 -0.015257587320408588 -0.010327867565099512 0 -0.01454189014886146 -0.0099134701910176086 0 -0.015257587320408588 -0.010327867565099512 0 -0.015126762142256021 -0.0094926451323059761 0 -0.01454189014886146 -0.0099134701910176086 0 -0.015257587320408588 -0.010327867565099512 0 -0.015126762142256021 -0.0094926451323059761 0 -0.01589106654119855 -0.0097400824616597007 0 -0.015126762142256021 -0.0094926451323059761 0 -0.015601806095422863 -0.0090780878812083323 0 -0.01589106654119855 -0.0097400824616597007 0 -0.015601806095422863 -0.0090780878812083323 0 -0.015057296756533785 -0.0085605079710162797 0 -0.015793146362356212 -0.0084975102680359873 0 -0.015126762142256021 -0.0094926451323059761 0 -0.015601806095422863 -0.0090780878812083323 0 -0.015057296756533785 -0.0085605079710162797 0 -0.015126762142256021 -0.0094926451323059761 0 -0.015057296756533785 -0.0085605079710162797 0 -0.01436942922506129 -0.0091859022529317009 0 -0.016695259982610955 -0.0099994774749195599 0 -0.016204558481183299 -0.0090257535104593806 0 -0.016882499345552776 -0.0087369823494803985 0 -0.0088786166268528428 -0.0067600693038569462 0 -0.0090004045952126171 -0.0061325188620905725 0 -0.015601806095422863 -0.0090780878812083323 0 -0.01589106654119855 -0.0097400824616597007 0 -0.016204558481183299 -0.0090257535104593806 0 -0.016695259982610955 -0.0099994774749195599 0 -0.01589106654119855 -0.0097400824616597007 0 -0.016204558481183299 -0.0090257535104593806 0 -0.015601806095422863 -0.0090780878812083323 0 -0.016204558481183299 -0.0090257535104593806 0 -0.015793146362356212 -0.0084975102680359873 0 -0.016204558481183299 -0.0090257535104593806 0 -0.015793146362356212 -0.0084975102680359873 0 -0.016265913021748436 -0.0081431294629757765 0 -0.016204558481183299 -0.0090257535104593806 0 -0.016882499345552776 -0.0087369823494803985 0 -0.016265913021748436 -0.0081431294629757765 0 -0.016882499345552776 -0.0087369823494803985 0 -0.016265913021748436 -0.0081431294629757765 0 -0.017062929188398031 -0.0072551232791566497 0 -0.016229032722335262 -0.0081195951620041604 0 -0.015257945579338562 -0.0076555653762757471 0 -0.015793146362356212 -0.0084975102680359873 0 -0.016265913021748436 -0.0081431294629757765 0 -0.015524929264934159 -0.0079255101141333731 0 -0.016265913021748436 -0.0081431294629757765 0 -0.016153989831170553 -0.0072136629108760638 0 -0.014939906564859325 -0.0073804283300661598 0 -0.015684075733610199 -0.0066272084438359705 0 -0.016153989831170553 -0.0072136629108760638 0 -0.014939906564859325 -0.0073804283300661598 0 -0.015684075733610199 -0.0066272084438359705 0 -0.016358087170069053 -0.006592942052479657 0 -0.016153989831170553 -0.0072136629108760638 0 -0.016265913021748436 -0.0081431294629757765 0 -0.016153989831170553 -0.0072136629108760638 0 -0.017062929188398031 -0.0072551232791566497 0 -0.016358087170069053 -0.006592942052479657 0 -0.016153989831170553 -0.0072136629108760638 0 -0.017062929188398031 -0.0072551232791566497 0 -0.015057296756533785 -0.0085605079710162797 0 -0.015524929264934159 -0.0079255101141333731 0 -0.014588756091308618 -0.00735888491632768 0 -0.015057296756533785 -0.0085605079710162797 0 -0.015793146362356212 -0.0084975102680359873 0 -0.015524929264934159 -0.0079255101141333731 0 -0.014509399631824349 -0.0063026413833927354 0 -0.01508640872592806 -0.0066071857360048142 0 -0.014939906564859325 -0.0073804283300661598 0 -0.01508640872592806 -0.0066071857360048142 0 -0.015684075733610199 -0.0066272084438359705 0 -0.014939906564859325 -0.0073804283300661598 0 -0.014509399631824349 -0.0063026413833927354 0 -0.014939906564859325 -0.0073804283300661598 0 -0.014038792975242765 -0.0068520886341863017 0 -0.015257945579338562 -0.0076555653762757471 0 -0.014289220869410068 -0.0071020133257504786 0 -0.014588756091308618 -0.00735888491632768 0 -0.014073086342554669 -0.0082638762397232203 0 -0.01368606719892651 -0.0075067125870920239 0 -0.015057296756533785 -0.0085605079710162797 0 -0.014588756091308618 -0.00735888491632768 0 -0.014073086342554669 -0.0082638762397232203 0 -0.014073086342554669 -0.0082638762397232203 0 -0.01368606719892651 -0.0075067125870920239 0 -0.013227873205190078 -0.0079116130306228112 0 -0.014073086342554669 -0.0082638762397232203 0 -0.013227873205190078 -0.0079116130306228112 0 -0.013603302036140711 -0.0087922606493556765 0 -0.013333442066543339 -0.0066227974479609528 0 -0.014588756091308618 -0.00735888491632768 0 -0.01368606719892651 -0.0075067125870920239 0 -0.013333442066543339 -0.0066227974479609528 0 -0.01368606719892651 -0.0075067125870920239 0 -0.013163376673228956 -0.0072276126254775478 0 -0.012613684652839215 -0.0072335202805458715 0 -0.012493661570351425 -0.0078441192255855885 0 -0.013227873205190078 -0.0079116130306228112 0 -0.012883966822335722 -0.006750212287353452 0 -0.013163376673228956 -0.0072276126254775478 0 -0.012613684652839215 -0.0072335202805458715 0 -0.013163376673228956 -0.0072276126254775478 0 -0.012613684652839215 -0.0072335202805458715 0 -0.013227873205190078 -0.0079116130306228112 0 -0.01368606719892651 -0.0075067125870920239 0 -0.013163376673228956 -0.0072276126254775478 0 -0.013227873205190078 -0.0079116130306228112 0 -0.012163896107682516 -0.0064615846360590104 0 -0.012019505315418939 -0.0073786406049816556 0 -0.012613684652839215 -0.0072335202805458715 0 -0.012019505315418939 -0.0073786406049816556 0 -0.012613684652839215 -0.0072335202805458715 0 -0.012493661570351425 -0.0078441192255855885 0 -0.012019505315418939 -0.0073786406049816556 0 -0.012493661570351425 -0.0078441192255855885 0 -0.012019645235305992 -0.0082371372229615054 0 -0.012493661570351425 -0.0078441192255855885 0 -0.012019645235305992 -0.0082371372229615054 0 -0.012786681431278797 -0.0084941579893873121 0 -0.013227873205190078 -0.0079116130306228112 0 -0.012786681431278797 -0.0084941579893873121 0 -0.013603302036140711 -0.0087922606493556765 0 -0.012493661570351425 -0.0078441192255855885 0 -0.013227873205190078 -0.0079116130306228112 0 -0.012786681431278797 -0.0084941579893873121 0 -0.012786681431278797 -0.0084941579893873121 0 -0.013109832240549428 -0.0092588616776046878 0 -0.013603302036140711 -0.0087922606493556765 0 -0.012786681431278797 -0.0084941579893873121 0 -0.013109832240549428 -0.0092588616776046878 0 -0.012517968626198472 -0.0090870647106558924 0 -0.012019645235305992 -0.0082371372229615054 0 -0.012786681431278797 -0.0084941579893873121 0 -0.012517968626198472 -0.0090870647106558924 0 -0.011807823184504173 -0.0096242140163249335 0 -0.012019645235305992 -0.0082371372229615054 0 -0.012517968626198472 -0.0090870647106558924 0 -0.011807823184504173 -0.0096242140163249335 0 -0.012423254076798732 -0.010695790876183093 0 -0.012859381223171968 -0.0099347046016201764 0 -0.011807823184504173 -0.0096242140163249335 0 -0.012517968626198472 -0.0090870647106558924 0 -0.012859381223171968 -0.0099347046016201764 0 -0.013291928731335542 -0.01064944091179373 0 -0.012859381223171968 -0.0099347046016201764 0 -0.013717953140290255 -0.0099457615219378671 0 -0.013109832240549428 -0.0092588616776046878 0 -0.013717953140290255 -0.0099457615219378671 0 -0.013603302036140711 -0.0087922606493556765 0 -0.013109832240549428 -0.0092588616776046878 0 -0.012859381223171968 -0.0099347046016201764 0 -0.013717953140290255 -0.0099457615219378671 0 -0.013109832240549428 -0.0092588616776046878 0 -0.012517968626198472 -0.0090870647106558924 0 -0.012859381223171968 -0.0099347046016201764 0 -0.013717953140290255 -0.0099457615219378671 0 -0.01454189014886146 -0.0099134701910176086 0 -0.01436942922506129 -0.0091859022529317009 0 -0.015126762142256021 -0.0094926451323059761 0 -0.01454189014886146 -0.0099134701910176086 0 -0.01436942922506129 -0.0091859022529317009 0 -0.015057296756533785 -0.0085605079710162797 0 -0.014073086342554669 -0.0082638762397232203 0 -0.01436942922506129 -0.0091859022529317009 0 -0.013717953140290255 -0.0099457615219378671 0 -0.01436942922506129 -0.0091859022529317009 0 -0.013603302036140711 -0.0087922606493556765 0 -0.014073086342554669 -0.0082638762397232203 0 -0.01436942922506129 -0.0091859022529317009 0 -0.013603302036140711 -0.0087922606493556765 0 -0.036234324157631378 -0.0079568495680920268 0 -0.036508687359522493 -0.0087637904948695295 0 -0.036882647386789875 -0.0078290725580462423 0 -0.036234324157631378 -0.0079568495680920268 0 -0.036882647386789875 -0.0078290725580462423 0 -0.036282156365942939 -0.0074509256123833382 0 -0.036281729636297937 -0.0072803110924643906 0 -0.035848091702917202 -0.0074354632063447163 0 -0.036245947143960164 -0.0077577226084910595 0 -0.036284747033420349 -0.0075051926766972398 0 -0.036271538105046221 -0.0075806277255310393 0 -0.036284747033420349 -0.0075051926766972398 0 -0.036129608312482943 -0.006744964202667101 0 -0.036293982995033315 -0.0073391534189026497 0 -0.036172604431979394 -0.0069831482366357603 0 -0.036339352794744297 -0.0068534195093265179 0 -0.036284747033420349 -0.0075051926766972398 0 -0.036314200796346653 -0.0069002295717478243 0 -0.036281729636297937 -0.0072803110924643906 0 -0.036074947569936663 -0.0066896112271986616 0 -0.035848091702917202 -0.0074354632063447163 0 -0.036129608312482943 -0.006744964202667101 0 -0.035000300797176032 -0.0074788950465867459 0 -0.036160001724062737 -0.0065765201271853072 0 -0.034999998259523983 -0.0074791419089505458 0 -0.034999998548358786 -0.0060408387643673834 0 -0.036074947569936663 -0.0066896112271986616 0 -0.034999916150304608 -0.0074792698691789825 0 -0.035848091702917202 -0.0074354632063447163 0 -0.034999916150304608 -0.0074792698691789825 0 -0.035848091702917202 -0.0074354632063447163 0 -0.035759021145770925 -0.0079475762496290393 0 -0.035848091702917202 -0.0074354632063447163 0 -0.035759021145770925 -0.0079475762496290393 0 -0.036245947143960164 -0.0077577226084910595 0 -0.034999916150304608 -0.0074792698691789825 0 -0.035759021145770925 -0.0079475762496290393 0 -0.035584657752373842 -0.0086329573391254379 0 -0.034999916150304608 -0.0074792698691789825 0 -0.035584657752373842 -0.0086329573391254379 0 -0.034999791568728414 -0.0094913608095831912 0 -0.035759021145770925 -0.0079475762496290393 0 -0.035584657752373842 -0.0086329573391254379 0 -0.036196571159433033 -0.0084183264763863855 0 -0.036196571159433033 -0.0084183264763863855 0 -0.036245947143960164 -0.0077577226084910595 0 -0.036795984893853134 -0.0087331675159224801 0 -0.036284747033420349 -0.0075051926766972398 0 -0.036554340463630965 -0.0089324548521003931 0 -0.036300078817015101 -0.0072241533038057346 0 -0.036245947143960164 -0.0077577226084910595 0 -0.036795984893853134 -0.0087331675159224801 0 -0.035759021145770925 -0.0079475762496290393 0 -0.036196571159433033 -0.0084183264763863855 0 -0.036245947143960164 -0.0077577226084910595 0 -0.036554340463630965 -0.0089324548521003931 0 -0.036741133356924673 -0.0083367474304920884 0 -0.036628509803624663 -0.01109312486201585 0 -0.03658031055968991 -0.011080577003454269 0 -0.03669079141821701 -0.011105580380274576 0 -0.036336118433547178 -0.0092437914070341212 0 -0.037276771472557056 -0.0085971843555912742 0 -0.036894274139837577 -0.0078920884341301348 0 -0.03667109803910848 -0.0097085556985355061 0 -0.036885679150650011 -0.010452676346346855 0 -0.036336118433547178 -0.0092437914070341212 0 -0.037276771472557056 -0.0085971843555912742 0 -0.037079281395173178 -0.0097610292225375345 0 -0.036628509803624663 -0.01109312486201585 0 -0.03658031055968991 -0.011080577003454269 0 -0.036582024512882561 -0.01108548395325072 0 -0.03658031055968991 -0.011080577003454269 0 -0.036582024512882561 -0.01108548395325072 0 -0.036556027539922716 -0.011087154571974468 0 -0.03655917826424359 -0.011084841966003629 0 -0.036417461849914359 -0.011074743355597919 0 -0.036583078745520595 -0.011096482745632708 0 -0.036628509803624663 -0.01109312486201585 0 -0.03655917826424359 -0.011084841966003629 0 -0.036583078745520595 -0.011096482745632708 0 -0.036628509803624663 -0.01109312486201585 0 -0.036582024512882561 -0.01108548395325072 0 -0.03655917826424359 -0.011084841966003629 0 -0.036556027539922716 -0.011087154571974468 0 -0.03655917826424359 -0.011084841966003629 0 -0.036478888056997325 -0.011094017721958943 0 -0.036582024512882561 -0.01108548395325072 0 -0.036556027539922716 -0.011087154571974468 0 -0.03655917826424359 -0.011084841966003629 0 -0.03655917826424359 -0.011084841966003629 0 -0.036478888056997325 -0.011094017721958943 0 -0.036417461849914359 -0.011074743355597919 0 -0.036556027539922716 -0.011087154571974468 0 -0.036478888056997325 -0.011094017721958943 0 -0.036549305343288492 -0.011138700725129578 0 -0.036478888056997325 -0.011094017721958943 0 -0.036549305343288492 -0.011138700725129578 0 -0.036445608912007724 -0.01116288535878583 0 -0.036478888056997325 -0.011094017721958943 0 -0.036445608912007724 -0.01116288535878583 0 -0.036298133025162327 -0.011068859791207237 0 -0.036438449098819305 -0.0093743730568985346 0 -0.036428410103168683 -0.0093960966342570475 0 -0.036444590001114281 -0.009387653192293649 0 -0.03667109803910848 -0.0097085556985355061 0 -0.03645264216836451 -0.010382291745141549 0 -0.03658031055968991 -0.011080577003454269 0 -0.036556027539922716 -0.011087154571974468 0 -0.036549305343288492 -0.011138700725129578 0 -0.03667109803910848 -0.0097085556985355061 0 -0.036741133356924673 -0.0083367474304920884 0 -0.036428410103168683 -0.0093960966342570475 0 -0.03642485571992736 -0.00942071038498952 0 -0.036417901096806642 -0.0094201568129738001 0 -0.036726545508496702 -0.0079373681408938142 0 -0.036680556071139132 -0.0079219153632105691 0 -0.036601893032236016 -0.0079818607935842577 0 -0.036428410103168683 -0.0093960966342570475 0 -0.036444590001114281 -0.009387653192293649 0 -0.03642485571992736 -0.00942071038498952 0 -0.036741133356924673 -0.0083367474304920884 0 -0.0361007858173365 -0.0088289902111082091 0 -0.036663055904284293 -0.0080991533376545324 0 -0.036726545508496702 -0.0079373681408938142 0 -0.036601893032236016 -0.0079818607935842577 0 -0.036741133356924673 -0.0083367474304920884 0 -0.03652545250977584 -0.0071750759285886681 0 -0.0361007858173365 -0.0088289902111082091 0 -0.03564746199242224 -0.0099865885110628945 0 -0.036859567787186541 -0.0069804296202501124 0 -0.03652545250977584 -0.0071750759285886681 0 -0.036549305343288492 -0.011138700725129578 0 -0.036445608912007724 -0.01116288535878583 0 -0.036525359945586353 -0.011280438436417786 0 -0.034525686312103614 -0.010494110920530139 0 -0.034799141288824054 -0.01036620126537483 0 -0.035081544133578446 -0.010715115401648528 0 -0.036445608912007724 -0.01116288535878583 0 -0.036525359945586353 -0.011280438436417786 0 -0.03632121678241898 -0.011241211436189873 0 -0.03645264216836451 -0.010382291745141549 0 -0.03564746199242224 -0.0099865885110628945 0 -0.03564746199242224 -0.0099865885110628945 0 -0.035730378891941257 -0.011006035583140249 0 -0.034525632413681576 -0.010180456041642708 0 -0.034833216667098217 -0.010138696634818839 0 -0.03503841143764911 -0.0097570465914350139 0 -0.034799141288824054 -0.01036620126537483 0 -0.034833216667098217 -0.010138696634818839 0 -0.035118429623036025 -0.010324008882226709 0 -0.034799141288824054 -0.01036620126537483 0 -0.034687807462187449 -0.010240024000299495 0 -0.034833216667098217 -0.010138696634818839 0 -0.034525686312103614 -0.010494110920530139 0 -0.034799141288824054 -0.01036620126537483 0 -0.034566979505829896 -0.010294419887866613 0 -0.034799141288824054 -0.01036620126537483 0 -0.034687807462187449 -0.010240024000299495 0 -0.034566979505829896 -0.010294419887866613 0 -0.034454442219219956 -0.010412530778094923 0 -0.034566979505829896 -0.010294419887866613 0 -0.034525632413681576 -0.010180456041642708 0 -0.034454442219219956 -0.010412530778094923 0 -0.034545567282797313 -0.010437500676952111 0 -0.034566979505829896 -0.010294419887866613 0 -0.03564746199242224 -0.0099865885110628945 0 -0.035237114307165709 -0.010365608364877966 0 -0.034687807462187449 -0.010240024000299495 0 -0.034566979505829896 -0.010294419887866613 0 -0.034525632413681576 -0.010180456041642708 0 -0.034687807462187449 -0.010240024000299495 0 -0.034525632413681576 -0.010180456041642708 0 -0.034833216667098217 -0.010138696634818839 0 -0.038146647879876622 -0.0048558329326364473 0 -0.036990414126259384 -0.0049352657974241236 0 -0.037176301729403699 -0.0043020275846928722 0 -0.038146647879876622 -0.0048558329326364473 0 -0.036990414126259384 -0.0049352657974241236 0 -0.037452903094735888 -0.0053986006113487944 0 -0.0361007858173365 -0.0088289902111082091 0 -0.036859567787186541 -0.0069804296202501124 0 -0.035822815032934198 -0.0072027891361845153 0 -0.036859567787186541 -0.0069804296202501124 0 -0.036078461854586102 -0.0074119348501298895 0 -0.036008584652434443 -0.00757665639309735 0 -0.036188327670884361 -0.0074421005155151662 0 -0.0361007858173365 -0.0088289902111082091 0 -0.035822815032934198 -0.0072027891361845153 0 -0.038146647879876622 -0.0048558329326364473 0 -0.037877952391036585 -0.0040538059497412507 0 -0.037176301729403699 -0.0043020275846928722 0 -0.036859567787186541 -0.0069804296202501124 0 -0.03638008929545547 -0.0052701745104100058 0 -0.036990414126259384 -0.0049352657974241236 0 -0.037452903094735888 -0.0053986006113487944 0 -0.036350235379591346 -0.0050734637323880619 0 -0.036990414126259384 -0.0049352657974241236 0 -0.036350235379591346 -0.0050734637323880619 0 -0.037176301729403699 -0.0043020275846928722 0 -0.036394474456406235 -0.0049029409984454424 0 -0.036511958804451128 -0.0049371945375472825 0 -0.03669794023699316 -0.0029948664964327748 0 -0.036922326022389172 -0.0064077490730770062 0 -0.036347655514088341 -0.0062358721969408273 0 -0.036339525100737145 -0.0063219305123185902 0 -0.036495040299811994 -0.0050866063648242026 0 -0.036606641529243429 -0.0052944691134821495 0 -0.035717538763180283 -0.0048573160215572841 0 -0.036297138463163563 -0.0052010477983814238 0 -0.03638008929545547 -0.0052701745104100058 0 -0.03638008929545547 -0.0052701745104100058 0 -0.036376451445899766 -0.0056399687521882878 0 -0.036297138463163563 -0.0052010477983814238 0 -0.036376451445899766 -0.0056399687521882878 0 -0.036388871911916816 -0.0054120889170163567 0 -0.036298995100359242 -0.0053863041069187505 0 -0.036310399517468672 -0.0052671867770240953 0 -0.036922326022389172 -0.0064077490730770062 0 -0.036339525100737145 -0.0063219305123185902 0 -0.036542279218909623 -0.0067019417947962647 0 -0.036321185495421321 -0.006050640042040277 0 -0.036646239200444963 -0.0066556366313975743 0 -0.036234562882918188 -0.0069757983232543877 0 -0.036376451445899766 -0.0056399687521882878 0 -0.036314200796346653 -0.0069002295717478243 0 -0.036606641529243429 -0.0052944691134821495 0 -0.036496960918375787 -0.0064454769222164849 0 -0.035577635820471132 -0.0049059109817582323 0 -0.036376451445899766 -0.0056399687521882878 0 -0.03652545250977584 -0.0071750759285886681 0 -0.036129608312482943 -0.006744964202667101 0 -0.036314200796346653 -0.0069002295717478243 0 -0.036882647386789875 -0.0078290725580462423 0 -0.03656283517140739 -0.0072333979733386249 0 -0.036282156365942939 -0.0074509256123833382 0 -0.03652545250977584 -0.0071750759285886681 0 -0.036314200796346653 -0.0069002295717478243 0 -0.036129608312482943 -0.006744964202667101 0 -0.035581195052937734 -0.0048685706425484155 0 -0.036179060860664178 -0.0066925383706674373 0 -0.036496960918375787 -0.0064454769222164849 0 -0.035577635820471132 -0.0049059109817582323 0 -0.036160001724062737 -0.0065765201271853072 0 -0.034999998548358786 -0.0060408387643673834 0 -0.035580143709853559 -0.0048707964048246757 0 -0.034999998548358786 -0.0060408387643673834 0 -0.034999998376825714 -0.004602530485454683 0 -0.035580143709853559 -0.0048707964048246757 0 -0.035577635820471132 -0.0049059109817582323 0 -0.035717538763180283 -0.0048573160215572841 0 -0.035736537520156167 -0.0036896711828703012 0 -0.036479056698546987 -0.0050794134002549556 0 -0.035717538763180283 -0.0048573160215572841 0 -0.035736537520156167 -0.0036896711828703012 0 -0.036297138463163563 -0.0052010477983814238 0 -0.035902762363425218 -0.0049681825477652757 0 -0.036606641529243429 -0.0052944691134821495 0 -0.035577635820471132 -0.0049059109817582323 0 -0.035717538763180283 -0.0048573160215572841 0 -0.035577635820471132 -0.0049059109817582323 0 -0.035736537520156167 -0.0036896711828703012 0 -0.034999997549689903 -0.0031642590247215815 0 -0.035581195052937734 -0.0048685706425484155 0 -0.035000116605568544 -0.0031645851738158529 0 -0.034999998376825714 -0.004602530485454683 0 -0.035580143709853559 -0.0048707964048246757 0 -0.034999998688495106 -0.0031642213196372655 0 -0.036394474456406235 -0.0049029409984454424 0 -0.035694141087807982 -0.0035967643943581062 0 -0.03669794023699316 -0.0029948664964327748 0 -0.03638008929545547 -0.0052701745104100058 0 -0.036646094067415612 -0.0029275114128283902 0 -0.036297138463163563 -0.0052010477983814238 0 -0.035718115628462242 -0.0036158454322792418 0 -0.036350235379591346 -0.0050734637323880619 0 -0.036568714579634586 -0.0030224677272618588 0 -0.037176301729403699 -0.0043020275846928722 0 -0.03669794023699316 -0.0029948664964327748 0 -0.035835681191887861 -0.0026839757460612418 0 -0.035962174952035068 -0.0018134971439981446 0 -0.035694141087807982 -0.0035967643943581062 0 -0.03669794023699316 -0.0029948664964327748 0 -0.035835681191887861 -0.0026839757460612418 0 -0.035694141087807982 -0.0035967643943581062 0 -0.035835681191887861 -0.0026839757460612418 0 -0.034999958612147102 -0.0023216890829326669 0 -0.035736537520156167 -0.0036896711828703012 0 -0.034999997549689903 -0.0031642590247215815 0 -0.034999996965923229 -0.0023218101289818284 0 -0.035718115628462242 -0.0036158454322792418 0 -0.035000170923841896 -0.0023221647231715498 0 -0.035835681191887861 -0.0026839757460612418 0 -0.034999958612147102 -0.0023216890829326669 0 -0.035962174952035068 -0.0018134971439981446 0 -0.034999958612147102 -0.0023216890829326669 0 -0.035962174952035068 -0.0018134971439981446 0 -0.034999963789935168 -0.00073480424405525922 0 -0.035962174952035068 -0.0018134971439981446 0 -0.036169432544500543 -0.00071610926297317984 0 -0.034999963789935168 -0.00073480424405525922 0 -0.03669794023699316 -0.0029948664964327748 0 -0.035962174952035068 -0.0018134971439981446 0 -0.036846313497757063 -0.0010162450954525355 0 -0.035962174952035068 -0.0018134971439981446 0 -0.036169432544500543 -0.00071610926297317984 0 -0.036846313497757063 -0.0010162450954525355 0 -0.036646094067415612 -0.0029275114128283902 0 -0.036829211392498999 -0.0011440059345159805 0 -0.036169432544500543 -0.00071610926297317984 0 -0.036846313497757063 -0.0010162450954525355 0 -0.036782386161378577 -0.00025319082431367085 0 -0.036846313497757063 -0.0010162450954525355 0 -0.036782386161378577 -0.00025319082431367085 0 -0.037513016972505898 -0.00023944121617054979 0 -0.036243473843866392 0.00024982403758871914 0 -0.036169432544500543 -0.00071610926297317984 0 -0.036782386161378577 -0.00025319082431367085 0 -0.036243473843866392 0.00024982403758871914 0 -0.036169432544500543 -0.00071610926297317984 0 -0.034999963789935168 -0.00073480424405525922 0 -0.034865635899184358 0.00024278350285843704 0 -0.035175285676697872 -0.0018551447107629912 0 -0.031312328531673629 -0.0012575207909814481 0 -0.031897181858689359 -0.0015348985572575169 0 -0.031588787048321847 -0.0021065124305272753 0 -0.038108283370963385 5.6487239431062084e-05 0 -0.03772900111167684 -0.00091166516820083388 0 -0.038549110960619984 -0.0013023183217139209 0 -0.031897181858689359 -0.0015348985572575169 0 -0.031588787048321847 -0.0021065124305272753 0 -0.032197001659021063 -0.0020243146151846282 0 -0.038108283370963385 5.6487239431062084e-05 0 -0.037513016972505898 -0.00023944121617054979 0 -0.03772900111167684 -0.00091166516820083388 0 -0.034865635899184358 0.00024278350285843704 0 -0.037681464004054047 0.00051758717391013306 0 -0.036846313497757063 -0.0010162450954525355 0 -0.037513016972505898 -0.00023944121617054979 0 -0.03772900111167684 -0.00091166516820083388 0 -0.03772900111167684 -0.00091166516820083388 0 -0.03762054192779582 -0.0020788507333352074 0 -0.038549110960619984 -0.0013023183217139209 0 -0.036568714579634586 -0.0030224677272618588 0 -0.036846313497757063 -0.0010162450954525355 0 -0.03762054192779582 -0.0020788507333352074 0 -0.036846313497757063 -0.0010162450954525355 0 -0.03772900111167684 -0.00091166516820083388 0 -0.03762054192779582 -0.0020788507333352074 0 -0.03762054192779582 -0.0020788507333352074 0 -0.038549110960619984 -0.0013023183217139209 0 -0.038993260610648721 -0.0026937042503635644 0 -0.035175285676697872 -0.0018551447107629912 0 -0.034157056269774215 -0.0030281996344960482 0 -0.031588787048321847 -0.0021065124305272753 0 -0.031873534742666527 -0.0028996313267848186 0 -0.032197001659021063 -0.0020243146151846282 0 -0.038993260610648721 -0.0026937042503635644 0 -0.037613637596809774 -0.003293197813992896 0 -0.038574389822581087 -0.0037685066199325164 0 -0.03762054192779582 -0.0020788507333352074 0 -0.038993260610648721 -0.0026937042503635644 0 -0.037613637596809774 -0.003293197813992896 0 -0.034157056269774215 -0.0030281996344960482 0 -0.036828582235680439 -0.0042046063933468027 0 -0.036568714579634586 -0.0030224677272618588 0 -0.03762054192779582 -0.0020788507333352074 0 -0.037613637596809774 -0.003293197813992896 0 -0.036568714579634586 -0.0030224677272618588 0 -0.037613637596809774 -0.003293197813992896 0 -0.037176301729403699 -0.0043020275846928722 0 -0.037613637596809774 -0.003293197813992896 0 -0.037877952391036585 -0.0040538059497412507 0 -0.038574389822581087 -0.0037685066199325164 0 -0.037613637596809774 -0.003293197813992896 0 -0.037877952391036585 -0.0040538059497412507 0 -0.037176301729403699 -0.0043020275846928722 0 -0.035822815032934198 -0.0072027891361845153 0 -0.033947016397922324 -0.0070572817667969197 0 -0.035291615439546065 -0.0043397556927686105 0 -0.03489995896303185 -0.0053621329656213662 0 -0.035659645441789796 -0.0054625168870420619 0 -0.034510353899053506 -0.0063776414750683873 0 -0.03489995896303185 -0.0053621329656213662 0 -0.035659645441789796 -0.0054625168870420619 0 -0.035822815032934198 -0.0072027891361845153 0 -0.036828582235680439 -0.0042046063933468027 0 -0.038146647879876622 -0.0048558329326364473 0 -0.037877952391036585 -0.0040538059497412507 0 -0.038574389822581087 -0.0037685066199325164 0 -0.034157056269774215 -0.0030281996344960482 0 -0.033947016397922324 -0.0070572817667969197 0 -0.034833216667098217 -0.010138696634818839 0 -0.03503841143764911 -0.0097570465914350139 0 -0.035118024980697889 -0.0099966266941294273 0 -0.033947016397922324 -0.0070572817667969197 0 -0.034087599658826552 -0.0063247380989797861 0 -0.035056153472984498 -0.0098061326585533928 0 -0.0354109475648475 -0.009850101120862596 0 -0.035462587470392069 -0.0094390944747772335 0 -0.033947016397922324 -0.0070572817667969197 0 -0.034931036611188501 -0.009778266650645677 0 -0.035056153472984498 -0.0098061326585533928 0 -0.0354109475648475 -0.009850101120862596 0 -0.035118024980697889 -0.0099966266941294273 0 -0.0354109475648475 -0.009850101120862596 0 -0.035743223143007624 -0.0098113187613768933 0 -0.035711138662739041 -0.010260053104154251 0 -0.0354109475648475 -0.009850101120862596 0 -0.035462587470392069 -0.0094390944747772335 0 -0.035743223143007624 -0.0098113187613768933 0 -0.032915579723865475 -0.0031710985398667648 0 -0.032435492936240387 -0.0026689225906009412 0 -0.032853864330938475 -0.0023898539983338205 0 -0.031766745902568234 -0.0030985832722938665 0 -0.032915579723865475 -0.0031710985398667648 0 -0.032435492936240387 -0.0026689225906009412 0 -0.031766745902568234 -0.0030985832722938665 0 -0.032032558352012977 -0.0039122449431197295 0 -0.032915579723865475 -0.0031710985398667648 0 -0.034157056269774215 -0.0030281996344960482 0 -0.031657745830225938 -0.0022501244594623714 0 -0.031766745902568234 -0.0030985832722938665 0 -0.032197001659021063 -0.0020243146151846282 0 -0.032435492936240387 -0.0026689225906009412 0 -0.032197001659021063 -0.0020243146151846282 0 -0.032435492936240387 -0.0026689225906009412 0 -0.032853864330938475 -0.0023898539983338205 0 -0.032853864330938475 -0.0023898539983338205 0 -0.033149180296375848 -0.0017786754361234795 0 -0.033735070284735297 -0.0024712849883809979 0 -0.032915579723865475 -0.0031710985398667648 0 -0.032853864330938475 -0.0023898539983338205 0 -0.033735070284735297 -0.0024712849883809979 0 -0.032197001659021063 -0.0020243146151846282 0 -0.032853864330938475 -0.0023898539983338205 0 -0.033149180296375848 -0.0017786754361234795 0 -0.032948173682564252 -0.0011195278897595464 0 -0.033149180296375848 -0.0017786754361234795 0 -0.032451853561920187 -0.0013555895830403514 0 -0.032197001659021063 -0.0020243146151846282 0 -0.033149180296375848 -0.0017786754361234795 0 -0.032451853561920187 -0.0013555895830403514 0 -0.031897181858689359 -0.0015348985572575169 0 -0.032197001659021063 -0.0020243146151846282 0 -0.032451853561920187 -0.0013555895830403514 0 -0.027249162138409545 0.0083572264136405894 0 -0.032155800760520978 -0.0020288065072424362 0 -0.028225123436519242 0.0038973078817873983 0 -0.029028191538108591 0.00090445351589209504 0 -0.02984049856058282 0.0021962158878002995 0 -0.03398145840634146 -0.0017942539163822823 0 -0.033735070284735297 -0.0024712849883809979 0 -0.034605865794014541 -0.0017709145668136598 0 -0.03398145840634146 -0.0017942539163822823 0 -0.034525523482620224 -0.0017030070412125768 0 -0.034605865794014541 -0.0017709145668136598 0 -0.032155800760520978 -0.0020288065072424362 0 -0.034447402276638041 -0.0058397677939253656 0 -0.032107851814598784 0.00057539256878424104 0 -0.032155800760520978 -0.0020288065072424362 0 -0.03393755678172157 -0.0012032821072094802 0 -0.03398145840634146 -0.0017942539163822823 0 -0.034525523482620224 -0.0017030070412125768 0 -0.033149180296375848 -0.0017786754361234795 0 -0.03398145840634146 -0.0017942539163822823 0 -0.033735070284735297 -0.0024712849883809979 0 -0.03393755678172157 -0.0012032821072094802 0 -0.033149180296375848 -0.0017786754361234795 0 -0.03398145840634146 -0.0017942539163822823 0 -0.03393755678172157 -0.0012032821072094802 0 -0.032948173682564252 -0.0011195278897595464 0 -0.033149180296375848 -0.0017786754361234795 0 -0.03577422775781753 -0.0090214585773733379 0 -0.03599599777658858 -0.009119924562865497 0 -0.036072412317517108 -0.0086589988363243216 0 -0.034967424847723784 -0.0055993304168968786 0 -0.034447402276638041 -0.0058397677939253656 0 -0.03599599777658858 -0.009119924562865497 0 -0.036096772346283411 -0.008914747949289429 0 -0.036072412317517108 -0.0086589988363243216 0 -0.03599599777658858 -0.009119924562865497 0 -0.036139571264399289 -0.0091412227379456066 0 -0.036096772346283411 -0.008914747949289429 0 -0.03577422775781753 -0.0090214585773733379 0 -0.03599599777658858 -0.009119924562865497 0 -0.036047430363221084 -0.0095079267890017961 0 -0.03599599777658858 -0.009119924562865497 0 -0.036047430363221084 -0.0095079267890017961 0 -0.036139571264399289 -0.0091412227379456066 0 -0.03577422775781753 -0.0090214585773733379 0 -0.036047430363221084 -0.0095079267890017961 0 -0.035743223143007624 -0.0098113187613768933 0 -0.035462587470392069 -0.0094390944747772335 0 -0.03577422775781753 -0.0090214585773733379 0 -0.035743223143007624 -0.0098113187613768933 0 -0.034087599658826552 -0.0063247380989797861 0 -0.034967424847723784 -0.0055993304168968786 0 -0.036047430363221084 -0.0095079267890017961 0 -0.035743223143007624 -0.0098113187613768933 0 -0.036022975685353689 -0.010088765927693538 0 -0.036047430363221084 -0.0095079267890017961 0 -0.036022975685353689 -0.010088765927693538 0 -0.036327824105324785 -0.010041558528185912 0 -0.036022975685353689 -0.010088765927693538 0 -0.036163888384340488 -0.010442929683720771 0 -0.036327824105324785 -0.010041558528185912 0 -0.036022975685353689 -0.010088765927693538 0 -0.036163888384340488 -0.010442929683720771 0 -0.035992614312379025 -0.010604815658752868 0 -0.036163888384340488 -0.010442929683720771 0 -0.036402834324973175 -0.010552712021756781 0 -0.036327824105324785 -0.010041558528185912 0 -0.036148349582501259 -0.010779099585106686 0 -0.036225175617928429 -0.010921629407560881 0 -0.036402834324973175 -0.010552712021756781 0 -0.036163888384340488 -0.010442929683720771 0 -0.036148349582501259 -0.010779099585106686 0 -0.036402834324973175 -0.010552712021756781 0 -0.036163888384340488 -0.010442929683720771 0 -0.036148349582501259 -0.010779099585106686 0 -0.035992614312379025 -0.010604815658752868 0 -0.036148349582501259 -0.010779099585106686 0 -0.035992614312379025 -0.010604815658752868 0 -0.036071203697837194 -0.010970168707382924 0 -0.035992614312379025 -0.010604815658752868 0 -0.035903304473512539 -0.010943756927343134 0 -0.036071203697837194 -0.010970168707382924 0 -0.035743223143007624 -0.0098113187613768933 0 -0.036022975685353689 -0.010088765927693538 0 -0.035711138662739041 -0.010260053104154251 0 -0.036022975685353689 -0.010088765927693538 0 -0.035992614312379025 -0.010604815658752868 0 -0.035711138662739041 -0.010260053104154251 0 -0.0354109475648475 -0.009850101120862596 0 -0.035711138662739041 -0.010260053104154251 0 -0.035386258676985548 -0.010183730270219397 0 -0.035711138662739041 -0.010260053104154251 0 -0.035386258676985548 -0.010183730270219397 0 -0.035452850051330129 -0.010461982643087599 0 -0.034833216667098217 -0.010138696634818839 0 -0.035118024980697889 -0.0099966266941294273 0 -0.035118429623036025 -0.010324008882226709 0 -0.035118024980697889 -0.0099966266941294273 0 -0.035386258676985548 -0.010183730270219397 0 -0.035118429623036025 -0.010324008882226709 0 -0.0354109475648475 -0.009850101120862596 0 -0.035118024980697889 -0.0099966266941294273 0 -0.035386258676985548 -0.010183730270219397 0 -0.035386258676985548 -0.010183730270219397 0 -0.035452850051330129 -0.010461982643087599 0 -0.035118429623036025 -0.010324008882226709 0 -0.03632121678241898 -0.011241211436189873 0 -0.035903304473512539 -0.010943756927343134 0 -0.036298133025162327 -0.011068859791207237 0 -0.035452850051330129 -0.010461982643087599 0 -0.035081544133578446 -0.010715115401648528 0 -0.035903304473512539 -0.010943756927343134 0 -0.035730378891941257 -0.011006035583140249 0 -0.035882039697498556 -0.010961792698283854 0 -0.034799141288824054 -0.01036620126537483 0 -0.035118429623036025 -0.010324008882226709 0 -0.035081544133578446 -0.010715115401648528 0 -0.035452850051330129 -0.010461982643087599 0 -0.035118429623036025 -0.010324008882226709 0 -0.035081544133578446 -0.010715115401648528 0 -0.036445608912007724 -0.01116288535878583 0 -0.03632121678241898 -0.011241211436189873 0 -0.036298133025162327 -0.011068859791207237 0 -0.035711138662739041 -0.010260053104154251 0 -0.035452850051330129 -0.010461982643087599 0 -0.035903304473512539 -0.010943756927343134 0 -0.035992614312379025 -0.010604815658752868 0 -0.035711138662739041 -0.010260053104154251 0 -0.035903304473512539 -0.010943756927343134 0 -0.035903304473512539 -0.010943756927343134 0 -0.036174787294870711 -0.011041827509232834 0 -0.036071203697837194 -0.010970168707382924 0 -0.035903304473512539 -0.010943756927343134 0 -0.036174787294870711 -0.011041827509232834 0 -0.036298133025162327 -0.011068859791207237 0 -0.036174787294870711 -0.011041827509232834 0 -0.036298133025162327 -0.011068859791207237 0 -0.036417461849914359 -0.011074743355597919 0 -0.036478888056997325 -0.011094017721958943 0 -0.036298133025162327 -0.011068859791207237 0 -0.036417461849914359 -0.011074743355597919 0 -0.036174787294870711 -0.011041827509232834 0 -0.036417461849914359 -0.011074743355597919 0 -0.036356539628042819 -0.011114630755169304 0 -0.036417461849914359 -0.011074743355597919 0 -0.036356539628042819 -0.011114630755169304 0 -0.036508119617436517 -0.01111149290683381 0 -0.036417461849914359 -0.011074743355597919 0 -0.036508119617436517 -0.01111149290683381 0 -0.036583078745520595 -0.011096482745632708 0 -0.036174787294870711 -0.011041827509232834 0 -0.036193651068718607 -0.01108676285561286 0 -0.036356539628042819 -0.011114630755169304 0 -0.036193651068718607 -0.01108676285561286 0 -0.036271382598552775 -0.011144931181795317 0 -0.036356539628042819 -0.011114630755169304 0 -0.036193651068718607 -0.01108676285561286 0 -0.036148435425202539 -0.011036424688585915 0 -0.036152637196918337 -0.011097140226507809 0 -0.036193651068718607 -0.01108676285561286 0 -0.036148435425202539 -0.011036424688585915 0 -0.036071203697837194 -0.010970168707382924 0 -0.036148435425202539 -0.011036424688585915 0 -0.036091250414256343 -0.01105548619218877 0 -0.036152637196918337 -0.011097140226507809 0 -0.036148435425202539 -0.011036424688585915 0 -0.036225175617928429 -0.010921629407560881 0 -0.036091250414256343 -0.01105548619218877 0 -0.036148349582501259 -0.010779099585106686 0 -0.036148435425202539 -0.011036424688585915 0 -0.036225175617928429 -0.010921629407560881 0 -0.036148349582501259 -0.010779099585106686 0 -0.036148435425202539 -0.011036424688585915 0 -0.036071203697837194 -0.010970168707382924 0 -0.036174787294870711 -0.011041827509232834 0 -0.036193651068718607 -0.01108676285561286 0 -0.036071203697837194 -0.010970168707382924 0 -0.026030167924456185 -0.0084002082034224344 0 -0.031767461003858494 -0.0083373177682115988 0 -0.035806405006415916 -0.010999292428082137 0 -0.035665911961799697 -0.010892124222555675 0 -0.035680065163569225 -0.010929015526525573 0 -0.036225175617928429 -0.010921629407560881 0 -0.036514937427256783 -0.010892091290045458 0 -0.036402834324973175 -0.010552712021756781 0 -0.036225175617928429 -0.010921629407560881 0 -0.036514937427256783 -0.010892091290045458 0 -0.036091250414256343 -0.01105548619218877 0 -0.036433169590635819 -0.010918160057297578 0 -0.036066958279595884 -0.011055097371205302 0 -0.035806405006415916 -0.010999292428082137 0 -0.036091250414256343 -0.01105548619218877 0 -0.035801993949572279 -0.010959133934616106 0 -0.035806405006415916 -0.010999292428082137 0 -0.035665911961799697 -0.010892124222555675 0 -0.035801993949572279 -0.010959133934616106 0 -0.035665911961799697 -0.010892124222555675 0 -0.035590848140648203 -0.010876330911800252 0 -0.035801993949572279 -0.010959133934616106 0 -0.026030167924456185 -0.0084002082034224344 0 -0.026598387435058785 -0.0086010359875874961 0 -0.017440816447729945 -0.0060313946696109151 0 -0.017563781165873191 -0.006172305350504669 0 -0.017428108676830346 -0.0061306494675328026 0 -0.017440816447729945 -0.0060313946696109151 0 -0.017407582594499128 -0.0060417335906071965 0 -0.017563781165873191 -0.006172305350504669 0 -0.017407582594499128 -0.0060417335906071965 0 -0.017563781165873191 -0.006172305350504669 0 -0.017463977780524064 -0.0060798831625136704 0 -0.017563781165873191 -0.006172305350504669 0 -0.017534172572441876 -0.006122642431148107 0 -0.017463977780524064 -0.0060798831625136704 0 -0.017563781165873191 -0.006172305350504669 0 -0.017534172572441876 -0.006122642431148107 0 -0.017606653750353817 -0.0061549632045727054 0 -0.017534172572441876 -0.006122642431148107 0 -0.01748341518427533 -0.0060921654559836442 0 -0.017535006020623488 -0.0060975898672063029 0 -0.017534172572441876 -0.006122642431148107 0 -0.017535006020623488 -0.0060975898672063029 0 -0.017606653750353817 -0.0061549632045727054 0 -0.017534172572441876 -0.006122642431148107 0 -0.01748341518427533 -0.0060921654559836442 0 -0.017463977780524064 -0.0060798831625136704 0 -0.025687006488790552 -0.0055708287668565807 0 -0.031767461003858494 -0.0083373177682115988 0 -0.017407582594499128 -0.0060417335906071965 0 -0.017463977780524064 -0.0060798831625136704 0 -0.017329330947359545 -0.0060232841583011554 0 -0.017463977780524064 -0.0060798831625136704 0 -0.017441714099884296 -0.0060796050192248006 0 -0.017329330947359545 -0.0060232841583011554 0 -0.01748341518427533 -0.0060921654559836442 0 -0.017463977780524064 -0.0060798831625136704 0 -0.017441714099884296 -0.0060796050192248006 0 -0.017439976163153521 -0.0060715549417366191 0 -0.017551811540470766 -0.0058325823621073903 0 -0.017439321887530397 -0.0060690352406677145 0 -0.017441714099884296 -0.0060796050192248006 0 -0.017439976163153521 -0.0060715549417366191 0 -0.017439321887530397 -0.0060690352406677145 0 -0.01748341518427533 -0.0060921654559836442 0 -0.017441714099884296 -0.0060796050192248006 0 -0.017439976163153521 -0.0060715549417366191 0 -0.019240829319048972 -0.005638792188213745 0 -0.020799411129895581 -0.0057490190762437684 0 -0.01748341518427533 -0.0060921654559836442 0 -0.017439976163153521 -0.0060715549417366191 0 -0.017535006020623488 -0.0060975898672063029 0 -0.025687006488790552 -0.0055708287668565807 0 -0.020799411129895581 -0.0057490190762437684 0 -0.017439976163153521 -0.0060715549417366191 0 -0.017535006020623488 -0.0060975898672063029 0 -0.017463230122016608 -0.006103550315563081 0 -0.033511050457692225 -0.0052610030448433896 0 -0.034682362288033827 -0.005771668864072081 0 -0.034171667448280457 -0.0044301906340046609 0 -0.035972826514568887 -0.0079015443507370036 0 -0.031767461003858494 -0.0083373177682115988 0 -0.033511050457692225 -0.0052610030448433896 0 -0.034682362288033827 -0.005771668864072081 0 -0.033973464121733195 -0.0066377377060381354 0 -0.036738907091291781 -0.010062970284649041 0 -0.036825413012435339 -0.010553901071139429 0 -0.036402834324973175 -0.010552712021756781 0 -0.036514937427256783 -0.010892091290045458 0 -0.036825413012435339 -0.010553901071139429 0 -0.036402834324973175 -0.010552712021756781 0 -0.036433169590635819 -0.010918160057297578 0 -0.031767461003858494 -0.0083373177682115988 0 -0.036738907091291781 -0.010062970284649041 0 -0.036402834324973175 -0.010552712021756781 0 -0.036327824105324785 -0.010041558528185912 0 -0.036047430363221084 -0.0095079267890017961 0 -0.036327824105324785 -0.010041558528185912 0 -0.036554270235209074 -0.0094711197874670621 0 -0.036738907091291781 -0.010062970284649041 0 -0.036327824105324785 -0.010041558528185912 0 -0.036554270235209074 -0.0094711197874670621 0 -0.035972826514568887 -0.0079015443507370036 0 -0.035883289360519169 -0.0083468880703181422 0 -0.034682362288033827 -0.005771668864072081 0 -0.033973464121733195 -0.0066377377060381354 0 -0.035270093991448113 -0.0071668225144056854 0 -0.033973464121733195 -0.0066377377060381354 0 -0.034450932151051182 -0.0081148454321111705 0 -0.035270093991448113 -0.0071668225144056854 0 -0.034450932151051182 -0.0081148454321111705 0 -0.035270093991448113 -0.0071668225144056854 0 -0.035205189919554979 -0.0086450396095515032 0 -0.036554270235209074 -0.0094711197874670621 0 -0.036139571264399289 -0.0091412227379456066 0 -0.036000605192179777 -0.0088392740673447247 0 -0.036047430363221084 -0.0095079267890017961 0 -0.036554270235209074 -0.0094711197874670621 0 -0.036139571264399289 -0.0091412227379456066 0 -0.035883289360519169 -0.0083468880703181422 0 -0.036021137148264187 -0.0088288913484770564 0 -0.035270093991448113 -0.0071668225144056854 0 -0.036000605192179777 -0.0088392740673447247 0 -0.035205189919554979 -0.0086450396095515032 0 -0.036139571264399289 -0.0091412227379456066 0 -0.036000605192179777 -0.0088392740673447247 0 -0.036096772346283411 -0.008914747949289429 0 -0.036096772346283411 -0.008914747949289429 0 -0.036046980236309742 -0.0091915246967237216 0 -0.036254279066617878 -0.0095329707248831344 0 -0.036178110001607547 -0.0099601272863557178 0 -0.034447402276638041 -0.0058397677939253656 0 -0.036000605192179777 -0.0088392740673447247 0 -0.036046980236309742 -0.0091915246967237216 0 -0.035603689950894239 -0.009162439515256025 0 -0.036000605192179777 -0.0088392740673447247 0 -0.036096772346283411 -0.008914747949289429 0 -0.036046980236309742 -0.0091915246967237216 0 -0.036000605192179777 -0.0088392740673447247 0 -0.035603689950894239 -0.009162439515256025 0 -0.035205189919554979 -0.0086450396095515032 0 -0.034450932151051182 -0.0081148454321111705 0 -0.03476961007112344 -0.0090147646489044872 0 -0.033557612793820836 -0.0088917923383023088 0 -0.034450932151051182 -0.0081148454321111705 0 -0.035205189919554979 -0.0086450396095515032 0 -0.03476961007112344 -0.0090147646489044872 0 -0.03476961007112344 -0.0090147646489044872 0 -0.034559040972035666 -0.0096556642359377724 0 -0.033557612793820836 -0.0088917923383023088 0 -0.035603689950894239 -0.009162439515256025 0 -0.035205189919554979 -0.0086450396095515032 0 -0.03476961007112344 -0.0090147646489044872 0 -0.035603689950894239 -0.009162439515256025 0 -0.03476961007112344 -0.0090147646489044872 0 -0.035283589491875447 -0.0096046411133283074 0 -0.035112759288671032 -0.01048071129055804 0 -0.034559040972035666 -0.0096556642359377724 0 -0.03392229045619323 -0.010203704041008854 0 -0.03476961007112344 -0.0090147646489044872 0 -0.034559040972035666 -0.0096556642359377724 0 -0.035283589491875447 -0.0096046411133283074 0 -0.035112759288671032 -0.01048071129055804 0 -0.034559040972035666 -0.0096556642359377724 0 -0.035283589491875447 -0.0096046411133283074 0 -0.032298651971268896 0.0029437761400899491 0 -0.03123124687605814 0.0023820598454665095 0 -0.029369438779403845 0.00063363664217761797 0 -0.031001122482333419 0.00033340978133050448 0 -0.034447402276638041 -0.0058397677939253656 0 -0.035112759288671032 -0.01048071129055804 0 -0.0362203425884891 -0.0096585030218357161 0 -0.035283589491875447 -0.0096046411133283074 0 -0.03123124687605814 0.0023820598454665095 0 -0.02984049856058282 0.0021962158878002995 0 -0.029369438779403845 0.00063363664217761797 0 -0.029028191538108591 0.00090445351589209504 0 -0.02984049856058282 0.0021962158878002995 0 -0.029369438779403845 0.00063363664217761797 0 -0.036046980236309742 -0.0091915246967237216 0 -0.035603689950894239 -0.009162439515256025 0 -0.036254279066617878 -0.0095329707248831344 0 -0.036632508977771705 -0.0095958416766666679 0 -0.034447402276638041 -0.0058397677939253656 0 -0.035603689950894239 -0.009162439515256025 0 -0.0362203425884891 -0.0096585030218357161 0 -0.035283589491875447 -0.0096046411133283074 0 -0.017368030435136659 -0.0030811754441316427 0 -0.016928568479787732 -0.0034233390405518233 0 -0.017426805344194739 -0.0035949427868523592 0 -0.017368030435136659 -0.0030811754441316427 0 -0.017081902249459109 -0.0030215651408354084 0 -0.016928568479787732 -0.0034233390405518233 0 -0.017368030435136659 -0.0030811754441316427 0 -0.017705800010272946 -0.0032799207996059535 0 -0.017426805344194739 -0.0035949427868523592 0 -0.018053159970591856 -0.0033471620374957664 0 -0.017705800010272946 -0.0032799207996059535 0 -0.017828367465797485 -0.0036832625825334274 0 -0.017705800010272946 -0.0032799207996059535 0 -0.017426805344194739 -0.0035949427868523592 0 -0.017828367465797485 -0.0036832625825334274 0 -0.018053159970591856 -0.0033471620374957664 0 -0.017705800010272946 -0.0032799207996059535 0 -0.018056665289667914 -0.0026131150826904288 0 -0.017368030435136659 -0.0030811754441316427 0 -0.017705800010272946 -0.0032799207996059535 0 -0.018056665289667914 -0.0026131150826904288 0 -0.017368030435136659 -0.0030811754441316427 0 -0.017430215276137563 -0.0024653789689058122 0 -0.017081902249459109 -0.0030215651408354084 0 -0.017368030435136659 -0.0030811754441316427 0 -0.018056665289667914 -0.0026131150826904288 0 -0.017430215276137563 -0.0024653789689058122 0 -0.017430215276137563 -0.0024653789689058122 0 -0.016922230281677837 -0.002739669537277781 0 -0.017081902249459109 -0.0030215651408354084 0 -0.026235537942270636 -0.0040576057741448105 0 -0.025064168151307558 -0.00677321328860017 0 -0.016362587694174861 -0.0027334012907685701 0 -0.01658165151758691 -0.0030196637212390794 0 -0.016573626470705656 -0.0039206726141110615 0 -0.034559040972035666 -0.0096556642359377724 0 -0.03392229045619323 -0.010203704041008854 0 -0.033557612793820836 -0.0088917923383023088 0 -0.018325976805214635 -0.0016532699603960747 0 -0.019216732085399361 -0.0016365761153676638 0 -0.016922230281677837 -0.002739669537277781 0 -0.01673959233036126 -0.0027587356401769353 0 -0.016844599531887612 -0.0029931984289667556 0 -0.01673959233036126 -0.0027587356401769353 0 -0.016844599531887612 -0.0029931984289667556 0 -0.01658165151758691 -0.0030196637212390794 0 -0.016922230281677837 -0.002739669537277781 0 -0.016844599531887612 -0.0029931984289667556 0 -0.017081902249459109 -0.0030215651408354084 0 -0.019216732085399361 -0.0016365761153676638 0 -0.026235537942270636 -0.0040576057741448105 0 -0.016787394145431917 -0.002821032597597787 0 -0.016362587694174861 -0.0027334012907685701 0 -0.01658165151758691 -0.0030196637212390794 0 -0.019216732085399361 -0.0016365761153676638 0 -0.017990728053140542 -0.0026141961697360911 0 -0.01658165151758691 -0.0030196637212390794 0 -0.016928568479787732 -0.0034233390405518233 0 -0.016573626470705656 -0.0039206726141110615 0 -0.016844599531887612 -0.0029931984289667556 0 -0.017081902249459109 -0.0030215651408354084 0 -0.016928568479787732 -0.0034233390405518233 0 -0.016844599531887612 -0.0029931984289667556 0 -0.01658165151758691 -0.0030196637212390794 0 -0.016928568479787732 -0.0034233390405518233 0 -0.016573626470705656 -0.0039206726141110615 0 -0.017144380350214233 -0.0043133462075046576 0 -0.016879354462008101 -0.00512582422139815 0 -0.017092435088329951 -0.0038592284242508078 0 -0.016573626470705656 -0.0039206726141110615 0 -0.017144380350214233 -0.0043133462075046576 0 -0.034450932151051182 -0.0081148454321111705 0 -0.033557612793820836 -0.0088917923383023088 0 -0.03315979975867981 -0.007514836072611975 0 -0.016928568479787732 -0.0034233390405518233 0 -0.017092435088329951 -0.0038592284242508078 0 -0.016573626470705656 -0.0039206726141110615 0 -0.025064168151307558 -0.00677321328860017 0 -0.02525776932484565 -0.0064377960820663025 0 -0.017509417922052056 -0.0041359851381336616 0 -0.017144380350214233 -0.0043133462075046576 0 -0.017333973855839159 -0.0047673830990377138 0 -0.017509417922052056 -0.0041359851381336616 0 -0.017799204082174076 -0.0045560208841934494 0 -0.017333973855839159 -0.0047673830990377138 0 -0.017092435088329951 -0.0038592284242508078 0 -0.017509417922052056 -0.0041359851381336616 0 -0.017144380350214233 -0.0043133462075046576 0 -0.017509417922052056 -0.0041359851381336616 0 -0.017426805344194739 -0.0035949427868523592 0 -0.017828367465797485 -0.0036832625825334274 0 -0.016928568479787732 -0.0034233390405518233 0 -0.017092435088329951 -0.0038592284242508078 0 -0.017426805344194739 -0.0035949427868523592 0 -0.017092435088329951 -0.0038592284242508078 0 -0.017509417922052056 -0.0041359851381336616 0 -0.017426805344194739 -0.0035949427868523592 0 -0.018053159970591856 -0.0033471620374957664 0 -0.017828367465797485 -0.0036832625825334274 0 -0.018180594144545478 -0.0037447112664451775 0 -0.017509417922052056 -0.0041359851381336616 0 -0.017828367465797485 -0.0036832625825334274 0 -0.017966947010896316 -0.004091047474952909 0 -0.017828367465797485 -0.0036832625825334274 0 -0.017966947010896316 -0.004091047474952909 0 -0.018180594144545478 -0.0037447112664451775 0 -0.017799204082174076 -0.0045560208841934494 0 -0.018025830101766085 -0.0048595488799449476 0 -0.018163593175266245 -0.0043337566538215683 0 -0.017966947010896316 -0.004091047474952909 0 -0.017799204082174076 -0.0045560208841934494 0 -0.018163593175266245 -0.0043337566538215683 0 -0.017509417922052056 -0.0041359851381336616 0 -0.017966947010896316 -0.004091047474952909 0 -0.017799204082174076 -0.0045560208841934494 0 -0.017799204082174076 -0.0045560208841934494 0 -0.017618474410171503 -0.0049795578451211717 0 -0.017333973855839159 -0.0047673830990377138 0 -0.017799204082174076 -0.0045560208841934494 0 -0.017618474410171503 -0.0049795578451211717 0 -0.018025830101766085 -0.0048595488799449476 0 -0.017618474410171503 -0.0049795578451211717 0 -0.017333973855839159 -0.0047673830990377138 0 -0.01730732979668036 -0.0052726625159719882 0 -0.017333973855839159 -0.0047673830990377138 0 -0.01730732979668036 -0.0052726625159719882 0 -0.016879354462008101 -0.00512582422139815 0 -0.017618474410171503 -0.0049795578451211717 0 -0.01730732979668036 -0.0052726625159719882 0 -0.017635391944295042 -0.0054486107582250734 0 -0.017618474410171503 -0.0049795578451211717 0 -0.017635391944295042 -0.0054486107582250734 0 -0.018025830101766085 -0.0048595488799449476 0 -0.033973464121733195 -0.0066377377060381354 0 -0.034450932151051182 -0.0081148454321111705 0 -0.03315979975867981 -0.007514836072611975 0 -0.017144380350214233 -0.0043133462075046576 0 -0.017333973855839159 -0.0047673830990377138 0 -0.016879354462008101 -0.00512582422139815 0 -0.033973464121733195 -0.0066377377060381354 0 -0.03315979975867981 -0.007514836072611975 0 -0.032795375627177874 -0.0061279558650452325 0 -0.02525776932484565 -0.0064377960820663025 0 -0.020799411129895581 -0.0057490190762437684 0 -0.01730732979668036 -0.0052726625159719882 0 -0.016879354462008101 -0.00512582422139815 0 -0.017163102048089279 -0.0061257323784123024 0 -0.033511050457692225 -0.0052610030448433896 0 -0.033973464121733195 -0.0066377377060381354 0 -0.032795375627177874 -0.0061279558650452325 0 -0.01730732979668036 -0.0052726625159719882 0 -0.017635391944295042 -0.0054486107582250734 0 -0.017163102048089279 -0.0061257323784123024 0 -0.017635391944295042 -0.0054486107582250734 0 -0.017551811540470766 -0.0058325823621073903 0 -0.018162263250433533 -0.0054417881246823039 0 -0.017137536595179553 -0.0061503311166881871 0 -0.020799411129895581 -0.0057490190762437684 0 -0.017635391944295042 -0.0054486107582250734 0 -0.017334138595328164 -0.0058963812304974363 0 -0.017551811540470766 -0.0058325823621073903 0 -0.017439976163153521 -0.0060715549417366191 0 -0.017334138595328164 -0.0058963812304974363 0 -0.017551811540470766 -0.0058325823621073903 0 -0.01714694752958193 -0.0060514049206023659 0 -0.017015470108597219 -0.0060139682807471119 0 -0.017439321887530397 -0.0060690352406677145 0 -0.017649092742111124 -0.0065577425784281475 0 -0.017492328024978493 -0.0056435031333464765 0 -0.017551811540470766 -0.0058325823621073903 0 -0.018162263250433533 -0.0054417881246823039 0 -0.017439321887530397 -0.0060690352406677145 0 -0.01714694752958193 -0.0060514049206023659 0 -0.017066266019588324 -0.0060095549103821796 0 -0.017015470108597219 -0.0060139682807471119 0 -0.01714694752958193 -0.0060514049206023659 0 -0.017038101813417198 -0.0060207173804774248 0 -0.01719302844716945 -0.0060290766869720508 0 -0.01714694752958193 -0.0060514049206023659 0 -0.017038101813417198 -0.0060207173804774248 0 -0.017066266019588324 -0.0060095549103821796 0 -0.017038101813417198 -0.0060207173804774248 0 -0.017066266019588324 -0.0060095549103821796 0 -0.01702564192833431 -0.0059787209888819597 0 -0.017066266019588324 -0.0060095549103821796 0 -0.01702564192833431 -0.0059787209888819597 0 -0.017016433887826435 -0.0058718240907785126 0 -0.014792168785688047 0.0010322730784489424 0 -0.016701846155834622 -0.0049852036079580872 0 -0.016774981623000649 -0.0056904898886736381 0 -0.017016433887826435 -0.0058718240907785126 0 -0.016874383253232282 -0.0057796317081602062 0 -0.01702564192833431 -0.0059787209888819597 0 -0.016968368777725194 -0.0059474129780838587 0 -0.017016433887826435 -0.0058718240907785126 0 -0.017016433887826435 -0.0058718240907785126 0 -0.017000024391899484 -0.0058327109412816634 0 -0.016874383253232282 -0.0057796317081602062 0 -0.017649092742111124 -0.0065577425784281475 0 -0.016382186859899839 -0.00060825436313585019 0 -0.017015470108597219 -0.0060139682807471119 0 -0.017000024391899484 -0.0058327109412816634 0 -0.016900814142509161 -0.0056303243668101091 0 -0.018162263250433533 -0.0054417881246823039 0 -0.018025830101766085 -0.0048595488799449476 0 -0.018732658572623524 -0.0040121353228842116 0 -0.017635391944295042 -0.0054486107582250734 0 -0.018162263250433533 -0.0054417881246823039 0 -0.018025830101766085 -0.0048595488799449476 0 -0.017066266019588324 -0.0060095549103821796 0 -0.017015470108597219 -0.0060139682807471119 0 -0.017016433887826435 -0.0058718240907785126 0 -0.017015470108597219 -0.0060139682807471119 0 -0.017016433887826435 -0.0058718240907785126 0 -0.017000024391899484 -0.0058327109412816634 0 -0.018163593175266245 -0.0043337566538215683 0 -0.018317864101888903 -0.0040104576613607399 0 -0.018732658572623524 -0.0040121353228842116 0 -0.018025830101766085 -0.0048595488799449476 0 -0.018163593175266245 -0.0043337566538215683 0 -0.018732658572623524 -0.0040121353228842116 0 -0.017966947010896316 -0.004091047474952909 0 -0.018163593175266245 -0.0043337566538215683 0 -0.018317864101888903 -0.0040104576613607399 0 -0.018317864101888903 -0.0040104576613607399 0 -0.018523955332213533 -0.0038516867238503425 0 -0.018180594144545478 -0.0037447112664451775 0 -0.017966947010896316 -0.004091047474952909 0 -0.018317864101888903 -0.0040104576613607399 0 -0.018180594144545478 -0.0037447112664451775 0 -0.018523955332213533 -0.0038516867238503425 0 -0.018830552680171406 -0.0040149161999950356 0 -0.018504008925920089 -0.0033810747117207001 0 -0.018317864101888903 -0.0040104576613607399 0 -0.018523955332213533 -0.0038516867238503425 0 -0.018732658572623524 -0.0040121353228842116 0 -0.017855241926940595 -0.0018238657258833545 0 -0.016382186859899839 -0.00060825436313585019 0 -0.018523955332213533 -0.0038516867238503425 0 -0.018180594144545478 -0.0037447112664451775 0 -0.018504008925920089 -0.0033810747117207001 0 -0.017000024391899484 -0.0058327109412816634 0 -0.016900814142509161 -0.0056303243668101091 0 -0.017112658278198127 -0.0057156157337513672 0 -0.016382186859899839 -0.00060825436313585019 0 -0.015139672990605198 0.0019451643518735833 0 -0.014860766393236937 -0.0027764037414517114 0 -0.015139672990605198 0.0019451643518735833 0 -0.013604937968934354 0.0076256771154027351 0 -0.013862383165365654 0.007501162764308446 0 -0.013895617340621533 0.0079197877109663285 0 -0.013862383165365654 0.007501162764308446 0 -0.013895617340621533 0.0079197877109663285 0 -0.0142673640307318 0.0080020045143436563 0 -0.013214088979695256 0.0079804253047732112 0 -0.013237425287400611 0.007953027909827581 0 -0.013125434448824701 0.0081115640258465141 0 -0.014792168785688047 0.0010322730784489424 0 -0.015139672990605198 0.0019451643518735833 0 -0.013713318061743701 0.0081999271962777502 0 -0.013895617340621533 0.0079197877109663285 0 -0.014075457503976532 0.0082023078984316353 0 -0.019294581887438638 -0.002168741472324522 0 -0.018830552680171406 -0.0040149161999950356 0 -0.018504008925920089 -0.0033810747117207001 0 -0.016453134996032997 0.003215208058241238 0 -0.016382186859899839 -0.00060825436313585019 0 -0.013713318061743701 0.0081999271962777502 0 -0.013604937968934354 0.0076256771154027351 0 -0.013895617340621533 0.0079197877109663285 0 -0.019294581887438638 -0.002168741472324522 0 -0.018056665289667914 -0.0026131150826904288 0 -0.018504008925920089 -0.0033810747117207001 0 -0.018053159970591856 -0.0033471620374957664 0 -0.018056665289667914 -0.0026131150826904288 0 -0.018504008925920089 -0.0033810747117207001 0 -0.018053159970591856 -0.0033471620374957664 0 -0.018180594144545478 -0.0037447112664451775 0 -0.018504008925920089 -0.0033810747117207001 0 -0.013760128396828553 0.0082497717970785884 0 -0.013662566265117323 0.0088987010567640572 0 -0.014251837464238476 0.0084504608333655813 0 -0.014466816893971517 0.0084480923190512619 0 -0.0142673640307318 0.0080020045143436563 0 -0.013129952278603864 0.008323795648213516 0 -0.013125434448824701 0.0081115640258465141 0 -0.013127603503446163 0.0081053150435554631 0 -0.014251837464238476 0.0084504608333655813 0 -0.014075457503976532 0.0082023078984316353 0 -0.0142673640307318 0.0080020045143436563 0 -0.013895617340621533 0.0079197877109663285 0 -0.014075457503976532 0.0082023078984316353 0 -0.0142673640307318 0.0080020045143436563 0 -0.013214088979695256 0.0079804253047732112 0 -0.013125434448824701 0.0081115640258465141 0 -0.013127603503446163 0.0081053150435554631 0 -0.015139672990605198 0.0019451643518735833 0 -0.013662566265117323 0.0088987010567640572 0 -0.014792168785688047 0.0010322730784489424 0 -0.012400456639777043 0.0080281692709879456 0 -0.012288939449349078 0.0060681840617201324 0 -0.012295165523774248 0.0062305798258739577 0 -0.012270547448992107 0.0061239560671604342 0 -0.012295165523774248 0.0062305798258739577 0 -0.012206674275352712 0.0062764604853332287 0 -0.012270547448992107 0.0061239560671604342 0 -0.012443154176276415 0.0060128790338164319 0 -0.012206674275352712 0.0062764604853332287 0 -0.012270547448992107 0.0061239560671604342 0 -0.014792168785688047 0.0010322730784489424 0 -0.014560344638858323 -1.0732170787149227e-05 0 -0.01702564192833431 -0.0059787209888819597 0 -0.016968368777725194 -0.0059474129780838587 0 -0.016866340027179964 -0.0060129464693346301 0 -0.017038101813417198 -0.0060207173804774248 0 -0.016866340027179964 -0.0060129464693346301 0 -0.016876608025029501 -0.0059786395209466547 0 -0.017038101813417198 -0.0060207173804774248 0 -0.01702564192833431 -0.0059787209888819597 0 -0.016866340027179964 -0.0060129464693346301 0 -0.016703686840734075 -0.0060157706053716575 0 -0.016866340027179964 -0.0060129464693346301 0 -0.016876608025029501 -0.0059786395209466547 0 -0.012253525422317488 0.0059382955779467188 0 -0.012288939449349078 0.0060681840617201324 0 -0.012270547448992107 0.0061239560671604342 0 -0.014690276008125079 -0.00028033397001340837 0 -0.014560344638858323 -1.0732170787149227e-05 0 -0.016703686840734075 -0.0060157706053716575 0 -0.016673691617867838 -0.0059035024768312435 0 -0.016876608025029501 -0.0059786395209466547 0 -0.016673691617867838 -0.0059035024768312435 0 -0.016876608025029501 -0.0059786395209466547 0 -0.016787404792919531 -0.005889829645840049 0 -0.016787404792919531 -0.005889829645840049 0 -0.016961443150408043 -0.0059445042661115631 0 -0.016891101003058101 -0.0058826927718872895 0 -0.016876608025029501 -0.0059786395209466547 0 -0.016787404792919531 -0.005889829645840049 0 -0.016961443150408043 -0.0059445042661115631 0 -0.016961443150408043 -0.0059445042661115631 0 -0.017114402876335397 -0.0059883165897143186 0 -0.017092180209783075 -0.0059366050297437693 0 -0.016961443150408043 -0.0059445042661115631 0 -0.017092180209783075 -0.0059366050297437693 0 -0.016891101003058101 -0.0058826927718872895 0 -0.016961443150408043 -0.0059445042661115631 0 -0.017035488081066908 -0.0059963935580019858 0 -0.017114402876335397 -0.0059883165897143186 0 -0.016876608025029501 -0.0059786395209466547 0 -0.016961443150408043 -0.0059445042661115631 0 -0.017035488081066908 -0.0059963935580019858 0 -0.017038101813417198 -0.0060207173804774248 0 -0.016876608025029501 -0.0059786395209466547 0 -0.017035488081066908 -0.0059963935580019858 0 -0.017038101813417198 -0.0060207173804774248 0 -0.01719302844716945 -0.0060290766869720508 0 -0.017035488081066908 -0.0059963935580019858 0 -0.01719302844716945 -0.0060290766869720508 0 -0.017035488081066908 -0.0059963935580019858 0 -0.017114402876335397 -0.0059883165897143186 0 -0.017441714099884296 -0.0060796050192248006 0 -0.017439321887530397 -0.0060690352406677145 0 -0.017329330947359545 -0.0060232841583011554 0 -0.01719302844716945 -0.0060290766869720508 0 -0.017439321887530397 -0.0060690352406677145 0 -0.017329330947359545 -0.0060232841583011554 0 -0.01714694752958193 -0.0060514049206023659 0 -0.01719302844716945 -0.0060290766869720508 0 -0.017439321887530397 -0.0060690352406677145 0 -0.017329330947359545 -0.0060232841583011554 0 -0.017114402876335397 -0.0059883165897143186 0 -0.017092180209783075 -0.0059366050297437693 0 -0.01719302844716945 -0.0060290766869720508 0 -0.017329330947359545 -0.0060232841583011554 0 -0.017114402876335397 -0.0059883165897143186 0 -0.017092180209783075 -0.0059366050297437693 0 -0.017285733469272233 -0.0059809471948475646 0 -0.017101158107087674 -0.0058865546070624745 0 -0.017329330947359545 -0.0060232841583011554 0 -0.017092180209783075 -0.0059366050297437693 0 -0.017285733469272233 -0.0059809471948475646 0 -0.017407582594499128 -0.0060417335906071965 0 -0.017329330947359545 -0.0060232841583011554 0 -0.017285733469272233 -0.0059809471948475646 0 -0.017440816447729945 -0.0060313946696109151 0 -0.017285733469272233 -0.0059809471948475646 0 -0.017296610197766255 -0.0059589083070255714 0 -0.017440816447729945 -0.0060313946696109151 0 -0.017407582594499128 -0.0060417335906071965 0 -0.017285733469272233 -0.0059809471948475646 0 -0.017285733469272233 -0.0059809471948475646 0 -0.017296610197766255 -0.0059589083070255714 0 -0.017101158107087674 -0.0058865546070624745 0 -0.017296610197766255 -0.0059589083070255714 0 -0.017101158107087674 -0.0058865546070624745 0 -0.017147637061541161 -0.005853637901671158 0 -0.017101158107087674 -0.0058865546070624745 0 -0.016933183462013696 -0.0058460147575862586 0 -0.016959741049065752 -0.0057713322489819623 0 -0.016933183462013696 -0.0058460147575862586 0 -0.01679369777195832 -0.0057537592832836593 0 -0.0167493581338422 -0.0058189818977648269 0 -0.016933183462013696 -0.0058460147575862586 0 -0.01679369777195832 -0.0057537592832836593 0 -0.016959741049065752 -0.0057713322489819623 0 -0.016787404792919531 -0.005889829645840049 0 -0.016891101003058101 -0.0058826927718872895 0 -0.0167493581338422 -0.0058189818977648269 0 -0.016933183462013696 -0.0058460147575862586 0 -0.016891101003058101 -0.0058826927718872895 0 -0.0167493581338422 -0.0058189818977648269 0 -0.017092180209783075 -0.0059366050297437693 0 -0.016933183462013696 -0.0058460147575862586 0 -0.016891101003058101 -0.0058826927718872895 0 -0.017092180209783075 -0.0059366050297437693 0 -0.017101158107087674 -0.0058865546070624745 0 -0.016933183462013696 -0.0058460147575862586 0 -0.017043207581589767 -0.0058238008347039055 0 -0.017097967929583169 -0.0057595457335519965 0 -0.017088664085913866 -0.0057774854913091173 0 -0.017178162089806909 -0.0054777562403109398 0 -0.017004586364723542 -0.0057699195494677969 0 -0.01670098426893683 -0.0056325617109135948 0 -0.01679369777195832 -0.0057537592832836593 0 -0.016959741049065752 -0.0057713322489819623 0 -0.01670098426893683 -0.0056325617109135948 0 -0.016839656251159272 -0.0055533636849461384 0 -0.016959741049065752 -0.0057713322489819623 0 -0.016959741049065752 -0.0057713322489819623 0 -0.017147637061541161 -0.005853637901671158 0 -0.017097967929583169 -0.0057595457335519965 0 -0.016839656251159272 -0.0055533636849461384 0 -0.016959741049065752 -0.0057713322489819623 0 -0.017097967929583169 -0.0057595457335519965 0 -0.017101158107087674 -0.0058865546070624745 0 -0.016959741049065752 -0.0057713322489819623 0 -0.017147637061541161 -0.005853637901671158 0 -0.017296610197766255 -0.0059589083070255714 0 -0.017147637061541161 -0.005853637901671158 0 -0.017251165571408864 -0.0058812164630508224 0 -0.017147637061541161 -0.005853637901671158 0 -0.017251165571408864 -0.0058812164630508224 0 -0.017097967929583169 -0.0057595457335519965 0 -0.017296610197766255 -0.0059589083070255714 0 -0.017251165571408864 -0.0058812164630508224 0 -0.017538902057383506 -0.0060407780907290069 0 -0.017440816447729945 -0.0060313946696109151 0 -0.017296610197766255 -0.0059589083070255714 0 -0.017538902057383506 -0.0060407780907290069 0 -0.01817760226797472 -0.0066022830191922663 0 -0.017732282873703299 -0.0066503720910963751 0 -0.017538902057383506 -0.0060407780907290069 0 -0.017251165571408864 -0.0058812164630508224 0 -0.017251216117824587 -0.0057242604905843163 0 -0.017538902057383506 -0.0060407780907290069 0 -0.017744533396485577 -0.0062497703053869267 0 -0.017551106514107892 -0.0060271686192216083 0 -0.01817760226797472 -0.0066022830191922663 0 -0.017732282873703299 -0.0066503720910963751 0 -0.01796065353110787 -0.0068616197759640389 0 -0.017097967929583169 -0.0057595457335519965 0 -0.017138351256187182 -0.0057587985208579443 0 -0.017088664085913866 -0.0057774854913091173 0 -0.017097967929583169 -0.0057595457335519965 0 -0.01717895015598174 -0.0057822708960211947 0 -0.017138351256187182 -0.0057587985208579443 0 -0.017251165571408864 -0.0058812164630508224 0 -0.017251216117824587 -0.0057242604905843163 0 -0.01717895015598174 -0.0057822708960211947 0 -0.017251165571408864 -0.0058812164630508224 0 -0.017097967929583169 -0.0057595457335519965 0 -0.01717895015598174 -0.0057822708960211947 0 -0.017251216117824587 -0.0057242604905843163 0 -0.01717895015598174 -0.0057822708960211947 0 -0.017138351256187182 -0.0057587985208579443 0 -0.017138351256187182 -0.0057587985208579443 0 -0.017103859471414386 -0.0057562036979630872 0 -0.017088664085913866 -0.0057774854913091173 0 -0.017744533396485577 -0.0062497703053869267 0 -0.017773972856243148 -0.0060228006210524109 0 -0.017251216117824587 -0.0057242604905843163 0 -0.017138351256187182 -0.0057587985208579443 0 -0.017103859471414386 -0.0057562036979630872 0 -0.01817760226797472 -0.0066022830191922663 0 -0.018276064137357106 -0.0069793392882478754 0 -0.018579841839609815 -0.0071700618952208516 0 -0.018276064137357106 -0.0069793392882478754 0 -0.018391313346765945 -0.0072797957072545721 0 -0.018579841839609815 -0.0071700618952208516 0 -0.017732282873703299 -0.0066503720910963751 0 -0.01796065353110787 -0.0068616197759640389 0 -0.017709117512745114 -0.0071712507631834033 0 -0.01817760226797472 -0.0066022830191922663 0 -0.018276064137357106 -0.0069793392882478754 0 -0.01796065353110787 -0.0068616197759640389 0 -0.018628121590309681 -0.0074286537395797259 0 -0.01796065353110787 -0.0068616197759640389 0 -0.018024333910844292 -0.0073816849436723515 0 -0.018420455251953429 -0.0071692014920494524 0 -0.018062169477627014 -0.0069617106638514151 0 -0.018276064137357106 -0.0069793392882478754 0 -0.018391313346765945 -0.0072797957072545721 0 -0.01796065353110787 -0.0068616197759640389 0 -0.018024333910844292 -0.0073816849436723515 0 -0.0178692163717959 -0.0076317294848946239 0 -0.017709117512745114 -0.0071712507631834033 0 -0.01796065353110787 -0.0068616197759640389 0 -0.018024333910844292 -0.0073816849436723515 0 -0.017709117512745114 -0.0071712507631834033 0 -0.017543533480262493 -0.013536540805531117 0 -0.020051502806118875 -0.013775473039502198 0 -0.018690390597139554 -0.014665963530681496 0 -0.019215372714098608 -0.010783553500914698 0 -0.01753743399794349 -0.013164339827267326 0 -0.018628121590309681 -0.0074286537395797259 0 -0.018024333910844292 -0.0073816849436723515 0 -0.017887719918923069 -0.0078047405421312471 0 -0.018024333910844292 -0.0073816849436723515 0 -0.0178692163717959 -0.0076317294848946239 0 -0.017887719918923069 -0.0078047405421312471 0 -0.0178692163717959 -0.0076317294848946239 0 -0.017902650528161961 -0.007796275279937967 0 -0.01753159065051425 -0.0077478429024598105 0 -0.018895115313900219 -0.0094782241039613503 0 -0.019215372714098608 -0.010783553500914698 0 -0.018628121590309681 -0.0074286537395797259 0 -0.017887719918923069 -0.0078047405421312471 0 -0.018758756146894394 -0.0079447729256095032 0 -0.018391313346765945 -0.0072797957072545721 0 -0.018579841839609815 -0.0071700618952208516 0 -0.018841679645191289 -0.0077539530469413901 0 -0.018628121590309681 -0.0074286537395797259 0 -0.018808365872121986 -0.0078086628486742828 0 -0.019258151042609081 -0.0080264422615824067 0 -0.018420455251953429 -0.0071692014920494524 0 -0.017010711675358708 -0.011816826776041518 0 -0.018628121590309681 -0.0074286537395797259 0 -0.018808365872121986 -0.0078086628486742828 0 -0.018758756146894394 -0.0079447729256095032 0 -0.015381850865601447 -0.019638984516451821 0 -0.015231201811367322 -0.019795259034555916 0 -0.015370589256830944 -0.019905738112443262 0 -0.015381850865601447 -0.019638984516451821 0 -0.015231201811367322 -0.019795259034555916 0 -0.015064670567781557 -0.019884515318508631 0 -0.01753743399794349 -0.013164339827267326 0 -0.017010711675358708 -0.011816826776041518 0 -0.018808365872121986 -0.0078086628486742828 0 -0.018751537325210177 -0.0079600627859474464 0 -0.019258151042609081 -0.0080264422615824067 0 -0.01810285534468805 -0.01146195515435929 0 -0.01753743399794349 -0.013164339827267326 0 -0.015231201811367322 -0.019795259034555916 0 -0.015064670567781557 -0.019884515318508631 0 -0.014996778175528249 -0.019684370617758504 0 -0.014912179125117778 -0.019777715777945067 0 -0.015064670567781557 -0.019884515318508631 0 -0.014996778175528249 -0.019684370617758504 0 -0.015514218543512393 -0.011993524443846579 0 -0.015494520578658652 -0.012744964157945791 0 -0.016535537910535934 -0.012834505523598052 0 -0.015325643477419805 -0.015373736660647154 0 -0.017010711675358708 -0.011816826776041518 0 -0.01580241815959561 -0.011233763447262719 0 -0.017010711675358708 -0.011816826776041518 0 -0.017053096538797989 -0.0058074212558314403 0 -0.01705189890236267 -0.005807662135511398 0 -0.017057271541574909 -0.0057942618273721866 0 -0.014956297361467105 -0.01240206048230374 0 -0.015409614150030388 -0.013408609977296761 0 -0.015325643477419805 -0.015373736660647154 0 -0.015409614150030388 -0.013408609977296761 0 -0.016307794778869161 -0.011693538212488789 0 -0.015035225838340733 -0.011581636774367087 0 -0.015721263111002651 -0.010996907687515167 0 -0.01580241815959561 -0.011233763447262719 0 -0.014956297361467105 -0.01240206048230374 0 -0.015514218543512393 -0.011993524443846579 0 -0.015494520578658652 -0.012744964157945791 0 -0.015133110867847417 -0.012317711707253235 0 -0.01580241815959561 -0.011233763447262719 0 -0.015409614150030388 -0.013408609977296761 0 -0.017053096538797989 -0.0058074212558314403 0 -0.017057271541574909 -0.0057942618273721866 0 -0.01707494518746298 -0.0057793459989032734 0 -0.018579841839609815 -0.0071700618952208516 0 -0.018988505655285041 -0.00777788089243536 0 -0.018841679645191289 -0.0077539530469413901 0 -0.017103859471414386 -0.0057562036979630872 0 -0.017053096538797989 -0.0058074212558314403 0 -0.01707494518746298 -0.0057793459989032734 0 -0.017773972856243148 -0.0060228006210524109 0 -0.01580241815959561 -0.011233763447262719 0 -0.017043207581589767 -0.0058238008347039055 0 -0.017059773022002074 -0.0057897900575256383 0 -0.017088664085913866 -0.0057774854913091173 0 -0.017103859471414386 -0.0057562036979630872 0 -0.01707494518746298 -0.0057793459989032734 0 -0.017088664085913866 -0.0057774854913091173 0 -0.01707494518746298 -0.0057793459989032734 0 -0.017059773022002074 -0.0057897900575256383 0 -0.017088664085913866 -0.0057774854913091173 0 -0.017057271541574909 -0.0057942618273721866 0 -0.01707494518746298 -0.0057793459989032734 0 -0.017059773022002074 -0.0057897900575256383 0 -0.017057271541574909 -0.0057942618273721866 0 -0.017059773022002074 -0.0057897900575256383 0 -0.017013942586281579 -0.0058005347870275833 0 -0.016948037318215637 -0.0058482850600279955 0 -0.017043207581589767 -0.0058238008347039055 0 -0.017013942586281579 -0.0058005347870275833 0 -0.017043207581589767 -0.0058238008347039055 0 -0.017059773022002074 -0.0057897900575256383 0 -0.017013942586281579 -0.0058005347870275833 0 -0.012457154194295826 -0.014743364981282524 0 -0.012480219579245378 -0.014695010319902911 0 -0.012480856903337115 -0.014782518576013206 0 -0.012541157669543021 -0.014738695544557066 0 -0.012480219579245378 -0.014695010319902911 0 -0.012480856903337115 -0.014782518576013206 0 -0.01705189890236267 -0.005807662135511398 0 -0.017057271541574909 -0.0057942618273721866 0 -0.017013942586281579 -0.0058005347870275833 0 -0.014956297361467105 -0.01240206048230374 0 -0.012010796058881716 -0.014814326146177 0 -0.014956297361467105 -0.01240206048230374 0 -0.014750255915158854 -0.010200554282570112 0 -0.012188850250955414 -0.01495329099366492 0 -0.012328617533065913 -0.01495744716308247 0 -0.012224558626689872 -0.015064088951076665 0 -0.012328617533065913 -0.01495744716308247 0 -0.012224558626689872 -0.015064088951076665 0 -0.012353222397949264 -0.015108582760756373 0 -0.012426909264637253 -0.015322330883530038 0 -0.012224558626689872 -0.015064088951076665 0 -0.012353222397949264 -0.015108582760756373 0 -0.014996778175528249 -0.019684370617758504 0 -0.01469835316872227 -0.019488268748365761 0 -0.014617064865599008 -0.018889936424670725 0 -0.014996778175528249 -0.019684370617758504 0 -0.014617064865599008 -0.018889936424670725 0 -0.015370589256830944 -0.019905738112443262 0 -0.016537603776357948 -0.021054815940732715 0 -0.015748046381196 -0.021183266593732444 0 -0.015370589256830944 -0.019905738112443262 0 -0.015553152621066834 -0.019978072168177954 0 -0.015382568383753945 -0.019889759133698649 0 -0.01480340727803056 -0.019841997690847109 0 -0.014996778175528249 -0.019684370617758504 0 -0.01469835316872227 -0.019488268748365761 0 -0.015325643477419805 -0.015373736660647154 0 -0.014190001696412772 -0.017464877529354942 0 -0.01480340727803056 -0.019841997690847109 0 -0.014378991069161575 -0.019517808209245757 0 -0.01469835316872227 -0.019488268748365761 0 -0.012188850250955414 -0.01495329099366492 0 -0.012175737697152317 -0.014966904430456561 0 -0.012224558626689872 -0.015064088951076665 0 -0.01455218883873521 -0.015859076225120661 0 -0.014610611511647413 -0.015808704920197723 0 -0.014872446750324527 -0.016151582502602704 0 -0.015325643477419805 -0.015373736660647154 0 -0.014105768009204395 -0.017320829322160419 0 -0.015409614150030388 -0.013408609977296761 0 -0.014105768009204395 -0.017320829322160419 0 -0.014378991069161575 -0.019517808209245757 0 -0.01469835316872227 -0.019488268748365761 0 -0.014617064865599008 -0.018889936424670725 0 -0.016537603776357948 -0.021054815940732715 0 -0.016488433836852882 -0.021815552535832585 0 -0.015748046381196 -0.021183266593732444 0 -0.016488433836852882 -0.021815552535832585 0 -0.015970122525883541 -0.021783012408784826 0 -0.015748046381196 -0.021183266593732444 0 -0.013485420213852439 -0.018372264864923753 0 -0.014617064865599008 -0.018889936424670725 0 -0.01363894804561828 -0.018712125694489896 0 -0.013379508719927243 -0.018705680741006859 0 -0.014217330369983367 -0.019305513259463156 0 -0.01363894804561828 -0.018712125694489896 0 -0.014378991069161575 -0.019517808209245757 0 -0.014617064865599008 -0.018889936424670725 0 -0.01363894804561828 -0.018712125694489896 0 -0.014105768009204395 -0.017320829322160419 0 -0.013996120027695454 -0.019386708276054772 0 -0.015511095184053355 -0.020111501612733187 0 -0.015553152621066834 -0.019978072168177954 0 -0.012742035976294284 -0.016945232653876905 0 -0.014105768009204395 -0.017320829322160419 0 -0.013504614975874307 -0.018018389031143712 0 -0.013485420213852439 -0.018372264864923753 0 -0.014617064865599008 -0.018889936424670725 0 -0.01751239871068027 -0.022193927910436586 0 -0.016846108348258015 -0.022471149079727134 0 -0.016488433836852882 -0.021815552535832585 0 -0.01751239871068027 -0.022193927910436586 0 -0.016537603776357948 -0.021054815940732715 0 -0.016488433836852882 -0.021815552535832585 0 -0.015970122525883541 -0.021783012408784826 0 -0.016231825653162061 -0.022174099446086164 0 -0.015836483991638742 -0.022114483246628194 0 -0.016488433836852882 -0.021815552535832585 0 -0.015970122525883541 -0.021783012408784826 0 -0.016231825653162061 -0.022174099446086164 0 -0.016231825653162061 -0.022174099446086164 0 -0.015977100679425836 -0.022518378191133066 0 -0.015836483991638742 -0.022114483246628194 0 -0.016231825653162061 -0.022174099446086164 0 -0.016380084881282463 -0.022723977828015902 0 -0.015977100679425836 -0.022518378191133066 0 -0.016846108348258015 -0.022471149079727134 0 -0.016231825653162061 -0.022174099446086164 0 -0.016380084881282463 -0.022723977828015902 0 -0.016846108348258015 -0.022471149079727134 0 -0.016488433836852882 -0.021815552535832585 0 -0.016231825653162061 -0.022174099446086164 0 -0.016034381737661731 -0.022960406380959295 0 -0.015716945572329791 -0.022764761849790181 0 -0.015935716123061654 -0.023622826952126405 0 -0.016380084881282463 -0.022723977828015902 0 -0.015977100679425836 -0.022518378191133066 0 -0.016034381737661731 -0.022960406380959295 0 -0.015977100679425836 -0.022518378191133066 0 -0.016034381737661731 -0.022960406380959295 0 -0.015716945572329791 -0.022764761849790181 0 -0.016034381737661731 -0.022960406380959295 0 -0.016384828440834637 -0.023239190976527924 0 -0.015935716123061654 -0.023622826952126405 0 -0.016380084881282463 -0.022723977828015902 0 -0.016034381737661731 -0.022960406380959295 0 -0.016384828440834637 -0.023239190976527924 0 -0.016380084881282463 -0.022723977828015902 0 -0.016384828440834637 -0.023239190976527924 0 -0.016852832982087784 -0.023077924038882446 0 -0.017460847568829149 -0.022955658221582968 0 -0.016852832982087784 -0.023077924038882446 0 -0.017637766071112067 -0.023729846004644152 0 -0.017460847568829149 -0.022955658221582968 0 -0.016846108348258015 -0.022471149079727134 0 -0.016852832982087784 -0.023077924038882446 0 -0.017460847568829149 -0.022955658221582968 0 -0.01751239871068027 -0.022193927910436586 0 -0.016846108348258015 -0.022471149079727134 0 -0.016846108348258015 -0.022471149079727134 0 -0.016380084881282463 -0.022723977828015902 0 -0.016852832982087784 -0.023077924038882446 0 -0.017045313150485478 -0.024697528262177446 0 -0.016433698987852144 -0.025036077802735573 0 -0.016840077619298659 -0.023899511437714443 0 -0.017045313150485478 -0.024697528262177446 0 -0.016803153932746739 -0.025146717629590514 0 -0.017013497183448752 -0.025488120720850233 0 -0.017091494883698904 -0.023859369959873065 0 -0.017102786846274063 -0.02567108293637127 0 -0.014942928111376874 -0.02266591277823618 0 -0.015252933198048773 -0.022643677358654763 0 -0.015215238047097065 -0.022361284023317423 0 -0.016433698987852144 -0.025036077802735573 0 -0.016803153932746739 -0.025146717629590514 0 -0.0167121272970688 -0.025375257603966712 0 -0.017045313150485478 -0.024697528262177446 0 -0.016433698987852144 -0.025036077802735573 0 -0.016803153932746739 -0.025146717629590514 0 -0.015716945572329791 -0.022764761849790181 0 -0.015252933198048773 -0.022643677358654763 0 -0.015935716123061654 -0.023622826952126405 0 -0.014942928111376874 -0.02266591277823618 0 -0.01567042999343005 -0.023517228714492616 0 -0.015737778219150081 -0.024514001384817005 0 -0.01567042999343005 -0.023517228714492616 0 -0.015252933198048773 -0.022643677358654763 0 -0.016594031986574814 -0.024102428750382765 0 -0.017091494883698904 -0.023859369959873065 0 -0.01627897497134035 -0.025077315900850029 0 -0.015331765009923001 -0.022730786336856084 0 -0.016243583785675652 -0.023850661787341083 0 -0.015716945572329791 -0.022764761849790181 0 -0.015436555301525424 -0.02241947073939949 0 -0.015665095948215 -0.022372880787719714 0 -0.015977100679425836 -0.022518378191133066 0 -0.015716945572329791 -0.022764761849790181 0 -0.015665095948215 -0.022372880787719714 0 -0.015716945572329791 -0.022764761849790181 0 -0.015252933198048773 -0.022643677358654763 0 -0.015436555301525424 -0.02241947073939949 0 -0.014942928111376874 -0.02266591277823618 0 -0.01567042999343005 -0.023517228714492616 0 -0.015252933198048773 -0.022643677358654763 0 -0.015215238047097065 -0.022361284023317423 0 -0.015436555301525424 -0.02241947073939949 0 -0.01531116709609927 -0.022153023477659895 0 -0.015252933198048773 -0.022643677358654763 0 -0.015215238047097065 -0.022361284023317423 0 -0.015436555301525424 -0.02241947073939949 0 -0.015436555301525424 -0.02241947073939949 0 -0.01531116709609927 -0.022153023477659895 0 -0.015537782958445516 -0.022115899281318206 0 -0.015215238047097065 -0.022361284023317423 0 -0.01531116709609927 -0.022153023477659895 0 -0.01512126829241657 -0.022018562603690107 0 -0.015977100679425836 -0.022518378191133066 0 -0.015665095948215 -0.022372880787719714 0 -0.015836483991638742 -0.022114483246628194 0 -0.015436555301525424 -0.02241947073939949 0 -0.015665095948215 -0.022372880787719714 0 -0.015537782958445516 -0.022115899281318206 0 -0.015665095948215 -0.022372880787719714 0 -0.015537782958445516 -0.022115899281318206 0 -0.015836483991638742 -0.022114483246628194 0 -0.015970122525883541 -0.021783012408784826 0 -0.015836483991638742 -0.022114483246628194 0 -0.015641233239599539 -0.021761704203181721 0 -0.015537782958445516 -0.022115899281318206 0 -0.015641233239599539 -0.021761704203181721 0 -0.015359453389950664 -0.02185903266222947 0 -0.015537782958445516 -0.022115899281318206 0 -0.015836483991638742 -0.022114483246628194 0 -0.015641233239599539 -0.021761704203181721 0 -0.01531116709609927 -0.022153023477659895 0 -0.01512126829241657 -0.022018562603690107 0 -0.015359453389950664 -0.02185903266222947 0 -0.01512126829241657 -0.022018562603690107 0 -0.015359453389950664 -0.02185903266222947 0 -0.015136972965043113 -0.021677530892268929 0 -0.01531116709609927 -0.022153023477659895 0 -0.015537782958445516 -0.022115899281318206 0 -0.015359453389950664 -0.02185903266222947 0 -0.015359453389950664 -0.02185903266222947 0 -0.015136972965043113 -0.021677530892268929 0 -0.015431707816342921 -0.021499395009692591 0 -0.015641233239599539 -0.021761704203181721 0 -0.015359453389950664 -0.02185903266222947 0 -0.015431707816342921 -0.021499395009692591 0 -0.015953283603475338 -0.019528493988835102 0 -0.019645580290880423 -0.018690663762357947 0 -0.021958708836532847 -0.022813426029120072 0 -0.021273392055599749 -0.020083450320681814 0 -0.027200571858640093 -0.020449563825895103 0 -0.027619080010159894 -0.019264883460286077 0 -0.026855178495342656 -0.019577340844092447 0 -0.019200493422746507 -0.023314682459580158 0 -0.018602532495823911 -0.019316769405267217 0 -0.018260470584439806 -0.020224020442685862 0 -0.014942928111376874 -0.02266591277823618 0 -0.01512126829241657 -0.022018562603690107 0 -0.014786823464665583 -0.021622574638242745 0 -0.01512126829241657 -0.022018562603690107 0 -0.015136972965043113 -0.021677530892268929 0 -0.014786823464665583 -0.021622574638242745 0 -0.017091494883698904 -0.023859369959873065 0 -0.019645580290880423 -0.018690663762357947 0 -0.019645580290880423 -0.018690663762357947 0 -0.021273392055599749 -0.020083450320681814 0 -0.023783779910535627 -0.016360767226394006 0 -0.022778329654037786 -0.019088085329795151 0 -0.02181917481867441 -0.016047381411119509 0 -0.019645580290880423 -0.018690663762357947 0 -0.025460478924720524 -0.016614424150634303 0 -0.017091494883698904 -0.023859369959873065 0 -0.021273392055599749 -0.020083450320681814 0 -0.014942928111376874 -0.02266591277823618 0 -0.015215238047097065 -0.022361284023317423 0 -0.01512126829241657 -0.022018562603690107 0 -0.027619080010159894 -0.019264883460286077 0 -0.027539283397592238 -0.019001920334833593 0 -0.026855178495342656 -0.019577340844092447 0 -0.021273392055599749 -0.020083450320681814 0 -0.025460478924720524 -0.016614424150634303 0 -0.014750536895125125 -0.021624831285766123 0 -0.015289791490755298 -0.021216866942859302 0 -0.015116322677612171 -0.020549320168915537 0 -0.018353433478718158 -0.018438849997955239 0 -0.019204735787266218 -0.016097857196773938 0 -0.017935619798861099 -0.015977459866678857 0 -0.019645580290880423 -0.018690663762357947 0 -0.021195311154712668 -0.014935106627757599 0 -0.025460478924720524 -0.016614424150634303 0 -0.027479694636647557 -0.011587826364566496 0 -0.019645580290880423 -0.018690663762357947 0 -0.016757110096983018 -0.019269129280601545 0 -0.024167908670594079 -0.016920277644925985 0 -0.02315882270131667 -0.01355944612592595 0 -0.024172547459397477 -0.013667294087785411 0 -0.024680501893517309 -0.017005343136816752 0 -0.024167908670594079 -0.016920277644925985 0 -0.024172547459397477 -0.013667294087785411 0 -0.015136972965043113 -0.021677530892268929 0 -0.014750536895125125 -0.021624831285766123 0 -0.015289791490755298 -0.021216866942859302 0 -0.015748046381196 -0.021183266593732444 0 -0.015289791490755298 -0.021216866942859302 0 -0.015431707816342921 -0.021499395009692591 0 -0.015641233239599539 -0.021761704203181721 0 -0.015748046381196 -0.021183266593732444 0 -0.015431707816342921 -0.021499395009692591 0 -0.015970122525883541 -0.021783012408784826 0 -0.015641233239599539 -0.021761704203181721 0 -0.015748046381196 -0.021183266593732444 0 -0.015136972965043113 -0.021677530892268929 0 -0.015289791490755298 -0.021216866942859302 0 -0.015431707816342921 -0.021499395009692591 0 -0.015748046381196 -0.021183266593732444 0 -0.015289791490755298 -0.021216866942859302 0 -0.015116322677612171 -0.020549320168915537 0 -0.015748046381196 -0.021183266593732444 0 -0.015116322677612171 -0.020549320168915537 0 -0.015370589256830944 -0.019905738112443262 0 -0.01753743399794349 -0.013164339827267326 0 -0.016757110096983018 -0.019269129280601545 0 -0.015381850865601447 -0.019638984516451821 0 -0.015116322677612171 -0.020549320168915537 0 -0.015370589256830944 -0.019905738112443262 0 -0.020051502806118875 -0.013775473039502198 0 -0.019204735787266218 -0.016097857196773938 0 -0.018690390597139554 -0.014665963530681496 0 -0.015231201811367322 -0.019795259034555916 0 -0.014996778175528249 -0.019684370617758504 0 -0.015370589256830944 -0.019905738112443262 0 -0.023654239867087718 -0.010411121084680548 0 -0.02315882270131667 -0.01355944612592595 0 -0.024172547459397477 -0.013667294087785411 0 -0.019215372714098608 -0.010783553500914698 0 -0.021195311154712668 -0.014935106627757599 0 -0.017543533480262493 -0.013536540805531117 0 -0.017935619798861099 -0.015977459866678857 0 -0.018690390597139554 -0.014665963530681496 0 -0.019204735787266218 -0.016097857196773938 0 -0.017935619798861099 -0.015977459866678857 0 -0.018690390597139554 -0.014665963530681496 0 -0.027479694636647557 -0.011587826364566496 0 -0.027777448332654702 -0.0097169316223267022 0 -0.031781660600145478 -0.010328891162193429 0 -0.03231033693523664 -0.010457410024963155 0 -0.032329738390485051 -0.010154483239244692 0 -0.031781660600145478 -0.010328891162193429 0 -0.03231033693523664 -0.010457410024963155 0 -0.031963152375557691 -0.010742339878360707 0 -0.03231033693523664 -0.010457410024963155 0 -0.032725183069455321 -0.010392893979150346 0 -0.032555919122702427 -0.01072657370078387 0 -0.03231033693523664 -0.010457410024963155 0 -0.032539598456573539 -0.010305984006012906 0 -0.032725183069455321 -0.010392893979150346 0 -0.03231033693523664 -0.010457410024963155 0 -0.032539598456573539 -0.010305984006012906 0 -0.032329738390485051 -0.010154483239244692 0 -0.029617588002689304 -0.014341086922898568 0 -0.031266749595437918 -0.013582268310887958 0 -0.032329738390485051 -0.010154483239244692 0 -0.032121291371845023 -0.0099123358776439432 0 -0.032716252418216123 -0.0099668818782313404 0 -0.032329738390485051 -0.010154483239244692 0 -0.032716252418216123 -0.0099668818782313404 0 -0.032710308132601708 -0.010169787705561541 0 -0.032539598456573539 -0.010305984006012906 0 -0.032329738390485051 -0.010154483239244692 0 -0.032710308132601708 -0.010169787705561541 0 -0.025460478924720524 -0.016614424150634303 0 -0.029617588002689304 -0.014341086922898568 0 -0.031577551349532759 -0.0098902467282602213 0 -0.031781660600145478 -0.010328891162193429 0 -0.032121291371845023 -0.0099123358776439432 0 -0.031781660600145478 -0.010328891162193429 0 -0.032329738390485051 -0.010154483239244692 0 -0.032121291371845023 -0.0099123358776439432 0 -0.027539283397592238 -0.019001920334833593 0 -0.026472279274095897 -0.018840209983423867 0 -0.026855178495342656 -0.019577340844092447 0 -0.026855178495342656 -0.019577340844092447 0 -0.026031587711341835 -0.019544917647468251 0 -0.026282451185284609 -0.020432079556655703 0 -0.026472279274095897 -0.018840209983423867 0 -0.026855178495342656 -0.019577340844092447 0 -0.026031587711341835 -0.019544917647468251 0 -0.026031587711341835 -0.019544917647468251 0 -0.025147184354032424 -0.020231604267664877 0 -0.025386119052410252 -0.018657625277719143 0 -0.026472279274095897 -0.018840209983423867 0 -0.026031587711341835 -0.019544917647468251 0 -0.025386119052410252 -0.018657625277719143 0 -0.026282451185284609 -0.020432079556655703 0 -0.025147184354032424 -0.020231604267664877 0 -0.025774389249380747 -0.021165444086931183 0 -0.026031587711341835 -0.019544917647468251 0 -0.026282451185284609 -0.020432079556655703 0 -0.025147184354032424 -0.020231604267664877 0 -0.027200571858640093 -0.020449563825895103 0 -0.026855178495342656 -0.019577340844092447 0 -0.026282451185284609 -0.020432079556655703 0 -0.027200571858640093 -0.020449563825895103 0 -0.026282451185284609 -0.020432079556655703 0 -0.026757452856090939 -0.02097129660400331 0 -0.032860411912735504 -0.014592512703216855 0 -0.036527805683534947 -0.015557660445781872 0 -0.032733484291481159 -0.017135280472709777 0 -0.036527805683534947 -0.015557660445781872 0 -0.034737422919032805 -0.013161361338656084 0 -0.037016722187428082 -0.011348183194567346 0 -0.030756340897484784 -0.018298921739517679 0 -0.031266749595437918 -0.013582268310887958 0 -0.032860411912735504 -0.014592512703216855 0 -0.036527805683534947 -0.015557660445781872 0 -0.034737422919032805 -0.013161361338656084 0 -0.032860411912735504 -0.014592512703216855 0 -0.034737422919032805 -0.013161361338656084 0 -0.03266254701865353 -0.012853203436427024 0 -0.034737422919032805 -0.013161361338656084 0 -0.03266254701865353 -0.012853203436427024 0 -0.033042034537157559 -0.01070373270398459 0 -0.034737422919032805 -0.013161361338656084 0 -0.033042034537157559 -0.01070373270398459 0 -0.037016722187428082 -0.011348183194567346 0 -0.034565020021128247 -0.010064404502021769 0 -0.031266749595437918 -0.013582268310887958 0 -0.033042034537157559 -0.01070373270398459 0 -0.032804886221406766 -0.010109867584859341 0 -0.033003758424360576 -0.010242619679341834 0 -0.032804886221406766 -0.010109867584859341 0 -0.03278727741729253 -0.010245047864931323 0 -0.033003758424360576 -0.010242619679341834 0 -0.032804886221406766 -0.010109867584859341 0 -0.032710308132601708 -0.010169787705561541 0 -0.03278727741729253 -0.010245047864931323 0 -0.031266749595437918 -0.013582268310887958 0 -0.032007673658009855 -0.010621702806450577 0 -0.032539598456573539 -0.010305984006012906 0 -0.03278727741729253 -0.010245047864931323 0 -0.032725183069455321 -0.010392893979150346 0 -0.032539598456573539 -0.010305984006012906 0 -0.032710308132601708 -0.010169787705561541 0 -0.03278727741729253 -0.010245047864931323 0 -0.03278727741729253 -0.010245047864931323 0 -0.032725183069455321 -0.010392893979150346 0 -0.033003758424360576 -0.010242619679341834 0 -0.032725183069455321 -0.010392893979150346 0 -0.033003758424360576 -0.010242619679341834 0 -0.032952620629815257 -0.0103619685631535 0 -0.033042034537157559 -0.01070373270398459 0 -0.033003758424360576 -0.010242619679341834 0 -0.033186546294064298 -0.0096662694734824268 0 -0.033003758424360576 -0.010242619679341834 0 -0.032952620629815257 -0.0103619685631535 0 -0.033186546294064298 -0.0096662694734824268 0 -0.032952620629815257 -0.0103619685631535 0 -0.033857958496112991 -0.010381570660187817 0 -0.033186546294064298 -0.0096662694734824268 0 -0.033171884369015185 -0.010959344562588744 0 -0.032952620629815257 -0.0103619685631535 0 -0.033857958496112991 -0.010381570660187817 0 -0.035937969708806999 -0.010873950900053617 0 -0.035972457361616014 -0.011000519072944383 0 -0.035820917203858951 -0.010930013551700209 0 -0.035937969708806999 -0.010873950900053617 0 -0.035664420342898906 -0.010835005613535115 0 -0.035820917203858951 -0.010930013551700209 0 -0.035937969708806999 -0.010873950900053617 0 -0.035654414945879898 -0.010671187605442136 0 -0.035664420342898906 -0.010835005613535115 0 -0.032725183069455321 -0.010392893979150346 0 -0.032952620629815257 -0.0103619685631535 0 -0.032555919122702427 -0.01072657370078387 0 -0.034291401816285809 -0.010877775266428127 0 -0.035385788213606807 -0.010878778931179721 0 -0.033171884369015185 -0.010959344562588744 0 -0.032952620629815257 -0.0103619685631535 0 -0.032555919122702427 -0.01072657370078387 0 -0.035385788213606807 -0.010878778931179721 0 -0.027777448332654702 -0.0097169316223267022 0 -0.03231033693523664 -0.010457410024963155 0 -0.032555919122702427 -0.01072657370078387 0 -0.031963152375557691 -0.010742339878360707 0 -0.023654239867087718 -0.010411121084680548 0 -0.02315882270131667 -0.01355944612592595 0 -0.022152117176817171 -0.01027126016523589 0 -0.019215372714098608 -0.010783553500914698 0 -0.027777448332654702 -0.0097169316223267022 0 -0.0178692163717959 -0.0076317294848946239 0 -0.01753159065051425 -0.0077478429024598105 0 -0.017709117512745114 -0.0071712507631834033 0 -0.027777448332654702 -0.0097169316223267022 0 -0.026219366182545969 -0.0085812547374971085 0 -0.01753159065051425 -0.0077478429024598105 0 -0.017709117512745114 -0.0071712507631834033 0 -0.017318861112849762 -0.0066566226899918667 0 -0.017732282873703299 -0.0066503720910963751 0 -0.017709117512745114 -0.0071712507631834033 0 -0.017318861112849762 -0.0066566226899918667 0 -0.035654414945879898 -0.010671187605442136 0 -0.035462735358955645 -0.010830630175080196 0 -0.035664420342898906 -0.010835005613535115 0 -0.035654414945879898 -0.010671187605442136 0 -0.035285449610003593 -0.010577043614566902 0 -0.035462735358955645 -0.010830630175080196 0 -0.035462735358955645 -0.010830630175080196 0 -0.035664420342898906 -0.010835005613535115 0 -0.035590848140648203 -0.010876330911800252 0 -0.026219366182545969 -0.0085812547374971085 0 -0.026598387435058785 -0.0086010359875874961 0 -0.017732282873703299 -0.0066503720910963751 0 -0.017318861112849762 -0.0066566226899918667 0 -0.017538902057383506 -0.0060407780907290069 0 -0.017318861112849762 -0.0066566226899918667 0 -0.017538902057383506 -0.0060407780907290069 0 -0.017428108676830346 -0.0061306494675328026 0 -0.017440816447729945 -0.0060313946696109151 0 -0.017538902057383506 -0.0060407780907290069 0 -0.017428108676830346 -0.0061306494675328026 0 -0.035590848140648203 -0.010876330911800252 0 -0.035801993949572279 -0.010959133934616106 0 -0.035820917203858951 -0.010930013551700209 0 -0.035801993949572279 -0.010959133934616106 0 -0.035995790900552473 -0.011018778931229862 0 -0.035820917203858951 -0.010930013551700209 0 -0.036091250414256343 -0.01105548619218877 0 -0.035801993949572279 -0.010959133934616106 0 -0.035995790900552473 -0.011018778931229862 0 -0.035995790900552473 -0.011018778931229862 0 -0.035972457361616014 -0.011000519072944383 0 -0.035820917203858951 -0.010930013551700209 0 -0.035664420342898906 -0.010835005613535115 0 -0.035590848140648203 -0.010876330911800252 0 -0.035820917203858951 -0.010930013551700209 0 -0.036426359612668345 -0.011215472489670496 0 -0.036136087589506927 -0.011117962473574338 0 -0.036220312436452649 -0.011249814301274271 0 -0.036426359612668345 -0.011215472489670496 0 -0.036743640159428208 -0.011447275852010197 0 -0.036220312436452649 -0.011249814301274271 0 -0.036136087589506927 -0.011117962473574338 0 -0.036220312436452649 -0.011249814301274271 0 -0.035997568387166022 -0.011049058759102389 0 -0.035995790900552473 -0.011018778931229862 0 -0.035972457361616014 -0.011000519072944383 0 -0.036136087589506927 -0.011117962473574338 0 -0.035972457361616014 -0.011000519072944383 0 -0.036136087589506927 -0.011117962473574338 0 -0.035997568387166022 -0.011049058759102389 0 -0.035995790900552473 -0.011018778931229862 0 -0.036136087589506927 -0.011117962473574338 0 -0.036152637196918337 -0.011097140226507809 0 -0.036091250414256343 -0.01105548619218877 0 -0.035995790900552473 -0.011018778931229862 0 -0.036152637196918337 -0.011097140226507809 0 -0.036136087589506927 -0.011117962473574338 0 -0.036152637196918337 -0.011097140226507809 0 -0.036271382598552775 -0.011144931181795317 0 -0.036426359612668345 -0.011215472489670496 0 -0.036136087589506927 -0.011117962473574338 0 -0.036271382598552775 -0.011144931181795317 0 -0.036193651068718607 -0.01108676285561286 0 -0.036152637196918337 -0.011097140226507809 0 -0.036271382598552775 -0.011144931181795317 0 -0.036426359612668345 -0.011215472489670496 0 -0.036356539628042819 -0.011114630755169304 0 -0.036608604526002161 -0.01115507859344358 0 -0.036426359612668345 -0.011215472489670496 0 -0.036271382598552775 -0.011144931181795317 0 -0.036356539628042819 -0.011114630755169304 0 -0.036508119617436517 -0.01111149290683381 0 -0.036657204029577874 -0.011136536551616718 0 -0.036608604526002161 -0.01115507859344358 0 -0.036356539628042819 -0.011114630755169304 0 -0.036508119617436517 -0.01111149290683381 0 -0.036608604526002161 -0.01115507859344358 0 -0.036508119617436517 -0.01111149290683381 0 -0.036657204029577874 -0.011136536551616718 0 -0.036583078745520595 -0.011096482745632708 0 -0.036657204029577874 -0.011136536551616718 0 -0.036608604526002161 -0.01115507859344358 0 -0.036849253531290246 -0.011195512505183094 0 -0.036608604526002161 -0.01115507859344358 0 -0.037515670138398009 -0.011793514937520783 0 -0.036849253531290246 -0.011195512505183094 0 -0.036426359612668345 -0.011215472489670496 0 -0.036608604526002161 -0.01115507859344358 0 -0.036743640159428208 -0.011447275852010197 0 -0.036743640159428208 -0.011447275852010197 0 -0.036432239551422815 -0.011815770778153371 0 -0.036933977517381478 -0.012204501710486105 0 -0.036674335349795258 -0.011243796680566433 0 -0.036946612227089067 -0.011850400333842827 0 -0.036608604526002161 -0.01115507859344358 0 -0.036743640159428208 -0.011447275852010197 0 -0.036432239551422815 -0.011815770778153371 0 -0.036432239551422815 -0.011815770778153371 0 -0.036924437051978613 -0.012813762444297602 0 -0.036388273341523412 -0.013387220127773304 0 -0.036432239551422815 -0.011815770778153371 0 -0.036933977517381478 -0.012204501710486105 0 -0.036924437051978613 -0.012813762444297602 0 -0.036724104121778962 -0.011641545270305385 0 -0.037498705430447782 -0.011107258833682477 0 -0.036933977517381478 -0.012204501710486105 0 -0.037696549512756826 -0.012945463062010845 0 -0.036924437051978613 -0.012813762444297602 0 -0.036743640159428208 -0.011447275852010197 0 -0.036933977517381478 -0.012204501710486105 0 -0.037696549512756826 -0.012945463062010845 0 -0.035805016262470936 -0.011105792335488708 0 -0.035102433232183976 -0.0099798919187992965 0 -0.036533547223957782 -0.0098222109968079691 0 -0.036743640159428208 -0.011447275852010197 0 -0.035805016262470936 -0.011105792335488708 0 -0.036533547223957782 -0.0098222109968079691 0 -0.036743640159428208 -0.011447275852010197 0 -0.035805016262470936 -0.011105792335488708 0 -0.036220312436452649 -0.011249814301274271 0 -0.035805016262470936 -0.011105792335488708 0 -0.036220312436452649 -0.011249814301274271 0 -0.035997568387166022 -0.011049058759102389 0 -0.035937969708806999 -0.010873950900053617 0 -0.035972457361616014 -0.011000519072944383 0 -0.035997568387166022 -0.011049058759102389 0 -0.035937969708806999 -0.010873950900053617 0 -0.035805016262470936 -0.011105792335488708 0 -0.035997568387166022 -0.011049058759102389 0 -0.034291401816285809 -0.010877775266428127 0 -0.0358274813012944 -0.011096982009125886 0 -0.035805016262470936 -0.011105792335488708 0 -0.033857958496112991 -0.010381570660187817 0 -0.035102433232183976 -0.0099798919187992965 0 -0.033171884369015185 -0.010959344562588744 0 -0.035805016262470936 -0.011105792335488708 0 -0.033857958496112991 -0.010381570660187817 0 -0.033030072974889003 -0.0096084585264038062 0 -0.032668710798826273 -0.009381536500692773 0 -0.033857958496112991 -0.010381570660187817 0 -0.033186546294064298 -0.0096662694734824268 0 -0.035102433232183976 -0.0099798919187992965 0 -0.033186546294064298 -0.0096662694734824268 0 -0.035102433232183976 -0.0099798919187992965 0 -0.035094066072908978 -0.008433322734190063 0 -0.035102433232183976 -0.0099798919187992965 0 -0.035094066072908978 -0.008433322734190063 0 -0.036533547223957782 -0.0098222109968079691 0 -0.032668710798826273 -0.009381536500692773 0 -0.033517712833459098 -0.012134259858677129 0 -0.030367725116459455 -0.010347330246630856 0 -0.029490390677933395 -0.013151462218527735 0 -0.027568935271161384 -0.01191792771578979 0 -0.035094066072908978 -0.008433322734190063 0 -0.036488358335546825 -0.0075357000949774263 0 -0.036533547223957782 -0.0098222109968079691 0 -0.030367725116459455 -0.010347330246630856 0 -0.031342865499974643 -0.012156943733536797 0 -0.029490390677933395 -0.013151462218527735 0 -0.033042034537157559 -0.01070373270398459 0 -0.033186546294064298 -0.0096662694734824268 0 -0.030367725116459455 -0.010347330246630856 0 -0.033042034537157559 -0.01070373270398459 0 -0.030367725116459455 -0.010347330246630856 0 -0.031342865499974643 -0.012156943733536797 0 -0.03266254701865353 -0.012853203436427024 0 -0.033042034537157559 -0.01070373270398459 0 -0.031342865499974643 -0.012156943733536797 0 -0.03266254701865353 -0.012853203436427024 0 -0.03100066049388497 -0.014028174535220058 0 -0.031342865499974643 -0.012156943733536797 0 -0.032860411912735504 -0.014592512703216855 0 -0.03266254701865353 -0.012853203436427024 0 -0.03100066049388497 -0.014028174535220058 0 -0.03100066049388497 -0.014028174535220058 0 -0.031342865499974643 -0.012156943733536797 0 -0.029490390677933395 -0.013151462218527735 0 -0.029490390677933395 -0.013151462218527735 0 -0.027332498598187139 -0.015597276366006644 0 -0.027568935271161384 -0.01191792771578979 0 -0.03100066049388497 -0.014028174535220058 0 -0.029490390677933395 -0.013151462218527735 0 -0.029428571494565518 -0.015277325854668773 0 -0.029490390677933395 -0.013151462218527735 0 -0.029428571494565518 -0.015277325854668773 0 -0.027332498598187139 -0.015597276366006644 0 -0.029428571494565518 -0.015277325854668773 0 -0.027332498598187139 -0.015597276366006644 0 -0.028866717034646786 -0.017150529086057135 0 -0.029428571494565518 -0.015277325854668773 0 -0.030898537686118277 -0.01605533235906835 0 -0.028866717034646786 -0.017150529086057135 0 -0.032860411912735504 -0.014592512703216855 0 -0.030898537686118277 -0.01605533235906835 0 -0.032733484291481159 -0.017135280472709777 0 -0.030898537686118277 -0.01605533235906835 0 -0.030443945888033005 -0.017987810615957726 0 -0.032733484291481159 -0.017135280472709777 0 -0.032860411912735504 -0.014592512703216855 0 -0.03100066049388497 -0.014028174535220058 0 -0.030898537686118277 -0.01605533235906835 0 -0.03100066049388497 -0.014028174535220058 0 -0.029428571494565518 -0.015277325854668773 0 -0.030898537686118277 -0.01605533235906835 0 -0.033418300259059661 -0.019377428637410734 0 -0.032893606172277837 -0.018799487907618116 0 -0.032820543669800854 -0.020077161515290948 0 -0.033418300259059661 -0.019377428637410734 0 -0.033911435363487737 -0.018080785258395772 0 -0.032893606172277837 -0.018799487907618116 0 -0.033418300259059661 -0.019377428637410734 0 -0.034200218581916533 -0.019293687643623159 0 -0.033911435363487737 -0.018080785258395772 0 -0.032872407071146068 -0.018441598737362824 0 -0.035238492631269061 -0.015672876597630489 0 -0.031417436965399483 -0.017573599764556351 0 -0.032550791371935103 -0.016702091414674644 0 -0.030765863126675109 -0.014919032447599834 0 -0.032550791371935103 -0.016702091414674644 0 -0.030765863126675109 -0.014919032447599834 0 -0.03259755648536912 -0.013666471121457665 0 -0.029762267778252739 -0.016264303152082979 0 -0.033517712833459098 -0.012134259858677129 0 -0.035238492631269061 -0.015672876597630489 0 -0.033517712833459098 -0.012134259858677129 0 -0.037196733669487468 -0.014804611780482715 0 -0.037866169990418815 -0.015152301935350021 0 -0.037304378368480405 -0.015832072656328775 0 -0.035238492631269061 -0.015672876597630489 0 -0.034906406476390935 -0.017483834078176306 0 -0.037196733669487468 -0.014804611780482715 0 -0.037212593286179152 -0.013910989531264283 0 -0.036388273341523412 -0.013387220127773304 0 -0.037196733669487468 -0.014804611780482715 0 -0.037866169990418815 -0.015152301935350021 0 -0.037212593286179152 -0.013910989531264283 0 -0.035238492631269061 -0.015672876597630489 0 -0.03748202004292852 -0.013873716620852529 0 -0.037358642024122486 -0.014506468833565043 0 -0.037212593286179152 -0.013910989531264283 0 -0.037825381889616559 -0.014178648895265062 0 -0.037212593286179152 -0.013910989531264283 0 -0.037825381889616559 -0.014178648895265062 0 -0.037696549512756826 -0.012945463062010845 0 -0.033517712833459098 -0.012134259858677129 0 -0.037498705430447782 -0.011107258833682477 0 -0.037212593286179152 -0.013910989531264283 0 -0.037696549512756826 -0.012945463062010845 0 -0.036924437051978613 -0.012813762444297602 0 -0.037212593286179152 -0.013910989531264283 0 -0.036924437051978613 -0.012813762444297602 0 -0.036388273341523412 -0.013387220127773304 0 -0.037679208092965051 -0.013536293920732316 0 -0.036646405571257777 -0.014091326720743019 0 -0.037071003453780012 -0.012733039707803468 0 -0.036646405571257777 -0.014091326720743019 0 -0.036447210831357442 -0.012710132208609438 0 -0.037071003453780012 -0.012733039707803468 0 -0.036646405571257777 -0.014091326720743019 0 -0.037011543294999734 -0.015221268131478876 0 -0.036546658098349852 -0.015055084965465945 0 -0.037196733669487468 -0.014804611780482715 0 -0.036388273341523412 -0.013387220127773304 0 -0.037011543294999734 -0.015221268131478876 0 -0.037679208092965051 -0.013536293920732316 0 -0.036646405571257777 -0.014091326720743019 0 -0.037011543294999734 -0.015221268131478876 0 -0.037043540376162053 -0.013456392946989488 0 -0.036980898389013701 -0.015051763246871165 0 -0.037196733669487468 -0.014804611780482715 0 -0.037011543294999734 -0.015221268131478876 0 -0.037304378368480405 -0.015832072656328775 0 -0.037011543294999734 -0.015221268131478876 0 -0.037304378368480405 -0.015832072656328775 0 -0.037015739358336235 -0.015816633420783301 0 -0.037011543294999734 -0.015221268131478876 0 -0.036546658098349852 -0.015055084965465945 0 -0.036719433228086962 -0.015754935080982149 0 -0.036719433228086962 -0.015754935080982149 0 -0.036626247812036855 -0.016340155798481814 0 -0.036114974765853673 -0.015797754415356986 0 -0.036546658098349852 -0.015055084965465945 0 -0.036719433228086962 -0.015754935080982149 0 -0.036114974765853673 -0.015797754415356986 0 -0.037011543294999734 -0.015221268131478876 0 -0.036719433228086962 -0.015754935080982149 0 -0.037015739358336235 -0.015816633420783301 0 -0.036626247812036855 -0.016340155798481814 0 -0.036265239373764593 -0.016933805312094905 0 -0.037054260219781511 -0.016820508931344621 0 -0.036719433228086962 -0.015754935080982149 0 -0.036984533953410982 -0.016450738055040569 0 -0.037015739358336235 -0.015816633420783301 0 -0.036719433228086962 -0.015754935080982149 0 -0.036626247812036855 -0.016340155798481814 0 -0.036984533953410982 -0.016450738055040569 0 -0.036626247812036855 -0.016340155798481814 0 -0.036984533953410982 -0.016450738055040569 0 -0.037054260219781511 -0.016820508931344621 0 -0.036190328125247612 -0.01718990365297823 0 -0.035962570134908771 -0.018148096730309083 0 -0.034906406476390935 -0.017483834078176306 0 -0.035962570134908771 -0.018148096730309083 0 -0.032893606172277837 -0.018799487907618116 0 -0.032820543669800854 -0.020077161515290948 0 -0.031918612367788597 -0.019505232898478535 0 -0.036984533953410982 -0.016450738055040569 0 -0.037304378368480405 -0.015832072656328775 0 -0.036997428286370967 -0.016638173334856787 0 -0.036984533953410982 -0.016450738055040569 0 -0.037304378368480405 -0.015832072656328775 0 -0.037015739358336235 -0.015816633420783301 0 -0.035567658623189752 -0.016487819047532458 0 -0.036265239373764593 -0.016933805312094905 0 -0.034999680945875244 -0.01753779428587279 0 -0.035567658623189752 -0.016487819047532458 0 -0.034999750814024115 -0.015526220127015313 0 -0.034999680945875244 -0.01753779428587279 0 -0.035567658623189752 -0.016487819047532458 0 -0.036265239373764593 -0.016933805312094905 0 -0.036114974765853673 -0.015797754415356986 0 -0.036626247812036855 -0.016340155798481814 0 -0.036265239373764593 -0.016933805312094905 0 -0.036114974765853673 -0.015797754415356986 0 -0.036546658098349852 -0.015055084965465945 0 -0.036114974765853673 -0.015797754415356986 0 -0.035767498195372574 -0.014528933999756174 0 -0.036114974765853673 -0.015797754415356986 0 -0.034999750814024115 -0.015526220127015313 0 -0.035767498195372574 -0.014528933999756174 0 -0.035567658623189752 -0.016487819047532458 0 -0.036114974765853673 -0.015797754415356986 0 -0.034999750814024115 -0.015526220127015313 0 -0.034999750814024115 -0.015526220127015313 0 -0.035767498195372574 -0.014528933999756174 0 -0.03499969600701365 -0.013514544689709709 0 -0.036646405571257777 -0.014091326720743019 0 -0.036546658098349852 -0.015055084965465945 0 -0.035767498195372574 -0.014528933999756174 0 -0.036646405571257777 -0.014091326720743019 0 -0.035767498195372574 -0.014528933999756174 0 -0.036011858453830585 -0.013505077870026369 0 -0.036646405571257777 -0.014091326720743019 0 -0.036011858453830585 -0.013505077870026369 0 -0.036447210831357442 -0.012710132208609438 0 -0.036011858453830585 -0.013505077870026369 0 -0.03499969600701365 -0.013514544689709709 0 -0.035887729173487121 -0.012403421844996369 0 -0.035767498195372574 -0.014528933999756174 0 -0.036011858453830585 -0.013505077870026369 0 -0.03499969600701365 -0.013514544689709709 0 -0.03499969600701365 -0.013514544689709709 0 -0.034999826285028235 -0.011503038523014547 0 -0.035887729173487121 -0.012403421844996369 0 -0.034999826285028235 -0.011503038523014547 0 -0.035975820171354526 -0.011370880689506407 0 -0.035887729173487121 -0.012403421844996369 0 -0.034999826285028235 -0.011503038523014547 0 -0.035975820171354526 -0.011370880689506407 0 -0.035667433704679473 -0.010509073889351744 0 -0.035975820171354526 -0.011370880689506407 0 -0.036458311423217302 -0.011804690942441786 0 -0.035887729173487121 -0.012403421844996369 0 -0.036502021152381658 -0.011229165662289506 0 -0.035975820171354526 -0.011370880689506407 0 -0.036458311423217302 -0.011804690942441786 0 -0.036458311423217302 -0.011804690942441786 0 -0.035887729173487121 -0.012403421844996369 0 -0.036447210831357442 -0.012710132208609438 0 -0.036011858453830585 -0.013505077870026369 0 -0.035887729173487121 -0.012403421844996369 0 -0.036447210831357442 -0.012710132208609438 0 -0.036447210831357442 -0.012710132208609438 0 -0.037071003453780012 -0.012733039707803468 0 -0.036913658338500341 -0.01187211381939739 0 -0.036458311423217302 -0.011804690942441786 0 -0.036447210831357442 -0.012710132208609438 0 -0.036913658338500341 -0.01187211381939739 0 -0.036946612227089067 -0.011850400333842827 0 -0.037043540376162053 -0.013456392946989488 0 -0.037515670138398009 -0.011793514937520783 0 -0.037071003453780012 -0.012733039707803468 0 -0.036913658338500341 -0.01187211381939739 0 -0.037515670138398009 -0.011793514937520783 0 -0.037679208092965051 -0.013536293920732316 0 -0.037071003453780012 -0.012733039707803468 0 -0.037515670138398009 -0.011793514937520783 0 -0.036896642193575434 -0.011369369280693785 0 -0.036849253531290246 -0.011195512505183094 0 -0.037515670138398009 -0.011793514937520783 0 -0.036896642193575434 -0.011369369280693785 0 -0.036913658338500341 -0.01187211381939739 0 -0.036458311423217302 -0.011804690942441786 0 -0.036913658338500341 -0.01187211381939739 0 -0.036737944299540172 -0.0114450670670295 0 -0.036896642193575434 -0.011369369280693785 0 -0.036913658338500341 -0.01187211381939739 0 -0.036737944299540172 -0.0114450670670295 0 -0.036896642193575434 -0.011369369280693785 0 -0.036737944299540172 -0.0114450670670295 0 -0.036778897995831339 -0.011029422303103649 0 -0.036502021152381658 -0.011229165662289506 0 -0.036458311423217302 -0.011804690942441786 0 -0.036737944299540172 -0.0114450670670295 0 -0.036502021152381658 -0.011229165662289506 0 -0.036737944299540172 -0.0114450670670295 0 -0.036778897995831339 -0.011029422303103649 0 -0.036778897995831339 -0.011029422303103649 0 -0.036800390921648642 -0.010824661353781139 0 -0.037079281395173178 -0.0097610292225375345 0 -0.036789953299043839 -0.010959812386613588 0 -0.036885679150650011 -0.010452676346346855 0 -0.036778897995831339 -0.011029422303103649 0 -0.036759871704783002 -0.011112719387588356 0 -0.03669079141821701 -0.011105580380274576 0 -0.036502021152381658 -0.011229165662289506 0 -0.036778897995831339 -0.011029422303103649 0 -0.036508150995498673 -0.010830523872069828 0 -0.036778897995831339 -0.011029422303103649 0 -0.036800390921648642 -0.010824661353781139 0 -0.036508150995498673 -0.010830523872069828 0 -0.036896642193575434 -0.011369369280693785 0 -0.036778897995831339 -0.011029422303103649 0 -0.036759871704783002 -0.011112719387588356 0 -0.036896642193575434 -0.011369369280693785 0 -0.036759871704783002 -0.011112719387588356 0 -0.036849253531290246 -0.011195512505183094 0 -0.036759871704783002 -0.011112719387588356 0 -0.036849253531290246 -0.011195512505183094 0 -0.036687039116563729 -0.011106927374133038 0 -0.036657204029577874 -0.011136536551616718 0 -0.036849253531290246 -0.011195512505183094 0 -0.036687039116563729 -0.011106927374133038 0 -0.036628509803624663 -0.01109312486201585 0 -0.036687039116563729 -0.011106927374133038 0 -0.036583078745520595 -0.011096482745632708 0 -0.036657204029577874 -0.011136536551616718 0 -0.036687039116563729 -0.011106927374133038 0 -0.036583078745520595 -0.011096482745632708 0 -0.036336118433547178 -0.0092437914070341212 0 -0.036800390921648642 -0.010824661353781139 0 -0.037079281395173178 -0.0097610292225375345 0 -0.036759871704783002 -0.011112719387588356 0 -0.036687039116563729 -0.011106927374133038 0 -0.03669079141821701 -0.011105580380274576 0 -0.036628509803624663 -0.01109312486201585 0 -0.036687039116563729 -0.011106927374133038 0 -0.03669079141821701 -0.011105580380274576 0 -0.036196571159433033 -0.0084183264763863855 0 -0.036795984893853134 -0.0087331675159224801 0 -0.03621237577826477 -0.0098923036907223004 0 -0.036591449408606945 -0.0090097683858876097 0 -0.036800390921648642 -0.010824661353781139 0 -0.03621237577826477 -0.0098923036907223004 0 -0.036554340463630965 -0.0089324548521003931 0 -0.036791765751480979 -0.010782022206275157 0 -0.036554340463630965 -0.0089324548521003931 0 -0.036301448392490727 -0.0097142353022794063 0 -0.035584657752373842 -0.0086329573391254379 0 -0.036196571159433033 -0.0084183264763863855 0 -0.03621237577826477 -0.0098923036907223004 0 -0.035584657752373842 -0.0086329573391254379 0 -0.03621237577826477 -0.0098923036907223004 0 -0.034999791568728414 -0.0094913608095831912 0 -0.03621237577826477 -0.0098923036907223004 0 -0.034999791568728414 -0.0094913608095831912 0 -0.035667433704679473 -0.010509073889351744 0 -0.034999826285028235 -0.011503038523014547 0 -0.034999791568728414 -0.0094913608095831912 0 -0.035667433704679473 -0.010509073889351744 0 -0.035975820171354526 -0.011370880689506407 0 -0.035667433704679473 -0.010509073889351744 0 -0.036190487520080701 -0.01074521556526005 0 -0.036502021152381658 -0.011229165662289506 0 -0.035975820171354526 -0.011370880689506407 0 -0.036190487520080701 -0.01074521556526005 0 -0.036502021152381658 -0.011229165662289506 0 -0.036190487520080701 -0.01074521556526005 0 -0.036508150995498673 -0.010830523872069828 0 -0.03621237577826477 -0.0098923036907223004 0 -0.036190487520080701 -0.01074521556526005 0 -0.036508150995498673 -0.010830523872069828 0 -0.036800390921648642 -0.010824661353781139 0 -0.03621237577826477 -0.0098923036907223004 0 -0.036508150995498673 -0.010830523872069828 0 -0.03621237577826477 -0.0098923036907223004 0 -0.035667433704679473 -0.010509073889351744 0 -0.036190487520080701 -0.01074521556526005 0 -0.036604588114716854 -0.024370354679847914 0 -0.034999951825879221 -0.024924912187451142 0 -0.036396453765646347 -0.025357546918693644 0 -0.036604588114716854 -0.024370354679847914 0 -0.036396453765646347 -0.025357546918693644 0 -0.037723909403617112 -0.025627313452628926 0 -0.036604588114716854 -0.024370354679847914 0 -0.034999951825879221 -0.024924912187451142 0 -0.036054261444567588 -0.023929274138492402 0 -0.034999951825879221 -0.024924912187451142 0 -0.036396453765646347 -0.025357546918693644 0 -0.036332340353004026 -0.026520686322030744 0 -0.036396453765646347 -0.025357546918693644 0 -0.037723909403617112 -0.025627313452628926 0 -0.036332340353004026 -0.026520686322030744 0 -0.024199423818818941 -0.030749049061003918 0 -0.025009287117963699 -0.030761082202309359 0 -0.025135372939203454 -0.031785218613892517 0 -0.024199423818818941 -0.030749049061003918 0 -0.025009287117963699 -0.030761082202309359 0 -0.024673342745324383 -0.030224533798042946 0 -0.024673342745324383 -0.030224533798042946 0 -0.024210434100644961 -0.029793165589499324 0 -0.024816242685417066 -0.029755572557685211 0 -0.025009287117963699 -0.030761082202309359 0 -0.024673342745324383 -0.030224533798042946 0 -0.025128376816007918 -0.030131510643958168 0 -0.024673342745324383 -0.030224533798042946 0 -0.024816242685417066 -0.029755572557685211 0 -0.025128376816007918 -0.030131510643958168 0 -0.024199423818818941 -0.030749049061003918 0 -0.024673342745324383 -0.030224533798042946 0 -0.024210434100644961 -0.029793165589499324 0 -0.036604588114716854 -0.024370354679847914 0 -0.037251763138953918 -0.025170077836530611 0 -0.037310137234555049 -0.024084555582668362 0 -0.038138255835221777 -0.024287976738625421 0 -0.031047406141525041 -0.028365551009544299 0 -0.031047406141525041 -0.028365551009544299 0 -0.030603968524404432 -0.026988002588324719 0 -0.036604588114716854 -0.024370354679847914 0 -0.037310137234555049 -0.024084555582668362 0 -0.036716146891110087 -0.02370244803215062 0 -0.037310137234555049 -0.024084555582668362 0 -0.037246384983587066 -0.023094412862830767 0 -0.036716146891110087 -0.02370244803215062 0 -0.030603968524404432 -0.026988002588324719 0 -0.032302803226591202 -0.025377241517669683 0 -0.032302803226591202 -0.025377241517669683 0 -0.038210188851199846 -0.02233859086662562 0 -0.024210434100644961 -0.029793165589499324 0 -0.024816242685417066 -0.029755572557685211 0 -0.024726387761852649 -0.029282390650446362 0 -0.024210434100644961 -0.029793165589499324 0 -0.024726387761852649 -0.029282390650446362 0 -0.024143239743996878 -0.028934804207463711 0 -0.024816242685417066 -0.029755572557685211 0 -0.024726387761852649 -0.029282390650446362 0 -0.025211285983751108 -0.029282522420350399 0 -0.024723798327890317 -0.028799653551252299 0 -0.024143239743996878 -0.028934804207463711 0 -0.024553541014234865 -0.028097664813649129 0 -0.024726387761852649 -0.029282390650446362 0 -0.024723798327890317 -0.028799653551252299 0 -0.024143239743996878 -0.028934804207463711 0 -0.024726387761852649 -0.029282390650446362 0 -0.024723798327890317 -0.028799653551252299 0 -0.025021953237478665 -0.028919650428950047 0 -0.03738634272458851 -0.022820391815980164 0 -0.036606262086775775 -0.022526921042063934 0 -0.037362021522945231 -0.021899176937291518 0 -0.03738634272458851 -0.022820391815980164 0 -0.036606262086775775 -0.022526921042063934 0 -0.036716146891110087 -0.02370244803215062 0 -0.03683513666305735 -0.022125311782947108 0 -0.035779958978595205 -0.02308553188602859 0 -0.036003704818067347 -0.021290707277599071 0 -0.036606262086775775 -0.022526921042063934 0 -0.036716146891110087 -0.02370244803215062 0 -0.035779958978595205 -0.02308553188602859 0 -0.034999951825879221 -0.024924912187451142 0 -0.035779958978595205 -0.02308553188602859 0 -0.03499988761506987 -0.021819239400834731 0 -0.037143037072367373 -0.022053113697842006 0 -0.035708959483455482 -0.023147012016990112 0 -0.036054261444567588 -0.023929274138492402 0 -0.036716146891110087 -0.02370244803215062 0 -0.035779958978595205 -0.02308553188602859 0 -0.036604588114716854 -0.024370354679847914 0 -0.036054261444567588 -0.023929274138492402 0 -0.036716146891110087 -0.02370244803215062 0 -0.034999951825879221 -0.024924912187451142 0 -0.036054261444567588 -0.023929274138492402 0 -0.035779958978595205 -0.02308553188602859 0 -0.035779958978595205 -0.02308553188602859 0 -0.03499988761506987 -0.021819239400834731 0 -0.036003704818067347 -0.021290707277599071 0 -0.03499988761506987 -0.021819239400834731 0 -0.036003704818067347 -0.021290707277599071 0 -0.035000041161824376 -0.019550254460866581 0 -0.03683513666305735 -0.022125311782947108 0 -0.036003704818067347 -0.021290707277599071 0 -0.03698292257568557 -0.020821235625355979 0 -0.03698292257568557 -0.020821235625355979 0 -0.036437076431567211 -0.020058705600784037 0 -0.037793620085892744 -0.019452779445659658 0 -0.036003704818067347 -0.021290707277599071 0 -0.03698292257568557 -0.020821235625355979 0 -0.036437076431567211 -0.020058705600784037 0 -0.036003704818067347 -0.021290707277599071 0 -0.036437076431567211 -0.020058705600784037 0 -0.035000041161824376 -0.019550254460866581 0 -0.034999726396552973 -0.019550270964167435 0 -0.036549729491326371 -0.018256247719721737 0 -0.036437076431567211 -0.020058705600784037 0 -0.035000041161824376 -0.019550254460866581 0 -0.036423590211022337 -0.018663447995472308 0 -0.036437076431567211 -0.020058705600784037 0 -0.036423590211022337 -0.018663447995472308 0 -0.037793620085892744 -0.019452779445659658 0 -0.036265239373764593 -0.016933805312094905 0 -0.036160560032135254 -0.018195532456677616 0 -0.037054260219781511 -0.016820508931344621 0 -0.034999991494898214 -0.019549858657490937 0 -0.036160560032135254 -0.018195532456677616 0 -0.034999680945875244 -0.01753779428587279 0 -0.036265239373764593 -0.016933805312094905 0 -0.036160560032135254 -0.018195532456677616 0 -0.034999680945875244 -0.01753779428587279 0 -0.032820543669800854 -0.020077161515290948 0 -0.031918612367788597 -0.019505232898478535 0 -0.031931872006815999 -0.021010568618026082 0 -0.036549729491326371 -0.018256247719721737 0 -0.035962570134908771 -0.018148096730309083 0 -0.036423590211022337 -0.018663447995472308 0 -0.03777943328672935 -0.01775163171199939 0 -0.037793620085892744 -0.019452779445659658 0 -0.035962570134908771 -0.018148096730309083 0 -0.034775651210341318 -0.020278279501854964 0 -0.032820543669800854 -0.020077161515290948 0 -0.031931872006815999 -0.021010568618026082 0 -0.032814908155695544 -0.020914546213911193 0 -0.031931872006815999 -0.021010568618026082 0 -0.032814908155695544 -0.020914546213911193 0 -0.032732535913520718 -0.021718905500325705 0 -0.032820543669800854 -0.020077161515290948 0 -0.032814908155695544 -0.020914546213911193 0 -0.033202256032494611 -0.020578389507105506 0 -0.031931872006815999 -0.021010568618026082 0 -0.032732535913520718 -0.021718905500325705 0 -0.031962017841056567 -0.022379279471293295 0 -0.032002512221565339 -0.022263317483324677 0 -0.034527256561369658 -0.022063035103570959 0 -0.03698292257568557 -0.020821235625355979 0 -0.037793620085892744 -0.019452779445659658 0 -0.037817713707130787 -0.021227644007196698 0 -0.034775651210341318 -0.020278279501854964 0 -0.034527256561369658 -0.022063035103570959 0 -0.032302803226591202 -0.025377241517669683 0 -0.034527256561369658 -0.022063035103570959 0 -0.03683513666305735 -0.022125311782947108 0 -0.03698292257568557 -0.020821235625355979 0 -0.037817713707130787 -0.021227644007196698 0 -0.037143037072367373 -0.022053113697842006 0 -0.034527256561369658 -0.022063035103570959 0 -0.032302803226591202 -0.025377241517669683 0 -0.027607173064667125 -0.026200667722698461 0 -0.030862013120066496 -0.024901988697282759 0 -0.03086776783676148 -0.023332512078062102 0 -0.032185389705644683 -0.023343917210702711 0 -0.032195413367681891 -0.022177238045425707 0 -0.03086776783676148 -0.023332512078062102 0 -0.032185389705644683 -0.023343917210702711 0 -0.024723798327890317 -0.028799653551252299 0 -0.024553541014234865 -0.028097664813649129 0 -0.024960880909661341 -0.028541818544986351 0 -0.024960880909661341 -0.028541818544986351 0 -0.02517222154070262 -0.028226498162486471 0 -0.025331908660253588 -0.028628678662263585 0 -0.024553541014234865 -0.028097664813649129 0 -0.024960880909661341 -0.028541818544986351 0 -0.02517222154070262 -0.028226498162486471 0 -0.025589321988786339 -0.028460483664189008 0 -0.025301731152496874 -0.027693119362276364 0 -0.026283432677450595 -0.028158412308839809 0 -0.02517222154070262 -0.028226498162486471 0 -0.025331908660253588 -0.028628678662263585 0 -0.025589321988786339 -0.028460483664189008 0 -0.02517222154070262 -0.028226498162486471 0 -0.025589321988786339 -0.028460483664189008 0 -0.025301731152496874 -0.027693119362276364 0 -0.025331908660253588 -0.028628678662263585 0 -0.025589321988786339 -0.028460483664189008 0 -0.025350010497468076 -0.028788806575360475 0 -0.024553541014234865 -0.028097664813649129 0 -0.02517222154070262 -0.028226498162486471 0 -0.025301731152496874 -0.027693119362276364 0 -0.026283432677450595 -0.028158412308839809 0 -0.027140251842918364 -0.027448379108926307 0 -0.026666271425338586 -0.029108494429212893 0 -0.026283432677450595 -0.028158412308839809 0 -0.026666271425338586 -0.029108494429212893 0 -0.026078565512473634 -0.028838524190224056 0 -0.025589321988786339 -0.028460483664189008 0 -0.026283432677450595 -0.028158412308839809 0 -0.026078565512473634 -0.028838524190224056 0 -0.025301731152496874 -0.027693119362276364 0 -0.026283432677450595 -0.028158412308839809 0 -0.026114486517843444 -0.027172021833394375 0 -0.026283432677450595 -0.028158412308839809 0 -0.026114486517843444 -0.027172021833394375 0 -0.027140251842918364 -0.027448379108926307 0 -0.026114486517843444 -0.027172021833394375 0 -0.026613222071449342 -0.025191505969197472 0 -0.027140251842918364 -0.027448379108926307 0 -0.026114486517843444 -0.027172021833394375 0 -0.025387692975168612 -0.026654466071290305 0 -0.026613222071449342 -0.025191505969197472 0 -0.029456410974237655 -0.021314920265644417 0 -0.026668417339800767 -0.026509794013415116 0 -0.032195413367681891 -0.022177238045425707 0 -0.032185389705644683 -0.023343917210702711 0 -0.033524493034072872 -0.021742580306706314 0 -0.024553541014234865 -0.028097664813649129 0 -0.025301731152496874 -0.027693119362276364 0 -0.025387692975168612 -0.026654466071290305 0 -0.027607173064667125 -0.026200667722698461 0 -0.029671603150977652 -0.024261236093679885 0 -0.025301731152496874 -0.027693119362276364 0 -0.026114486517843444 -0.027172021833394375 0 -0.025387692975168612 -0.026654466071290305 0 -0.032002512221565339 -0.022263317483324677 0 -0.03359594919167553 -0.021046898567069615 0 -0.032195413367681891 -0.022177238045425707 0 -0.033524493034072872 -0.021742580306706314 0 -0.033530164064152893 -0.021112171510333833 0 -0.032814908155695544 -0.020914546213911193 0 -0.033202256032494611 -0.020578389507105506 0 -0.033530164064152893 -0.021112171510333833 0 -0.032814908155695544 -0.020914546213911193 0 -0.032732535913520718 -0.021718905500325705 0 -0.033530164064152893 -0.021112171510333833 0 -0.033202256032494611 -0.020578389507105506 0 -0.033530164064152893 -0.021112171510333833 0 -0.03366084615383412 -0.020202045438146625 0 -0.026056276847027576 -0.020061122844719066 0 -0.026595863835938698 -0.020287704493644632 0 -0.027071732818218456 -0.024989417071114808 0 -0.029671603150977652 -0.024261236093679885 0 -0.029456410974237655 -0.021314920265644417 0 -0.033524493034072872 -0.021742580306706314 0 -0.033530164064152893 -0.021112171510333833 0 -0.034516884285904596 -0.020493326553073735 0 -0.028096583547114733 -0.019807276166804937 0 -0.02853587671888308 -0.019485822297860993 0 -0.026056276847027576 -0.020061122844719066 0 -0.026595863835938698 -0.020287704493644632 0 -0.02660967202632018 -0.019432939911091962 0 -0.029456410974237655 -0.021314920265644417 0 -0.02853587671888308 -0.019485822297860993 0 -0.033530164064152893 -0.021112171510333833 0 -0.034516884285904596 -0.020493326553073735 0 -0.03366084615383412 -0.020202045438146625 0 -0.031417436965399483 -0.017573599764556351 0 -0.032550791371935103 -0.016702091414674644 0 -0.032488340024002346 -0.019731840012262202 0 -0.029762267778252739 -0.016264303152082979 0 -0.02853587671888308 -0.019485822297860993 0 -0.031417436965399483 -0.017573599764556351 0 -0.032054566499611935 -0.020226520399137565 0 -0.032488340024002346 -0.019731840012262202 0 -0.032872407071146068 -0.018441598737362824 0 -0.029456410974237655 -0.021314920265644417 0 -0.034200218581916533 -0.019293687643623159 0 -0.034516884285904596 -0.020493326553073735 0 -0.03366084615383412 -0.020202045438146625 0 -0.033418300259059661 -0.019377428637410734 0 -0.034200218581916533 -0.019293687643623159 0 -0.03366084615383412 -0.020202045438146625 0 -0.033418300259059661 -0.019377428637410734 0 -0.032820543669800854 -0.020077161515290948 0 -0.03366084615383412 -0.020202045438146625 0 -0.032820543669800854 -0.020077161515290948 0 -0.033202256032494611 -0.020578389507105506 0 -0.03366084615383412 -0.020202045438146625 0 -0.029746628795928483 -0.019477192140204411 0 -0.031533947987985957 -0.019614672090948658 0 -0.030443945888033005 -0.017987810615957726 0 -0.031533947987985957 -0.019614672090948658 0 -0.030443945888033005 -0.017987810615957726 0 -0.032733484291481159 -0.017135280472709777 0 -0.030898537686118277 -0.01605533235906835 0 -0.030443945888033005 -0.017987810615957726 0 -0.028866717034646786 -0.017150529086057135 0 -0.027332498598187139 -0.015597276366006644 0 -0.027262734447709668 -0.0190175061574013 0 -0.028866717034646786 -0.017150529086057135 0 -0.030443945888033005 -0.017987810615957726 0 -0.028866717034646786 -0.017150529086057135 0 -0.028785570325810611 -0.018794314388446996 0 -0.02853587671888308 -0.019485822297860993 0 -0.028435947542388994 -0.0175890645509756 0 -0.026614825496355885 -0.01938196676206538 0 -0.028866717034646786 -0.017150529086057135 0 -0.028785570325810611 -0.018794314388446996 0 -0.026614825496355885 -0.01938196676206538 0 -0.028785570325810611 -0.018794314388446996 0 -0.028108984100599806 -0.020001706205589623 0 -0.029746628795928483 -0.019477192140204411 0 -0.028785570325810611 -0.018794314388446996 0 -0.028108984100599806 -0.020001706205589623 0 -0.029746628795928483 -0.019477192140204411 0 -0.030443945888033005 -0.017987810615957726 0 -0.028785570325810611 -0.018794314388446996 0 -0.029746628795928483 -0.019477192140204411 0 -0.028108984100599806 -0.020001706205589623 0 -0.029814186497674679 -0.021287842226402731 0 -0.026595863835938698 -0.020287704493644632 0 -0.028108984100599806 -0.020001706205589623 0 -0.02822415187709576 -0.022420918656435949 0 -0.026595863835938698 -0.020287704493644632 0 -0.026614825496355885 -0.01938196676206538 0 -0.028108984100599806 -0.020001706205589623 0 -0.028108984100599806 -0.020001706205589623 0 -0.029814186497674679 -0.021287842226402731 0 -0.02822415187709576 -0.022420918656435949 0 -0.029814186497674679 -0.021287842226402731 0 -0.031259686495603026 -0.021788671453350204 0 -0.030817650474176238 -0.023345030732895192 0 -0.029746628795928483 -0.019477192140204411 0 -0.031533947987985957 -0.019614672090948658 0 -0.029814186497674679 -0.021287842226402731 0 -0.031533947987985957 -0.019614672090948658 0 -0.029814186497674679 -0.021287842226402731 0 -0.031259686495603026 -0.021788671453350204 0 -0.031533947987985957 -0.019614672090948658 0 -0.031259686495603026 -0.021788671453350204 0 -0.032426553567222433 -0.02083361082506207 0 -0.031259686495603026 -0.021788671453350204 0 -0.032553863579239589 -0.022261254235031103 0 -0.032426553567222433 -0.02083361082506207 0 -0.030817650474176238 -0.023345030732895192 0 -0.032618518746250505 -0.023749436677668465 0 -0.032553863579239589 -0.022261254235031103 0 -0.030817650474176238 -0.023345030732895192 0 -0.02822415187709576 -0.022420918656435949 0 -0.029553677357812384 -0.02625168402671001 0 -0.031259686495603026 -0.021788671453350204 0 -0.030817650474176238 -0.023345030732895192 0 -0.032553863579239589 -0.022261254235031103 0 -0.029814186497674679 -0.021287842226402731 0 -0.030817650474176238 -0.023345030732895192 0 -0.02822415187709576 -0.022420918656435949 0 -0.030817650474176238 -0.023345030732895192 0 -0.031808329928497157 -0.025490638640656083 0 -0.032618518746250505 -0.023749436677668465 0 -0.026595863835938698 -0.020287704493644632 0 -0.02822415187709576 -0.022420918656435949 0 -0.027071732818218456 -0.024989417071114808 0 -0.02822415187709576 -0.022420918656435949 0 -0.027071732818218456 -0.024989417071114808 0 -0.029553677357812384 -0.02625168402671001 0 -0.027071732818218456 -0.024989417071114808 0 -0.029553677357812384 -0.02625168402671001 0 -0.027910229714683044 -0.02982793108224549 0 -0.026668417339800767 -0.026509794013415116 0 -0.028016772067271458 -0.029602738773216418 0 -0.030817650474176238 -0.023345030732895192 0 -0.031808329928497157 -0.025490638640656083 0 -0.029553677357812384 -0.02625168402671001 0 -0.031808329928497157 -0.025490638640656083 0 -0.029553677357812384 -0.02625168402671001 0 -0.030912320979946728 -0.028147096981684511 0 -0.029553677357812384 -0.02625168402671001 0 -0.030912320979946728 -0.028147096981684511 0 -0.029688607223823309 -0.029432461927465851 0 -0.030912320979946728 -0.028147096981684511 0 -0.030792638976193679 -0.030613428281012805 0 -0.032302986612088545 -0.028361361917855848 0 -0.030912320979946728 -0.028147096981684511 0 -0.029688607223823309 -0.029432461927465851 0 -0.030792638976193679 -0.030613428281012805 0 -0.029553677357812384 -0.02625168402671001 0 -0.029688607223823309 -0.029432461927465851 0 -0.027910229714683044 -0.02982793108224549 0 -0.029688607223823309 -0.029432461927465851 0 -0.030792638976193679 -0.030613428281012805 0 -0.027363835711095706 -0.031371739798940784 0 -0.027423300504592428 -0.031511357094251569 0 -0.027348296154213813 -0.031640624672776632 0 -0.027363835711095706 -0.031371739798940784 0 -0.029656659677721794 -0.030941987335877826 0 -0.027328803244808113 -0.031439129178690392 0 -0.027423300504592428 -0.031511357094251569 0 -0.027348296154213813 -0.031640624672776632 0 -0.027496032422358551 -0.031695234784954403 0 -0.026965946978480697 -0.031425249095655305 0 -0.027363835711095706 -0.031371739798940784 0 -0.027179388769828814 -0.031794442648394997 0 -0.027348296154213813 -0.031640624672776632 0 -0.027363835711095706 -0.031371739798940784 0 -0.027179388769828814 -0.031794442648394997 0 -0.029688607223823309 -0.029432461927465851 0 -0.027363835711095706 -0.031371739798940784 0 -0.027910229714683044 -0.02982793108224549 0 -0.026965946978480697 -0.031425249095655305 0 -0.027363835711095706 -0.031371739798940784 0 -0.026894510122082882 -0.030303965818553109 0 -0.027363835711095706 -0.031371739798940784 0 -0.026894510122082882 -0.030303965818553109 0 -0.027910229714683044 -0.02982793108224549 0 -0.026894510122082882 -0.030303965818553109 0 -0.027910229714683044 -0.02982793108224549 0 -0.026666271425338586 -0.029108494429212893 0 -0.027140251842918364 -0.027448379108926307 0 -0.027910229714683044 -0.02982793108224549 0 -0.026666271425338586 -0.029108494429212893 0 -0.025305880251685325 -0.028940045332858884 0 -0.025789256967514898 -0.030486917479871235 0 -0.025970865452755284 -0.029486883832030991 0 -0.025350010497468076 -0.028788806575360475 0 -0.026216993750431811 -0.030914158378725572 0 -0.025589321988786339 -0.028460483664189008 0 -0.026078565512473634 -0.028838524190224056 0 -0.025742108716165567 -0.028872364600913868 0 -0.026078565512473634 -0.028838524190224056 0 -0.025742108716165567 -0.028872364600913868 0 -0.025970865452755284 -0.029486883832030991 0 -0.025742108716165567 -0.028872364600913868 0 -0.025970865452755284 -0.029486883832030991 0 -0.025350010497468076 -0.028788806575360475 0 -0.026666271425338586 -0.029108494429212893 0 -0.026078565512473634 -0.028838524190224056 0 -0.025970865452755284 -0.029486883832030991 0 -0.025970865452755284 -0.029486883832030991 0 -0.026439561258911389 -0.029951291884098608 0 -0.026216993750431811 -0.030914158378725572 0 -0.026666271425338586 -0.029108494429212893 0 -0.025970865452755284 -0.029486883832030991 0 -0.026439561258911389 -0.029951291884098608 0 -0.026894510122082882 -0.030303965818553109 0 -0.026666271425338586 -0.029108494429212893 0 -0.026439561258911389 -0.029951291884098608 0 -0.025331908660253588 -0.028628678662263585 0 -0.025021953237478665 -0.028919650428950047 0 -0.025211285983751108 -0.029282522420350399 0 -0.025331908660253588 -0.028628678662263585 0 -0.025211285983751108 -0.029282522420350399 0 -0.025379149163666608 -0.029834686624423512 0 -0.025331908660253588 -0.028628678662263585 0 -0.025350010497468076 -0.028788806575360475 0 -0.024819588697328466 -0.030461474062872671 0 -0.025267502049671521 -0.02876268432718072 0 -0.025116058000632022 -0.03013389955117373 0 -0.024960880909661341 -0.028541818544986351 0 -0.025331908660253588 -0.028628678662263585 0 -0.025021953237478665 -0.028919650428950047 0 -0.024723798327890317 -0.028799653551252299 0 -0.024960880909661341 -0.028541818544986351 0 -0.025021953237478665 -0.028919650428950047 0 -0.025589321988786339 -0.028460483664189008 0 -0.025742108716165567 -0.028872364600913868 0 -0.025350010497468076 -0.028788806575360475 0 -0.024726387761852649 -0.029282390650446362 0 -0.025021953237478665 -0.028919650428950047 0 -0.025211285983751108 -0.029282522420350399 0 -0.025211285983751108 -0.029282522420350399 0 -0.025379149163666608 -0.029834686624423512 0 -0.024968324109041075 -0.030994592969467789 0 -0.025216264210984343 -0.029385131540903262 0 -0.025314648668337394 -0.030699912808705359 0 -0.024816242685417066 -0.029755572557685211 0 -0.025211285983751108 -0.029282522420350399 0 -0.025128376816007918 -0.030131510643958168 0 -0.026965946978480697 -0.031425249095655305 0 -0.026216993750431811 -0.030914158378725572 0 -0.026872940689086047 -0.03209084997760054 0 -0.025350010497468076 -0.028788806575360475 0 -0.024819588697328466 -0.030461474062872671 0 -0.025344169858674829 -0.030218924145763763 0 -0.026894510122082882 -0.030303965818553109 0 -0.026439561258911389 -0.029951291884098608 0 -0.026216993750431811 -0.030914158378725572 0 -0.026965946978480697 -0.031425249095655305 0 -0.026894510122082882 -0.030303965818553109 0 -0.026216993750431811 -0.030914158378725572 0 -0.024819588697328466 -0.030461474062872671 0 -0.025344169858674829 -0.030218924145763763 0 -0.025229674566669111 -0.030825225379905796 0 -0.024819588697328466 -0.030461474062872671 0 -0.025107456894830855 -0.031216664129587152 0 -0.024771183190318114 -0.031923320646657975 0 -0.025116058000632022 -0.03013389955117373 0 -0.024947855627401878 -0.031697696995073264 0 -0.025789256967514898 -0.030486917479871235 0 -0.026221480980322381 -0.031734370047761064 0 -0.025229674566669111 -0.030825225379905796 0 -0.025107456894830855 -0.031216664129587152 0 -0.025614666056293974 -0.031400839693780068 0 -0.025344169858674829 -0.030218924145763763 0 -0.025229674566669111 -0.030825225379905796 0 -0.025614666056293974 -0.031400839693780068 0 -0.024819588697328466 -0.030461474062872671 0 -0.025229674566669111 -0.030825225379905796 0 -0.025107456894830855 -0.031216664129587152 0 -0.025107456894830855 -0.031216664129587152 0 -0.025204028357254375 -0.03163886108447965 0 -0.024771183190318114 -0.031923320646657975 0 -0.025107456894830855 -0.031216664129587152 0 -0.025204028357254375 -0.03163886108447965 0 -0.025614666056293974 -0.031400839693780068 0 -0.025211285983751108 -0.029282522420350399 0 -0.025128376816007918 -0.030131510643958168 0 -0.025684232656222605 -0.0303862755888024 0 -0.025379149163666608 -0.029834686624423512 0 -0.024968324109041075 -0.030994592969467789 0 -0.025143742678151344 -0.031459057109508949 0 -0.025128376816007918 -0.030131510643958168 0 -0.025684232656222605 -0.0303862755888024 0 -0.025332589650680679 -0.03059475849150926 0 -0.025009287117963699 -0.030761082202309359 0 -0.025520593949362635 -0.03112973759331384 0 -0.025135372939203454 -0.031785218613892517 0 -0.025314648668337394 -0.030699912808705359 0 -0.025452968053243406 -0.032544202544653192 0 -0.025684232656222605 -0.0303862755888024 0 -0.025520593949362635 -0.03112973759331384 0 -0.02614480786061725 -0.031820416630195011 0 -0.025009287117963699 -0.030761082202309359 0 -0.025332589650680679 -0.03059475849150926 0 -0.025520593949362635 -0.03112973759331384 0 -0.025009287117963699 -0.030761082202309359 0 -0.025128376816007918 -0.030131510643958168 0 -0.025332589650680679 -0.03059475849150926 0 -0.025684232656222605 -0.0303862755888024 0 -0.025332589650680679 -0.03059475849150926 0 -0.025520593949362635 -0.03112973759331384 0 -0.024968324109041075 -0.030994592969467789 0 -0.025143742678151344 -0.031459057109508949 0 -0.024627746434830164 -0.033037113820553923 0 -0.025204028357254375 -0.03163886108447965 0 -0.025297661193382469 -0.03202279426525631 0 -0.025614666056293974 -0.031400839693780068 0 -0.025204028357254375 -0.03163886108447965 0 -0.025297661193382469 -0.03202279426525631 0 -0.024771183190318114 -0.031923320646657975 0 -0.025297661193382469 -0.03202279426525631 0 -0.024771183190318114 -0.031923320646657975 0 -0.025027741690317552 -0.032445409461337713 0 -0.025297661193382469 -0.03202279426525631 0 -0.025027741690317552 -0.032445409461337713 0 -0.025239856080286335 -0.032557738874049148 0 -0.026766492138851988 -0.032600733352865341 0 -0.026872940689086047 -0.03209084997760054 0 -0.027047619792461224 -0.032173040957802997 0 -0.026376459631261544 -0.032569669296998449 0 -0.026221480980322381 -0.031734370047761064 0 -0.025297661193382469 -0.03202279426525631 0 -0.025974256603597982 -0.032439444587492483 0 -0.025614666056293974 -0.031400839693780068 0 -0.025297661193382469 -0.03202279426525631 0 -0.025974256603597982 -0.032439444587492483 0 -0.025239856080286335 -0.032557738874049148 0 -0.02716015245217045 -0.032384513883890874 0 -0.027279470842646529 -0.031964648271509882 0 -0.027710100872958398 -0.032237047082143762 0 -0.026766492138851988 -0.032600733352865341 0 -0.02716015245217045 -0.032384513883890874 0 -0.027000900159690564 -0.032920441147494754 0 -0.026766492138851988 -0.032600733352865341 0 -0.02716015245217045 -0.032384513883890874 0 -0.027047619792461224 -0.032173040957802997 0 -0.02716015245217045 -0.032384513883890874 0 -0.027279470842646529 -0.031964648271509882 0 -0.027047619792461224 -0.032173040957802997 0 -0.027279470842646529 -0.031964648271509882 0 -0.027179388769828814 -0.031794442648394997 0 -0.027047619792461224 -0.032173040957802997 0 -0.027348296154213813 -0.031640624672776632 0 -0.027279470842646529 -0.031964648271509882 0 -0.027496032422358551 -0.031695234784954403 0 -0.027348296154213813 -0.031640624672776632 0 -0.027279470842646529 -0.031964648271509882 0 -0.027179388769828814 -0.031794442648394997 0 -0.026965946978480697 -0.031425249095655305 0 -0.027179388769828814 -0.031794442648394997 0 -0.026872940689086047 -0.03209084997760054 0 -0.027179388769828814 -0.031794442648394997 0 -0.026872940689086047 -0.03209084997760054 0 -0.027047619792461224 -0.032173040957802997 0 -0.022590001155427353 -0.034136909733746897 0 -0.024981540978126236 -0.033300629931203377 0 -0.023052615163375027 -0.031623908208281606 0 -0.022620042750229 -0.031488019053067348 0 -0.02254187751626531 -0.032404481555227661 0 -0.022442159861622471 -0.035829289698800441 0 -0.022618232588435608 -0.035969278031996191 0 -0.022515992554830985 -0.03592245152726993 0 -0.027279470842646529 -0.031964648271509882 0 -0.027710100872958398 -0.032237047082143762 0 -0.027496032422358551 -0.031695234784954403 0 -0.027769154013879208 -0.031736364304962371 0 -0.027710100872958398 -0.032237047082143762 0 -0.027496032422358551 -0.031695234784954403 0 -0.025136015114248938 -0.031711587253849101 0 -0.024981540978126236 -0.033300629931203377 0 -0.02716015245217045 -0.032384513883890874 0 -0.027710100872958398 -0.032237047082143762 0 -0.027000900159690564 -0.032920441147494754 0 -0.024981540978126236 -0.033300629931203377 0 -0.027777395445948094 -0.032306963314017993 0 -0.024981540978126236 -0.033300629931203377 0 -0.02499246242268716 -0.034717814286335462 0 -0.022586776806123057 -0.035932464394952401 0 -0.022618232588435608 -0.035969278031996191 0 -0.022775095342008569 -0.03599944613473955 0 -0.022442159861622471 -0.035829289698800441 0 -0.022586776806123057 -0.035932464394952401 0 -0.022618232588435608 -0.035969278031996191 0 -0.022525886126362017 -0.03600941163010106 0 -0.022515992554830985 -0.03592245152726993 0 -0.022612589956549481 -0.036009181890436302 0 -0.022618232588435608 -0.035969278031996191 0 -0.022515992554830985 -0.03592245152726993 0 -0.022612589956549481 -0.036009181890436302 0 -0.022525886126362017 -0.03600941163010106 0 -0.022516438382642782 -0.035839774422516617 0 -0.022405984656121213 -0.036121847027818302 0 -0.022525886126362017 -0.03600941163010106 0 -0.022405984656121213 -0.036121847027818302 0 -0.022551216815723172 -0.036037217571700662 0 -0.019285131187271001 -0.032288514481617653 0 -0.019301954407431512 -0.032502815256940626 0 -0.022516438382642782 -0.035839774422516617 0 -0.022515992554830985 -0.03592245152726993 0 -0.02245585903509429 -0.035791882987362182 0 -0.022525886126362017 -0.03600941163010106 0 -0.022516438382642782 -0.035839774422516617 0 -0.022515992554830985 -0.03592245152726993 0 -0.022442159861622471 -0.035829289698800441 0 -0.022515992554830985 -0.03592245152726993 0 -0.02245585903509429 -0.035791882987362182 0 -0.016061488307747639 -0.028288155045840622 0 -0.015794866259564007 -0.027836454113000404 0 -0.016032511961713194 -0.02777163833025157 0 -0.019285131187271001 -0.032288514481617653 0 -0.01947042660997203 -0.030301997159383278 0 -0.022516438382642782 -0.035839774422516617 0 -0.02245585903509429 -0.035791882987362182 0 -0.02236496308337908 -0.035543822115722525 0 -0.016061488307747639 -0.028288155045840622 0 -0.016239317622168126 -0.027796030501179431 0 -0.016500801072904182 -0.028049145025201564 0 -0.016061488307747639 -0.028288155045840622 0 -0.016032511961713194 -0.02777163833025157 0 -0.016239317622168126 -0.027796030501179431 0 -0.016032511961713194 -0.02777163833025157 0 -0.016239317622168126 -0.027796030501179431 0 -0.016189362413818843 -0.02750617781725069 0 -0.016239317622168126 -0.027796030501179431 0 -0.016189362413818843 -0.02750617781725069 0 -0.016474246705119874 -0.027390391430835836 0 -0.016032511961713194 -0.02777163833025157 0 -0.016189362413818843 -0.02750617781725069 0 -0.01593513624801746 -0.027422517816560119 0 -0.016265636263680487 -0.02711784935825854 0 -0.015898852841950004 -0.027424281225674824 0 -0.01593513624801746 -0.027422517816560119 0 -0.016265636263680487 -0.02711784935825854 0 -0.016175676401828872 -0.026964277425197632 0 -0.016198518020013625 -0.026974945681156649 0 -0.016189362413818843 -0.02750617781725069 0 -0.016265636263680487 -0.02711784935825854 0 -0.01593513624801746 -0.027422517816560119 0 -0.016417967816087169 -0.027074514650658778 0 -0.015586678673528101 -0.027381775368807714 0 -0.016189362413818843 -0.02750617781725069 0 -0.016265636263680487 -0.02711784935825854 0 -0.016474246705119874 -0.027390391430835836 0 -0.01947042660997203 -0.030301997159383278 0 -0.016191252017511377 -0.027602121728664109 0 -0.015959340776705321 -0.027415196823918162 0 -0.015898852841950004 -0.027424281225674824 0 -0.016009909106455049 -0.027442927437721077 0 -0.015959340776705321 -0.027415196823918162 0 -0.015898852841950004 -0.027424281225674824 0 -0.01593513624801746 -0.027422517816560119 0 -0.015794866259564007 -0.027836454113000404 0 -0.016032511961713194 -0.02777163833025157 0 -0.01593513624801746 -0.027422517816560119 0 -0.016175676401828872 -0.026964277425197632 0 -0.016198518020013625 -0.026974945681156649 0 -0.01616321492757054 -0.026919388488307511 0 -0.016175676401828872 -0.026964277425197632 0 -0.01614819039940572 -0.026940424437032352 0 -0.01616321492757054 -0.026919388488307511 0 -0.016175676401828872 -0.026964277425197632 0 -0.01614819039940572 -0.026940424437032352 0 -0.016124868750025084 -0.026975509554673701 0 -0.015586678673528101 -0.027381775368807714 0 -0.019673087225223651 -0.028085517387317124 0 -0.01614819039940572 -0.026940424437032352 0 -0.016124868750025084 -0.026975509554673701 0 -0.016127173966551764 -0.02690403555761994 0 -0.016082823156157139 -0.026925257708396683 0 -0.016124868750025084 -0.026975509554673701 0 -0.016127173966551764 -0.02690403555761994 0 -0.026709024578637185 -0.027712353542602867 0 -0.027269126144689917 -0.029626090370983151 0 -0.026709024578637185 -0.027712353542602867 0 -0.019673087225223651 -0.028085517387317124 0 -0.025104195422453086 -0.029303957020799548 0 -0.025258431693643665 -0.028041149337831684 0 -0.024156074121884533 -0.028375862472516375 0 -0.022721393477807425 -0.030585746472161331 0 -0.023158370162222091 -0.030445909882637123 0 -0.023143531028566793 -0.030758990572333882 0 -0.027269126144689917 -0.029626090370983151 0 -0.019673087225223651 -0.028085517387317124 0 -0.023554402621814838 -0.030853801639837614 0 -0.023158370162222091 -0.030445909882637123 0 -0.023143531028566793 -0.030758990572333882 0 -0.01947042660997203 -0.030301997159383278 0 -0.019673087225223651 -0.028085517387317124 0 -0.022442159861622471 -0.035829289698800441 0 -0.02245585903509429 -0.035791882987362182 0 -0.02236496308337908 -0.035543822115722525 0 -0.022590001155427353 -0.034136909733746897 0 -0.01947042660997203 -0.030301997159383278 0 -0.022620042750229 -0.031488019053067348 0 -0.022721393477807425 -0.030585746472161331 0 -0.023033111046553315 -0.031071009212622555 0 -0.023052615163375027 -0.031623908208281606 0 -0.023554402621814838 -0.030853801639837614 0 -0.023033111046553315 -0.031071009212622555 0 -0.023554402621814838 -0.030853801639837614 0 -0.023143531028566793 -0.030758990572333882 0 -0.023033111046553315 -0.031071009212622555 0 -0.022721393477807425 -0.030585746472161331 0 -0.023143531028566793 -0.030758990572333882 0 -0.023033111046553315 -0.031071009212622555 0 -0.023052615163375027 -0.031623908208281606 0 -0.022620042750229 -0.031488019053067348 0 -0.023033111046553315 -0.031071009212622555 0 -0.025136015114248938 -0.031711587253849101 0 -0.027269126144689917 -0.029626090370983151 0 -0.027769154013879208 -0.031736364304962371 0 -0.027793503704801947 -0.031343796043507052 0 -0.027614801438753077 -0.031569869872046179 0 -0.027423300504592428 -0.031511357094251569 0 -0.027793503704801947 -0.031343796043507052 0 -0.027614801438753077 -0.031569869872046179 0 -0.029656659677721794 -0.030941987335877826 0 -0.027269126144689917 -0.029626090370983151 0 -0.027769154013879208 -0.031736364304962371 0 -0.027614801438753077 -0.031569869872046179 0 -0.027496032422358551 -0.031695234784954403 0 -0.027423300504592428 -0.031511357094251569 0 -0.027614801438753077 -0.031569869872046179 0 -0.027496032422358551 -0.031695234784954403 0 -0.030792638976193679 -0.030613428281012805 0 -0.033446208144660414 -0.029628193801635311 0 -0.032302986612088545 -0.028361361917855848 0 -0.033569150183820423 -0.028092950072976942 0 -0.033446208144660414 -0.029628193801635311 0 -0.032302986612088545 -0.028361361917855848 0 -0.031808329928497157 -0.025490638640656083 0 -0.030912320979946728 -0.028147096981684511 0 -0.033275663637891008 -0.026380002130032509 0 -0.033045770958844277 -0.027694113503439581 0 -0.032600986907211867 -0.02721797726799392 0 -0.033211633171890721 -0.026324271744762564 0 -0.031017071252400399 -0.02811544947297202 0 -0.03329004868457857 -0.02602898898737856 0 -0.030912320979946728 -0.028147096981684511 0 -0.032302986612088545 -0.028361361917855848 0 -0.032379903297796303 -0.026994288406383789 0 -0.032302986612088545 -0.028361361917855848 0 -0.032379903297796303 -0.026994288406383789 0 -0.032600986907211867 -0.02721797726799392 0 -0.033569150183820423 -0.028092950072976942 0 -0.032302986612088545 -0.028361361917855848 0 -0.032600986907211867 -0.02721797726799392 0 -0.026709024578637185 -0.027712353542602867 0 -0.031810989378863848 -0.029000097407220652 0 -0.033275663637891008 -0.026380002130032509 0 -0.035341962900547516 -0.024584221886922355 0 -0.033390323210932021 -0.024705382394572328 0 -0.03329004868457857 -0.02602898898737856 0 -0.027031834687223363 -0.025505421266141554 0 -0.032379903297796303 -0.026994288406383789 0 -0.032600986907211867 -0.02721797726799392 0 -0.033211633171890721 -0.026324271744762564 0 -0.031808329928497157 -0.025490638640656083 0 -0.033275663637891008 -0.026380002130032509 0 -0.033390323210932021 -0.024705382394572328 0 -0.026709024578637185 -0.027712353542602867 0 -0.027031834687223363 -0.025505421266141554 0 -0.016082823156157139 -0.026925257708396683 0 -0.016103212888482394 -0.026822722970527162 0 -0.016060204969869402 -0.026738705720707436 0 -0.016082823156157139 -0.026925257708396683 0 -0.016127173966551764 -0.02690403555761994 0 -0.016103212888482394 -0.026822722970527162 0 -0.016103212888482394 -0.026822722970527162 0 -0.016060204969869402 -0.026738705720707436 0 -0.016120047136917288 -0.026709884706467551 0 -0.016060204969869402 -0.026738705720707436 0 -0.016132543532969373 -0.026493602352368632 0 -0.016120047136917288 -0.026709884706467551 0 -0.035341962900547516 -0.024584221886922355 0 -0.033946660022065263 -0.022704287059321197 0 -0.035956203322292705 -0.019980585109283681 0 -0.027031834687223363 -0.025505421266141554 0 -0.02018181146485323 -0.024741744133175415 0 -0.032618518746250505 -0.023749436677668465 0 -0.033390323210932021 -0.024705382394572328 0 -0.033946660022065263 -0.022704287059321197 0 -0.031808329928497157 -0.025490638640656083 0 -0.032618518746250505 -0.023749436677668465 0 -0.033390323210932021 -0.024705382394572328 0 -0.035341962900547516 -0.024584221886922355 0 -0.033390323210932021 -0.024705382394572328 0 -0.033946660022065263 -0.022704287059321197 0 -0.032618518746250505 -0.023749436677668465 0 -0.033946660022065263 -0.022704287059321197 0 -0.032553863579239589 -0.022261254235031103 0 -0.032553863579239589 -0.022261254235031103 0 -0.032426553567222433 -0.02083361082506207 0 -0.03376633794868094 -0.020999834477035226 0 -0.033946660022065263 -0.022704287059321197 0 -0.03376633794868094 -0.020999834477035226 0 -0.035956203322292705 -0.019980585109283681 0 -0.032426553567222433 -0.02083361082506207 0 -0.03376633794868094 -0.020999834477035226 0 -0.033824398694279334 -0.019081478654905049 0 -0.031533947987985957 -0.019614672090948658 0 -0.032426553567222433 -0.02083361082506207 0 -0.033824398694279334 -0.019081478654905049 0 -0.03376633794868094 -0.020999834477035226 0 -0.035956203322292705 -0.019980585109283681 0 -0.033824398694279334 -0.019081478654905049 0 -0.033946660022065263 -0.022704287059321197 0 -0.032553863579239589 -0.022261254235031103 0 -0.03376633794868094 -0.020999834477035226 0 -0.024737607728096443 -0.023457412533697521 0 -0.024925390519247546 -0.021839721222450398 0 -0.025722307782895887 -0.022547222022740253 0 -0.027031834687223363 -0.025505421266141554 0 -0.030847193248857912 -0.020475458102459411 0 -0.030756340897484784 -0.018298921739517679 0 -0.030847193248857912 -0.020475458102459411 0 -0.025147184354032424 -0.020231604267664877 0 -0.024925390519247546 -0.021839721222450398 0 -0.025774389249380747 -0.021165444086931183 0 -0.036527805683534947 -0.015557660445781872 0 -0.035956203322292705 -0.019980585109283681 0 -0.033824398694279334 -0.019081478654905049 0 -0.036527805683534947 -0.015557660445781872 0 -0.032733484291481159 -0.017135280472709777 0 -0.033824398694279334 -0.019081478654905049 0 -0.031533947987985957 -0.019614672090948658 0 -0.032733484291481159 -0.017135280472709777 0 -0.033824398694279334 -0.019081478654905049 0 -0.027200571858640093 -0.020449563825895103 0 -0.026706615983108337 -0.021651582680441168 0 -0.026757452856090939 -0.02097129660400331 0 -0.016433698987852144 -0.025036077802735573 0 -0.016229590950018677 -0.025900620022375833 0 -0.016526917100828261 -0.025580072637682583 0 -0.021958708836532847 -0.022813426029120072 0 -0.020134753028240197 -0.024090201962480674 0 -0.026619673211981887 -0.021398920147865024 0 -0.026706615983108337 -0.021651582680441168 0 -0.026757452856090939 -0.02097129660400331 0 -0.026315442415648874 -0.021583756344760376 0 -0.026706615983108337 -0.021651582680441168 0 -0.026028525960190015 -0.021866484339170149 0 -0.026498850048925104 -0.021460858061138594 0 -0.026315442415648874 -0.021583756344760376 0 -0.026353344571406812 -0.021208587555491334 0 -0.026619673211981887 -0.021398920147865024 0 -0.026498850048925104 -0.021460858061138594 0 -0.026353344571406812 -0.021208587555491334 0 -0.026498850048925104 -0.021460858061138594 0 -0.026315442415648874 -0.021583756344760376 0 -0.026706615983108337 -0.021651582680441168 0 -0.026619673211981887 -0.021398920147865024 0 -0.026498850048925104 -0.021460858061138594 0 -0.026706615983108337 -0.021651582680441168 0 -0.016229590950018677 -0.025900620022375833 0 -0.016526917100828261 -0.025580072637682583 0 -0.01649330411592315 -0.025847457186625025 0 -0.026282451185284609 -0.020432079556655703 0 -0.026757452856090939 -0.02097129660400331 0 -0.026353344571406812 -0.021208587555491334 0 -0.026619673211981887 -0.021398920147865024 0 -0.026757452856090939 -0.02097129660400331 0 -0.026353344571406812 -0.021208587555491334 0 -0.024925390519247546 -0.021839721222450398 0 -0.025774389249380747 -0.021165444086931183 0 -0.026028525960190015 -0.021866484339170149 0 -0.026282451185284609 -0.020432079556655703 0 -0.026353344571406812 -0.021208587555491334 0 -0.025774389249380747 -0.021165444086931183 0 -0.026315442415648874 -0.021583756344760376 0 -0.025774389249380747 -0.021165444086931183 0 -0.026028525960190015 -0.021866484339170149 0 -0.026315442415648874 -0.021583756344760376 0 -0.026353344571406812 -0.021208587555491334 0 -0.025774389249380747 -0.021165444086931183 0 -0.026706615983108337 -0.021651582680441168 0 -0.026028525960190015 -0.021866484339170149 0 -0.025722307782895887 -0.022547222022740253 0 -0.024925390519247546 -0.021839721222450398 0 -0.026028525960190015 -0.021866484339170149 0 -0.025722307782895887 -0.022547222022740253 0 -0.020134753028240197 -0.024090201962480674 0 -0.02018181146485323 -0.024741744133175415 0 -0.016410861232559019 -0.02620807624046222 0 -0.016132543532969373 -0.026493602352368632 0 -0.016232780059222868 -0.026546733422453454 0 -0.016229590950018677 -0.025900620022375833 0 -0.016421363603558937 -0.026151277477606937 0 -0.016232780059222868 -0.026546733422453454 0 -0.020134753028240197 -0.024090201962480674 0 -0.015468605848332656 -0.027488793554341615 0 -0.016229590950018677 -0.025900620022375833 0 -0.016421363603558937 -0.026151277477606937 0 -0.01649330411592315 -0.025847457186625025 0 -0.016421363603558937 -0.026151277477606937 0 -0.016457453552731007 -0.026384905902329336 0 -0.016232780059222868 -0.026546733422453454 0 -0.016457453552731007 -0.026384905902329336 0 -0.016386923396621657 -0.026582052129886256 0 -0.016232780059222868 -0.026546733422453454 0 -0.016386923396621657 -0.026582052129886256 0 -0.016232780059222868 -0.026546733422453454 0 -0.016242464571017988 -0.026729724855212082 0 -0.016386923396621657 -0.026582052129886256 0 -0.016242464571017988 -0.026729724855212082 0 -0.016430295970456428 -0.026738371220387622 0 -0.016132543532969373 -0.026493602352368632 0 -0.016169795169126488 -0.026660086168712599 0 -0.016120047136917288 -0.026709884706467551 0 -0.016132543532969373 -0.026493602352368632 0 -0.016232780059222868 -0.026546733422453454 0 -0.016169795169126488 -0.026660086168712599 0 -0.016232780059222868 -0.026546733422453454 0 -0.016242464571017988 -0.026729724855212082 0 -0.016169795169126488 -0.026660086168712599 0 -0.016242464571017988 -0.026729724855212082 0 -0.016169795169126488 -0.026660086168712599 0 -0.016148145960855145 -0.026814212728037287 0 -0.016169795169126488 -0.026660086168712599 0 -0.016120047136917288 -0.026709884706467551 0 -0.016148145960855145 -0.026814212728037287 0 -0.016103212888482394 -0.026822722970527162 0 -0.016120047136917288 -0.026709884706467551 0 -0.016148145960855145 -0.026814212728037287 0 -0.016242464571017988 -0.026729724855212082 0 -0.016148145960855145 -0.026814212728037287 0 -0.01620538187738459 -0.026901617999633389 0 -0.01620538187738459 -0.026901617999633389 0 -0.016198518020013625 -0.026974945681156649 0 -0.01616321492757054 -0.026919388488307511 0 -0.016148145960855145 -0.026814212728037287 0 -0.01620538187738459 -0.026901617999633389 0 -0.01616321492757054 -0.026919388488307511 0 -0.016127173966551764 -0.02690403555761994 0 -0.016148145960855145 -0.026814212728037287 0 -0.01616321492757054 -0.026919388488307511 0 -0.01614819039940572 -0.026940424437032352 0 -0.016127173966551764 -0.02690403555761994 0 -0.01616321492757054 -0.026919388488307511 0 -0.016127173966551764 -0.02690403555761994 0 -0.016103212888482394 -0.026822722970527162 0 -0.016148145960855145 -0.026814212728037287 0 -0.016242464571017988 -0.026729724855212082 0 -0.016430295970456428 -0.026738371220387622 0 -0.016305676926717243 -0.026877413559752244 0 -0.016430295970456428 -0.026738371220387622 0 -0.016305676926717243 -0.026877413559752244 0 -0.016479063804553773 -0.026964345193656456 0 -0.016242464571017988 -0.026729724855212082 0 -0.01620538187738459 -0.026901617999633389 0 -0.016305676926717243 -0.026877413559752244 0 -0.016265636263680487 -0.02711784935825854 0 -0.01620538187738459 -0.026901617999633389 0 -0.016305676926717243 -0.026877413559752244 0 -0.016265636263680487 -0.02711784935825854 0 -0.01620538187738459 -0.026901617999633389 0 -0.016198518020013625 -0.026974945681156649 0 -0.016265636263680487 -0.02711784935825854 0 -0.016305676926717243 -0.026877413559752244 0 -0.016479063804553773 -0.026964345193656456 0 -0.016479063804553773 -0.026964345193656456 0 -0.01678428700052912 -0.026977043209928209 0 -0.016474246705119874 -0.027390391430835836 0 -0.016479063804553773 -0.026964345193656456 0 -0.016665682782689876 -0.026755338631328226 0 -0.01678428700052912 -0.026977043209928209 0 -0.016430295970456428 -0.026738371220387622 0 -0.016479063804553773 -0.026964345193656456 0 -0.016665682782689876 -0.026755338631328226 0 -0.016665682782689876 -0.026755338631328226 0 -0.01678428700052912 -0.026977043209928209 0 -0.01709881772309824 -0.026528247118686354 0 -0.01678428700052912 -0.026977043209928209 0 -0.01709881772309824 -0.026528247118686354 0 -0.017103530991658396 -0.02694037206288272 0 -0.01709881772309824 -0.026528247118686354 0 -0.016648695647476633 -0.026494415914750925 0 -0.016888817363520717 -0.026265080417038896 0 -0.016665682782689876 -0.026755338631328226 0 -0.01709881772309824 -0.026528247118686354 0 -0.016648695647476633 -0.026494415914750925 0 -0.016430295970456428 -0.026738371220387622 0 -0.016665682782689876 -0.026755338631328226 0 -0.016648695647476633 -0.026494415914750925 0 -0.016386923396621657 -0.026582052129886256 0 -0.016430295970456428 -0.026738371220387622 0 -0.016648695647476633 -0.026494415914750925 0 -0.016457453552731007 -0.026384905902329336 0 -0.016386923396621657 -0.026582052129886256 0 -0.016648695647476633 -0.026494415914750925 0 -0.016457453552731007 -0.026384905902329336 0 -0.016648695647476633 -0.026494415914750925 0 -0.016651882036965757 -0.026168390198712619 0 -0.016421363603558937 -0.026151277477606937 0 -0.016457453552731007 -0.026384905902329336 0 -0.016651882036965757 -0.026168390198712619 0 -0.016421363603558937 -0.026151277477606937 0 -0.016563662260415942 -0.026017869391022571 0 -0.01649330411592315 -0.025847457186625025 0 -0.016421363603558937 -0.026151277477606937 0 -0.016651882036965757 -0.026168390198712619 0 -0.016563662260415942 -0.026017869391022571 0 -0.016651882036965757 -0.026168390198712619 0 -0.016563662260415942 -0.026017869391022571 0 -0.016688095862811631 -0.025894934441827749 0 -0.016651882036965757 -0.026168390198712619 0 -0.01684622039236475 -0.025991022018506012 0 -0.016888817363520717 -0.026265080417038896 0 -0.016651882036965757 -0.026168390198712619 0 -0.01684622039236475 -0.025991022018506012 0 -0.016688095862811631 -0.025894934441827749 0 -0.016648695647476633 -0.026494415914750925 0 -0.016651882036965757 -0.026168390198712619 0 -0.016888817363520717 -0.026265080417038896 0 -0.016477171639389384 -0.025906834775181402 0 -0.015737778219150081 -0.024514001384817005 0 -0.016603146852494064 -0.025086313121620997 0 -0.016807785651875309 -0.026213461834312102 0 -0.01627897497134035 -0.025077315900850029 0 -0.01709881772309824 -0.026528247118686354 0 -0.016888817363520717 -0.026265080417038896 0 -0.017116360883993605 -0.025821358457551503 0 -0.01684622039236475 -0.025991022018506012 0 -0.016888817363520717 -0.026265080417038896 0 -0.017116360883993605 -0.025821358457551503 0 -0.017116360883993605 -0.025821358457551503 0 -0.017013497183448752 -0.025488120720850233 0 -0.016883761233653601 -0.025778041302112881 0 -0.017037410721101431 -0.024862602875452142 0 -0.017116360883993605 -0.025821358457551503 0 -0.017013497183448752 -0.025488120720850233 0 -0.015737778219150081 -0.024514001384817005 0 -0.016594031986574814 -0.024102428750382765 0 -0.016603146852494064 -0.025086313121620997 0 -0.01567042999343005 -0.023517228714492616 0 -0.015737778219150081 -0.024514001384817005 0 -0.016594031986574814 -0.024102428750382765 0 -0.016803153932746739 -0.025146717629590514 0 -0.017013497183448752 -0.025488120720850233 0 -0.0167121272970688 -0.025375257603966712 0 -0.017013497183448752 -0.025488120720850233 0 -0.016742002434883843 -0.025600074068704511 0 -0.0167121272970688 -0.025375257603966712 0 -0.017013497183448752 -0.025488120720850233 0 -0.016742002434883843 -0.025600074068704511 0 -0.016883761233653601 -0.025778041302112881 0 -0.016433698987852144 -0.025036077802735573 0 -0.0167121272970688 -0.025375257603966712 0 -0.016526917100828261 -0.025580072637682583 0 -0.016742002434883843 -0.025600074068704511 0 -0.0167121272970688 -0.025375257603966712 0 -0.016526917100828261 -0.025580072637682583 0 -0.016742002434883843 -0.025600074068704511 0 -0.016526917100828261 -0.025580072637682583 0 -0.016613102820482506 -0.025732706604108271 0 -0.016742002434883843 -0.025600074068704511 0 -0.016613102820482506 -0.025732706604108271 0 -0.016688095862811631 -0.025894934441827749 0 -0.016526917100828261 -0.025580072637682583 0 -0.016613102820482506 -0.025732706604108271 0 -0.01649330411592315 -0.025847457186625025 0 -0.016563662260415942 -0.026017869391022571 0 -0.01649330411592315 -0.025847457186625025 0 -0.016688095862811631 -0.025894934441827749 0 -0.016613102820482506 -0.025732706604108271 0 -0.01649330411592315 -0.025847457186625025 0 -0.016688095862811631 -0.025894934441827749 0 -0.01684622039236475 -0.025991022018506012 0 -0.017116360883993605 -0.025821358457551503 0 -0.016883761233653601 -0.025778041302112881 0 -0.016742002434883843 -0.025600074068704511 0 -0.016688095862811631 -0.025894934441827749 0 -0.016883761233653601 -0.025778041302112881 0 -0.01684622039236475 -0.025991022018506012 0 -0.016688095862811631 -0.025894934441827749 0 -0.016883761233653601 -0.025778041302112881 0 -0.016852832982087784 -0.023077924038882446 0 -0.016718150666849608 -0.023808145080642457 0 -0.017637766071112067 -0.023729846004644152 0 -0.016718150666849608 -0.023808145080642457 0 -0.0173844842807497 -0.024434024444101338 0 -0.017637766071112067 -0.023729846004644152 0 -0.016384828440834637 -0.023239190976527924 0 -0.016852832982087784 -0.023077924038882446 0 -0.016718150666849608 -0.023808145080642457 0 -0.016384828440834637 -0.023239190976527924 0 -0.016718150666849608 -0.023808145080642457 0 -0.015935716123061654 -0.023622826952126405 0 -0.016718150666849608 -0.023808145080642457 0 -0.015935716123061654 -0.023622826952126405 0 -0.016688440617463871 -0.024597624211398678 0 -0.016243583785675652 -0.023850661787341083 0 -0.01706631521923576 -0.024960697966685257 0 -0.016594031986574814 -0.024102428750382765 0 -0.016603146852494064 -0.025086313121620997 0 -0.017464015372377628 -0.025342259770066676 0 -0.016477171639389384 -0.025906834775181402 0 -0.016603146852494064 -0.025086313121620997 0 -0.017464015372377628 -0.025342259770066676 0 -0.016688440617463871 -0.024597624211398678 0 -0.0173844842807497 -0.024434024444101338 0 -0.017408961484612514 -0.025473791251241915 0 -0.016718150666849608 -0.023808145080642457 0 -0.016688440617463871 -0.024597624211398678 0 -0.0173844842807497 -0.024434024444101338 0 -0.01706631521923576 -0.024960697966685257 0 -0.017704480243713374 -0.025848401628315715 0 -0.017464015372377628 -0.025342259770066676 0 -0.017353750099668119 -0.026215393395202437 0 -0.017974546367653811 -0.026237800513066723 0 -0.016477171639389384 -0.025906834775181402 0 -0.017464015372377628 -0.025342259770066676 0 -0.017353750099668119 -0.026215393395202437 0 -0.016477171639389384 -0.025906834775181402 0 -0.017353750099668119 -0.026215393395202437 0 -0.017103530991658396 -0.02694037206288272 0 -0.016807785651875309 -0.026213461834312102 0 -0.017063588010463301 -0.026879190291726331 0 -0.017353750099668119 -0.026215393395202437 0 -0.017103530991658396 -0.02694037206288272 0 -0.017680768916453548 -0.026678432607728154 0 -0.017353750099668119 -0.026215393395202437 0 -0.017680768916453548 -0.026678432607728154 0 -0.017974546367653811 -0.026237800513066723 0 -0.017680768916453548 -0.026678432607728154 0 -0.017869662646364338 -0.027046910025576333 0 -0.01739703684559615 -0.02732698278134571 0 -0.017869662646364338 -0.027046910025576333 0 -0.017785969733276639 -0.027488421629998115 0 -0.01739703684559615 -0.02732698278134571 0 -0.017785969733276639 -0.027488421629998115 0 -0.01757254430468122 -0.027932855296528263 0 -0.01739703684559615 -0.02732698278134571 0 -0.017869662646364338 -0.027046910025576333 0 -0.017785969733276639 -0.027488421629998115 0 -0.018108182865524864 -0.027392915073137892 0 -0.017785969733276639 -0.027488421629998115 0 -0.01757254430468122 -0.027932855296528263 0 -0.018015284751215142 -0.02783702673719346 0 -0.01757254430468122 -0.027932855296528263 0 -0.017064718880593136 -0.027919378127952203 0 -0.01739703684559615 -0.02732698278134571 0 -0.017064718880593136 -0.027919378127952203 0 -0.01739703684559615 -0.02732698278134571 0 -0.016860912077628382 -0.027411826799597538 0 -0.017103530991658396 -0.02694037206288272 0 -0.017680768916453548 -0.026678432607728154 0 -0.01739703684559615 -0.02732698278134571 0 -0.017103530991658396 -0.02694037206288272 0 -0.01739703684559615 -0.02732698278134571 0 -0.016860912077628382 -0.027411826799597538 0 -0.01678428700052912 -0.026977043209928209 0 -0.016860912077628382 -0.027411826799597538 0 -0.016474246705119874 -0.027390391430835836 0 -0.01678428700052912 -0.026977043209928209 0 -0.017103530991658396 -0.02694037206288272 0 -0.016860912077628382 -0.027411826799597538 0 -0.016265636263680487 -0.02711784935825854 0 -0.016479063804553773 -0.026964345193656456 0 -0.016474246705119874 -0.027390391430835836 0 -0.016860912077628382 -0.027411826799597538 0 -0.016474246705119874 -0.027390391430835836 0 -0.016500801072904182 -0.028049145025201564 0 -0.016239317622168126 -0.027796030501179431 0 -0.016474246705119874 -0.027390391430835836 0 -0.016500801072904182 -0.028049145025201564 0 -0.017064718880593136 -0.027919378127952203 0 -0.016860912077628382 -0.027411826799597538 0 -0.016500801072904182 -0.028049145025201564 0 -0.016500801072904182 -0.028049145025201564 0 -0.016226648440437086 -0.028936341060494503 0 -0.016894359225650288 -0.028708621011614376 0 -0.017064718880593136 -0.027919378127952203 0 -0.016500801072904182 -0.028049145025201564 0 -0.016894359225650288 -0.028708621011614376 0 -0.016061488307747639 -0.028288155045840622 0 -0.016500801072904182 -0.028049145025201564 0 -0.016226648440437086 -0.028936341060494503 0 -0.016226648440437086 -0.028936341060494503 0 -0.016894359225650288 -0.028708621011614376 0 -0.016576392232793582 -0.030001546334288007 0 -0.016894359225650288 -0.028708621011614376 0 -0.017645172408511049 -0.028633713903069274 0 -0.017236462687341053 -0.029540247342330246 0 -0.016894359225650288 -0.028708621011614376 0 -0.017236462687341053 -0.029540247342330246 0 -0.016576392232793582 -0.030001546334288007 0 -0.017772307496763756 -0.029419662044723953 0 -0.017645172408511049 -0.028633713903069274 0 -0.017236462687341053 -0.029540247342330246 0 -0.018045024173677184 -0.028933767258009349 0 -0.018251379124227571 -0.0288979122971855 0 -0.01829660811214678 -0.029504760835748652 0 -0.017772307496763756 -0.029419662044723953 0 -0.018045024173677184 -0.028933767258009349 0 -0.01829660811214678 -0.029504760835748652 0 -0.018045024173677184 -0.028933767258009349 0 -0.017645172408511049 -0.028633713903069274 0 -0.018181969494460198 -0.028537346154721553 0 -0.017772307496763756 -0.029419662044723953 0 -0.018045024173677184 -0.028933767258009349 0 -0.017645172408511049 -0.028633713903069274 0 -0.01757254430468122 -0.027932855296528263 0 -0.017645172408511049 -0.028633713903069274 0 -0.017928080781876601 -0.028202284487581789 0 -0.01757254430468122 -0.027932855296528263 0 -0.017645172408511049 -0.028633713903069274 0 -0.017289874307659318 -0.028288992998836693 0 -0.017645172408511049 -0.028633713903069274 0 -0.017928080781876601 -0.028202284487581789 0 -0.018181969494460198 -0.028537346154721553 0 -0.01757254430468122 -0.027932855296528263 0 -0.017928080781876601 -0.028202284487581789 0 -0.018015284751215142 -0.02783702673719346 0 -0.01757254430468122 -0.027932855296528263 0 -0.017064718880593136 -0.027919378127952203 0 -0.017289874307659318 -0.028288992998836693 0 -0.016894359225650288 -0.028708621011614376 0 -0.017645172408511049 -0.028633713903069274 0 -0.017289874307659318 -0.028288992998836693 0 -0.017064718880593136 -0.027919378127952203 0 -0.016894359225650288 -0.028708621011614376 0 -0.017289874307659318 -0.028288992998836693 0 -0.019231683666594956 -0.033678383882624341 0 -0.019279456413277555 -0.033104474620822402 0 -0.017327590092519402 -0.031449815853725319 0 -0.017185760452695611 -0.030463363922390931 0 -0.016576392232793582 -0.030001546334288007 0 -0.021135499004572924 -0.035955668842480942 0 -0.021965510011218176 -0.03617273138846696 0 -0.021778326804915111 -0.035852043585228366 0 -0.017327590092519402 -0.031449815853725319 0 -0.017616211698076166 -0.030850502751666266 0 -0.017185760452695611 -0.030463363922390931 0 -0.017327590092519402 -0.031449815853725319 0 -0.017757211026209141 -0.031260233870904625 0 -0.017616211698076166 -0.030850502751666266 0 -0.017327590092519402 -0.031449815853725319 0 -0.017757211026209141 -0.031260233870904625 0 -0.017967632739321004 -0.03171958460124253 0 -0.017757211026209141 -0.031260233870904625 0 -0.018058393214060314 -0.03103472589785599 0 -0.017967632739321004 -0.03171958460124253 0 -0.017757211026209141 -0.031260233870904625 0 -0.018058393214060314 -0.03103472589785599 0 -0.017616211698076166 -0.030850502751666266 0 -0.018058393214060314 -0.03103472589785599 0 -0.017616211698076166 -0.030850502751666266 0 -0.018147648111460322 -0.030248280788865111 0 -0.017659783223935365 -0.030749919179614487 0 -0.01817269293377724 -0.029997115410613097 0 -0.017772307496763756 -0.029419662044723953 0 -0.017616211698076166 -0.030850502751666266 0 -0.017236462687341053 -0.029540247342330246 0 -0.017772307496763756 -0.029419662044723953 0 -0.017616211698076166 -0.030850502751666266 0 -0.01829660811214678 -0.029504760835748652 0 -0.017616211698076166 -0.030850502751666266 0 -0.017236462687341053 -0.029540247342330246 0 -0.017185760452695611 -0.030463363922390931 0 -0.017236462687341053 -0.029540247342330246 0 -0.017185760452695611 -0.030463363922390931 0 -0.016576392232793582 -0.030001546334288007 0 -0.019301954407431512 -0.032502815256940626 0 -0.019279456413277555 -0.033104474620822402 0 -0.022405984656121213 -0.036121847027818302 0 -0.021965510011218176 -0.03617273138846696 0 -0.02238842370009967 -0.036012081970747567 0 -0.022405984656121213 -0.036121847027818302 0 -0.02238842370009967 -0.036012081970747567 0 -0.022551216815723172 -0.036037217571700662 0 -0.02238842370009967 -0.036012081970747567 0 -0.022155004854294256 -0.035869896187232256 0 -0.022424368421275785 -0.035771700135978621 0 -0.021965510011218176 -0.03617273138846696 0 -0.02238842370009967 -0.036012081970747567 0 -0.022155004854294256 -0.035869896187232256 0 -0.021965510011218176 -0.03617273138846696 0 -0.022155004854294256 -0.035869896187232256 0 -0.021778326804915111 -0.035852043585228366 0 -0.02202697747968943 -0.035567711303823163 0 -0.021412620929704373 -0.035119190709296082 0 -0.021490320379426719 -0.035598837783385233 0 -0.021778326804915111 -0.035852043585228366 0 -0.02202697747968943 -0.035567711303823163 0 -0.021490320379426719 -0.035598837783385233 0 -0.022155004854294256 -0.035869896187232256 0 -0.021778326804915111 -0.035852043585228366 0 -0.02202697747968943 -0.035567711303823163 0 -0.022155004854294256 -0.035869896187232256 0 -0.02202697747968943 -0.035567711303823163 0 -0.022424368421275785 -0.035771700135978621 0 -0.02202697747968943 -0.035567711303823163 0 -0.022424368421275785 -0.035771700135978621 0 -0.022417186493130226 -0.035449422126782461 0 -0.022417186493130226 -0.035449422126782461 0 -0.021976452914497336 -0.035087942028425814 0 -0.022410899330589661 -0.034982425643580083 0 -0.022417186493130226 -0.035449422126782461 0 -0.022410899330589661 -0.034982425643580083 0 -0.022635155488653164 -0.035545877774464524 0 -0.02202697747968943 -0.035567711303823163 0 -0.021976452914497336 -0.035087942028425814 0 -0.021412620929704373 -0.035119190709296082 0 -0.02202697747968943 -0.035567711303823163 0 -0.022417186493130226 -0.035449422126782461 0 -0.021976452914497336 -0.035087942028425814 0 -0.021412620929704373 -0.035119190709296082 0 -0.020698764467229624 -0.034645985303657222 0 -0.02138014074483606 -0.034172450468411102 0 -0.021976452914497336 -0.035087942028425814 0 -0.021412620929704373 -0.035119190709296082 0 -0.02138014074483606 -0.034172450468411102 0 -0.021412620929704373 -0.035119190709296082 0 -0.020932515335909178 -0.03525613058355298 0 -0.020698764467229624 -0.034645985303657222 0 -0.021135499004572924 -0.035955668842480942 0 -0.020932515335909178 -0.03525613058355298 0 -0.021490320379426719 -0.035598837783385233 0 -0.021135499004572924 -0.035955668842480942 0 -0.021778326804915111 -0.035852043585228366 0 -0.021490320379426719 -0.035598837783385233 0 -0.021412620929704373 -0.035119190709296082 0 -0.020932515335909178 -0.03525613058355298 0 -0.021490320379426719 -0.035598837783385233 0 -0.021135499004572924 -0.035955668842480942 0 -0.020932515335909178 -0.03525613058355298 0 -0.019951728958617888 -0.035090291276875976 0 -0.019231683666594956 -0.033678383882624341 0 -0.019049303674363246 -0.033772683766890972 0 -0.017327590092519402 -0.031449815853725319 0 -0.017967632739321004 -0.03171958460124253 0 -0.018068557538444514 -0.032504921677485414 0 -0.020932515335909178 -0.03525613058355298 0 -0.020698764467229624 -0.034645985303657222 0 -0.019951728958617888 -0.035090291276875976 0 -0.020698764467229624 -0.034645985303657222 0 -0.019951728958617888 -0.035090291276875976 0 -0.019583459291736462 -0.033473494428958507 0 -0.019530584353486691 -0.037065575703701829 0 -0.01887515617394989 -0.036444439897242331 0 -0.018237020077268035 -0.036960292097039389 0 -0.020424477108827967 -0.035609895664337934 0 -0.018866581834032572 -0.035247172790067137 0 -0.020698764467229624 -0.034645985303657222 0 -0.02138014074483606 -0.034172450468411102 0 -0.019583459291736462 -0.033473494428958507 0 -0.019530584353486691 -0.037065575703701829 0 -0.01887515617394989 -0.036444439897242331 0 -0.019612439845877471 -0.036078418346676522 0 -0.01887515617394989 -0.036444439897242331 0 -0.018268964092402695 -0.036238641365693929 0 -0.018237020077268035 -0.036960292097039389 0 -0.01887515617394989 -0.036444439897242331 0 -0.018829041974000038 -0.035884187653793892 0 -0.018268964092402695 -0.036238641365693929 0 -0.018829041974000038 -0.035884187653793892 0 -0.018668204552917334 -0.035541541624658723 0 -0.018228355156463903 -0.035573595888082198 0 -0.018829041974000038 -0.035884187653793892 0 -0.018268964092402695 -0.036238641365693929 0 -0.018228355156463903 -0.035573595888082198 0 -0.018829041974000038 -0.035884187653793892 0 -0.019156870503491658 -0.035542979258243797 0 -0.018668204552917334 -0.035541541624658723 0 -0.018829041974000038 -0.035884187653793892 0 -0.019612439845877471 -0.036078418346676522 0 -0.019156870503491658 -0.035542979258243797 0 -0.019612439845877471 -0.036078418346676522 0 -0.019156870503491658 -0.035542979258243797 0 -0.020225744254734404 -0.035531853176190488 0 -0.01887515617394989 -0.036444439897242331 0 -0.018829041974000038 -0.035884187653793892 0 -0.019612439845877471 -0.036078418346676522 0 -0.019156870503491658 -0.035542979258243797 0 -0.018880071415108342 -0.034999823220276657 0 -0.020225744254734404 -0.035531853176190488 0 -0.019156870503491658 -0.035542979258243797 0 -0.018601134327463093 -0.035177109716889234 0 -0.018668204552917334 -0.035541541624658723 0 -0.019156870503491658 -0.035542979258243797 0 -0.018880071415108342 -0.034999823220276657 0 -0.018601134327463093 -0.035177109716889234 0 -0.018880071415108342 -0.034999823220276657 0 -0.018601134327463093 -0.035177109716889234 0 -0.016818817435998185 -0.034999962530169855 0 -0.018601134327463093 -0.035177109716889234 0 -0.016818817435998185 -0.034999962530169855 0 -0.017160328940046161 -0.035993529982797041 0 -0.018559826615537456 -0.035221768875802452 0 -0.017682199276847329 -0.035774584580276506 0 -0.018601134327463093 -0.035177109716889234 0 -0.018668204552917334 -0.035541541624658723 0 -0.018228355156463903 -0.035573595888082198 0 -0.020939093108003203 -0.03500000619075784 0 -0.021496232552642634 -0.035532228398576844 0 -0.020940928215276659 -0.034999690818548382 0 -0.02190994370751909 -0.035567536930492784 0 -0.022818694776139629 -0.03499959447095894 0 -0.020937662246450911 -0.03499949235342914 0 -0.020225744254734404 -0.035531853176190488 0 -0.021122642368484341 -0.03559391769028037 0 -0.018880071415108342 -0.034999823220276657 0 -0.020937662246450911 -0.03499949235342914 0 -0.020225744254734404 -0.035531853176190488 0 -0.019612439845877471 -0.036078418346676522 0 -0.020225744254734404 -0.035531853176190488 0 -0.020658460207655251 -0.036151529626204576 0 -0.021122642368484341 -0.03559391769028037 0 -0.020658460207655251 -0.036151529626204576 0 -0.021631295006253649 -0.036029602781351568 0 -0.020225744254734404 -0.035531853176190488 0 -0.021122642368484341 -0.03559391769028037 0 -0.020658460207655251 -0.036151529626204576 0 -0.020658460207655251 -0.036151529626204576 0 -0.021073155214122626 -0.036881287510596078 0 -0.021631295006253649 -0.036029602781351568 0 -0.019530584353486691 -0.037065575703701829 0 -0.019612439845877471 -0.036078418346676522 0 -0.020658460207655251 -0.036151529626204576 0 -0.020424477108827967 -0.035609895664337934 0 -0.021683166573066116 -0.035909560708023848 0 -0.019530584353486691 -0.037065575703701829 0 -0.020658460207655251 -0.036151529626204576 0 -0.021073155214122626 -0.036881287510596078 0 -0.021976452914497336 -0.035087942028425814 0 -0.02138014074483606 -0.034172450468411102 0 -0.022410899330589661 -0.034982425643580083 0 -0.022410899330589661 -0.034982425643580083 0 -0.022769137451510889 -0.0359715028314102 0 -0.022635155488653164 -0.035545877774464524 0 -0.021073155214122626 -0.036881287510596078 0 -0.022364147830762088 -0.036144983778163255 0 -0.022769137451510889 -0.0359715028314102 0 -0.021073155214122626 -0.036881287510596078 0 -0.022364147830762088 -0.036144983778163255 0 -0.021631295006253649 -0.036029602781351568 0 -0.021683166573066116 -0.035909560708023848 0 -0.022632999528650066 -0.035971821744494557 0 -0.022769137451510889 -0.0359715028314102 0 -0.022751394489638619 -0.035772860438793866 0 -0.022635155488653164 -0.035545877774464524 0 -0.02288565449249742 -0.035911371863995872 0 -0.022842625098626002 -0.035876209576489279 0 -0.022999224095153665 -0.035858439962315983 0 -0.02288565449249742 -0.035911371863995872 0 -0.022769137451510889 -0.0359715028314102 0 -0.022842625098626002 -0.035876209576489279 0 -0.02288565449249742 -0.035911371863995872 0 -0.022769137451510889 -0.0359715028314102 0 -0.022751394489638619 -0.035772860438793866 0 -0.022769137451510889 -0.0359715028314102 0 -0.022842625098626002 -0.035876209576489279 0 -0.022692473826282426 -0.035825863731897514 0 -0.022364147830762088 -0.036144983778163255 0 -0.022769137451510889 -0.0359715028314102 0 -0.022692473826282426 -0.035825863731897514 0 -0.022842625098626002 -0.035876209576489279 0 -0.02296971048646762 -0.0357378386460738 0 -0.022999224095153665 -0.035858439962315983 0 -0.022842625098626002 -0.035876209576489279 0 -0.02296971048646762 -0.0357378386460738 0 -0.022692473826282426 -0.035825863731897514 0 -0.0228243000348393 -0.035572545716419136 0 -0.022312537152509176 -0.035689916993747399 0 -0.022709988254910225 -0.035399338039064213 0 -0.022692473826282426 -0.035825863731897514 0 -0.0228243000348393 -0.035572545716419136 0 -0.022312537152509176 -0.035689916993747399 0 -0.02296971048646762 -0.0357378386460738 0 -0.0228243000348393 -0.035572545716419136 0 -0.023164239343663233 -0.035544946358394808 0 -0.02296971048646762 -0.0357378386460738 0 -0.022692473826282426 -0.035825863731897514 0 -0.0228243000348393 -0.035572545716419136 0 -0.0228243000348393 -0.035572545716419136 0 -0.023027701241082527 -0.035380386967234549 0 -0.023164239343663233 -0.035544946358394808 0 -0.022319104562859932 -0.036184522592140014 0 -0.02198373558182113 -0.035894378273080563 0 -0.022364147830762088 -0.036144983778163255 0 -0.022692473826282426 -0.035825863731897514 0 -0.022312537152509176 -0.035689916993747399 0 -0.02190994370751909 -0.035567536930492784 0 -0.022312537152509176 -0.035689916993747399 0 -0.022709988254910225 -0.035399338039064213 0 -0.021496232552642634 -0.035532228398576844 0 -0.02198373558182113 -0.035894378273080563 0 -0.022709988254910225 -0.035399338039064213 0 -0.023098920198990441 -0.03514566280696288 0 -0.023027701241082527 -0.035380386967234549 0 -0.0228243000348393 -0.035572545716419136 0 -0.022709988254910225 -0.035399338039064213 0 -0.023027701241082527 -0.035380386967234549 0 -0.022709988254910225 -0.035399338039064213 0 -0.022818694776139629 -0.03499959447095894 0 -0.023098920198990441 -0.03514566280696288 0 -0.022820780106116653 -0.035000102934016349 0 -0.023808158638098084 -0.035660595412470637 0 -0.022820610929343815 -0.035000022224933459 0 -0.024690708919241456 -0.034999933766749682 0 -0.02444737515260352 -0.036203865985187988 0 -0.02190994370751909 -0.035567536930492784 0 -0.022709988254910225 -0.035399338039064213 0 -0.022818694776139629 -0.03499959447095894 0 -0.02570797394038803 -0.035866281147656554 0 -0.024690708919241456 -0.034999933766749682 0 -0.026560402219215087 -0.034999968428993257 0 -0.02570797394038803 -0.035866281147656554 0 -0.024690708919241456 -0.034999933766749682 0 -0.02444737515260352 -0.036203865985187988 0 -0.023098920198990441 -0.03514566280696288 0 -0.024155750013593952 -0.035223720037274781 0 -0.023421242876153908 -0.035351021196264959 0 -0.023098920198990441 -0.03514566280696288 0 -0.023027701241082527 -0.035380386967234549 0 -0.023421242876153908 -0.035351021196264959 0 -0.02444737515260352 -0.036203865985187988 0 -0.025897701621753547 -0.036539499437679077 0 -0.026218407575377849 -0.03709303995867335 0 -0.023808158638098084 -0.035660595412470637 0 -0.025163340350597408 -0.03613217131084373 0 -0.02570797394038803 -0.035866281147656554 0 -0.02444737515260352 -0.036203865985187988 0 -0.025897701621753547 -0.036539499437679077 0 -0.02570797394038803 -0.035866281147656554 0 -0.025897701621753547 -0.036539499437679077 0 -0.026565222176522168 -0.036341140607433993 0 -0.025897701621753547 -0.036539499437679077 0 -0.026165902113785514 -0.037061925378534241 0 -0.026565222176522168 -0.036341140607433993 0 -0.025897701621753547 -0.036539499437679077 0 -0.026218407575377849 -0.03709303995867335 0 -0.026165902113785514 -0.037061925378534241 0 -0.024155750013593952 -0.035223720037274781 0 -0.023756700309509625 -0.035409735667209806 0 -0.02399946383793658 -0.035394987342297048 0 -0.024155750013593952 -0.035223720037274781 0 -0.023756700309509625 -0.035409735667209806 0 -0.023421242876153908 -0.035351021196264959 0 -0.024155750013593952 -0.035223720037274781 0 -0.024346233763127962 -0.03545165785135794 0 -0.02399946383793658 -0.035394987342297048 0 -0.023756700309509625 -0.035409735667209806 0 -0.023807193004510292 -0.035539424532625444 0 -0.02399946383793658 -0.035394987342297048 0 -0.023807193004510292 -0.035539424532625444 0 -0.023520633268347434 -0.035754265558744239 0 -0.024520868317895232 -0.035624354895701774 0 -0.023756700309509625 -0.035409735667209806 0 -0.023807193004510292 -0.035539424532625444 0 -0.023453639154532597 -0.035541498075387326 0 -0.023807193004510292 -0.035539424532625444 0 -0.023453639154532597 -0.035541498075387326 0 -0.023520633268347434 -0.035754265558744239 0 -0.023807193004510292 -0.035539424532625444 0 -0.024346233763127962 -0.03545165785135794 0 -0.024520868317895232 -0.035624354895701774 0 -0.023807193004510292 -0.035539424532625444 0 -0.024346233763127962 -0.03545165785135794 0 -0.02399946383793658 -0.035394987342297048 0 -0.023027701241082527 -0.035380386967234549 0 -0.023164239343663233 -0.035544946358394808 0 -0.023421242876153908 -0.035351021196264959 0 -0.023164239343663233 -0.035544946358394808 0 -0.023421242876153908 -0.035351021196264959 0 -0.023453639154532597 -0.035541498075387326 0 -0.023756700309509625 -0.035409735667209806 0 -0.023421242876153908 -0.035351021196264959 0 -0.023453639154532597 -0.035541498075387326 0 -0.023164239343663233 -0.035544946358394808 0 -0.023453639154532597 -0.035541498075387326 0 -0.023252416684329959 -0.035725287987201947 0 -0.023453639154532597 -0.035541498075387326 0 -0.023252416684329959 -0.035725287987201947 0 -0.023520633268347434 -0.035754265558744239 0 -0.02296971048646762 -0.0357378386460738 0 -0.023164239343663233 -0.035544946358394808 0 -0.023252416684329959 -0.035725287987201947 0 -0.02296971048646762 -0.0357378386460738 0 -0.022999224095153665 -0.035858439962315983 0 -0.023252416684329959 -0.035725287987201947 0 -0.022999224095153665 -0.035858439962315983 0 -0.023252416684329959 -0.035725287987201947 0 -0.0232327465236692 -0.0358621642820788 0 -0.0232327465236692 -0.0358621642820788 0 -0.023520633268347434 -0.035754265558744239 0 -0.023510519570756928 -0.035934984908639417 0 -0.023252416684329959 -0.035725287987201947 0 -0.0232327465236692 -0.0358621642820788 0 -0.023520633268347434 -0.035754265558744239 0 -0.0232327465236692 -0.0358621642820788 0 -0.023510519570756928 -0.035934984908639417 0 -0.023046509137162996 -0.035943021019616238 0 -0.022999224095153665 -0.035858439962315983 0 -0.0232327465236692 -0.0358621642820788 0 -0.023046509137162996 -0.035943021019616238 0 -0.02288565449249742 -0.035911371863995872 0 -0.022999224095153665 -0.035858439962315983 0 -0.023046509137162996 -0.035943021019616238 0 -0.024751941608550845 -0.03564794244633486 0 -0.024594599006645724 -0.035501773077913586 0 -0.023510519570756928 -0.035934984908639417 0 -0.023483010277017446 -0.03608002137914032 0 -0.024520868317895232 -0.035624354895701774 0 -0.023520633268347434 -0.035754265558744239 0 -0.023510519570756928 -0.035934984908639417 0 -0.024520868317895232 -0.035624354895701774 0 -0.023510519570756928 -0.035934984908639417 0 -0.023483010277017446 -0.03608002137914032 0 -0.02317984666228378 -0.036039835762381255 0 -0.024751941608550845 -0.03564794244633486 0 -0.024949591258554303 -0.035075438655071331 0 -0.02317984666228378 -0.036039835762381255 0 -0.023036805835466266 -0.036037514802228117 0 -0.022952944213621269 -0.036011085174756208 0 -0.023483010277017446 -0.03608002137914032 0 -0.02317984666228378 -0.036039835762381255 0 -0.023036805835466266 -0.036037514802228117 0 -0.02317984666228378 -0.036039835762381255 0 -0.022952944213621269 -0.036011085174756208 0 -0.022944815909603136 -0.035961999084215608 0 -0.022952944213621269 -0.036011085174756208 0 -0.022944815909603136 -0.035961999084215608 0 -0.022820997652492899 -0.03596319397948991 0 -0.022944815909603136 -0.035961999084215608 0 -0.023046509137162996 -0.035943021019616238 0 -0.022830746736650864 -0.035856423385960123 0 -0.023510519570756928 -0.035934984908639417 0 -0.02317984666228378 -0.036039835762381255 0 -0.023046509137162996 -0.035943021019616238 0 -0.02317984666228378 -0.036039835762381255 0 -0.022944815909603136 -0.035961999084215608 0 -0.023046509137162996 -0.035943021019616238 0 -0.02288565449249742 -0.035911371863995872 0 -0.023046509137162996 -0.035943021019616238 0 -0.022830746736650864 -0.035856423385960123 0 -0.02288565449249742 -0.035911371863995872 0 -0.022830746736650864 -0.035856423385960123 0 -0.022751394489638619 -0.035772860438793866 0 -0.022830746736650864 -0.035856423385960123 0 -0.022678591980130863 -0.035727911703544411 0 -0.022790756078167457 -0.035880009242753183 0 -0.022830746736650864 -0.035856423385960123 0 -0.022751394489638619 -0.035772860438793866 0 -0.022678591980130863 -0.035727911703544411 0 -0.022944815909603136 -0.035961999084215608 0 -0.022830746736650864 -0.035856423385960123 0 -0.022790756078167457 -0.035880009242753183 0 -0.022417186493130226 -0.035449422126782461 0 -0.022635155488653164 -0.035545877774464524 0 -0.022678591980130863 -0.035727911703544411 0 -0.022751394489638619 -0.035772860438793866 0 -0.022635155488653164 -0.035545877774464524 0 -0.022678591980130863 -0.035727911703544411 0 -0.022424368421275785 -0.035771700135978621 0 -0.022417186493130226 -0.035449422126782461 0 -0.022678591980130863 -0.035727911703544411 0 -0.022678591980130863 -0.035727911703544411 0 -0.022790756078167457 -0.035880009242753183 0 -0.022649150611418697 -0.035924084124940067 0 -0.022424368421275785 -0.035771700135978621 0 -0.022678591980130863 -0.035727911703544411 0 -0.022649150611418697 -0.035924084124940067 0 -0.022790756078167457 -0.035880009242753183 0 -0.022820997652492899 -0.03596319397948991 0 -0.022649150611418697 -0.035924084124940067 0 -0.022944815909603136 -0.035961999084215608 0 -0.022790756078167457 -0.035880009242753183 0 -0.022820997652492899 -0.03596319397948991 0 -0.022712697883897067 -0.036003124763814662 0 -0.022649150611418697 -0.035924084124940067 0 -0.022551216815723172 -0.036037217571700662 0 -0.022820997652492899 -0.03596319397948991 0 -0.022712697883897067 -0.036003124763814662 0 -0.022649150611418697 -0.035924084124940067 0 -0.022820997652492899 -0.03596319397948991 0 -0.022712697883897067 -0.036003124763814662 0 -0.022834673681613075 -0.036006950461478414 0 -0.02238842370009967 -0.036012081970747567 0 -0.022424368421275785 -0.035771700135978621 0 -0.022649150611418697 -0.035924084124940067 0 -0.02238842370009967 -0.036012081970747567 0 -0.022649150611418697 -0.035924084124940067 0 -0.022551216815723172 -0.036037217571700662 0 -0.022525886126362017 -0.03600941163010106 0 -0.022551216815723172 -0.036037217571700662 0 -0.022612589956549481 -0.036009181890436302 0 -0.022712697883897067 -0.036003124763814662 0 -0.022612589956549481 -0.036009181890436302 0 -0.02273765474370994 -0.036005576124008468 0 -0.022712697883897067 -0.036003124763814662 0 -0.022551216815723172 -0.036037217571700662 0 -0.022612589956549481 -0.036009181890436302 0 -0.022618232588435608 -0.035969278031996191 0 -0.022612589956549481 -0.036009181890436302 0 -0.02273765474370994 -0.036005576124008468 0 -0.02273765474370994 -0.036005576124008468 0 -0.022775095342008569 -0.03599944613473955 0 -0.022868964869385947 -0.036016411839363063 0 -0.022618232588435608 -0.035969278031996191 0 -0.02273765474370994 -0.036005576124008468 0 -0.022775095342008569 -0.03599944613473955 0 -0.027286344350163382 -0.032517560585578933 0 -0.027266522402912139 -0.033068869731136132 0 -0.027000900159690564 -0.032920441147494754 0 -0.027266522402912139 -0.033068869731136132 0 -0.026888868818120665 -0.033410141374889166 0 -0.027000900159690564 -0.032920441147494754 0 -0.02686785785234996 -0.034266126826152814 0 -0.027266522402912139 -0.033068869731136132 0 -0.026888868818120665 -0.033410141374889166 0 -0.024949591258554303 -0.035075438655071331 0 -0.02499246242268716 -0.034717814286335462 0 -0.023036805835466266 -0.036037514802228117 0 -0.022775095342008569 -0.03599944613473955 0 -0.022868964869385947 -0.036016411839363063 0 -0.023036805835466266 -0.036037514802228117 0 -0.022952944213621269 -0.036011085174756208 0 -0.022868964869385947 -0.036016411839363063 0 -0.022952944213621269 -0.036011085174756208 0 -0.022834673681613075 -0.036006950461478414 0 -0.022868964869385947 -0.036016411839363063 0 -0.022952944213621269 -0.036011085174756208 0 -0.022820997652492899 -0.03596319397948991 0 -0.022834673681613075 -0.036006950461478414 0 -0.022712697883897067 -0.036003124763814662 0 -0.02273765474370994 -0.036005576124008468 0 -0.022834673681613075 -0.036006950461478414 0 -0.02273765474370994 -0.036005576124008468 0 -0.022834673681613075 -0.036006950461478414 0 -0.022868964869385947 -0.036016411839363063 0 -0.02586165428354421 -0.033565726430393218 0 -0.025426250468982482 -0.034004676778697826 0 -0.025512503820220956 -0.033219452610302076 0 -0.025426250468982482 -0.034004676778697826 0 -0.025512503820220956 -0.033219452610302076 0 -0.025148080387753968 -0.033565544263907322 0 -0.02586165428354421 -0.033565726430393218 0 -0.025426250468982482 -0.034004676778697826 0 -0.026020398850331007 -0.034190906324647337 0 -0.02586165428354421 -0.033565726430393218 0 -0.026479512498695502 -0.033492510969737661 0 -0.026020398850331007 -0.034190906324647337 0 -0.02686785785234996 -0.034266126826152814 0 -0.026479512498695502 -0.033492510969737661 0 -0.026020398850331007 -0.034190906324647337 0 -0.02686785785234996 -0.034266126826152814 0 -0.026888868818120665 -0.033410141374889166 0 -0.026479512498695502 -0.033492510969737661 0 -0.026766492138851988 -0.032600733352865341 0 -0.026479512498695502 -0.033492510969737661 0 -0.027000900159690564 -0.032920441147494754 0 -0.026376459631261544 -0.032569669296998449 0 -0.026538766683217248 -0.033424308699205457 0 -0.025974256603597982 -0.032439444587492483 0 -0.02586165428354421 -0.033565726430393218 0 -0.026479512498695502 -0.033492510969737661 0 -0.026888868818120665 -0.033410141374889166 0 -0.026479512498695502 -0.033492510969737661 0 -0.027000900159690564 -0.032920441147494754 0 -0.025974256603597982 -0.032439444587492483 0 -0.02586165428354421 -0.033565726430393218 0 -0.025512503820220956 -0.033219452610302076 0 -0.025512503820220956 -0.033219452610302076 0 -0.025241440507249809 -0.033075583161593404 0 -0.025148080387753968 -0.033565544263907322 0 -0.025512503820220956 -0.033219452610302076 0 -0.025499855934944849 -0.032778684808937704 0 -0.025241440507249809 -0.033075583161593404 0 -0.025499855934944849 -0.032778684808937704 0 -0.025239856080286335 -0.032557738874049148 0 -0.025241440507249809 -0.033075583161593404 0 -0.025974256603597982 -0.032439444587492483 0 -0.025512503820220956 -0.033219452610302076 0 -0.025499855934944849 -0.032778684808937704 0 -0.025974256603597982 -0.032439444587492483 0 -0.025499855934944849 -0.032778684808937704 0 -0.025239856080286335 -0.032557738874049148 0 -0.024771183190318114 -0.031923320646657975 0 -0.025027741690317552 -0.032445409461337713 0 -0.024813151556887729 -0.033267743281469093 0 -0.025143742678151344 -0.031459057109508949 0 -0.024813151556887729 -0.033267743281469093 0 -0.024627746434830164 -0.033037113820553923 0 -0.024947855627401878 -0.031697696995073264 0 -0.02486339464086652 -0.033149082967521087 0 -0.025027741690317552 -0.032445409461337713 0 -0.025239856080286335 -0.032557738874049148 0 -0.024813151556887729 -0.033267743281469093 0 -0.025239856080286335 -0.032557738874049148 0 -0.024813151556887729 -0.033267743281469093 0 -0.025241440507249809 -0.033075583161593404 0 -0.025520593949362635 -0.03112973759331384 0 -0.025785491792369265 -0.031869137964220237 0 -0.025135372939203454 -0.031785218613892517 0 -0.025520593949362635 -0.03112973759331384 0 -0.02614480786061725 -0.031820416630195011 0 -0.025785491792369265 -0.031869137964220237 0 -0.026604591130628453 -0.032603689928334054 0 -0.024712312761644036 -0.032317352093353138 0 -0.026360106728405209 -0.03264805336062495 0 -0.02611623036358798 -0.032702308851147228 0 -0.026172966676320842 -0.032345713091207276 0 -0.02614480786061725 -0.031820416630195011 0 -0.025785491792369265 -0.031869137964220237 0 -0.026360106728405209 -0.03264805336062495 0 -0.025785491792369265 -0.031869137964220237 0 -0.026360106728405209 -0.03264805336062495 0 -0.025135372939203454 -0.031785218613892517 0 -0.02614480786061725 -0.031820416630195011 0 -0.026360106728405209 -0.03264805336062495 0 -0.026595520569679086 -0.032984801528532261 0 -0.024627746434830164 -0.033037113820553923 0 -0.024843893186900549 -0.033967893190160338 0 -0.024681943940952172 -0.034677035735570627 0 -0.025452968053243406 -0.032544202544653192 0 -0.025371033686669008 -0.033451019601340511 0 -0.024627746434830164 -0.033037113820553923 0 -0.024857193482041053 -0.033504550882053188 0 -0.024843893186900549 -0.033967893190160338 0 -0.024813151556887729 -0.033267743281469093 0 -0.025148080387753968 -0.033565544263907322 0 -0.024857193482041053 -0.033504550882053188 0 -0.024813151556887729 -0.033267743281469093 0 -0.025241440507249809 -0.033075583161593404 0 -0.025148080387753968 -0.033565544263907322 0 -0.025148080387753968 -0.033565544263907322 0 -0.024857193482041053 -0.033504550882053188 0 -0.024843893186900549 -0.033967893190160338 0 -0.024813151556887729 -0.033267743281469093 0 -0.024627746434830164 -0.033037113820553923 0 -0.024857193482041053 -0.033504550882053188 0 -0.025426250468982482 -0.034004676778697826 0 -0.024843893186900549 -0.033967893190160338 0 -0.025024015482015657 -0.034331953838526379 0 -0.025426250468982482 -0.034004676778697826 0 -0.025148080387753968 -0.033565544263907322 0 -0.024843893186900549 -0.033967893190160338 0 -0.025024015482015657 -0.034331953838526379 0 -0.024681943940952172 -0.034677035735570627 0 -0.025224440674718629 -0.034619901750780009 0 -0.024843893186900549 -0.033967893190160338 0 -0.025024015482015657 -0.034331953838526379 0 -0.024681943940952172 -0.034677035735570627 0 -0.026360106728405209 -0.03264805336062495 0 -0.026595520569679086 -0.032984801528532261 0 -0.026324500966711743 -0.032955940127573344 0 -0.026595520569679086 -0.032984801528532261 0 -0.026324500966711743 -0.032955940127573344 0 -0.026458523719660721 -0.033206681146331428 0 -0.024681943940952172 -0.034677035735570627 0 -0.025085266215325235 -0.035142952353175473 0 -0.025224440674718629 -0.034619901750780009 0 -0.026324500966711743 -0.032955940127573344 0 -0.026205421698686188 -0.033250122797735884 0 -0.02611623036358798 -0.032702308851147228 0 -0.026360106728405209 -0.03264805336062495 0 -0.026324500966711743 -0.032955940127573344 0 -0.02611623036358798 -0.032702308851147228 0 -0.026458523719660721 -0.033206681146331428 0 -0.026205421698686188 -0.033250122797735884 0 -0.026690611121191348 -0.033594375526014783 0 -0.026324500966711743 -0.032955940127573344 0 -0.026458523719660721 -0.033206681146331428 0 -0.026205421698686188 -0.033250122797735884 0 -0.024681943940952172 -0.034677035735570627 0 -0.025085266215325235 -0.035142952353175473 0 -0.024851573254875216 -0.035805977943674683 0 -0.025371033686669008 -0.033451019601340511 0 -0.027423320399123537 -0.036253540283564756 0 -0.026595520569679086 -0.032984801528532261 0 -0.026458523719660721 -0.033206681146331428 0 -0.026690611121191348 -0.033594375526014783 0 -0.025272808706314716 -0.035456919375806667 0 -0.025085266215325235 -0.035142952353175473 0 -0.024851573254875216 -0.035805977943674683 0 -0.025272808706314716 -0.035456919375806667 0 -0.025397642192391167 -0.035090871225420706 0 -0.025506215103268743 -0.035495772333423714 0 -0.025272808706314716 -0.035456919375806667 0 -0.025397642192391167 -0.035090871225420706 0 -0.025085266215325235 -0.035142952353175473 0 -0.025397642192391167 -0.035090871225420706 0 -0.025085266215325235 -0.035142952353175473 0 -0.025224440674718629 -0.034619901750780009 0 -0.025397642192391167 -0.035090871225420706 0 -0.025224440674718629 -0.034619901750780009 0 -0.025591552336921505 -0.034583005004164648 0 -0.025397642192391167 -0.035090871225420706 0 -0.025591552336921505 -0.034583005004164648 0 -0.025868627845403936 -0.034905909643280969 0 -0.025426250468982482 -0.034004676778697826 0 -0.025591552336921505 -0.034583005004164648 0 -0.026020398850331007 -0.034190906324647337 0 -0.025426250468982482 -0.034004676778697826 0 -0.025224440674718629 -0.034619901750780009 0 -0.025591552336921505 -0.034583005004164648 0 -0.025426250468982482 -0.034004676778697826 0 -0.025024015482015657 -0.034331953838526379 0 -0.025224440674718629 -0.034619901750780009 0 -0.02686785785234996 -0.034266126826152814 0 -0.026020398850331007 -0.034190906324647337 0 -0.025868627845403936 -0.034905909643280969 0 -0.026027997953333354 -0.035458196161931223 0 -0.02686785785234996 -0.034266126826152814 0 -0.025868627845403936 -0.034905909643280969 0 -0.025591552336921505 -0.034583005004164648 0 -0.026020398850331007 -0.034190906324647337 0 -0.025868627845403936 -0.034905909643280969 0 -0.026027997953333354 -0.035458196161931223 0 -0.025868627845403936 -0.034905909643280969 0 -0.025506215103268743 -0.035495772333423714 0 -0.025397642192391167 -0.035090871225420706 0 -0.025868627845403936 -0.034905909643280969 0 -0.025506215103268743 -0.035495772333423714 0 -0.026027997953333354 -0.035458196161931223 0 -0.025506215103268743 -0.035495772333423714 0 -0.025340409688714382 -0.035659443313414953 0 -0.026027997953333354 -0.035458196161931223 0 -0.025340409688714382 -0.035659443313414953 0 -0.024520868317895232 -0.035624354895701774 0 -0.025340409688714382 -0.035659443313414953 0 -0.025507685443395909 -0.035783603154189284 0 -0.024520868317895232 -0.035624354895701774 0 -0.025506215103268743 -0.035495772333423714 0 -0.025340409688714382 -0.035659443313414953 0 -0.025507685443395909 -0.035783603154189284 0 -0.026416268684330661 -0.03710692372779642 0 -0.027423320399123537 -0.036253540283564756 0 -0.025507685443395909 -0.035783603154189284 0 -0.025474821778908342 -0.036270413672299724 0 -0.024851573254875216 -0.035805977943674683 0 -0.025272808706314716 -0.035456919375806667 0 -0.025507685443395909 -0.035783603154189284 0 -0.024851573254875216 -0.035805977943674683 0 -0.025272808706314716 -0.035456919375806667 0 -0.025506215103268743 -0.035495772333423714 0 -0.025507685443395909 -0.035783603154189284 0 -0.027871836451262802 -0.037393152751556094 0 -0.028412482509899705 -0.037135386481839339 0 -0.028596027676707929 -0.038468108131731106 0 -0.027465503267108816 -0.037852975450039843 0 -0.027871836451262802 -0.037393152751556094 0 -0.028596027676707929 -0.038468108131731106 0 -0.027465503267108816 -0.037852975450039843 0 -0.027871836451262802 -0.037393152751556094 0 -0.027159680854467232 -0.037170903061651647 0 -0.027871836451262802 -0.037393152751556094 0 -0.027159680854467232 -0.037170903061651647 0 -0.027393519076147465 -0.036721494195105626 0 -0.027871836451262802 -0.037393152751556094 0 -0.027393519076147465 -0.036721494195105626 0 -0.028412482509899705 -0.037135386481839339 0 -0.026416268684330661 -0.03710692372779642 0 -0.026244912745120894 -0.03705271359895073 0 -0.024155750013593952 -0.035223720037274781 0 -0.024346233763127962 -0.03545165785135794 0 -0.025507685443395909 -0.035783603154189284 0 -0.024346233763127962 -0.03545165785135794 0 -0.025507685443395909 -0.035783603154189284 0 -0.024520868317895232 -0.035624354895701774 0 -0.026218407575377849 -0.03709303995867335 0 -0.025507685443395909 -0.035783603154189284 0 -0.026165902113785514 -0.037061925378534241 0 -0.025507685443395909 -0.035783603154189284 0 -0.025474821778908342 -0.036270413672299724 0 -0.026165902113785514 -0.037061925378534241 0 -0.027465503267108816 -0.037852975450039843 0 -0.027159680854467232 -0.037170903061651647 0 -0.026165902113785514 -0.037061925378534241 0 -0.025163340350597408 -0.03613217131084373 0 -0.025461263335480034 -0.035846058560657375 0 -0.027159680854467232 -0.037170903061651647 0 -0.026165902113785514 -0.037061925378534241 0 -0.0268438565457144 -0.036838324151001862 0 -0.026165902113785514 -0.037061925378534241 0 -0.026565222176522168 -0.036341140607433993 0 -0.0268438565457144 -0.036838324151001862 0 -0.026565222176522168 -0.036341140607433993 0 -0.027393519076147465 -0.036721494195105626 0 -0.02737105916017904 -0.03584552440713195 0 -0.026565222176522168 -0.036341140607433993 0 -0.0268438565457144 -0.036838324151001862 0 -0.027393519076147465 -0.036721494195105626 0 -0.027159680854467232 -0.037170903061651647 0 -0.0268438565457144 -0.036838324151001862 0 -0.027393519076147465 -0.036721494195105626 0 -0.027879337896237515 -0.03637930174890041 0 -0.028333186948748621 -0.035804722825870709 0 -0.028412482509899705 -0.037135386481839339 0 -0.028323776464855812 -0.035716921461518669 0 -0.028697214127079321 -0.03749893685917613 0 -0.027393519076147465 -0.036721494195105626 0 -0.027879337896237515 -0.03637930174890041 0 -0.028412482509899705 -0.037135386481839339 0 -0.027879337896237515 -0.03637930174890041 0 -0.02737105916017904 -0.03584552440713195 0 -0.028333186948748621 -0.035804722825870709 0 -0.027393519076147465 -0.036721494195105626 0 -0.027879337896237515 -0.03637930174890041 0 -0.02737105916017904 -0.03584552440713195 0 -0.02737105916017904 -0.03584552440713195 0 -0.028430350307644289 -0.03499986942776484 0 -0.026560402219215087 -0.034999968428993257 0 -0.02737105916017904 -0.03584552440713195 0 -0.028333186948748621 -0.035804722825870709 0 -0.028430350307644289 -0.03499986942776484 0 -0.02570797394038803 -0.035866281147656554 0 -0.026565222176522168 -0.036341140607433993 0 -0.026560402219215087 -0.034999968428993257 0 -0.026565222176522168 -0.036341140607433993 0 -0.02737105916017904 -0.03584552440713195 0 -0.026560402219215087 -0.034999968428993257 0 -0.030300285869663067 -0.034999938443066869 0 -0.02958780174558116 -0.036273568179621289 0 -0.030992382296118549 -0.035993850412310714 0 -0.028333186948748621 -0.035804722825870709 0 -0.028430350307644289 -0.03499986942776484 0 -0.02958780174558116 -0.036273568179621289 0 -0.028430350307644289 -0.03499986942776484 0 -0.030300285869663067 -0.034999938443066869 0 -0.02958780174558116 -0.036273568179621289 0 -0.028333186948748621 -0.035804722825870709 0 -0.02958780174558116 -0.036273568179621289 0 -0.028732770311770749 -0.037038931755815206 0 -0.02958780174558116 -0.036273568179621289 0 -0.030717926694608121 -0.037266886677975931 0 -0.030992382296118549 -0.035993850412310714 0 -0.02958780174558116 -0.036273568179621289 0 -0.029691382243333436 -0.037537633378697206 0 -0.030717926694608121 -0.037266886677975931 0 -0.029691382243333436 -0.037537633378697206 0 -0.028732770311770749 -0.037038931755815206 0 -0.028993086687716017 -0.038160255659563824 0 -0.02958780174558116 -0.036273568179621289 0 -0.029691382243333436 -0.037537633378697206 0 -0.028732770311770749 -0.037038931755815206 0 -0.028697214127079321 -0.03749893685917613 0 -0.027423320399123537 -0.036253540283564756 0 -0.027744583070043228 -0.036397191144153136 0 -0.027423320399123537 -0.036253540283564756 0 -0.030389479308803938 -0.038841583870876162 0 -0.029691382243333436 -0.037537633378697206 0 -0.028993086687716017 -0.038160255659563824 0 -0.030389479308803938 -0.038841583870876162 0 -0.029691382243333436 -0.037537633378697206 0 -0.030717926694608121 -0.037266886677975931 0 -0.034996116952536759 -0.034999952139506116 0 -0.035178122338287827 -0.032527839719755848 0 -0.034999222187519712 -0.029179377264179775 0 -0.030389479308803938 -0.038841583870876162 0 -0.031721565653342956 -0.038113500978693517 0 -0.030717926694608121 -0.037266886677975931 0 -0.034350491176842218 -0.035287189240506271 0 -0.033537854143603489 -0.034923669608125998 0 -0.036608483815788656 -0.031606591048225538 0 -0.035396239614431398 -0.03371402439683592 0 -0.035178122338287827 -0.032527839719755848 0 -0.031721565653342956 -0.038113500978693517 0 -0.030717926694608121 -0.037266886677975931 0 -0.031878580917938874 -0.036657206552439592 0 -0.030717926694608121 -0.037266886677975931 0 -0.030992382296118549 -0.035993850412310714 0 -0.031878580917938874 -0.036657206552439592 0 -0.035396239614431398 -0.03371402439683592 0 -0.032179131531782069 -0.034997376304419799 0 -0.034357816485366781 -0.034291481252790107 0 -0.033537854143603489 -0.034923669608125998 0 -0.032170738174764006 -0.03499958532321519 0 -0.030992382296118549 -0.035993850412310714 0 -0.031878580917938874 -0.036657206552439592 0 -0.032169685279329605 -0.034999950046101611 0 -0.030300285869663067 -0.034999938443066869 0 -0.030992382296118549 -0.035993850412310714 0 -0.032169685279329605 -0.034999950046101611 0 -0.032179131531782069 -0.034997376304419799 0 -0.034996116952536759 -0.034999952139506116 0 -0.034357816485366781 -0.034291481252790107 0 -0.034996116952536759 -0.034999952139506116 0 -0.034357816485366781 -0.034291481252790107 0 -0.035178122338287827 -0.032527839719755848 0 -0.035396239614431398 -0.03371402439683592 0 -0.034357816485366781 -0.034291481252790107 0 -0.035178122338287827 -0.032527839719755848 0 -0.036608483815788656 -0.031606591048225538 0 -0.035178122338287827 -0.032527839719755848 0 -0.035928406796733731 -0.030324283585027895 0 -0.035178122338287827 -0.032527839719755848 0 -0.034999222187519712 -0.029179377264179775 0 -0.035928406796733731 -0.030324283585027895 0 -0.034999222187519712 -0.029179377264179775 0 -0.036121836896029033 -0.028869347698279497 0 -0.035438029143552416 -0.027964663968313885 0 -0.036121836896029033 -0.028869347698279497 0 -0.035928406796733731 -0.030324283585027895 0 -0.036999117901427674 -0.029601355827594347 0 -0.034999222187519712 -0.029179377264179775 0 -0.036121836896029033 -0.028869347698279497 0 -0.035928406796733731 -0.030324283585027895 0 -0.034350491176842218 -0.035287189240506271 0 -0.032683252947033455 -0.032514668505145831 0 -0.036608483815788656 -0.031606591048225538 0 -0.035928406796733731 -0.030324283585027895 0 -0.036999117901427674 -0.029601355827594347 0 -0.030389479308803938 -0.038841583870876162 0 -0.031721565653342956 -0.038113500978693517 0 -0.031665583612091742 -0.039449694239841578 0 -0.027744583070043228 -0.036397191144153136 0 -0.032683252947033455 -0.032514668505145831 0 -0.026205421698686188 -0.033250122797735884 0 -0.02611623036358798 -0.032702308851147228 0 -0.025836948058276507 -0.032905666698576176 0 -0.036813054927182655 -0.028787669656621329 0 -0.032683252947033455 -0.032514668505145831 0 -0.032683252947033455 -0.032514668505145831 0 -0.031757320204487467 -0.029735586939477185 0 -0.036534679993814156 -0.028605657274675619 0 -0.037625729649575064 -0.029283287257589583 0 -0.03768479773734669 -0.027480612011260126 0 -0.02611623036358798 -0.032702308851147228 0 -0.025869047905919273 -0.032419215759488501 0 -0.026172966676320842 -0.032345713091207276 0 -0.02611623036358798 -0.032702308851147228 0 -0.025836948058276507 -0.032905666698576176 0 -0.025869047905919273 -0.032419215759488501 0 -0.025923023191348316 -0.031920411181275747 0 -0.025869047905919273 -0.032419215759488501 0 -0.026172966676320842 -0.032345713091207276 0 -0.031047406141525041 -0.028365551009544299 0 -0.024712312761644036 -0.032317352093353138 0 -0.031047406141525041 -0.028365551009544299 0 -0.031757320204487467 -0.029735586939477185 0 -0.037723909403617112 -0.025627313452628926 0 -0.03768479773734669 -0.027480612011260126 0 -0.036332340353004026 -0.026520686322030744 0 -0.036332340353004026 -0.026520686322030744 0 -0.035438029143552416 -0.027964663968313885 0 -0.036420590438343003 -0.027610097002513958 0 -0.03768479773734669 -0.027480612011260126 0 -0.036332340353004026 -0.026520686322030744 0 -0.036420590438343003 -0.027610097002513958 0 -0.034999951825879221 -0.024924912187451142 0 -0.036332340353004026 -0.026520686322030744 0 -0.035438029143552416 -0.027964663968313885 0 -0.034999951825879221 -0.024924912187451142 0 -0.034999222187519712 -0.029179377264179775 0 -0.035438029143552416 -0.027964663968313885 0 -0.036534679993814156 -0.028605657274675619 0 -0.03768479773734669 -0.027480612011260126 0 -0.036420590438343003 -0.027610097002513958 0 -0.036534679993814156 -0.028605657274675619 0 -0.035438029143552416 -0.027964663968313885 0 -0.036420590438343003 -0.027610097002513958 0 -0.036813054927182655 -0.028787669656621329 0 -0.035316008385001825 -0.02798534770937337 0 -0.018652172884449363 -0.02490033835957094 0 -0.018429148108741283 -0.024956011926204599 0 -0.018547733751996625 -0.025295470749906596 0 -0.018652172884449363 -0.02490033835957094 0 -0.018475669726779574 -0.024787407642299891 0 -0.018429148108741283 -0.024956011926204599 0 -0.0083414738245124378 -0.026192494201350849 0 -0.0094880293459420287 -0.026373927097364781 0 -0.0090548974296647319 -0.027952966581938164 0 -0.0083414738245124378 -0.026192494201350849 0 -0.0094880293459420287 -0.026373927097364781 0 -0.0093357394124702307 -0.02507345802904451 0 -0.015207125477676121 -0.026008758468533632 0 -0.013480826063783783 -0.022787879739777726 0 -0.018492888847061729 -0.024735717768777029 0 -0.018503857242365786 -0.024742042118052265 0 -0.018517633570537456 -0.024728010978429322 0 -0.0094880293459420287 -0.026373927097364781 0 -0.0093357394124702307 -0.02507345802904451 0 -0.0097761834536255789 -0.025182479494557108 0 -0.013480826063783783 -0.022787879739777726 0 -0.0093110891730372892 -0.022651589914538042 0 -0.011100164611372617 -0.022759176043719225 0 -0.011099556483012217 -0.022753909548493854 0 -0.011097347251482495 -0.02275994173191551 0 -0.013480826063783783 -0.022787879739777726 0 -0.011386634059054865 -0.021034538945694979 0 -0.013480826063783783 -0.022787879739777726 0 -0.016244776425792147 -0.019826195632215934 0 -0.014518042752380484 -0.016024523113955989 0 -0.01340055502753539 -0.015710465969083067 0 -0.013622546951882676 -0.015187864565478559 0 -0.018652172884449363 -0.02490033835957094 0 -0.018517633570537456 -0.024728010978429322 0 -0.018475669726779574 -0.024787407642299891 0 -0.018503857242365786 -0.024742042118052265 0 -0.018517633570537456 -0.024728010978429322 0 -0.018491290439678933 -0.024671574160184947 0 -0.015207125477676121 -0.026008758468533632 0 -0.018042126077748476 -0.025027706086470231 0 -0.018517633570537456 -0.024728010978429322 0 -0.018491290439678933 -0.024671574160184947 0 -0.018475669726779574 -0.024787407642299891 0 -0.018491290439678933 -0.024671574160184947 0 -0.018322981335496639 -0.024777204034344514 0 -0.018140536705104005 -0.024519433956138589 0 -0.018491290439678933 -0.024671574160184947 0 -0.018322981335496639 -0.024777204034344514 0 -0.018475669726779574 -0.024787407642299891 0 -0.018328577869405289 -0.024785050692827871 0 -0.016507885099040855 -0.020536113507653719 0 -0.018322981335496639 -0.024777204034344514 0 -0.018119262881910219 -0.024793437051713205 0 -0.018140536705104005 -0.024519433956138589 0 -0.018119262881910219 -0.024793437051713205 0 -0.018243335277370567 -0.024935094561740718 0 -0.018114292653333273 -0.024989461914875156 0 -0.018322981335496639 -0.024777204034344514 0 -0.018119262881910219 -0.024793437051713205 0 -0.018243335277370567 -0.024935094561740718 0 -0.018243335277370567 -0.024935094561740718 0 -0.018429148108741283 -0.024956011926204599 0 -0.018276743889953134 -0.02520855126152349 0 -0.018322981335496639 -0.024777204034344514 0 -0.018243335277370567 -0.024935094561740718 0 -0.018429148108741283 -0.024956011926204599 0 -0.018322981335496639 -0.024777204034344514 0 -0.018475669726779574 -0.024787407642299891 0 -0.018429148108741283 -0.024956011926204599 0 -0.018429148108741283 -0.024956011926204599 0 -0.018547733751996625 -0.025295470749906596 0 -0.018276743889953134 -0.02520855126152349 0 -0.018276743889953134 -0.02520855126152349 0 -0.018114292653333273 -0.024989461914875156 0 -0.017980397861426665 -0.025486608119026394 0 -0.018243335277370567 -0.024935094561740718 0 -0.018276743889953134 -0.02520855126152349 0 -0.018114292653333273 -0.024989461914875156 0 -0.018276743889953134 -0.02520855126152349 0 -0.017980397861426665 -0.025486608119026394 0 -0.018223106869468684 -0.025991603927171699 0 -0.018547733751996625 -0.025295470749906596 0 -0.018276743889953134 -0.02520855126152349 0 -0.018223106869468684 -0.025991603927171699 0 -0.014128573690920422 -0.028044128073635502 0 -0.013867972125316947 -0.028415415438236519 0 -0.013826718216672283 -0.028450346662612529 0 -0.014128573690920422 -0.028044128073635502 0 -0.013940913990480249 -0.028450505005974711 0 -0.013867972125316947 -0.028415415438236519 0 -0.016391505156972776 -0.026289127891655779 0 -0.017529029750598613 -0.029718645514078875 0 -0.014128573690920422 -0.028044128073635502 0 -0.014254835602247429 -0.02822863273423561 0 -0.013940913990480249 -0.028450505005974711 0 -0.01283966246714756 -0.02965236795514924 0 -0.012990867858205562 -0.030646686944538443 0 -0.01283966246714756 -0.02965236795514924 0 -0.010975661528473112 -0.028588328706403657 0 -0.010989877734327271 -0.031164180144636962 0 -0.010565962339787387 -0.031367064728923637 0 -0.010672022263797527 -0.030972454303945303 0 -0.01443646463229248 -0.02767476387328412 0 -0.014128573690920422 -0.028044128073635502 0 -0.014348593241451376 -0.028000710153023588 0 -0.014254835602247429 -0.02822863273423561 0 -0.014348593241451376 -0.028000710153023588 0 -0.014564811449971236 -0.028031128580545909 0 -0.015207125477676121 -0.026008758468533632 0 -0.016391505156972776 -0.026289127891655779 0 -0.014128573690920422 -0.028044128073635502 0 -0.014254835602247429 -0.02822863273423561 0 -0.014348593241451376 -0.028000710153023588 0 -0.015207125477676121 -0.026008758468533632 0 -0.010975661528473112 -0.028588328706403657 0 -0.0094880293459420287 -0.026373927097364781 0 -0.0090548974296647319 -0.027952966581938164 0 -0.0097742814606378136 -0.027546684134688061 0 -0.01443646463229248 -0.02767476387328412 0 -0.014348593241451376 -0.028000710153023588 0 -0.014564811449971236 -0.028031128580545909 0 -0.010975661528473112 -0.028588328706403657 0 -0.0097157979205571253 -0.028234639566647103 0 -0.010975661528473112 -0.028588328706403657 0 -0.0072814612469356207 -0.031383860401674436 0 -0.010565962339787387 -0.031367064728923637 0 -0.010672022263797527 -0.030972454303945303 0 -0.010321903349664204 -0.030875310163081759 0 -0.0089480742552684126 -0.028005919400707777 0 -0.01057427759047419 -0.027997879812602162 0 -0.0099051919913213764 -0.030400497180371119 0 -0.0020184434824545884 -0.03038938289363417 0 -0.0025248280606499848 -0.03211760441939307 0 -0.0014336919693224805 -0.032628143450672303 0 -0.0024434769493059116 -0.029440998619960686 0 -0.0072814612469356207 -0.031383860401674436 0 -0.0024434769493059116 -0.029440998619960686 0 0.0015109048169395047 -0.032950705356862189 0 0.003625225279896806 -0.03300378190044484 0 0.0046331513444139482 -0.03191695595869333 0 0.0036518937151867902 -0.031184701359365984 0 0.003625225279896806 -0.03300378190044484 0 0.0046331513444139482 -0.03191695595869333 0 0.0050878208272023898 -0.033505117283288102 0 0.0046331513444139482 -0.03191695595869333 0 0.0056150053070654913 -0.031345158957718181 0 0.0050878208272023898 -0.033505117283288102 0 0.0046331513444139482 -0.03191695595869333 0 0.0036518937151867902 -0.031184701359365984 0 0.0053956240774926251 -0.030590564718176338 0 -0.0089480742552684126 -0.028005919400707777 0 -0.0097742814606378136 -0.027546684134688061 0 -0.01057427759047419 -0.027997879812602162 0 -0.0068179762261803062 -0.026333490672788621 0 -0.0062850596599330483 -0.026820124806256413 0 -0.0065203171657443612 -0.024401510245735013 0 -0.00050339611509409477 -0.028288101477213893 0 -0.0024434769493059116 -0.029440998619960686 0 -0.0019501918074621555 -0.027856972856704371 0 -0.0015551612362902402 -0.028226631304091285 0 -0.0017188843239371962 -0.028759988311723283 0 -0.00050339611509409477 -0.028288101477213893 0 -0.0044818346534660665 -0.028115765638209441 0 -0.0094880293459420287 -0.026373927097364781 0 -0.010452344527760947 -0.027599596420720247 0 -0.0097742814606378136 -0.027546684134688061 0 -0.010452344527760947 -0.027599596420720247 0 -0.0097742814606378136 -0.027546684134688061 0 -0.01057427759047419 -0.027997879812602162 0 0.0046331513444139482 -0.03191695595869333 0 0.0053956240774926251 -0.030590564718176338 0 0.0056150053070654913 -0.031345158957718181 0 -0.0044818346534660665 -0.028115765638209441 0 -0.0024434769493059116 -0.029440998619960686 0 0.0022483204815694781 -0.032566668056669988 0 0.0030181866656722308 -0.035168442031698777 0 0.00077934814942195692 -0.034931205702884924 0 0.0018838496704216261 -0.032039929193372382 0 0.0027812300167434391 -0.034774388920868246 0 0.003625225279896806 -0.03300378190044484 0 0.0036518937151867902 -0.031184701359365984 0 0.0015318985517486453 -0.031520981157228879 0 0.003625225279896806 -0.03300378190044484 0 0.0015318985517486453 -0.031520981157228879 0 0.0025089178103722865 -0.03434560414271301 0 0.0036518937151867902 -0.031184701359365984 0 0.0015318985517486453 -0.031520981157228879 0 0.0032758206389948718 -0.028683024286831945 0 0.0018838496704216261 -0.032039929193372382 0 0.00092264010519003991 -0.029269966544151513 0 0.0015318985517486453 -0.031520981157228879 0 0.00064146739302281444 -0.028961286327473454 0 0.0032758206389948718 -0.028683024286831945 0 0.002053952419130796 -0.026366630107751379 0 -0.0016891067227636086 -0.024007679897771372 0 -0.00085559658191680025 -0.023614851137473115 0 -0.003787287713237534 -0.020861236297435845 0 -0.0016509283277506583 -0.019467428733832823 0 0.00064146739302281444 -0.028961286327473454 0 0.0032758206389948718 -0.028683024286831945 0 0.0013616848657342642 -0.026947179052563854 0 -0.0068179762261803062 -0.026333490672788621 0 -0.0065203171657443612 -0.024401510245735013 0 -0.0077408082959955164 -0.022884146072651931 0 -0.00050339611509409477 -0.028288101477213893 0 -0.0034466832294349535 -0.022662307486167512 0 -0.0062850596599330483 -0.026820124806256413 0 -0.0065203171657443612 -0.024401510245735013 0 -0.0049860537952260411 -0.022250187182524753 0 -0.0094880293459420287 -0.026373927097364781 0 -0.010452344527760947 -0.027599596420720247 0 -0.0097761834536255789 -0.025182479494557108 0 -0.0044818346534660665 -0.028115765638209441 0 -0.0093110891730372892 -0.022651589914538042 0 -0.0065203171657443612 -0.024401510245735013 0 -0.0077408082959955164 -0.022884146072651931 0 -0.0060474761818445841 -0.022515892229364429 0 0.0036518937151867902 -0.031184701359365984 0 0.0053956240774926251 -0.030590564718176338 0 0.0032758206389948718 -0.028683024286831945 0 0.0020409879291281878 -0.02636124442117601 0 -0.00085559658191680025 -0.023614851137473115 0 0.0012741153947961705 -0.023332586676518836 0 -0.00050339611509409477 -0.028288101477213893 0 0.002053952419130796 -0.026366630107751379 0 -0.0077408082959955164 -0.022884146072651931 0 -0.0074030058352792189 -0.020878609738388614 0 -0.0085594791996242581 -0.019566977142474122 0 -0.00085559658191680025 -0.023614851137473115 0 0.0012741153947961705 -0.023332586676518836 0 0.00049290513751130971 -0.020295367440622651 0 -0.0034466832294349535 -0.022662307486167512 0 -0.0039983762416427255 -0.020061300049034867 0 -0.0077408082959955164 -0.022884146072651931 0 -0.0074030058352792189 -0.020878609738388614 0 -0.006788234814418005 -0.021875974713021575 0 -0.0074030058352792189 -0.020878609738388614 0 -0.0062368924171800934 -0.021266063738195663 0 -0.0072536128106076786 -0.020152352442954279 0 -0.0062368924171800934 -0.021266063738195663 0 -0.006788234814418005 -0.021875974713021575 0 -0.0060474761818445841 -0.022515892229364429 0 -0.0074030058352792189 -0.020878609738388614 0 -0.0062368924171800934 -0.021266063738195663 0 -0.006788234814418005 -0.021875974713021575 0 -0.0077408082959955164 -0.022884146072651931 0 -0.006788234814418005 -0.021875974713021575 0 -0.0060474761818445841 -0.022515892229364429 0 -0.0062368924171800934 -0.021266063738195663 0 -0.0060474761818445841 -0.022515892229364429 0 -0.0050507525737201898 -0.022253922178461533 0 -0.0065203171657443612 -0.024401510245735013 0 -0.0060474761818445841 -0.022515892229364429 0 -0.0049860537952260411 -0.022250187182524753 0 -0.0063854354803936433 -0.022166274293191901 0 -0.0093110891730372892 -0.022651589914538042 0 -0.011386634059054865 -0.021034538945694979 0 -0.0093110891730372892 -0.022651589914538042 0 -0.004781286823114593 -0.021455843119315126 0 -0.0062368924171800934 -0.021266063738195663 0 -0.0050507525737201898 -0.022253922178461533 0 -0.004781286823114593 -0.021455843119315126 0 -0.0062368924171800934 -0.021266063738195663 0 -0.0063678931545140165 -0.019688525892824101 0 -0.015108160370774643 -0.015342505673605273 0 -0.014935495905330019 -0.014773309881985596 0 -0.014192370640085069 -0.014939282771531497 0 -0.015108160370774643 -0.015342505673605273 0 -0.015721379945636806 -0.014645697523955883 0 -0.014935495905330019 -0.014773309881985596 0 -0.011386634059054865 -0.021034538945694979 0 -0.011146308223112005 -0.017367881042666081 0 -0.0063678931545140165 -0.019688525892824101 0 -0.0072536128106076786 -0.020152352442954279 0 -0.0080786633545031454 -0.019581367207334187 0 -0.0062368924171800934 -0.021266063738195663 0 -0.0063678931545140165 -0.019688525892824101 0 -0.0072536128106076786 -0.020152352442954279 0 -0.0074030058352792189 -0.020878609738388614 0 -0.0080786633545031454 -0.019581367207334187 0 -0.0085594791996242581 -0.019566977142474122 0 -0.0074030058352792189 -0.020878609738388614 0 -0.0072536128106076786 -0.020152352442954279 0 -0.0080786633545031454 -0.019581367207334187 0 -0.0063678931545140165 -0.019688525892824101 0 -0.0080786633545031454 -0.019581367207334187 0 -0.0085310506658631789 -0.017298722333682848 0 -0.0081768815117040181 -0.01976224294261927 0 -0.010004177945271793 -0.015965800165689853 0 -0.0080786633545031454 -0.019581367207334187 0 -0.0085594791996242581 -0.019566977142474122 0 -0.008415832014460712 -0.017586456380188374 0 -0.011146308223112005 -0.017367881042666081 0 -0.010004177945271793 -0.015965800165689853 0 -0.0078683325490549582 -0.016630858490013258 0 -0.0086737286910810226 -0.01573522256601172 0 -0.0083818319982683596 -0.013854112439523163 0 0.00049290513751130971 -0.020295367440622651 0 -0.00029620474701026506 -0.017248456162197067 0 -0.0016509283277506583 -0.019467428733832823 0 -0.0085594791996242581 -0.019566977142474122 0 -0.008415832014460712 -0.017586456380188374 0 -0.0092117111086848485 -0.016657210890599034 0 -0.0039983762416427255 -0.020061300049034867 0 -0.0046625163128041248 -0.016787312555258376 0 -0.010004177945271793 -0.015965800165689853 0 -0.0046625163128041248 -0.016787312555258376 0 -0.015721379945636806 -0.014645697523955883 0 -0.014935495905330019 -0.014773309881985596 0 -0.014733179087911049 -0.014160854772868053 0 -0.003787287713237534 -0.020861236297435845 0 -0.0016509283277506583 -0.019467428733832823 0 -0.0036422776443553718 -0.017626754034755669 0 -0.00085559658191680025 -0.023614851137473115 0 0.00049290513751130971 -0.020295367440622651 0 -0.0016509283277506583 -0.019467428733832823 0 -0.00029620474701026506 -0.017248456162197067 0 -0.0016509283277506583 -0.019467428733832823 0 -0.0019631509209767197 -0.017112382850099989 0 -0.0016509283277506583 -0.019467428733832823 0 -0.0019631509209767197 -0.017112382850099989 0 -0.0036422776443553718 -0.017626754034755669 0 -0.003787287713237534 -0.020861236297435845 0 -0.0036422776443553718 -0.017626754034755669 0 -0.0067222316438905793 -0.018112875409931211 0 -0.0036422776443553718 -0.017626754034755669 0 -0.00311795561092167 -0.015529320179868503 0 -0.0049828766452321592 -0.015154494230115298 0 -0.0019631509209767197 -0.017112382850099989 0 -0.0036422776443553718 -0.017626754034755669 0 -0.00311795561092167 -0.015529320179868503 0 -0.00311795561092167 -0.015529320179868503 0 -0.0029257776342667399 -0.013923685450546452 0 -0.0049828766452321592 -0.015154494230115298 0 -0.0046625163128041248 -0.016787312555258376 0 -0.0050320448134807518 -0.014485497920380586 0 -0.00044900323165012119 -0.017107232074796416 0 -0.0018033192416063691 -0.015576523436994057 0 -0.001008015782395973 -0.014731115102890583 0 -0.00311795561092167 -0.015529320179868503 0 -0.0018033192416063691 -0.015576523436994057 0 -0.0020566600169097892 -0.014462618288472328 0 -0.00311795561092167 -0.015529320179868503 0 -0.0020566600169097892 -0.014462618288472328 0 -0.0029257776342667399 -0.013923685450546452 0 -0.0019631509209767197 -0.017112382850099989 0 -0.00311795561092167 -0.015529320179868503 0 -0.0018033192416063691 -0.015576523436994057 0 -0.00029620474701026506 -0.017248456162197067 0 -0.0019631509209767197 -0.017112382850099989 0 -0.0018033192416063691 -0.015576523436994057 0 -0.0046625163128041248 -0.016787312555258376 0 -0.0011285380062044821 -0.016643979782200578 0 -0.0018033192416063691 -0.015576523436994057 0 -0.001008015782395973 -0.014731115102890583 0 -0.0020566600169097892 -0.014462618288472328 0 -0.0016573835440387573 -0.012196729180708332 0 -0.001008015782395973 -0.014731115102890583 0 -0.0020566600169097892 -0.014462618288472328 0 -0.0099037043004953692 -0.011044381930603865 0 -0.0089144431680027933 -0.011045535502644224 0 -0.0092827375079331219 -0.013403465018026663 0 -0.0016573835440387573 -0.012196729180708332 0 -0.0020566600169097892 -0.014462618288472328 0 -0.0029257776342667399 -0.013923685450546452 0 -0.0066835434774193845 -0.0088838684639363508 0 -0.0050320448134807518 -0.014485497920380586 0 -0.0032368088897255036 -0.012200459348855903 0 -0.0016573835440387573 -0.012196729180708332 0 -0.0029257776342667399 -0.013923685450546452 0 -0.0032368088897255036 -0.012200459348855903 0 -0.0029257776342667399 -0.013923685450546452 0 -0.0049828766452321592 -0.015154494230115298 0 0.0016842545964338492 -0.010462568835113421 0 -0.00023617819891649404 -0.011459915395482962 0 0.0006015459323731304 -0.012351185101389444 0 -0.00089341477931501869 -0.0079137820691124999 0 -0.0024364407808291706 -0.013785584447021758 0 -0.015721379945636806 -0.014645697523955883 0 -0.015235446074520943 -0.013631622567736498 0 -0.014733179087911049 -0.014160854772868053 0 -0.015235446074520943 -0.013631622567736498 0 -0.014733179087911049 -0.014160854772868053 0 -0.014612255364308532 -0.013464029115694652 0 -0.015721379945636806 -0.014645697523955883 0 -0.015235446074520943 -0.013631622567736498 0 -0.015910327154852796 -0.013649086419819427 0 -0.0086737286910810226 -0.01573522256601172 0 -0.0092827375079331219 -0.013403465018026663 0 -0.0083818319982683596 -0.013854112439523163 0 -0.010004177945271793 -0.015965800165689853 0 -0.012210096508292601 -0.013626557419679398 0 -0.015235446074520943 -0.013631622567736498 0 -0.015910327154852796 -0.013649086419819427 0 -0.015433535531777945 -0.012927237649051555 0 -0.015910327154852796 -0.013649086419819427 0 -0.015762745834932687 -0.01273326968426188 0 -0.015433535531777945 -0.012927237649051555 0 -0.0089144431680027933 -0.011045535502644224 0 -0.0092827375079331219 -0.013403465018026663 0 -0.0083818319982683596 -0.013854112439523163 0 -0.016071677553890797 -0.012622113878098034 0 -0.015910327154852796 -0.013649086419819427 0 -0.015762745834932687 -0.01273326968426188 0 -0.013532773295970413 -0.012069288710142468 0 -0.012210096508292601 -0.013626557419679398 0 -0.015553319607004269 -0.012389367331843317 0 -0.015762745834932687 -0.01273326968426188 0 -0.015433535531777945 -0.012927237649051555 0 -0.015192437470030701 -0.012269006937664681 0 -0.015433535531777945 -0.012927237649051555 0 -0.014943507100046792 -0.012890145262409575 0 -0.015235446074520943 -0.013631622567736498 0 -0.015433535531777945 -0.012927237649051555 0 -0.014943507100046792 -0.012890145262409575 0 -0.015235446074520943 -0.013631622567736498 0 -0.014943507100046792 -0.012890145262409575 0 -0.014612255364308532 -0.013464029115694652 0 -0.014351422921383103 -0.012871819934429747 0 -0.013658625750129721 -0.013765719554936919 0 -0.014612255364308532 -0.013464029115694652 0 -0.014943507100046792 -0.012890145262409575 0 -0.014351422921383103 -0.012871819934429747 0 -0.014612255364308532 -0.013464029115694652 0 -0.013726878024172544 -0.0125499838215381 0 -0.014351422921383103 -0.012871819934429747 0 -0.013658625750129721 -0.013765719554936919 0 -0.013726878024172544 -0.0125499838215381 0 -0.013658625750129721 -0.013765719554936919 0 -0.013101215463807898 -0.012889771571330857 0 -0.014733179087911049 -0.014160854772868053 0 -0.013658625750129721 -0.013765719554936919 0 -0.014612255364308532 -0.013464029115694652 0 -0.014935495905330019 -0.014773309881985596 0 -0.014733179087911049 -0.014160854772868053 0 -0.014192370640085069 -0.014939282771531497 0 -0.014733179087911049 -0.014160854772868053 0 -0.013658625750129721 -0.013765719554936919 0 -0.014192370640085069 -0.014939282771531497 0 -0.013658625750129721 -0.013765719554936919 0 -0.014192370640085069 -0.014939282771531497 0 -0.013350554619977431 -0.014734824922664824 0 -0.013622546951882676 -0.015187864565478559 0 -0.014192370640085069 -0.014939282771531497 0 -0.013350554619977431 -0.014734824922664824 0 -0.014665365867921758 -0.015854514974270741 0 -0.015108160370774643 -0.015342505673605273 0 -0.014192370640085069 -0.014939282771531497 0 -0.014518042752380484 -0.016024523113955989 0 -0.014665365867921758 -0.015854514974270741 0 -0.014192370640085069 -0.014939282771531497 0 -0.014518042752380484 -0.016024523113955989 0 -0.013622546951882676 -0.015187864565478559 0 -0.014192370640085069 -0.014939282771531497 0 -0.012278606896717221 -0.015446494667446282 0 -0.012976929422872993 -0.015166023419376588 0 -0.012393738510905226 -0.014470507690730746 0 -0.01340055502753539 -0.015710465969083067 0 -0.012278606896717221 -0.015446494667446282 0 -0.012976929422872993 -0.015166023419376588 0 -0.01340055502753539 -0.015710465969083067 0 -0.013622546951882676 -0.015187864565478559 0 -0.012976929422872993 -0.015166023419376588 0 -0.013622546951882676 -0.015187864565478559 0 -0.012976929422872993 -0.015166023419376588 0 -0.013350554619977431 -0.014734824922664824 0 -0.016244776425792147 -0.019826195632215934 0 -0.016507885099040855 -0.020536113507653719 0 -0.013658625750129721 -0.013765719554936919 0 -0.013350554619977431 -0.014734824922664824 0 -0.012393738510905226 -0.014470507690730746 0 -0.012976929422872993 -0.015166023419376588 0 -0.013350554619977431 -0.014734824922664824 0 -0.012393738510905226 -0.014470507690730746 0 -0.016507885099040855 -0.020536113507653719 0 -0.016409085165246161 -0.017075028603468309 0 -0.019763677986969735 -0.022601901025617394 0 -0.020136452216178959 -0.020197508423013474 0 -0.0188539423233803 -0.021167903916327765 0 -0.020136452216178959 -0.020197508423013474 0 -0.020471666752204361 -0.017872291049808416 0 -0.019114756150927531 -0.018608556700955556 0 -0.016409085165246161 -0.017075028603468309 0 -0.014479341928130511 -0.015378632155462736 0 -0.013658625750129721 -0.013765719554936919 0 -0.012393738510905226 -0.014470507690730746 0 -0.012541440810729628 -0.013521602205559185 0 -0.012697444236975558 -0.013127942071305184 0 -0.014479341928130511 -0.015378632155462736 0 -0.012654886711784405 -0.01231745137598261 0 -0.013101215463807898 -0.012889771571330857 0 -0.012466726478074921 -0.01336785020975261 0 -0.013658625750129721 -0.013765719554936919 0 -0.013101215463807898 -0.012889771571330857 0 -0.012466726478074921 -0.01336785020975261 0 -0.012803596696477805 -0.013386853830588765 0 -0.014479341928130511 -0.015378632155462736 0 -0.014479341928130511 -0.015378632155462736 0 -0.016103197006777082 -0.01632051392882361 0 -0.013164901349172581 -0.014885067178537163 0 -0.013096022403498308 -0.015199783763084736 0 -0.012753579100084057 -0.015073335366160302 0 -0.020471666752204361 -0.017872291049808416 0 -0.018457766635914627 -0.017262565043907288 0 -0.019114756150927531 -0.018608556700955556 0 -0.019114756150927531 -0.018608556700955556 0 -0.0182378763087187 -0.01973712803777708 0 -0.01719772400109713 -0.018471899820473276 0 -0.020136452216178959 -0.020197508423013474 0 -0.019114756150927531 -0.018608556700955556 0 -0.0182378763087187 -0.01973712803777708 0 -0.018457766635914627 -0.017262565043907288 0 -0.019114756150927531 -0.018608556700955556 0 -0.01719772400109713 -0.018471899820473276 0 -0.01719772400109713 -0.018471899820473276 0 -0.01578746979397325 -0.01925196409845838 0 -0.016974161885724572 -0.020065128364243109 0 -0.0182378763087187 -0.01973712803777708 0 -0.01719772400109713 -0.018471899820473276 0 -0.016974161885724572 -0.020065128364243109 0 -0.012889306921824379 -0.015063818430484006 0 -0.012753579100084057 -0.015073335366160302 0 -0.013181748289265367 -0.015036243881052399 0 -0.018457766635914627 -0.017262565043907288 0 -0.01719772400109713 -0.018471899820473276 0 -0.016361670158120237 -0.016544164582717912 0 -0.016103197006777082 -0.01632051392882361 0 -0.014627435349652952 -0.015814697302092957 0 -0.01719772400109713 -0.018471899820473276 0 -0.016361670158120237 -0.016544164582717912 0 -0.015100778222780699 -0.017765581111696495 0 -0.013866113695068807 -0.015863954752388526 0 -0.016361670158120237 -0.016544164582717912 0 -0.015100778222780699 -0.017765581111696495 0 -0.013866113695068807 -0.015863954752388526 0 -0.015100778222780699 -0.017765581111696495 0 -0.013329130178938426 -0.017555430269513551 0 -0.013303847874040505 -0.01585289677018099 0 -0.013866113695068807 -0.015863954752388526 0 -0.013329130178938426 -0.017555430269513551 0 -0.015100778222780699 -0.017765581111696495 0 -0.013329130178938426 -0.017555430269513551 0 -0.014333983026939588 -0.018907687193853922 0 -0.013329130178938426 -0.017555430269513551 0 -0.014333983026939588 -0.018907687193853922 0 -0.013240049084929694 -0.018714961324108114 0 -0.014333983026939588 -0.018907687193853922 0 -0.015072976253705007 -0.019799544178770799 0 -0.014241776802993459 -0.01972195973725957 0 -0.014333983026939588 -0.018907687193853922 0 -0.013701813412980466 -0.019317076920092196 0 -0.014241776802993459 -0.01972195973725957 0 -0.013240049084929694 -0.018714961324108114 0 -0.013701813412980466 -0.019317076920092196 0 -0.013148524644394293 -0.019960024200314227 0 -0.014333983026939588 -0.018907687193853922 0 -0.013240049084929694 -0.018714961324108114 0 -0.013701813412980466 -0.019317076920092196 0 -0.01719772400109713 -0.018471899820473276 0 -0.015100778222780699 -0.017765581111696495 0 -0.01578746979397325 -0.01925196409845838 0 -0.015100778222780699 -0.017765581111696495 0 -0.014333983026939588 -0.018907687193853922 0 -0.01578746979397325 -0.01925196409845838 0 -0.014333983026939588 -0.018907687193853922 0 -0.01578746979397325 -0.01925196409845838 0 -0.015072976253705007 -0.019799544178770799 0 -0.01578746979397325 -0.01925196409845838 0 -0.015955329202614197 -0.020428586767293026 0 -0.016974161885724572 -0.020065128364243109 0 -0.01578746979397325 -0.01925196409845838 0 -0.015955329202614197 -0.020428586767293026 0 -0.015072976253705007 -0.019799544178770799 0 -0.015072976253705007 -0.019799544178770799 0 -0.01503133847316457 -0.020732092220585648 0 -0.014241776802993459 -0.01972195973725957 0 -0.015955329202614197 -0.020428586767293026 0 -0.015072976253705007 -0.019799544178770799 0 -0.01503133847316457 -0.020732092220585648 0 -0.015955329202614197 -0.020428586767293026 0 -0.015995569852957987 -0.021472335471102697 0 -0.016701479296733619 -0.021252541283431601 0 -0.015955329202614197 -0.020428586767293026 0 -0.01503133847316457 -0.020732092220585648 0 -0.015995569852957987 -0.021472335471102697 0 -0.01503133847316457 -0.020732092220585648 0 -0.013148524644394293 -0.019960024200314227 0 -0.015964372246501476 -0.022750241517483429 0 -0.015993503031834506 -0.022537556240045848 0 -0.015970617693760469 -0.022754853192681671 0 -0.013701813412980466 -0.019317076920092196 0 -0.013148524644394293 -0.019960024200314227 0 -0.014241776802993459 -0.01972195973725957 0 -0.01503133847316457 -0.020732092220585648 0 -0.013148524644394293 -0.019960024200314227 0 -0.014241776802993459 -0.01972195973725957 0 -0.018794683285570726 -0.025243274708119587 0 -0.018583351707683552 -0.024361041935179434 0 -0.019007357054338949 -0.024742284492042611 0 -0.018794683285570726 -0.025243274708119587 0 -0.018583351707683552 -0.024361041935179434 0 -0.017852837562991952 -0.023739941127819793 0 -0.018794683285570726 -0.025243274708119587 0 -0.017852837562991952 -0.023739941127819793 0 -0.015964372246501476 -0.022750241517483429 0 -0.017852837562991952 -0.023739941127819793 0 -0.018465537016106696 -0.022852770856064318 0 -0.018722952102542954 -0.023625012447921791 0 -0.018583351707683552 -0.024361041935179434 0 -0.017852837562991952 -0.023739941127819793 0 -0.018722952102542954 -0.023625012447921791 0 -0.017852837562991952 -0.023739941127819793 0 -0.017628181322465752 -0.022987160938706761 0 -0.016641560833291814 -0.022827830482197536 0 -0.016641560833291814 -0.022827830482197536 0 -0.016775105486542992 -0.022189469996275236 0 -0.017681060598203114 -0.022455190843113031 0 -0.017628181322465752 -0.022987160938706761 0 -0.016641560833291814 -0.022827830482197536 0 -0.017681060598203114 -0.022455190843113031 0 -0.017852837562991952 -0.023739941127819793 0 -0.017628181322465752 -0.022987160938706761 0 -0.018465537016106696 -0.022852770856064318 0 -0.017628181322465752 -0.022987160938706761 0 -0.018465537016106696 -0.022852770856064318 0 -0.017681060598203114 -0.022455190843113031 0 -0.015995569852957987 -0.021472335471102697 0 -0.016387755617769634 -0.02216264827442984 0 -0.015964372246501476 -0.022750241517483429 0 -0.015995569852957987 -0.021472335471102697 0 -0.016387755617769634 -0.02216264827442984 0 -0.016701479296733619 -0.021252541283431601 0 -0.017852837562991952 -0.023739941127819793 0 -0.015964372246501476 -0.022750241517483429 0 -0.016641560833291814 -0.022827830482197536 0 -0.01503133847316457 -0.020732092220585648 0 -0.015995569852957987 -0.021472335471102697 0 -0.015964372246501476 -0.022750241517483429 0 -0.017150383252171084 -0.022582576410965727 0 -0.018071516180290823 -0.024516884002270711 0 -0.015964372246501476 -0.022750241517483429 0 -0.016641560833291814 -0.022827830482197536 0 -0.016290232484312096 -0.022393444672969231 0 -0.015964372246501476 -0.022750241517483429 0 -0.016226017101708116 -0.022731645360759552 0 -0.016290232484312096 -0.022393444672969231 0 -0.016387755617769634 -0.02216264827442984 0 -0.015964372246501476 -0.022750241517483429 0 -0.016226017101708116 -0.022731645360759552 0 -0.016226017101708116 -0.022731645360759552 0 -0.017188480098611372 -0.022483862833773346 0 -0.016750191551232772 -0.02313970883660544 0 -0.016387755617769634 -0.02216264827442984 0 -0.016226017101708116 -0.022731645360759552 0 -0.017188480098611372 -0.022483862833773346 0 -0.016387755617769634 -0.02216264827442984 0 -0.017188480098611372 -0.022483862833773346 0 -0.016701479296733619 -0.021252541283431601 0 -0.017188480098611372 -0.022483862833773346 0 -0.018034673081478398 -0.022204449727563819 0 -0.017692577523696122 -0.021179976016313176 0 -0.017188480098611372 -0.022483862833773346 0 -0.016701479296733619 -0.021252541283431601 0 -0.017692577523696122 -0.021179976016313176 0 -0.017188480098611372 -0.022483862833773346 0 -0.018034673081478398 -0.022204449727563819 0 -0.018058460955617046 -0.023159587269737023 0 -0.016507885099040855 -0.020536113507653719 0 -0.019171026317999537 -0.022423061325945497 0 -0.018931012232222596 -0.022538939120442858 0 -0.018034673081478398 -0.022204449727563819 0 -0.018058460955617046 -0.023159587269737023 0 -0.019763677986969735 -0.022601901025617394 0 -0.018034673081478398 -0.022204449727563819 0 -0.0188539423233803 -0.021167903916327765 0 -0.018034673081478398 -0.022204449727563819 0 -0.0188539423233803 -0.021167903916327765 0 -0.017692577523696122 -0.021179976016313176 0 -0.0182378763087187 -0.01973712803777708 0 -0.0188539423233803 -0.021167903916327765 0 -0.017692577523696122 -0.021179976016313176 0 -0.020136452216178959 -0.020197508423013474 0 -0.0182378763087187 -0.01973712803777708 0 -0.0188539423233803 -0.021167903916327765 0 -0.0182378763087187 -0.01973712803777708 0 -0.016974161885724572 -0.020065128364243109 0 -0.017692577523696122 -0.021179976016313176 0 -0.015955329202614197 -0.020428586767293026 0 -0.016974161885724572 -0.020065128364243109 0 -0.016701479296733619 -0.021252541283431601 0 -0.016974161885724572 -0.020065128364243109 0 -0.016701479296733619 -0.021252541283431601 0 -0.017692577523696122 -0.021179976016313176 0 -0.0173844842807497 -0.024434024444101338 0 -0.017637766071112067 -0.023729846004644152 0 -0.018122269116797055 -0.024520261096738348 0 -0.0173844842807497 -0.024434024444101338 0 -0.018122269116797055 -0.024520261096738348 0 -0.017408961484612514 -0.025473791251241915 0 -0.017637766071112067 -0.023729846004644152 0 -0.018435391076561267 -0.024161757775693061 0 -0.018122269116797055 -0.024520261096738348 0 -0.0184148972274913 -0.023295816818486803 0 -0.018435391076561267 -0.024161757775693061 0 -0.019133325079646778 -0.024451763381233789 0 -0.0184148972274913 -0.023295816818486803 0 -0.017637766071112067 -0.023729846004644152 0 -0.018435391076561267 -0.024161757775693061 0 -0.018435391076561267 -0.024161757775693061 0 -0.018122269116797055 -0.024520261096738348 0 -0.018741447879306074 -0.024755443456061284 0 -0.018122269116797055 -0.024520261096738348 0 -0.018741447879306074 -0.024755443456061284 0 -0.018401044882125715 -0.025369812687947989 0 -0.018435391076561267 -0.024161757775693061 0 -0.019133325079646778 -0.024451763381233789 0 -0.018741447879306074 -0.024755443456061284 0 -0.019133325079646778 -0.024451763381233789 0 -0.018741447879306074 -0.024755443456061284 0 -0.019062408646874338 -0.024915501034676196 0 -0.015510519794019169 -0.020432049875867445 0 -0.015680910731511614 -0.021221593285997698 0 -0.012403560808084489 -0.017493696531255331 0 -0.012604388991178673 -0.017538513775234073 0 -0.012249085742359648 -0.017903716871725664 0 -0.012403560808084489 -0.017493696531255331 0 -0.013329130178938426 -0.017555430269513551 0 -0.012249085742359648 -0.017903716871725664 0 -0.01259478023166296 -0.016799695097375771 0 -0.013343673502550802 -0.017533373000927024 0 -0.018794683285570726 -0.025243274708119587 0 -0.019133325079646778 -0.024451763381233789 0 -0.019062408646874338 -0.024915501034676196 0 -0.015993503031834506 -0.022537556240045848 0 -0.015680910731511614 -0.021221593285997698 0 -0.013240049084929694 -0.018714961324108114 0 -0.013148524644394293 -0.019960024200314227 0 -0.012249085742359648 -0.017903716871725664 0 -0.013329130178938426 -0.017555430269513551 0 -0.013240049084929694 -0.018714961324108114 0 -0.012249085742359648 -0.017903716871725664 0 -0.018794683285570726 -0.025243274708119587 0 -0.019048648055898423 -0.024986133758646487 0 -0.019062408646874338 -0.024915501034676196 0 -0.019048648055898423 -0.024986133758646487 0 -0.019062408646874338 -0.024915501034676196 0 -0.019084651389864524 -0.025217536393676757 0 -0.018583351707683552 -0.024361041935179434 0 -0.019007357054338949 -0.024742284492042611 0 -0.018722952102542954 -0.023625012447921791 0 -0.018794683285570726 -0.025243274708119587 0 -0.019048648055898423 -0.024986133758646487 0 -0.019007357054338949 -0.024742284492042611 0 -0.019048648055898423 -0.024986133758646487 0 -0.019084651389864524 -0.025217536393676757 0 -0.019007357054338949 -0.024742284492042611 0 -0.018465537016106696 -0.022852770856064318 0 -0.019673112778863022 -0.022563767881153225 0 -0.018722952102542954 -0.023625012447921791 0 -0.019084651389864524 -0.025217536393676757 0 -0.019007357054338949 -0.024742284492042611 0 -0.019290971416471975 -0.026011969560271853 0 -0.019015931271189366 -0.024774726711053463 0 -0.01938164454094388 -0.024414886885439729 0 -0.019007357054338949 -0.024742284492042611 0 -0.019673112778863022 -0.022563767881153225 0 -0.018722952102542954 -0.023625012447921791 0 -0.019084651389864524 -0.025217536393676757 0 -0.018799098125657852 -0.026054128427788495 0 -0.018846276457950804 -0.025220445450089331 0 -0.019084651389864524 -0.025217536393676757 0 -0.019290971416471975 -0.026011969560271853 0 -0.018799098125657852 -0.026054128427788495 0 -0.018741447879306074 -0.024755443456061284 0 -0.019062408646874338 -0.024915501034676196 0 -0.018846276457950804 -0.025220445450089331 0 -0.019062408646874338 -0.024915501034676196 0 -0.019084651389864524 -0.025217536393676757 0 -0.018846276457950804 -0.025220445450089331 0 -0.018741447879306074 -0.024755443456061284 0 -0.018846276457950804 -0.025220445450089331 0 -0.018401044882125715 -0.025369812687947989 0 -0.018799098125657852 -0.026054128427788495 0 -0.018401044882125715 -0.025369812687947989 0 -0.018284460349938397 -0.026505390629912143 0 -0.018799098125657852 -0.026054128427788495 0 -0.018846276457950804 -0.025220445450089331 0 -0.018401044882125715 -0.025369812687947989 0 -0.017704480243713374 -0.025848401628315715 0 -0.018242581992558893 -0.026475490335309899 0 -0.018401044882125715 -0.025369812687947989 0 -0.017408961484612514 -0.025473791251241915 0 -0.018284460349938397 -0.026505390629912143 0 -0.017680768916453548 -0.026678432607728154 0 -0.017974546367653811 -0.026237800513066723 0 -0.018284460349938397 -0.026505390629912143 0 -0.018122269116797055 -0.024520261096738348 0 -0.018401044882125715 -0.025369812687947989 0 -0.017408961484612514 -0.025473791251241915 0 -0.018376272367644209 -0.027817118290594932 0 -0.018477460599002054 -0.027316119657730214 0 -0.018748052949893429 -0.028107825794433126 0 -0.017785969733276639 -0.027488421629998115 0 -0.018015284751215142 -0.02783702673719346 0 -0.018108182865524864 -0.027392915073137892 0 -0.018015284751215142 -0.02783702673719346 0 -0.018376272367644209 -0.027817118290594932 0 -0.018108182865524864 -0.027392915073137892 0 -0.018376272367644209 -0.027817118290594932 0 -0.018108182865524864 -0.027392915073137892 0 -0.018477460599002054 -0.027316119657730214 0 -0.018108182865524864 -0.027392915073137892 0 -0.018240729484693265 -0.027007393778763721 0 -0.018477460599002054 -0.027316119657730214 0 -0.017680768916453548 -0.026678432607728154 0 -0.017869662646364338 -0.027046910025576333 0 -0.018284460349938397 -0.026505390629912143 0 -0.017869662646364338 -0.027046910025576333 0 -0.018108182865524864 -0.027392915073137892 0 -0.018240729484693265 -0.027007393778763721 0 -0.017869662646364338 -0.027046910025576333 0 -0.018240729484693265 -0.027007393778763721 0 -0.018284460349938397 -0.026505390629912143 0 -0.018503987999690878 -0.026808100942769812 0 -0.018477460599002054 -0.027316119657730214 0 -0.01891260487042053 -0.026805220307347815 0 -0.018240729484693265 -0.027007393778763721 0 -0.018503987999690878 -0.026808100942769812 0 -0.018284460349938397 -0.026505390629912143 0 -0.018799098125657852 -0.026054128427788495 0 -0.018644811099715337 -0.026527960378619445 0 -0.01891260487042053 -0.026805220307347815 0 -0.018240729484693265 -0.027007393778763721 0 -0.018503987999690878 -0.026808100942769812 0 -0.018477460599002054 -0.027316119657730214 0 -0.018503987999690878 -0.026808100942769812 0 -0.018284460349938397 -0.026505390629912143 0 -0.018644811099715337 -0.026527960378619445 0 -0.018799098125657852 -0.026054128427788495 0 -0.018284460349938397 -0.026505390629912143 0 -0.018644811099715337 -0.026527960378619445 0 -0.018503987999690878 -0.026808100942769812 0 -0.018644811099715337 -0.026527960378619445 0 -0.01891260487042053 -0.026805220307347815 0 -0.019566881629982661 -0.024031449251098461 0 -0.019211127463496555 -0.026160773747112079 0 -0.018986438770436907 -0.026997892607571832 0 -0.01891260487042053 -0.026805220307347815 0 -0.018626768314795723 -0.027531731499129936 0 -0.018652690566016296 -0.027580749892150331 0 -0.019211127463496555 -0.026160773747112079 0 -0.019955947470038642 -0.021618539142749922 0 -0.019871750802847539 -0.021404022292885658 0 -0.019970446700820071 -0.021472321153023367 0 -0.018477460599002054 -0.027316119657730214 0 -0.01891260487042053 -0.026805220307347815 0 -0.018748052949893429 -0.028107825794433126 0 -0.019955947470038642 -0.021618539142749922 0 -0.019871750802847539 -0.021404022292885658 0 -0.019549098092522227 -0.021823593618485022 0 -0.019673112778863022 -0.022563767881153225 0 -0.019955947470038642 -0.021618539142749922 0 -0.019549098092522227 -0.021823593618485022 0 -0.01938164454094388 -0.024414886885439729 0 -0.019566881629982661 -0.024031449251098461 0 -0.019290971416471975 -0.026011969560271853 0 -0.018799098125657852 -0.026054128427788495 0 -0.01891260487042053 -0.026805220307347815 0 -0.019290971416471975 -0.026011969560271853 0 -0.018986438770436907 -0.026997892607571832 0 -0.01891260487042053 -0.026805220307347815 0 -0.019673112778863022 -0.022563767881153225 0 -0.019549098092522227 -0.021823593618485022 0 -0.018842651100559448 -0.021493637026931883 0 -0.018465537016106696 -0.022852770856064318 0 -0.019673112778863022 -0.022563767881153225 0 -0.018842651100559448 -0.021493637026931883 0 -0.019659097716273433 -0.025259274256015998 0 -0.019357334065099877 -0.02546450846502897 0 -0.019871750802847539 -0.021404022292885658 0 -0.019549098092522227 -0.021823593618485022 0 -0.018842651100559448 -0.021493637026931883 0 -0.019217487918426746 -0.029639165793975294 0 -0.019862827949750094 -0.029120952211171457 0 -0.019726174503286231 -0.029743172060838329 0 -0.019862827949750094 -0.029120952211171457 0 -0.019726174503286231 -0.029743172060838329 0 -0.020236210481248705 -0.02996021466854721 0 -0.019726174503286231 -0.029743172060838329 0 -0.019746656510478581 -0.030240649333808132 0 -0.020236210481248705 -0.02996021466854721 0 -0.019726174503286231 -0.029743172060838329 0 -0.019746656510478581 -0.030240649333808132 0 -0.019437818359381572 -0.030021060391596001 0 -0.019746656510478581 -0.030240649333808132 0 -0.019640931660370658 -0.030677939462945048 0 -0.020109913088854788 -0.030584134678626026 0 -0.019746656510478581 -0.030240649333808132 0 -0.019640931660370658 -0.030677939462945048 0 -0.019353462061461085 -0.030366330314389605 0 -0.019746656510478581 -0.030240649333808132 0 -0.019353462061461085 -0.030366330314389605 0 -0.019437818359381572 -0.030021060391596001 0 -0.019353462061461085 -0.030366330314389605 0 -0.01916340242248004 -0.030116447998601952 0 -0.019437818359381572 -0.030021060391596001 0 -0.019640931660370658 -0.030677939462945048 0 -0.019353462061461085 -0.030366330314389605 0 -0.019269690557597353 -0.030771128261159221 0 -0.019353462061461085 -0.030366330314389605 0 -0.019066498206908412 -0.030468347802840318 0 -0.019269690557597353 -0.030771128261159221 0 -0.019353462061461085 -0.030366330314389605 0 -0.019066498206908412 -0.030468347802840318 0 -0.01916340242248004 -0.030116447998601952 0 -0.019217487918426746 -0.029639165793975294 0 -0.019726174503286231 -0.029743172060838329 0 -0.019437818359381572 -0.030021060391596001 0 -0.019217487918426746 -0.029639165793975294 0 -0.01916340242248004 -0.030116447998601952 0 -0.018897683909499512 -0.030198403585181433 0 -0.019217487918426746 -0.029639165793975294 0 -0.01916340242248004 -0.030116447998601952 0 -0.019437818359381572 -0.030021060391596001 0 -0.019871750802847539 -0.021404022292885658 0 -0.019970446700820071 -0.021472321153023367 0 -0.019988568549697241 -0.021497332958624972 0 -0.019659097716273433 -0.025259274256015998 0 -0.018914497735370399 -0.027390276639830357 0 -0.019217487918426746 -0.029639165793975294 0 -0.018604471259475355 -0.030088378653941317 0 -0.018897683909499512 -0.030198403585181433 0 -0.019369501232696863 -0.026434700734057893 0 -0.018859959480926898 -0.027497332074902767 0 -0.018381108127111811 -0.02780028052681861 0 -0.019211127463496555 -0.026160773747112079 0 -0.018458430820024668 -0.028247196606674654 0 -0.019211127463496555 -0.026160773747112079 0 -0.018914497735370399 -0.027390276639830357 0 -0.019066498206908412 -0.030468347802840318 0 -0.018897683909499512 -0.030198403585181433 0 -0.018771940216845858 -0.030521511485892452 0 -0.019066498206908412 -0.030468347802840318 0 -0.01916340242248004 -0.030116447998601952 0 -0.018897683909499512 -0.030198403585181433 0 -0.019066498206908412 -0.030468347802840318 0 -0.018771940216845858 -0.030521511485892452 0 -0.018948910180873271 -0.030829874452544277 0 -0.018771940216845858 -0.030521511485892452 0 -0.018601611963524379 -0.0305780698856917 0 -0.018630595592445943 -0.030790674201263964 0 -0.018771940216845858 -0.030521511485892452 0 -0.018634096580013807 -0.030405657186901573 0 -0.018601611963524379 -0.0305780698856917 0 -0.018897683909499512 -0.030198403585181433 0 -0.018771940216845858 -0.030521511485892452 0 -0.018634096580013807 -0.030405657186901573 0 -0.018604471259475355 -0.030088378653941317 0 -0.018897683909499512 -0.030198403585181433 0 -0.018634096580013807 -0.030405657186901573 0 -0.018914497735370399 -0.027390276639830357 0 -0.018263173017114224 -0.030837598452115787 0 -0.018458430820024668 -0.028247196606674654 0 -0.01817269293377724 -0.029997115410613097 0 -0.018488531940284252 -0.028641624087254618 0 -0.018612260628033044 -0.028499191539954401 0 -0.01829660811214678 -0.029504760835748652 0 -0.018923672120758163 -0.029218422827597911 0 -0.018768687607816747 -0.029320874854774866 0 -0.018481728731343412 -0.030195827327903317 0 -0.018604471259475355 -0.030088378653941317 0 -0.018634096580013807 -0.030405657186901573 0 -0.018360870635419597 -0.030656598633888119 0 -0.018768687607816747 -0.029320874854774866 0 -0.018147648111460322 -0.030248280788865111 0 -0.018481728731343412 -0.030195827327903317 0 -0.018431377808742273 -0.028332629905876105 0 -0.018458430820024668 -0.028247196606674654 0 -0.018634096580013807 -0.030405657186901573 0 -0.018601611963524379 -0.0305780698856917 0 -0.018360870635419597 -0.030656598633888119 0 -0.018488531940284252 -0.028641624087254618 0 -0.018251379124227571 -0.0288979122971855 0 -0.01829660811214678 -0.029504760835748652 0 -0.018045024173677184 -0.028933767258009349 0 -0.018251379124227571 -0.0288979122971855 0 -0.018181969494460198 -0.028537346154721553 0 -0.018488531940284252 -0.028641624087254618 0 -0.018251379124227571 -0.0288979122971855 0 -0.018181969494460198 -0.028537346154721553 0 -0.018181969494460198 -0.028537346154721553 0 -0.018398646054453658 -0.028411884730597921 0 -0.018248398526581028 -0.028162995105784235 0 -0.017928080781876601 -0.028202284487581789 0 -0.018181969494460198 -0.028537346154721553 0 -0.018248398526581028 -0.028162995105784235 0 -0.018488531940284252 -0.028641624087254618 0 -0.018181969494460198 -0.028537346154721553 0 -0.018398646054453658 -0.028411884730597921 0 -0.018488531940284252 -0.028641624087254618 0 -0.018398646054453658 -0.028411884730597921 0 -0.018579436031317155 -0.028513438926498127 0 -0.018748052949893429 -0.028107825794433126 0 -0.018579436031317155 -0.028513438926498127 0 -0.018472870961106419 -0.028204541194145841 0 -0.018398646054453658 -0.028411884730597921 0 -0.018579436031317155 -0.028513438926498127 0 -0.018472870961106419 -0.028204541194145841 0 -0.018914497735370399 -0.027390276639830357 0 -0.018458430820024668 -0.028247196606674654 0 -0.018398646054453658 -0.028411884730597921 0 -0.018472870961106419 -0.028204541194145841 0 -0.018248398526581028 -0.028162995105784235 0 -0.018376272367644209 -0.027817118290594932 0 -0.018748052949893429 -0.028107825794433126 0 -0.018472870961106419 -0.028204541194145841 0 -0.018376272367644209 -0.027817118290594932 0 -0.018472870961106419 -0.028204541194145841 0 -0.018248398526581028 -0.028162995105784235 0 -0.018015284751215142 -0.02783702673719346 0 -0.018376272367644209 -0.027817118290594932 0 -0.018248398526581028 -0.028162995105784235 0 -0.017928080781876601 -0.028202284487581789 0 -0.018015284751215142 -0.02783702673719346 0 -0.018248398526581028 -0.028162995105784235 0 -0.017175221729914623 -0.024674118177227325 0 -0.017813935017959876 -0.02422441448648056 0 -0.017347456518812445 -0.02360681878077071 0 -0.017175221729914623 -0.024674118177227325 0 -0.016477977672165803 -0.023623700805711897 0 -0.016112340820418056 -0.024537162628765145 0 -0.017175221729914623 -0.024674118177227325 0 -0.017347456518812445 -0.02360681878077071 0 -0.016477977672165803 -0.023623700805711897 0 -0.018328577869405289 -0.024785050692827871 0 -0.018200468048762842 -0.024724633126555227 0 -0.018625126548210101 -0.023804774161744577 0 -0.017813935017959876 -0.02422441448648056 0 -0.018114292653333273 -0.024989461914875156 0 -0.017175221729914623 -0.024674118177227325 0 -0.017813935017959876 -0.02422441448648056 0 -0.018114292653333273 -0.024989461914875156 0 -0.018625126548210101 -0.023804774161744577 0 -0.018931012232222596 -0.022538939120442858 0 -0.018058460955617046 -0.023159587269737023 0 -0.017813935017959876 -0.02422441448648056 0 -0.018058460955617046 -0.023159587269737023 0 -0.017347456518812445 -0.02360681878077071 0 -0.018625126548210101 -0.023804774161744577 0 -0.017813935017959876 -0.02422441448648056 0 -0.018058460955617046 -0.023159587269737023 0 -0.017188480098611372 -0.022483862833773346 0 -0.017347456518812445 -0.02360681878077071 0 -0.016750191551232772 -0.02313970883660544 0 -0.017188480098611372 -0.022483862833773346 0 -0.018058460955617046 -0.023159587269737023 0 -0.017347456518812445 -0.02360681878077071 0 -0.017347456518812445 -0.02360681878077071 0 -0.016750191551232772 -0.02313970883660544 0 -0.016477977672165803 -0.023623700805711897 0 -0.015738395566663722 -0.023168937928836498 0 -0.016477977672165803 -0.023623700805711897 0 -0.016112340820418056 -0.024537162628765145 0 -0.018071516180290823 -0.024516884002270711 0 -0.01837935303244511 -0.0270237843301998 0 -0.016226017101708116 -0.022731645360759552 0 -0.0162850772013266 -0.023168907192348064 0 -0.015738395566663722 -0.023168937928836498 0 -0.0162850772013266 -0.023168907192348064 0 -0.015738395566663722 -0.023168937928836498 0 -0.016477977672165803 -0.023623700805711897 0 -0.016509425052166109 -0.023431582003550392 0 -0.018071516180290823 -0.024516884002270711 0 -0.016226017101708116 -0.022731645360759552 0 -0.016750191551232772 -0.02313970883660544 0 -0.0162850772013266 -0.023168907192348064 0 -0.016750191551232772 -0.02313970883660544 0 -0.0162850772013266 -0.023168907192348064 0 -0.016477977672165803 -0.023623700805711897 0 -0.019357334065099877 -0.02546450846502897 0 -0.018071516180290823 -0.024516884002270711 0 -0.018465537016106696 -0.022852770856064318 0 -0.018842651100559448 -0.021493637026931883 0 -0.017681060598203114 -0.022455190843113031 0 -0.018842651100559448 -0.021493637026931883 0 -0.016775105486542992 -0.022189469996275236 0 -0.017681060598203114 -0.022455190843113031 0 -0.019862827949750094 -0.029120952211171457 0 -0.020596413816781234 -0.028569099681080089 0 -0.020354351241947354 -0.029203094641288375 0 -0.020354351241947354 -0.029203094641288375 0 -0.02073043826550814 -0.029394911558887397 0 -0.020236210481248705 -0.02996021466854721 0 -0.019862827949750094 -0.029120952211171457 0 -0.020354351241947354 -0.029203094641288375 0 -0.020236210481248705 -0.02996021466854721 0 -0.020596413816781234 -0.028569099681080089 0 -0.020354351241947354 -0.029203094641288375 0 -0.02073043826550814 -0.029394911558887397 0 -0.020890601013869359 -0.030266080325753581 0 -0.019322985222495086 -0.028832965280106093 0 -0.02073043826550814 -0.029394911558887397 0 -0.020236210481248705 -0.02996021466854721 0 -0.020834621950197481 -0.030174899227219314 0 -0.01837935303244511 -0.0270237843301998 0 -0.019322985222495086 -0.028832965280106093 0 -0.017175221729914623 -0.024674118177227325 0 -0.016112340820418056 -0.024537162628765145 0 -0.016453866779320956 -0.025671434510312962 0 -0.019746656510478581 -0.030240649333808132 0 -0.020236210481248705 -0.02996021466854721 0 -0.020109913088854788 -0.030584134678626026 0 -0.020236210481248705 -0.02996021466854721 0 -0.020109913088854788 -0.030584134678626026 0 -0.020766084850323881 -0.030226913720926347 0 -0.020766084850323881 -0.030226913720926347 0 -0.020821103899038747 -0.030821605420808789 0 -0.02044985413556509 -0.030860461759602737 0 -0.019322985222495086 -0.028832965280106093 0 -0.020800718363896107 -0.031341768448842074 0 -0.020109913088854788 -0.030584134678626026 0 -0.020766084850323881 -0.030226913720926347 0 -0.02044985413556509 -0.030860461759602737 0 -0.016453866779320956 -0.025671434510312962 0 -0.017487081689058055 -0.025349511445323714 0 -0.017533291274700134 -0.025894918233175749 0 -0.020632313762744461 -0.030864748890741107 0 -0.021031423469519379 -0.031056296766716441 0 -0.020894476107388538 -0.031189025819344966 0 -0.019322985222495086 -0.028832965280106093 0 -0.01946931693062031 -0.02835075913634227 0 -0.020632313762744461 -0.030864748890741107 0 -0.020894476107388538 -0.031189025819344966 0 -0.020697411275588069 -0.031201469134968938 0 -0.021031423469519379 -0.031056296766716441 0 -0.021112125338233475 -0.031264809513757805 0 -0.020894476107388538 -0.031189025819344966 0 -0.017175221729914623 -0.024674118177227325 0 -0.016453866779320956 -0.025671434510312962 0 -0.017487081689058055 -0.025349511445323714 0 -0.017175221729914623 -0.024674118177227325 0 -0.018114292653333273 -0.024989461914875156 0 -0.017487081689058055 -0.025349511445323714 0 -0.018114292653333273 -0.024989461914875156 0 -0.017487081689058055 -0.025349511445323714 0 -0.017980397861426665 -0.025486608119026394 0 -0.01946931693062031 -0.02835075913634227 0 -0.017529029750598613 -0.029718645514078875 0 -0.017980397861426665 -0.025486608119026394 0 -0.017533291274700134 -0.025894918233175749 0 -0.018223106869468684 -0.025991603927171699 0 -0.017487081689058055 -0.025349511445323714 0 -0.017980397861426665 -0.025486608119026394 0 -0.017533291274700134 -0.025894918233175749 0 -0.021112125338233475 -0.031264809513757805 0 -0.021223375342466461 -0.031375501322639936 0 -0.021335669045244105 -0.031220296673287642 0 -0.021031423469519379 -0.031056296766716441 0 -0.021112125338233475 -0.031264809513757805 0 -0.021335669045244105 -0.031220296673287642 0 -0.021125301309098732 -0.031375378637738024 0 -0.021085846465712248 -0.031456315419506789 0 -0.020997929069644976 -0.031365906678389704 0 -0.021125301309098732 -0.031375378637738024 0 -0.021085846465712248 -0.031456315419506789 0 -0.021185941849163628 -0.031407875575638122 0 -0.021112125338233475 -0.031264809513757805 0 -0.021125301309098732 -0.031375378637738024 0 -0.020997929069644976 -0.031365906678389704 0 -0.021112125338233475 -0.031264809513757805 0 -0.021125301309098732 -0.031375378637738024 0 -0.021223375342466461 -0.031375501322639936 0 -0.021125301309098732 -0.031375378637738024 0 -0.021223375342466461 -0.031375501322639936 0 -0.021185941849163628 -0.031407875575638122 0 -0.017281226797645335 -0.032555412340919833 0 -0.018597296773010193 -0.031939917683590204 0 -0.021214104314448912 -0.031367972602629322 0 -0.021185941849163628 -0.031407875575638122 0 -0.021117171817826404 -0.031660560783759534 0 -0.013367460768225361 -0.03547444610186249 0 -0.014455652407557864 -0.034322171931226775 0 -0.01310845546195873 -0.034379158849834446 0 -0.017281226797645335 -0.032555412340919833 0 -0.01764456084380556 -0.033138997320407815 0 -0.021085846465712248 -0.031456315419506789 0 -0.021117171817826404 -0.031660560783759534 0 -0.021009473097903946 -0.03151960747025636 0 -0.021085846465712248 -0.031456315419506789 0 -0.021185941849163628 -0.031407875575638122 0 -0.021117171817826404 -0.031660560783759534 0 -0.014455652407557864 -0.034322171931226775 0 -0.013073203732158683 -0.033052186967445843 0 -0.01310845546195873 -0.034379158849834446 0 -0.020927682237793132 -0.031674911889962486 0 -0.020802264960359709 -0.031865251900427785 0 -0.0209043392812686 -0.032152335113146489 0 -0.020927682237793132 -0.031674911889962486 0 -0.020802264960359709 -0.031865251900427785 0 -0.020830320893705088 -0.031607191914185449 0 -0.020802264960359709 -0.031865251900427785 0 -0.020830320893705088 -0.031607191914185449 0 -0.020699786937920774 -0.031615454798983304 0 -0.021117171817826404 -0.031660560783759534 0 -0.020927682237793132 -0.031674911889962486 0 -0.0209043392812686 -0.032152335113146489 0 -0.020927682237793132 -0.031674911889962486 0 -0.021009473097903946 -0.03151960747025636 0 -0.020896421261348712 -0.031476327690895943 0 -0.021117171817826404 -0.031660560783759534 0 -0.020927682237793132 -0.031674911889962486 0 -0.021009473097903946 -0.03151960747025636 0 -0.020927682237793132 -0.031674911889962486 0 -0.020896421261348712 -0.031476327690895943 0 -0.020830320893705088 -0.031607191914185449 0 -0.020830320893705088 -0.031607191914185449 0 -0.020781026441281908 -0.031476338055962269 0 -0.020699786937920774 -0.031615454798983304 0 -0.020896421261348712 -0.031476327690895943 0 -0.020830320893705088 -0.031607191914185449 0 -0.020781026441281908 -0.031476338055962269 0 -0.020781026441281908 -0.031476338055962269 0 -0.020860373120770707 -0.031346402625291071 0 -0.020697411275588069 -0.031201469134968938 0 -0.020896421261348712 -0.031476327690895943 0 -0.020781026441281908 -0.031476338055962269 0 -0.020860373120770707 -0.031346402625291071 0 -0.021085846465712248 -0.031456315419506789 0 -0.021009473097903946 -0.03151960747025636 0 -0.020997929069644976 -0.031365906678389704 0 -0.020896421261348712 -0.031476327690895943 0 -0.020860373120770707 -0.031346402625291071 0 -0.020997929069644976 -0.031365906678389704 0 -0.021009473097903946 -0.03151960747025636 0 -0.020896421261348712 -0.031476327690895943 0 -0.020997929069644976 -0.031365906678389704 0 -0.020860373120770707 -0.031346402625291071 0 -0.020997929069644976 -0.031365906678389704 0 -0.020894476107388538 -0.031189025819344966 0 -0.021112125338233475 -0.031264809513757805 0 -0.020997929069644976 -0.031365906678389704 0 -0.020894476107388538 -0.031189025819344966 0 -0.020860373120770707 -0.031346402625291071 0 -0.020894476107388538 -0.031189025819344966 0 -0.020697411275588069 -0.031201469134968938 0 -0.020769976823785695 -0.031296115459371075 0 -0.020800718363896107 -0.031341768448842074 0 -0.020781026441281908 -0.031476338055962269 0 -0.020821103899038747 -0.030821605420808789 0 -0.020549042533002031 -0.031347475037909855 0 -0.020821103899038747 -0.030821605420808789 0 -0.02044985413556509 -0.030860461759602737 0 -0.020549042533002031 -0.031347475037909855 0 -0.02044985413556509 -0.030860461759602737 0 -0.02029550961685981 -0.031199059088566308 0 -0.020549042533002031 -0.031347475037909855 0 -0.020109913088854788 -0.030584134678626026 0 -0.020176645823926413 -0.030976031388608754 0 -0.01987613165627675 -0.03102087365176024 0 -0.020109913088854788 -0.030584134678626026 0 -0.02044985413556509 -0.030860461759602737 0 -0.020176645823926413 -0.030976031388608754 0 -0.020176645823926413 -0.030976031388608754 0 -0.02029550961685981 -0.031199059088566308 0 -0.020071322892774659 -0.031280392544911377 0 -0.02044985413556509 -0.030860461759602737 0 -0.020176645823926413 -0.030976031388608754 0 -0.02029550961685981 -0.031199059088566308 0 -0.020176645823926413 -0.030976031388608754 0 -0.020071322892774659 -0.031280392544911377 0 -0.01987613165627675 -0.03102087365176024 0 -0.020071322892774659 -0.031280392544911377 0 -0.020342969308655125 -0.031401679615317771 0 -0.020097503559563881 -0.031561145739750669 0 -0.02029550961685981 -0.031199059088566308 0 -0.020071322892774659 -0.031280392544911377 0 -0.020342969308655125 -0.031401679615317771 0 -0.019777507932403789 -0.032125050954484043 0 -0.020699786937920774 -0.031615454798983304 0 -0.020203896165546756 -0.03205399999903772 0 -0.019972367933314479 -0.031834044065670246 0 -0.020679038532061059 -0.031634870196068976 0 -0.020342969308655125 -0.031401679615317771 0 -0.020097503559563881 -0.031561145739750669 0 -0.020699786937920774 -0.031615454798983304 0 -0.020781026441281908 -0.031476338055962269 0 -0.020699786937920774 -0.031615454798983304 0 -0.020549042533002031 -0.031347475037909855 0 -0.020342969308655125 -0.031401679615317771 0 -0.020699786937920774 -0.031615454798983304 0 -0.020549042533002031 -0.031347475037909855 0 -0.02029550961685981 -0.031199059088566308 0 -0.020342969308655125 -0.031401679615317771 0 -0.020549042533002031 -0.031347475037909855 0 -0.020203896165546756 -0.03205399999903772 0 -0.020576700365126297 -0.031917535082722173 0 -0.020349485388147636 -0.032108883627454211 0 -0.020699786937920774 -0.031615454798983304 0 -0.020203896165546756 -0.03205399999903772 0 -0.020576700365126297 -0.031917535082722173 0 -0.020802264960359709 -0.031865251900427785 0 -0.020699786937920774 -0.031615454798983304 0 -0.020576700365126297 -0.031917535082722173 0 -0.02004410361174808 -0.032647507036889505 0 -0.019896059843313357 -0.032406060238615836 0 -0.020284501851565748 -0.032616823123475878 0 -0.020576700365126297 -0.031917535082722173 0 -0.020349485388147636 -0.032108883627454211 0 -0.0209043392812686 -0.032152335113146489 0 -0.020422887833977929 -0.032228119732317595 0 -0.019362328199693024 -0.033074567721633218 0 -0.02004410361174808 -0.032647507036889505 0 -0.020284501851565748 -0.032616823123475878 0 -0.020218005140297764 -0.032667507862600573 0 -0.020349485388147636 -0.032108883627454211 0 -0.019896059843313357 -0.032406060238615836 0 -0.0209043392812686 -0.032152335113146489 0 -0.019777507932403789 -0.032125050954484043 0 -0.019896059843313357 -0.032406060238615836 0 -0.019646586580886083 -0.03246292647736565 0 -0.020203896165546756 -0.03205399999903772 0 -0.020349485388147636 -0.032108883627454211 0 -0.019896059843313357 -0.032406060238615836 0 -0.019777507932403789 -0.032125050954484043 0 -0.020203896165546756 -0.03205399999903772 0 -0.019896059843313357 -0.032406060238615836 0 -0.02004410361174808 -0.032647507036889505 0 -0.019896059843313357 -0.032406060238615836 0 -0.019897501703258973 -0.032635283827090932 0 -0.019896059843313357 -0.032406060238615836 0 -0.019897501703258973 -0.032635283827090932 0 -0.01976760818253891 -0.032642591018900317 0 -0.019896059843313357 -0.032406060238615836 0 -0.01976760818253891 -0.032642591018900317 0 -0.019646586580886083 -0.03246292647736565 0 -0.01976760818253891 -0.032642591018900317 0 -0.019858058107482517 -0.03286175164222422 0 -0.019533366658004574 -0.032825791111768393 0 -0.019897501703258973 -0.032635283827090932 0 -0.01976760818253891 -0.032642591018900317 0 -0.019858058107482517 -0.03286175164222422 0 -0.02004410361174808 -0.032647507036889505 0 -0.019897501703258973 -0.032635283827090932 0 -0.019858058107482517 -0.03286175164222422 0 -0.019858058107482517 -0.03286175164222422 0 -0.019777090591229743 -0.033088477204282166 0 -0.01991313638429083 -0.033090189560016338 0 -0.019858058107482517 -0.03286175164222422 0 -0.019645412418597817 -0.033015859341115429 0 -0.019777090591229743 -0.033088477204282166 0 -0.019858058107482517 -0.03286175164222422 0 -0.020190172719390269 -0.032903373502378278 0 -0.01991313638429083 -0.033090189560016338 0 -0.02004410361174808 -0.032647507036889505 0 -0.019858058107482517 -0.03286175164222422 0 -0.020190172719390269 -0.032903373502378278 0 -0.02004410361174808 -0.032647507036889505 0 -0.020190172719390269 -0.032903373502378278 0 -0.020218005140297764 -0.032667507862600573 0 -0.011123014421173473 -0.039322045756069901 0 -0.010308159671268467 -0.039700376649637006 0 -0.010463922944233456 -0.038844431545895841 0 -0.011123014421173473 -0.039322045756069901 0 -0.010308159671268467 -0.039700376649637006 0 -0.010215387690223074 -0.040519272238880348 0 -0.016072599081390183 -0.03592902246725041 0 -0.013941727586816657 -0.035629507201501508 0 -0.010308159671268467 -0.039700376649637006 0 -0.0097912807976331413 -0.040274401891220411 0 -0.0087179752400696024 -0.039035931359855516 0 -0.0097912807976331413 -0.040274401891220411 0 -0.0085950827583435915 -0.038848215847498715 0 -0.0087002193186682293 -0.04044622122409311 0 -0.010308159671268467 -0.039700376649637006 0 -0.010463922944233456 -0.038844431545895841 0 -0.0087179752400696024 -0.039035931359855516 0 -0.0097196603274576302 -0.040203909806507787 0 -0.0086714945919215778 -0.038963233244784276 0 -0.013941727586816657 -0.035629507201501508 0 -0.010624877022558514 -0.036837012952004755 0 -0.014455652407557864 -0.034322171931226775 0 -0.015020186925395517 -0.033122996406083731 0 -0.013073203732158683 -0.033052186967445843 0 -0.0097912807976331413 -0.040274401891220411 0 -0.010215387690223074 -0.040519272238880348 0 -0.0087002193186682293 -0.04044622122409311 0 -0.014455652407557864 -0.034322171931226775 0 -0.015020186925395517 -0.033122996406083731 0 -0.015566327067364593 -0.033148605103662958 0 -0.020190172719390269 -0.032903373502378278 0 -0.020307684218556391 -0.032608320096532105 0 -0.020218005140297764 -0.032667507862600573 0 -0.01764456084380556 -0.033138997320407815 0 -0.019362328199693024 -0.033074567721633218 0 -0.013941727586816657 -0.035629507201501508 0 -0.019362328199693024 -0.033074567721633218 0 -0.020802264960359709 -0.031865251900427785 0 -0.020576700365126297 -0.031917535082722173 0 -0.0209043392812686 -0.032152335113146489 0 -0.020307684218556391 -0.032608320096532105 0 -0.020252737240873685 -0.032611770177174412 0 -0.020218005140297764 -0.032667507862600573 0 -0.019362328199693024 -0.033074567721633218 0 -0.019939724573533976 -0.032620284621320564 0 -0.010308159671268467 -0.039700376649637006 0 -0.0097912807976331413 -0.040274401891220411 0 -0.010215387690223074 -0.040519272238880348 0 -0.01839097274001969 -0.031391254356391417 0 -0.018734392502459569 -0.031192270655876392 0 -0.018746319599811694 -0.032087740651960753 0 -0.018058393214060314 -0.03103472589785599 0 -0.017967632739321004 -0.03171958460124253 0 -0.01839097274001969 -0.031391254356391417 0 -0.01839097274001969 -0.031391254356391417 0 -0.018439360969322593 -0.03100558235983664 0 -0.018734392502459569 -0.031192270655876392 0 -0.018058393214060314 -0.03103472589785599 0 -0.01839097274001969 -0.031391254356391417 0 -0.018439360969322593 -0.03100558235983664 0 -0.018058393214060314 -0.03103472589785599 0 -0.018147648111460322 -0.030248280788865111 0 -0.018481728731343412 -0.030195827327903317 0 -0.018163003890570673 -0.030845515154706685 0 -0.018263173017114224 -0.030837598452115787 0 -0.018058393214060314 -0.03103472589785599 0 -0.018360870635419597 -0.030656598633888119 0 -0.018439360969322593 -0.03100558235983664 0 -0.018360870635419597 -0.030656598633888119 0 -0.018439360969322593 -0.03100558235983664 0 -0.018630595592445943 -0.030790674201263964 0 -0.018601611963524379 -0.0305780698856917 0 -0.018360870635419597 -0.030656598633888119 0 -0.018630595592445943 -0.030790674201263964 0 -0.018439360969322593 -0.03100558235983664 0 -0.018630595592445943 -0.030790674201263964 0 -0.018734392502459569 -0.031192270655876392 0 -0.018630595592445943 -0.030790674201263964 0 -0.018948910180873271 -0.030829874452544277 0 -0.018734392502459569 -0.031192270655876392 0 -0.018771940216845858 -0.030521511485892452 0 -0.018630595592445943 -0.030790674201263964 0 -0.018948910180873271 -0.030829874452544277 0 -0.018948910180873271 -0.030829874452544277 0 -0.018734392502459569 -0.031192270655876392 0 -0.019224888489197352 -0.031257722368602088 0 -0.019224888489197352 -0.031257722368602088 0 -0.019448114011065911 -0.031726566743273794 0 -0.018746319599811694 -0.032087740651960753 0 -0.018734392502459569 -0.031192270655876392 0 -0.019224888489197352 -0.031257722368602088 0 -0.018746319599811694 -0.032087740651960753 0 -0.019224888489197352 -0.031257722368602088 0 -0.019712645025614796 -0.031322447691555684 0 -0.019448114011065911 -0.031726566743273794 0 -0.019224888489197352 -0.031257722368602088 0 -0.019545417568200326 -0.03101258307069827 0 -0.019712645025614796 -0.031322447691555684 0 -0.018948910180873271 -0.030829874452544277 0 -0.019224888489197352 -0.031257722368602088 0 -0.019269690557597353 -0.030771128261159221 0 -0.019066498206908412 -0.030468347802840318 0 -0.018948910180873271 -0.030829874452544277 0 -0.019269690557597353 -0.030771128261159221 0 -0.019640931660370658 -0.030677939462945048 0 -0.019269690557597353 -0.030771128261159221 0 -0.019545417568200326 -0.03101258307069827 0 -0.019224888489197352 -0.031257722368602088 0 -0.019269690557597353 -0.030771128261159221 0 -0.019545417568200326 -0.03101258307069827 0 -0.019640931660370658 -0.030677939462945048 0 -0.020109913088854788 -0.030584134678626026 0 -0.01987613165627675 -0.03102087365176024 0 -0.019545417568200326 -0.03101258307069827 0 -0.01987613165627675 -0.03102087365176024 0 -0.019712645025614796 -0.031322447691555684 0 -0.019640931660370658 -0.030677939462945048 0 -0.019545417568200326 -0.03101258307069827 0 -0.01987613165627675 -0.03102087365176024 0 -0.020071322892774659 -0.031280392544911377 0 -0.01987613165627675 -0.03102087365176024 0 -0.019712645025614796 -0.031322447691555684 0 -0.020071322892774659 -0.031280392544911377 0 -0.020097503559563881 -0.031561145739750669 0 -0.019712645025614796 -0.031322447691555684 0 -0.019972367933314479 -0.031834044065670246 0 -0.019363703415810965 -0.032003821919754899 0 -0.020097503559563881 -0.031561145739750669 0 -0.019712645025614796 -0.031322447691555684 0 -0.019448114011065911 -0.031726566743273794 0 -0.019777507932403789 -0.032125050954484043 0 -0.019646586580886083 -0.03246292647736565 0 -0.01934090818700435 -0.032291270192946898 0 -0.019646586580886083 -0.03246292647736565 0 -0.019533366658004574 -0.032825791111768393 0 -0.01934090818700435 -0.032291270192946898 0 -0.01976760818253891 -0.032642591018900317 0 -0.019646586580886083 -0.03246292647736565 0 -0.019533366658004574 -0.032825791111768393 0 -0.019858058107482517 -0.03286175164222422 0 -0.019645412418597817 -0.033015859341115429 0 -0.019533366658004574 -0.032825791111768393 0 -0.019533366658004574 -0.032825791111768393 0 -0.0192026276873218 -0.032983956564008758 0 -0.019454568996096069 -0.033106117439913457 0 -0.019645412418597817 -0.033015859341115429 0 -0.019533366658004574 -0.032825791111768393 0 -0.019454568996096069 -0.033106117439913457 0 -0.019533366658004574 -0.032825791111768393 0 -0.0192026276873218 -0.032983956564008758 0 -0.01934090818700435 -0.032291270192946898 0 -0.0192026276873218 -0.032983956564008758 0 -0.01934090818700435 -0.032291270192946898 0 -0.018958074792988604 -0.032776182843101194 0 -0.01934090818700435 -0.032291270192946898 0 -0.018746319599811694 -0.032087740651960753 0 -0.018958074792988604 -0.032776182843101194 0 -0.019363703415810965 -0.032003821919754899 0 -0.018758958997458445 -0.032096626914480189 0 -0.0192026276873218 -0.032983956564008758 0 -0.018958074792988604 -0.032776182843101194 0 -0.019050854796194474 -0.033511317512613728 0 -0.019049303674363246 -0.033772683766890972 0 -0.019041294565840645 -0.03357576312891819 0 -0.019951728958617888 -0.035090291276875976 0 -0.019583459291736462 -0.033473494428958507 0 -0.019050854796194474 -0.033511317512613728 0 -0.018958074792988604 -0.032776182843101194 0 -0.018068557538444514 -0.032504921677485414 0 -0.019050854796194474 -0.033511317512613728 0 -0.018746319599811694 -0.032087740651960753 0 -0.018958074792988604 -0.032776182843101194 0 -0.018068557538444514 -0.032504921677485414 0 -0.017967632739321004 -0.03171958460124253 0 -0.018746319599811694 -0.032087740651960753 0 -0.018068557538444514 -0.032504921677485414 0 -0.017967632739321004 -0.03171958460124253 0 -0.01839097274001969 -0.031391254356391417 0 -0.018746319599811694 -0.032087740651960753 0 -0.018268964092402695 -0.036238641365693929 0 -0.018237020077268035 -0.036960292097039389 0 -0.017601124304446904 -0.036483642266103733 0 -0.018866581834032572 -0.035247172790067137 0 -0.018306638528035567 -0.03500250386845194 0 -0.0192026276873218 -0.032983956564008758 0 -0.019050854796194474 -0.033511317512613728 0 -0.018998484979459621 -0.033346652568363118 0 -0.019583459291736462 -0.033473494428958507 0 -0.019050854796194474 -0.033511317512613728 0 -0.018998484979459621 -0.033346652568363118 0 -0.018237020077268035 -0.036960292097039389 0 -0.017601124304446904 -0.036483642266103733 0 -0.017184957566665091 -0.036838084896448568 0 -0.018268964092402695 -0.036238641365693929 0 -0.017601124304446904 -0.036483642266103733 0 -0.017522348306362005 -0.035994438972770042 0 -0.017601124304446904 -0.036483642266103733 0 -0.016852057250143236 -0.036401823685426528 0 -0.017522348306362005 -0.035994438972770042 0 -0.015218143918773746 -0.037139454508455787 0 -0.016746121767448739 -0.036283238695274618 0 -0.017601124304446904 -0.036483642266103733 0 -0.016852057250143236 -0.036401823685426528 0 -0.017184957566665091 -0.036838084896448568 0 -0.0192026276873218 -0.032983956564008758 0 -0.018998484979459621 -0.033346652568363118 0 -0.019454568996096069 -0.033106117439913457 0 -0.018998484979459621 -0.033346652568363118 0 -0.019454568996096069 -0.033106117439913457 0 -0.019695951899004333 -0.0333396011197453 0 -0.018306638528035567 -0.03500250386845194 0 -0.017066167277159434 -0.035712045820928864 0 -0.019645412418597817 -0.033015859341115429 0 -0.019454568996096069 -0.033106117439913457 0 -0.019675867739854611 -0.033165038770987754 0 -0.019454568996096069 -0.033106117439913457 0 -0.019675867739854611 -0.033165038770987754 0 -0.019695951899004333 -0.0333396011197453 0 -0.016852057250143236 -0.036401823685426528 0 -0.017184957566665091 -0.036838084896448568 0 -0.016224680011555054 -0.036752929838603246 0 -0.014510992399086571 -0.037286201314851872 0 -0.013861076363799602 -0.037324175827875908 0 -0.013503855345558454 -0.037812855525178934 0 -0.015218143918773746 -0.037139454508455787 0 -0.017066167277159434 -0.035712045820928864 0 -0.014510992399086571 -0.037286201314851872 0 -0.013861076363799602 -0.037324175827875908 0 -0.013619241707447593 -0.036713477053609556 0 -0.014510992399086571 -0.037286201314851872 0 -0.013619241707447593 -0.036713477053609556 0 -0.014669265680599208 -0.036417027018478175 0 -0.013619241707447593 -0.036713477053609556 0 -0.014382362879369621 -0.035392764659816348 0 -0.014669265680599208 -0.036417027018478175 0 -0.013108899771980894 -0.037058364936931244 0 -0.014471923692419418 -0.035321809031455861 0 -0.013242080102039561 -0.036820598943892349 0 -0.0131800054714101 -0.035854779821143531 0 -0.014382362879369621 -0.035392764659816348 0 -0.014382362879369621 -0.035392764659816348 0 -0.014759278299109269 -0.035000013819335846 0 -0.012699122855325963 -0.034999963416789681 0 -0.0131800054714101 -0.035854779821143531 0 -0.014382362879369621 -0.035392764659816348 0 -0.012699122855325963 -0.034999963416789681 0 -0.014759278299109269 -0.035000013819335846 0 -0.015147353348141141 -0.035861127804859609 0 -0.015924739220989467 -0.035714417299588068 0 -0.014382362879369621 -0.035392764659816348 0 -0.015147353348141141 -0.035861127804859609 0 -0.014669265680599208 -0.036417027018478175 0 -0.014382362879369621 -0.035392764659816348 0 -0.014759278299109269 -0.035000013819335846 0 -0.015147353348141141 -0.035861127804859609 0 -0.015147353348141141 -0.035861127804859609 0 -0.014669265680599208 -0.036417027018478175 0 -0.015757863250943707 -0.036699145423177974 0 -0.014510992399086571 -0.037286201314851872 0 -0.014669265680599208 -0.036417027018478175 0 -0.015757863250943707 -0.036699145423177974 0 -0.015757863250943707 -0.036699145423177974 0 -0.015924739220989467 -0.035714417299588068 0 -0.017160328940046161 -0.035993529982797041 0 -0.015147353348141141 -0.035861127804859609 0 -0.015757863250943707 -0.036699145423177974 0 -0.015924739220989467 -0.035714417299588068 0 -0.014759278299109269 -0.035000013819335846 0 -0.015924739220989467 -0.035714417299588068 0 -0.016818817435998185 -0.034999962530169855 0 -0.015924739220989467 -0.035714417299588068 0 -0.016818817435998185 -0.034999962530169855 0 -0.017160328940046161 -0.035993529982797041 0 -0.016746121767448739 -0.036283238695274618 0 -0.017682199276847329 -0.035774584580276506 0 -0.018268964092402695 -0.036238641365693929 0 -0.017522348306362005 -0.035994438972770042 0 -0.018228355156463903 -0.035573595888082198 0 -0.010128133151919492 -0.038054667978496902 0 -0.011053464761614611 -0.037338269229053624 0 -0.0097894240680401427 -0.036594848081227975 0 -0.010128133151919492 -0.038054667978496902 0 -0.0088706206342608531 -0.037531531714444274 0 -0.0097894240680401427 -0.036594848081227975 0 -0.010128133151919492 -0.038054667978496902 0 -0.010463922944233456 -0.038844431545895841 0 -0.0087179752400696024 -0.039035931359855516 0 -0.010128133151919492 -0.038054667978496902 0 -0.0088706206342608531 -0.037531531714444274 0 -0.0087179752400696024 -0.039035931359855516 0 -0.010128133151919492 -0.038054667978496902 0 -0.010463922944233456 -0.038844431545895841 0 -0.012065950597952881 -0.038086276407311034 0 -0.0093030996259631151 -0.038414874593465501 0 -0.014229061251727265 -0.036811978898855853 0 -0.016072599081390183 -0.03592902246725041 0 -0.014229061251727265 -0.036811978898855853 0 -0.011123014421173473 -0.039322045756069901 0 -0.010463922944233456 -0.038844431545895841 0 -0.012065950597952881 -0.038086276407311034 0 -0.020190172719390269 -0.032903373502378278 0 -0.01991313638429083 -0.033090189560016338 0 -0.019924361641274785 -0.033357013201694659 0 -0.019675867739854611 -0.033165038770987754 0 -0.019777090591229743 -0.033088477204282166 0 -0.01977770323731478 -0.03326844274109416 0 -0.019645412418597817 -0.033015859341115429 0 -0.019675867739854611 -0.033165038770987754 0 -0.019777090591229743 -0.033088477204282166 0 -0.019777090591229743 -0.033088477204282166 0 -0.01991313638429083 -0.033090189560016338 0 -0.01977770323731478 -0.03326844274109416 0 -0.01991313638429083 -0.033090189560016338 0 -0.019924361641274785 -0.033357013201694659 0 -0.01977770323731478 -0.03326844274109416 0 -0.019675867739854611 -0.033165038770987754 0 -0.01977770323731478 -0.03326844274109416 0 -0.019695951899004333 -0.0333396011197453 0 -0.014229061251727265 -0.036811978898855853 0 -0.017066167277159434 -0.035712045820928864 0 -0.019924361641274785 -0.033357013201694659 0 -0.01977770323731478 -0.03326844274109416 0 -0.019640744252107951 -0.033357645511122296 0 -0.019292660818040961 -0.03415012502279955 0 -0.017066167277159434 -0.035712045820928864 0 -0.013242080102039561 -0.036820598943892349 0 -0.012152676805301483 -0.038223932802449463 0 -0.012005957902260205 -0.03702132282335302 0 -0.013861076363799602 -0.037324175827875908 0 -0.013619241707447593 -0.036713477053609556 0 -0.012893410337244709 -0.037779446396082002 0 -0.013108899771980894 -0.037058364936931244 0 -0.014229061251727265 -0.036811978898855853 0 -0.013861076363799602 -0.037324175827875908 0 -0.012893410337244709 -0.037779446396082002 0 -0.013503855345558454 -0.037812855525178934 0 -0.012152676805301483 -0.038223932802449463 0 -0.011053464761614611 -0.037338269229053624 0 -0.012005957902260205 -0.03702132282335302 0 -0.010128133151919492 -0.038054667978496902 0 -0.012152676805301483 -0.038223932802449463 0 -0.011053464761614611 -0.037338269229053624 0 -0.011053464761614611 -0.037338269229053624 0 -0.012005957902260205 -0.03702132282335302 0 -0.011180973086299362 -0.036523098207840304 0 -0.012005957902260205 -0.03702132282335302 0 -0.011180973086299362 -0.036523098207840304 0 -0.012158025011096732 -0.036038185608649423 0 -0.013242080102039561 -0.036820598943892349 0 -0.0131800054714101 -0.035854779821143531 0 -0.012158025011096732 -0.036038185608649423 0 -0.013242080102039561 -0.036820598943892349 0 -0.012005957902260205 -0.03702132282335302 0 -0.012158025011096732 -0.036038185608649423 0 -0.0131800054714101 -0.035854779821143531 0 -0.012158025011096732 -0.036038185608649423 0 -0.012699122855325963 -0.034999963416789681 0 -0.011180973086299362 -0.036523098207840304 0 -0.012158025011096732 -0.036038185608649423 0 -0.010639246834812691 -0.034999972013797585 0 -0.012158025011096732 -0.036038185608649423 0 -0.012699122855325963 -0.034999963416789681 0 -0.010639246834812691 -0.034999972013797585 0 -0.011180973086299362 -0.036523098207840304 0 -0.010639246834812691 -0.034999972013797585 0 -0.0097894240680401427 -0.036594848081227975 0 -0.011053464761614611 -0.037338269229053624 0 -0.011180973086299362 -0.036523098207840304 0 -0.0097894240680401427 -0.036594848081227975 0 -0.0088706206342608531 -0.037531531714444274 0 -0.0097894240680401427 -0.036594848081227975 0 -0.0079140968852517285 -0.036330038257045054 0 -0.010639246834812691 -0.034999972013797585 0 -0.0097894240680401427 -0.036594848081227975 0 -0.0085793430459155905 -0.034999964257788209 0 -0.0085793430459155905 -0.034999964257788209 0 -0.0073353360023316423 -0.035653884709841634 0 -0.0079140968852517285 -0.036330038257045054 0 -0.0097894240680401427 -0.036594848081227975 0 -0.0085793430459155905 -0.034999964257788209 0 -0.0079140968852517285 -0.036330038257045054 0 -0.0073353360023316423 -0.035653884709841634 0 -0.0065194059718582291 -0.034999932993986252 0 -0.0063265216534859128 -0.036287894825146827 0 -0.0085793430459155905 -0.034999964257788209 0 -0.0073353360023316423 -0.035653884709841634 0 -0.0065194059718582291 -0.034999932993986252 0 -0.0079140968852517285 -0.036330038257045054 0 -0.0063265216534859128 -0.036287894825146827 0 -0.0075382487376446181 -0.037711733739743805 0 -0.0064033401600916869 -0.036358261253909181 0 -0.0074780794164400746 -0.037608842175575072 0 -0.0073353360023316423 -0.035653884709841634 0 -0.0079140968852517285 -0.036330038257045054 0 -0.0063265216534859128 -0.036287894825146827 0 -0.0063265216534859128 -0.036287894825146827 0 -0.0062970122697360749 -0.036996091120190686 0 -0.0074530393170957766 -0.037548144237670347 0 -0.0044593107621968293 -0.034999908104652193 0 -0.0050793100450163553 -0.035883787815671218 0 -0.0042103217915106794 -0.036574424006630468 0 -0.0044593107621968293 -0.034999908104652193 0 -0.0050793100450163553 -0.035883787815671218 0 -0.0065194059718582291 -0.034999932993986252 0 -0.0050793100450163553 -0.035883787815671218 0 -0.0065194059718582291 -0.034999932993986252 0 -0.0059816540522362105 -0.036295664574778827 0 -0.0065194059718582291 -0.034999932993986252 0 -0.0063265216534859128 -0.036287894825146827 0 -0.0059816540522362105 -0.036295664574778827 0 -0.0059410382172492516 -0.036433861641558138 0 -0.005651983439399628 -0.0374923519590315 0 -0.0059816540522362105 -0.036295664574778827 0 -0.005090843476929131 -0.036863328841214391 0 -0.0054610000276367251 -0.037707612696586609 0 -0.0062970122697360749 -0.036996091120190686 0 -0.0059816540522362105 -0.036295664574778827 0 -0.0057544151003440323 -0.037582941264354054 0 -0.0063265216534859128 -0.036287894825146827 0 -0.0062970122697360749 -0.036996091120190686 0 -0.0059816540522362105 -0.036295664574778827 0 -0.0050793100450163553 -0.035883787815671218 0 -0.0059816540522362105 -0.036295664574778827 0 -0.005090843476929131 -0.036863328841214391 0 -0.0050793100450163553 -0.035883787815671218 0 -0.005090843476929131 -0.036863328841214391 0 -0.0042103217915106794 -0.036574424006630468 0 -0.005090843476929131 -0.036863328841214391 0 -0.0043796180795470678 -0.03794454848406173 0 -0.0054610000276367251 -0.037707612696586609 0 -0.005090843476929131 -0.036863328841214391 0 -0.0043796180795470678 -0.03794454848406173 0 -0.0042103217915106794 -0.036574424006630468 0 -0.0062970122697360749 -0.036996091120190686 0 -0.0057544151003440323 -0.037582941264354054 0 -0.0074530393170957766 -0.037548144237670347 0 -0.0057544151003440323 -0.037582941264354054 0 -0.0054402131767392545 -0.038889591199679933 0 -0.0069617298321602 -0.03880100965370905 0 -0.0043796180795470678 -0.03794454848406173 0 -0.0054610000276367251 -0.037707612696586609 0 -0.0050320081777327575 -0.039137857579659513 0 -0.0043796180795470678 -0.03794454848406173 0 -0.0050320081777327575 -0.039137857579659513 0 -0.0040875660873763188 -0.039157867488337918 0 -0.005651983439399628 -0.0374923519590315 0 -0.0050496219681993165 -0.039591401837598773 0 -0.0088706206342608531 -0.037531531714444274 0 -0.0075382487376446181 -0.037711733739743805 0 -0.0087179752400696024 -0.039035931359855516 0 -0.0088706206342608531 -0.037531531714444274 0 -0.0079140968852517285 -0.036330038257045054 0 -0.0075382487376446181 -0.037711733739743805 0 -0.0074530393170957766 -0.037548144237670347 0 -0.0069617298321602 -0.03880100965370905 0 -0.0085950827583435915 -0.038848215847498715 0 -0.0057544151003440323 -0.037582941264354054 0 -0.0074530393170957766 -0.037548144237670347 0 -0.0069617298321602 -0.03880100965370905 0 -0.0074780794164400746 -0.037608842175575072 0 -0.0086714945919215778 -0.038963233244784276 0 -0.0085950827583435915 -0.038848215847498715 0 -0.007767191225389763 -0.039595732142164212 0 -0.0087002193186682293 -0.04044622122409311 0 -0.0069617298321602 -0.03880100965370905 0 -0.0085950827583435915 -0.038848215847498715 0 -0.007767191225389763 -0.039595732142164212 0 -0.007767191225389763 -0.039595732142164212 0 -0.0087002193186682293 -0.04044622122409311 0 -0.0068403015559265583 -0.040298948310610441 0 -0.010624877022558514 -0.036837012952004755 0 -0.0089255219339399224 -0.036489899991504024 0 -0.013073203732158683 -0.033052186967445843 0 -0.010637673790700757 -0.032978276507947567 0 -0.011695029568856813 -0.034291672831108747 0 -0.0069617298321602 -0.03880100965370905 0 -0.007767191225389763 -0.039595732142164212 0 -0.0068403015559265583 -0.040298948310610441 0 -0.0054402131767392545 -0.038889591199679933 0 -0.0069617298321602 -0.03880100965370905 0 -0.0068403015559265583 -0.040298948310610441 0 -0.0054402131767392545 -0.038889591199679933 0 -0.0068403015559265583 -0.040298948310610441 0 -0.0051090516864638318 -0.040191895834959752 0 -0.0050496219681993165 -0.039591401837598773 0 -0.0060830332076262468 -0.037668192265562353 0 -0.0050320081777327575 -0.039137857579659513 0 -0.0046404040046940523 -0.040618980714470961 0 -0.0040875660873763188 -0.039157867488337918 0 -0.008244236441892221 -0.032909594414191001 0 -0.0093844239278745734 -0.033935567554842408 0 -0.0078758810574724048 -0.034305992628009228 0 -0.0060830332076262468 -0.037668192265562353 0 -0.0079582367261584169 -0.033278075644965051 0 -0.0089255219339399224 -0.036489899991504024 0 -0.0060830332076262468 -0.037668192265562353 0 -0.010637673790700757 -0.032978276507947567 0 -0.008244236441892221 -0.032909594414191001 0 -0.0093844239278745734 -0.033935567554842408 0 -0.010637673790700757 -0.032978276507947567 0 -0.010446476414469585 -0.03423810603420855 0 -0.0093844239278745734 -0.033935567554842408 0 -0.010446476414469585 -0.03423810603420855 0 -0.0093844239278745734 -0.033935567554842408 0 -0.009890904958903074 -0.035269633309865413 0 -0.010446476414469585 -0.03423810603420855 0 -0.009890904958903074 -0.035269633309865413 0 -0.010740211974881061 -0.03487161700780974 0 -0.0093844239278745734 -0.033935567554842408 0 -0.0078758810574724048 -0.034305992628009228 0 -0.009890904958903074 -0.035269633309865413 0 -0.0079582367261584169 -0.033278075644965051 0 -0.010718035524814363 -0.032787083326589923 0 -0.010413257928010289 -0.030504340615770231 0 -0.010672022263797527 -0.030972454303945303 0 -0.010321903349664204 -0.030875310163081759 0 -0.010413257928010289 -0.030504340615770231 0 -0.010672022263797527 -0.030972454303945303 0 -0.010916127874866148 -0.030708968902536698 0 -0.010989877734327271 -0.031164180144636962 0 -0.010672022263797527 -0.030972454303945303 0 -0.010916127874866148 -0.030708968902536698 0 -0.010989877734327271 -0.031164180144636962 0 -0.010996601714363724 -0.030741861259743576 0 -0.010916127874866148 -0.030708968902536698 0 -0.01020415705959378 -0.035420004806703945 0 -0.009890904958903074 -0.035269633309865413 0 -0.010740211974881061 -0.03487161700780974 0 -0.01076836790171665 -0.032723695423810123 0 -0.010718035524814363 -0.032787083326589923 0 -0.01076836790171665 -0.032723695423810123 0 -0.013428206803449309 -0.031772141699470867 0 -0.01076836790171665 -0.032723695423810123 0 -0.012990867858205562 -0.030646686944538443 0 -0.010989877734327271 -0.031164180144636962 0 -0.010996601714363724 -0.030741861259743576 0 -0.011441976323332447 -0.030936128783040601 0 -0.01020415705959378 -0.035420004806703945 0 -0.011450515590043378 -0.035171501189010169 0 -0.012160242970942019 -0.036124796934146601 0 -0.011206745484696835 -0.031670464134306603 0 -0.012721414909295153 -0.032365244553907081 0 -0.012912455718039444 -0.032258096643500815 0 -0.01020415705959378 -0.035420004806703945 0 -0.011450515590043378 -0.035171501189010169 0 -0.010740211974881061 -0.03487161700780974 0 -0.013960079196320394 -0.028472405578948826 0 -0.013867972125316947 -0.028415415438236519 0 -0.013911447119842013 -0.028497278402115148 0 -0.012990867858205562 -0.030646686944538443 0 -0.013147677725678195 -0.030083965338959115 0 -0.012990867858205562 -0.030646686944538443 0 -0.013428206803449309 -0.031772141699470867 0 -0.013867972125316947 -0.028415415438236519 0 -0.013911447119842013 -0.028497278402115148 0 -0.013826718216672283 -0.028450346662612529 0 -0.013428206803449309 -0.031772141699470867 0 -0.017529029750598613 -0.029718645514078875 0 -0.017281226797645335 -0.032555412340919833 0 -0.017529029750598613 -0.029718645514078875 0 -0.016711755051782167 -0.031451595195879221 0 -0.016075447280773016 -0.031776328978846247 0 -0.016305683054218218 -0.031866695107793191 0 -0.017281226797645335 -0.032555412340919833 0 -0.013428206803449309 -0.031772141699470867 0 -0.013367460768225361 -0.03547444610186249 0 -0.012160242970942019 -0.036124796934146601 0 -0.012393136733378498 -0.035156724267831389 0 -0.011450515590043378 -0.035171501189010169 0 -0.012160242970942019 -0.036124796934146601 0 -0.012393136733378498 -0.035156724267831389 0 -0.011450515590043378 -0.035171501189010169 0 -0.012393136733378498 -0.035156724267831389 0 -0.011695029568856813 -0.034291672831108747 0 -0.013073203732158683 -0.033052186967445843 0 -0.01310845546195873 -0.034379158849834446 0 -0.011695029568856813 -0.034291672831108747 0 -0.012393136733378498 -0.035156724267831389 0 -0.01310845546195873 -0.034379158849834446 0 -0.011695029568856813 -0.034291672831108747 0 -0.013367460768225361 -0.03547444610186249 0 -0.012393136733378498 -0.035156724267831389 0 -0.01310845546195873 -0.034379158849834446 0 -0.010637673790700757 -0.032978276507947567 0 -0.010446476414469585 -0.03423810603420855 0 -0.011695029568856813 -0.034291672831108747 0 -0.010446476414469585 -0.03423810603420855 0 -0.011695029568856813 -0.034291672831108747 0 -0.010740211974881061 -0.03487161700780974 0 -0.011450515590043378 -0.035171501189010169 0 -0.011695029568856813 -0.034291672831108747 0 -0.010740211974881061 -0.03487161700780974 0 0.0028862644980722613 -0.036807946924932972 0 0.0030181866656722308 -0.035168442031698777 0 0.0037288341630437377 -0.037345407881850257 0 0.0028862644980722613 -0.036807946924932972 0 0.0019170736571986302 -0.036882793950724649 0 0.0030181866656722308 -0.035168442031698777 0 0.0027812300167434391 -0.034774388920868246 0 0.0036840830793341637 -0.037203554751017297 0 0.0028862644980722613 -0.036807946924932972 0 0.0019170736571986302 -0.036882793950724649 0 0.0028762532525175412 -0.037847822280913997 0 0.0019170736571986302 -0.036882793950724649 0 0.00062316141511033283 -0.038059397418404479 0 0.00059933331408896942 -0.036688896180419213 0 0.0019170736571986302 -0.036882793950724649 0 0.00059933331408896942 -0.036688896180419213 0 0.00077934814942195692 -0.034931205702884924 0 0.0019170736571986302 -0.036882793950724649 0 0.0030181866656722308 -0.035168442031698777 0 0.00077934814942195692 -0.034931205702884924 0 0.0015109048169395047 -0.032950705356862189 0 0.00082162377612675255 -0.034684764466169887 0 0.003625225279896806 -0.03300378190044484 0 0.0050878208272023898 -0.033505117283288102 0 0.0044911029867158569 -0.035812239319652307 0 0.003625225279896806 -0.03300378190044484 0 0.0025089178103722865 -0.03434560414271301 0 0.0044911029867158569 -0.035812239319652307 0 -0.0025248280606499848 -0.03211760441939307 0 -0.0014336919693224805 -0.032628143450672303 0 -0.0030172333353273694 -0.033838604677200318 0 -0.0079582367261584169 -0.033278075644965051 0 -0.0072814612469356207 -0.031383860401674436 0 -0.0014336919693224805 -0.032628143450672303 0 -0.0030172333353273694 -0.033838604677200318 0 -0.0024142476280270856 -0.034993710047777224 0 -0.0072814612469356207 -0.031383860401674436 0 -0.0039109146275868997 -0.035393619280181587 0 -0.0058612519643981261 -0.033449541964946289 0 -0.0061017894270567951 -0.032570360843696113 0 -0.0066094451134573696 -0.033836374479051218 0 -0.0079582367261584169 -0.033278075644965051 0 -0.0039109146275868997 -0.035393619280181587 0 0.00082162377612675255 -0.034684764466169887 0 -0.0010337991886481036 -0.037273590183880469 0 0.0025089178103722865 -0.03434560414271301 0 0.0044911029867158569 -0.035812239319652307 0 0.0037288341630437377 -0.037345407881850257 0 -0.0030172333353273694 -0.033838604677200318 0 -0.0024142476280270856 -0.034993710047777224 0 -0.0035066820936272306 -0.035550241571843777 0 0.0044911029867158569 -0.035812239319652307 0 0.0037288341630437377 -0.037345407881850257 0 0.0038361591530028344 -0.038090180834790176 0 -0.0039109146275868997 -0.035393619280181587 0 -0.0010337991886481036 -0.037273590183880469 0 -0.0030064006412717005 -0.0372448787807877 0 -0.0028757945257354483 -0.036961674096740227 0 -0.0025814258305583608 -0.037055693755274274 0 -0.0039109146275868997 -0.035393619280181587 0 -0.0034331332361545626 -0.038310451581870061 0 -0.0034331332361545626 -0.038310451581870061 0 -0.0033816511108086854 -0.039741347422782028 0 -0.0034331332361545626 -0.038310451581870061 0 -0.0020876776004315296 -0.038759243195377442 0 -0.0027724216349441153 -0.040591066045386176 0 -0.0019670756230103009 -0.040562751868117551 0 -0.0022290063700175201 -0.040224302468498667 0 -0.0028757945257354483 -0.036961674096740227 0 -0.0025488601551177607 -0.036953134847401155 0 -0.0025814258305583608 -0.037055693755274274 0 -0.0018914586889118034 -0.040328493075229142 0 -0.0019670756230103009 -0.040562751868117551 0 -0.0022290063700175201 -0.040224302468498667 0 -0.0021679526955382922 -0.039228138407156547 0 -0.0020876776004315296 -0.038759243195377442 0 -0.0018914586889118034 -0.040328493075229142 0 -0.0019601337873558279 -0.040562333839282906 0 -0.0017854985839763338 -0.040556327788493156 0 -0.0020876776004315296 -0.038759243195377442 0 -0.0020562421716230944 -0.038842333483631343 0 -0.0019679546441847867 -0.040560263614849892 0 -0.0020523178044487105 -0.04083212550623478 0 -0.0017854985839763338 -0.040556327788493156 0 -0.0020876776004315296 -0.038759243195377442 0 -0.0010337991886481036 -0.037273590183880469 0 -0.005768350762906359 -0.036001921732641794 0 -0.0050856097755032298 -0.035978683202789914 0 -0.0054273540499914534 -0.036153538271993184 0 -0.005768350762906359 -0.036001921732641794 0 -0.0056580497483711715 -0.036417084491810046 0 -0.0054273540499914534 -0.036153538271993184 0 -0.0046404040046940523 -0.040618980714470961 0 -0.0027791676201337281 -0.040562489007513483 0 -0.0036166393109712358 -0.039910397443523933 0 -0.0060830332076262468 -0.037668192265562353 0 -0.0034331332361545626 -0.038310451581870061 0 -0.0056580497483711715 -0.036417084491810046 0 -0.005196454685072632 -0.036215338956151998 0 -0.0054273540499914534 -0.036153538271993184 0 -0.005196454685072632 -0.036215338956151998 0 -0.0050856097755032298 -0.035978683202789914 0 -0.0054273540499914534 -0.036153538271993184 0 -0.0046404040046940523 -0.040618980714470961 0 -0.0036166393109712358 -0.039910397443523933 0 -0.0040875660873763188 -0.039157867488337918 0 -0.0027791676201337281 -0.040562489007513483 0 -0.0036166393109712358 -0.039910397443523933 0 -0.0029571762687492587 -0.0398468983391937 0 -0.0036166393109712358 -0.039910397443523933 0 -0.0031290148095323199 -0.039284297551164749 0 -0.0040875660873763188 -0.039157867488337918 0 -0.0036166393109712358 -0.039910397443523933 0 -0.0031290148095323199 -0.039284297551164749 0 -0.0029571762687492587 -0.0398468983391937 0 -0.0021037775203336679 -0.039910440587615108 0 -0.0025412539004690867 -0.040063621133438414 0 -0.0025147540057440083 -0.039555977228544384 0 -0.0021037775203336679 -0.039910440587615108 0 -0.0018060578099920043 -0.039421537255061083 0 -0.0017291757414863139 -0.039999336861199872 0 -0.0018914586889118034 -0.040328493075229142 0 -0.0021037775203336679 -0.039910440587615108 0 -0.0022290063700175201 -0.040224302468498667 0 -0.0018914586889118034 -0.040328493075229142 0 -0.0021037775203336679 -0.039910440587615108 0 -0.0017291757414863139 -0.039999336861199872 0 -0.0021037775203336679 -0.039910440587615108 0 -0.0022290063700175201 -0.040224302468498667 0 -0.0025412539004690867 -0.040063621133438414 0 -0.0027724216349441153 -0.040591066045386176 0 -0.0022290063700175201 -0.040224302468498667 0 -0.0025412539004690867 -0.040063621133438414 0 -0.0027791676201337281 -0.040562489007513483 0 -0.0025412539004690867 -0.040063621133438414 0 -0.0029571762687492587 -0.0398468983391937 0 -0.0025412539004690867 -0.040063621133438414 0 -0.0029571762687492587 -0.0398468983391937 0 -0.0025147540057440083 -0.039555977228544384 0 -0.0031290148095323199 -0.039284297551164749 0 -0.0025147540057440083 -0.039555977228544384 0 -0.0024197452410489686 -0.038896864695665355 0 -0.0031290148095323199 -0.039284297551164749 0 -0.0029571762687492587 -0.0398468983391937 0 -0.0025147540057440083 -0.039555977228544384 0 -0.0025147540057440083 -0.039555977228544384 0 -0.0018060578099920043 -0.039421537255061083 0 -0.0024197452410489686 -0.038896864695665355 0 -0.0021037775203336679 -0.039910440587615108 0 -0.0025147540057440083 -0.039555977228544384 0 -0.0018060578099920043 -0.039421537255061083 0 -0.0012777142904464736 -0.039239315551292599 0 -0.0018060578099920043 -0.039421537255061083 0 -0.001374901687719909 -0.039867197626169214 0 -0.0012777142904464736 -0.039239315551292599 0 -0.0018060578099920043 -0.039421537255061083 0 -0.0014961413004992668 -0.038645809225950636 0 -0.0012777142904464736 -0.039239315551292599 0 -0.00055640628178976054 -0.039072995493774756 0 -0.001374901687719909 -0.039867197626169214 0 -0.00055640628178976054 -0.039072995493774756 0 -0.00074752814819804088 -0.040220586380293556 0 -0.001374901687719909 -0.039867197626169214 0 -0.001374901687719909 -0.039867197626169214 0 -0.0017291757414863139 -0.039999336861199872 0 -0.0017854985839763338 -0.040556327788493156 0 -0.00074752814819804088 -0.040220586380293556 0 -0.001374901687719909 -0.039867197626169214 0 -0.0017854985839763338 -0.040556327788493156 0 -0.0018060578099920043 -0.039421537255061083 0 -0.001374901687719909 -0.039867197626169214 0 -0.0017291757414863139 -0.039999336861199872 0 -0.0018914586889118034 -0.040328493075229142 0 -0.0017291757414863139 -0.039999336861199872 0 -0.0017854985839763338 -0.040556327788493156 0 0.0038361591530028344 -0.038090180834790176 0 0.0024058706405854185 -0.038700118669702119 0 0.0028762532525175412 -0.037847822280913997 0 -0.0020523178044487105 -0.04083212550623478 0 -0.00074752814819804088 -0.040220586380293556 0 -0.0017854985839763338 -0.040556327788493156 0 -0.0010337991886481036 -0.037273590183880469 0 0.00094653002848461897 -0.039363431968016997 0 0.0024058706405854185 -0.038700118669702119 0 0.0028762532525175412 -0.037847822280913997 0 0.0015090162049581056 -0.038184772529235335 0 0.0028862644980722613 -0.036807946924932972 0 0.0037288341630437377 -0.037345407881850257 0 0.0028762532525175412 -0.037847822280913997 0 0.0037288341630437377 -0.037345407881850257 0 0.0038361591530028344 -0.038090180834790176 0 0.0028762532525175412 -0.037847822280913997 0 0.0015090162049581056 -0.038184772529235335 0 0.00074744998758046117 -0.039213621069010926 0 0.00062316141511033283 -0.038059397418404479 0 0.0019170736571986302 -0.036882793950724649 0 0.0015090162049581056 -0.038184772529235335 0 0.00062316141511033283 -0.038059397418404479 0 0.0019170736571986302 -0.036882793950724649 0 0.0028762532525175412 -0.037847822280913997 0 0.0015090162049581056 -0.038184772529235335 0 0.00094653002848461897 -0.039363431968016997 0 0.00073887975850466523 -0.039313097620649717 0 0.0024058706405854185 -0.038700118669702119 0 0.0015090162049581056 -0.038184772529235335 0 0.00074744998758046117 -0.039213621069010926 0 -0.00055640628178976054 -0.039072995493774756 0 -0.00074752814819804088 -0.040220586380293556 0 0.00074744998758046117 -0.039213621069010926 0 -0.00055640628178976054 -0.039072995493774756 0 0.00074744998758046117 -0.039213621069010926 0 0.00010347664692156625 -0.038642424330233488 0 0.00010347664692156625 -0.038642424330233488 0 0.00048327389594418705 -0.038376490154063178 0 0.00067355203275891115 -0.038784976458369577 0 0.00074744998758046117 -0.039213621069010926 0 0.00010347664692156625 -0.038642424330233488 0 0.00067355203275891115 -0.038784976458369577 0 0.00048327389594418705 -0.038376490154063178 0 1.121858868044497e-05 -0.038008231397393649 0 0.00074941601423596346 -0.037938074704640168 0 0.00010347664692156625 -0.038642424330233488 0 0.00048327389594418705 -0.038376490154063178 0 1.121858868044497e-05 -0.038008231397393649 0 0.00010347664692156625 -0.038642424330233488 0 -0.00069589748050329341 -0.038250473072362609 0 1.121858868044497e-05 -0.038008231397393649 0 -0.00055640628178976054 -0.039072995493774756 0 0.00010347664692156625 -0.038642424330233488 0 -0.00069589748050329341 -0.038250473072362609 0 -0.0012777142904464736 -0.039239315551292599 0 -0.00055640628178976054 -0.039072995493774756 0 -0.0014961413004992668 -0.038645809225950636 0 -0.00055640628178976054 -0.039072995493774756 0 -0.0014961413004992668 -0.038645809225950636 0 -0.00069589748050329341 -0.038250473072362609 0 -0.0014961413004992668 -0.038645809225950636 0 -0.0014189093661520339 -0.037739214302541874 0 -0.0023210935865887908 -0.03802859095444594 0 -0.0014961413004992668 -0.038645809225950636 0 -0.00069589748050329341 -0.038250473072362609 0 -0.0014189093661520339 -0.037739214302541874 0 -0.00069589748050329341 -0.038250473072362609 0 -0.0014189093661520339 -0.037739214302541874 0 -0.0005441960276033874 -0.037488159792703306 0 -0.0014189093661520339 -0.037739214302541874 0 -0.0021520773718960054 -0.03702766155865217 0 -0.0011146116940672301 -0.036998534665146819 0 -0.0014189093661520339 -0.037739214302541874 0 -0.0005441960276033874 -0.037488159792703306 0 -0.0011146116940672301 -0.036998534665146819 0 -0.0005441960276033874 -0.037488159792703306 0 -0.00023884382434757146 -0.036624078511340516 0 -0.0011146116940672301 -0.036998534665146819 0 -0.0005441960276033874 -0.037488159792703306 0 0.00027288305846076577 -0.037435703411491938 0 -0.00023884382434757146 -0.036624078511340516 0 0.00027288305846076577 -0.037435703411491938 0 1.121858868044497e-05 -0.038008231397393649 0 0.00074941601423596346 -0.037938074704640168 0 -0.0005441960276033874 -0.037488159792703306 0 0.00027288305846076577 -0.037435703411491938 0 1.121858868044497e-05 -0.038008231397393649 0 -0.00069589748050329341 -0.038250473072362609 0 -0.0005441960276033874 -0.037488159792703306 0 1.121858868044497e-05 -0.038008231397393649 0 -0.0043796180795470678 -0.03794454848406173 0 -0.0040875660873763188 -0.039157867488337918 0 -0.0032371096648135737 -0.038463080023735212 0 -0.0031290148095323199 -0.039284297551164749 0 -0.0040875660873763188 -0.039157867488337918 0 -0.0032371096648135737 -0.038463080023735212 0 -0.0032371096648135737 -0.038463080023735212 0 -0.0024197452410489686 -0.038896864695665355 0 -0.0023210935865887908 -0.03802859095444594 0 -0.0031290148095323199 -0.039284297551164749 0 -0.0032371096648135737 -0.038463080023735212 0 -0.0024197452410489686 -0.038896864695665355 0 -0.0018060578099920043 -0.039421537255061083 0 -0.0014961413004992668 -0.038645809225950636 0 -0.0024197452410489686 -0.038896864695665355 0 -0.0014961413004992668 -0.038645809225950636 0 -0.0024197452410489686 -0.038896864695665355 0 -0.0023210935865887908 -0.03802859095444594 0 -0.0023210935865887908 -0.03802859095444594 0 -0.0021520773718960054 -0.03702766155865217 0 -0.0033852455667559155 -0.037476229974500952 0 -0.0014189093661520339 -0.037739214302541874 0 -0.0023210935865887908 -0.03802859095444594 0 -0.0021520773718960054 -0.03702766155865217 0 -0.0032371096648135737 -0.038463080023735212 0 -0.0023210935865887908 -0.03802859095444594 0 -0.0033852455667559155 -0.037476229974500952 0 -0.0043796180795470678 -0.03794454848406173 0 -0.0033852455667559155 -0.037476229974500952 0 -0.0042103217915106794 -0.036574424006630468 0 -0.0043796180795470678 -0.03794454848406173 0 -0.0032371096648135737 -0.038463080023735212 0 -0.0033852455667559155 -0.037476229974500952 0 -0.0033852455667559155 -0.037476229974500952 0 -0.0042103217915106794 -0.036574424006630468 0 -0.0030189393703441464 -0.036110654189925387 0 -0.0021520773718960054 -0.03702766155865217 0 -0.0030189393703441464 -0.036110654189925387 0 -0.0012087782228134827 -0.03611553386726736 0 -0.0021520773718960054 -0.03702766155865217 0 -0.0033852455667559155 -0.037476229974500952 0 -0.0030189393703441464 -0.036110654189925387 0 -0.0030189393703441464 -0.036110654189925387 0 -0.0023992994826540189 -0.03499990039006514 0 -0.0012087782228134827 -0.03611553386726736 0 -0.0044593107621968293 -0.034999908104652193 0 -0.0042103217915106794 -0.036574424006630468 0 -0.0030189393703441464 -0.036110654189925387 0 -0.0044593107621968293 -0.034999908104652193 0 -0.0030189393703441464 -0.036110654189925387 0 -0.0023992994826540189 -0.03499990039006514 0 -0.00023884382434757146 -0.036624078511340516 0 -0.0012087782228134827 -0.03611553386726736 0 0.00031516453177435398 -0.03589429797283069 0 -0.00023884382434757146 -0.036624078511340516 0 0.00031516453177435398 -0.03589429797283069 0 0.00043028995357554371 -0.036854125261518531 0 0.00027288305846076577 -0.037435703411491938 0 -0.00023884382434757146 -0.036624078511340516 0 0.00043028995357554371 -0.036854125261518531 0 -0.00023884382434757146 -0.036624078511340516 0 -0.0011146116940672301 -0.036998534665146819 0 -0.0012087782228134827 -0.03611553386726736 0 -0.0021520773718960054 -0.03702766155865217 0 -0.0011146116940672301 -0.036998534665146819 0 -0.0012087782228134827 -0.03611553386726736 0 -0.0023992994826540189 -0.03499990039006514 0 -0.0012087782228134827 -0.03611553386726736 0 -0.00033916631393594669 -0.034999825552104999 0 -0.0012087782228134827 -0.03611553386726736 0 -0.00033916631393594669 -0.034999825552104999 0 0.00031516453177435398 -0.03589429797283069 0 -0.00033916631393594669 -0.034999825552104999 0 0.0011295805774814306 -0.035705684550819079 0 0.00031516453177435398 -0.03589429797283069 0 -0.00033916631393594669 -0.034999825552104999 0 0.0011295805774814306 -0.035705684550819079 0 0.0017208394144383188 -0.034999825096285894 0 0.00031516453177435398 -0.03589429797283069 0 0.0015243651626282724 -0.036385203965759914 0 0.001729333433731163 -0.037349836423462644 0 0.00031516453177435398 -0.03589429797283069 0 0.00043028995357554371 -0.036854125261518531 0 0.0013062678360518565 -0.037433148894662115 0 0.00031516453177435398 -0.03589429797283069 0 0.0013062678360518565 -0.037433148894662115 0 0.001981035008735654 -0.03770917555303608 0 0.00041232747167348964 -0.035941789186218084 0 0.0019096705072312549 -0.037507426569215963 0 0.0011295805774814306 -0.035705684550819079 0 0.00031516453177435398 -0.03589429797283069 0 0.0015243651626282724 -0.036385203965759914 0 0.0011295805774814306 -0.035705684550819079 0 0.0015243651626282724 -0.036385203965759914 0 0.0023816322439475443 -0.036235267630012988 0 0.0023816322439475443 -0.036235267630012988 0 0.0026328962296218702 -0.037086968590377994 0 0.0020616081375032132 -0.036848877429737664 0 0.0015243651626282724 -0.036385203965759914 0 0.0023816322439475443 -0.036235267630012988 0 0.0020616081375032132 -0.036848877429737664 0 0.0011295805774814306 -0.035705684550819079 0 0.0023816322439475443 -0.036235267630012988 0 0.0017208394144383188 -0.034999825096285894 0 0.0023816322439475443 -0.036235267630012988 0 0.0037804231901513489 -0.034999964453409679 0 0.0035788285927259005 -0.036375778256455958 0 0.0023816322439475443 -0.036235267630012988 0 0.0017208394144383188 -0.034999825096285894 0 0.0037804231901513489 -0.034999964453409679 0 0.0037804231901513489 -0.034999964453409679 0 0.0035788285927259005 -0.036375778256455958 0 0.0047294564394294823 -0.036477902800349904 0 0.0035788285927259005 -0.036375778256455958 0 0.0040672853877863381 -0.036972187439478499 0 0.0047294564394294823 -0.036477902800349904 0 0.0023816322439475443 -0.036235267630012988 0 0.0035788285927259005 -0.036375778256455958 0 0.0026328962296218702 -0.037086968590377994 0 0.0035788285927259005 -0.036375778256455958 0 0.0026328962296218702 -0.037086968590377994 0 0.0034544680054142463 -0.037271203706014375 0 0.0026328962296218702 -0.037086968590377994 0 0.0032436172458962425 -0.037686888094937095 0 0.0026113416648356736 -0.037538305936436589 0 0.0026328962296218702 -0.037086968590377994 0 0.0034544680054142463 -0.037271203706014375 0 0.0032436172458962425 -0.037686888094937095 0 0.0035788285927259005 -0.036375778256455958 0 0.0034544680054142463 -0.037271203706014375 0 0.0040672853877863381 -0.036972187439478499 0 0.0034544680054142463 -0.037271203706014375 0 0.0040672853877863381 -0.036972187439478499 0 0.0038488411921696534 -0.037664826906725297 0 0.0040672853877863381 -0.036972187439478499 0 0.0038488411921696534 -0.037664826906725297 0 0.0044421588726837958 -0.037553074293768508 0 0.0038488411921696534 -0.037664826906725297 0 0.0044421588726837958 -0.037553074293768508 0 0.0041104381681933014 -0.038062126882796456 0 0.0038488411921696534 -0.037664826906725297 0 0.0036890755365030729 -0.038017725916716656 0 0.0041104381681933014 -0.038062126882796456 0 0.0032436172458962425 -0.037686888094937095 0 0.0026113416648356736 -0.037538305936436589 0 0.0032598996868903425 -0.038267508290082047 0 0.0034544680054142463 -0.037271203706014375 0 0.0038488411921696534 -0.037664826906725297 0 0.0032436172458962425 -0.037686888094937095 0 0.0038488411921696534 -0.037664826906725297 0 0.0032436172458962425 -0.037686888094937095 0 0.0036890755365030729 -0.038017725916716656 0 0.0032436172458962425 -0.037686888094937095 0 0.0032598996868903425 -0.038267508290082047 0 0.0036890755365030729 -0.038017725916716656 0 0.0026113416648356736 -0.037538305936436589 0 0.001729333433731163 -0.037349836423462644 0 0.0032598996868903425 -0.038267508290082047 0 0.0018766893022710094 -0.037889089017326176 0 0.001981035008735654 -0.03770917555303608 0 0.0044320703984029814 -0.038343179976690969 0 0.0019096705072312549 -0.037507426569215963 0 0.0037880231647616368 -0.038293596889489197 0 0.0018942307502107596 -0.037759581935884377 0 0.0022516270768311239 -0.038510299127717987 0 0.0018766893022710094 -0.037889089017326176 0 0.0043349112657319923 -0.038408677998772241 0 0.0044320703984029814 -0.038343179976690969 0 0.00090735196105932916 -0.038612667182850169 0 0.00067355203275891115 -0.038784976458369577 0 0.001027184301919276 -0.038298846646022171 0 0.00090735196105932916 -0.038612667182850169 0 0.00067355203275891115 -0.038784976458369577 0 0.00059698738736759156 -0.039026500374417239 0 0.00090735196105932916 -0.038612667182850169 0 0.0018766893022710094 -0.037889089017326176 0 0.0002171487479289015 -0.039047623105982102 0 0.00048327389594418705 -0.038376490154063178 0 0.00067355203275891115 -0.038784976458369577 0 0.001027184301919276 -0.038298846646022171 0 0.00048327389594418705 -0.038376490154063178 0 0.001027184301919276 -0.038298846646022171 0 0.00074941601423596346 -0.037938074704640168 0 0.00090735196105932916 -0.038612667182850169 0 0.001027184301919276 -0.038298846646022171 0 0.0018766893022710094 -0.037889089017326176 0 0.001027184301919276 -0.038298846646022171 0 0.0018766893022710094 -0.037889089017326176 0 0.0012758880123197366 -0.037843881265867879 0 0.0012758880123197366 -0.037843881265867879 0 0.0016198740998938962 -0.037705421836363828 0 0.0013062678360518565 -0.037433148894662115 0 0.0018766893022710094 -0.037889089017326176 0 0.0012758880123197366 -0.037843881265867879 0 0.0016198740998938962 -0.037705421836363828 0 0.0018766893022710094 -0.037889089017326176 0 0.0016198740998938962 -0.037705421836363828 0 0.001981035008735654 -0.03770917555303608 0 0.0016198740998938962 -0.037705421836363828 0 0.0013062678360518565 -0.037433148894662115 0 0.001981035008735654 -0.03770917555303608 0 0.00027288305846076577 -0.037435703411491938 0 0.00074941601423596346 -0.037938074704640168 0 0.0013062678360518565 -0.037433148894662115 0 0.001027184301919276 -0.038298846646022171 0 0.0012758880123197366 -0.037843881265867879 0 0.00074941601423596346 -0.037938074704640168 0 0.0012758880123197366 -0.037843881265867879 0 0.00074941601423596346 -0.037938074704640168 0 0.0013062678360518565 -0.037433148894662115 0 0.00027288305846076577 -0.037435703411491938 0 0.00043028995357554371 -0.036854125261518531 0 0.0013062678360518565 -0.037433148894662115 0 0.0015243651626282724 -0.036385203965759914 0 0.0020616081375032132 -0.036848877429737664 0 0.001729333433731163 -0.037349836423462644 0 0.0020616081375032132 -0.036848877429737664 0 0.0022661809044807963 -0.037210492525386302 0 0.001729333433731163 -0.037349836423462644 0 0.0026328962296218702 -0.037086968590377994 0 0.0020616081375032132 -0.036848877429737664 0 0.0022661809044807963 -0.037210492525386302 0 0.0026328962296218702 -0.037086968590377994 0 0.0022661809044807963 -0.037210492525386302 0 0.0026113416648356736 -0.037538305936436589 0 0.0022661809044807963 -0.037210492525386302 0 0.0026113416648356736 -0.037538305936436589 0 0.001729333433731163 -0.037349836423462644 0 0.0076515757887455089 -0.036863086477697614 0 0.0090267174793755896 -0.03775758401537823 0 0.0088543114641931441 -0.036109829949769946 0 0.0079003305066265486 -0.034999956193088128 0 0.0076515757887455089 -0.036863086477697614 0 0.0088543114641931441 -0.036109829949769946 0 0.0079001098330553614 -0.035000121062457076 0 0.0075088631531154562 -0.036760508759620746 0 0.0078995973253770061 -0.034999908235987323 0 0.005977960984323993 -0.036259737535791182 0 0.0058400975689092355 -0.034999841838112493 0 0.0078995973253770061 -0.034999908235987323 0 0.0072257656485355233 -0.036562657456811649 0 0.005977960984323993 -0.036259737535791182 0 0.0072257656485355233 -0.036562657456811649 0 0.005977960984323993 -0.036259737535791182 0 0.0063395337392182028 -0.037145853097983295 0 0.005977960984323993 -0.036259737535791182 0 0.0058400975689092355 -0.034999841838112493 0 0.0047294564394294823 -0.036477902800349904 0 0.0037804231901513489 -0.034999964453409679 0 0.0058400975689092355 -0.034999841838112493 0 0.0047294564394294823 -0.036477902800349904 0 0.0047294564394294823 -0.036477902800349904 0 0.0044421588726837958 -0.037553074293768508 0 0.0053867883347543605 -0.037636755403678605 0 0.0040672853877863381 -0.036972187439478499 0 0.0047294564394294823 -0.036477902800349904 0 0.0044421588726837958 -0.037553074293768508 0 0.0044421588726837958 -0.037553074293768508 0 0.0046188734934578509 -0.037945622341275256 0 0.0053867883347543605 -0.037636755403678605 0 0.0044421588726837958 -0.037553074293768508 0 0.0046188734934578509 -0.037945622341275256 0 0.0041104381681933014 -0.038062126882796456 0 0.0053867883347543605 -0.037636755403678605 0 0.0054256379059159886 -0.037867133590165199 0 0.0050683719191387359 -0.03802232379383879 0 0.0046188734934578509 -0.037945622341275256 0 0.0053867883347543605 -0.037636755403678605 0 0.0050683719191387359 -0.03802232379383879 0 0.005977960984323993 -0.036259737535791182 0 0.0047294564394294823 -0.036477902800349904 0 0.0053867883347543605 -0.037636755403678605 0 0.005977960984323993 -0.036259737535791182 0 0.0053867883347543605 -0.037636755403678605 0 0.0063395337392182028 -0.037145853097983295 0 0.0053867883347543605 -0.037636755403678605 0 0.0063395337392182028 -0.037145853097983295 0 0.0068392228590891373 -0.038246252132831636 0 0.0072257656485355233 -0.036562657456811649 0 0.0063395337392182028 -0.037145853097983295 0 0.0068392228590891373 -0.038246252132831636 0 0.0076515757887455089 -0.036863086477697614 0 0.0073657813883521812 -0.038755586758949002 0 0.0079640794881994537 -0.037880345412629531 0 0.0075088631531154562 -0.036760508759620746 0 0.0066316589409133823 -0.038173121279286619 0 0.0052991213301881194 -0.037618850206842816 0 0.0066316589409133823 -0.038173121279286619 0 0.0053867883347543605 -0.037636755403678605 0 0.0054256379059159886 -0.037867133590165199 0 0.0056468769505415252 -0.037791355461504465 0 0.0054256379059159886 -0.037867133590165199 0 0.0055679706172426565 -0.03789347136219192 0 0.0056468769505415252 -0.037791355461504465 0 0.0054256379059159886 -0.037867133590165199 0 0.0055679706172426565 -0.03789347136219192 0 0.0053742062921481376 -0.038027836839584134 0 0.0066109994548960733 -0.038115110699101375 0 0.0067467982856251312 -0.038165256145735182 0 0.0065759895716632089 -0.038333120762907562 0 0.0055679706172426565 -0.03789347136219192 0 0.0056468769505415252 -0.037791355461504465 0 0.0056776237573394782 -0.038047587030134083 0 0.0066316589409133823 -0.038173121279286619 0 0.0061306507230768177 -0.03817052605052669 0 0.0073456635846992817 -0.038259467139724029 0 0.0061306507230768177 -0.03817052605052669 0 0.0066316589409133823 -0.038173121279286619 0 0.0073456635846992817 -0.038259467139724029 0 0.0073657813883521812 -0.038755586758949002 0 0.007837866433236907 -0.038930494600209704 0 0.0079640794881994537 -0.037880345412629531 0 0.0082918228695124403 -0.038563402725621185 0 0.0093335684340409009 -0.037531840397938811 0 0.0094250333415552556 -0.038283395285643368 0 0.0082918228695124403 -0.038563402725621185 0 0.0095824775055594162 -0.039037182293394465 0 0.0094250333415552556 -0.038283395285643368 0 0.0073456635846992817 -0.038259467139724029 0 0.0092792021058642048 -0.037660263312013539 0 0.0073456635846992817 -0.038259467139724029 0 0.0087572791806378499 -0.038363445431922799 0 0.0076515757887455089 -0.036863086477697614 0 0.0079640794881994537 -0.037880345412629531 0 0.0090267174793755896 -0.03775758401537823 0 0.007837866433236907 -0.038930494600209704 0 0.0079640794881994537 -0.037880345412629531 0 0.0090267174793755896 -0.03775758401537823 0 0.0068031198211303953 -0.03931485470566911 0 0.0068240463933346542 -0.03822399241200615 0 0.0077813922872116085 -0.038862312085344346 0 0.0068031198211303953 -0.03931485470566911 0 0.0062858748559214755 -0.038351455291507242 0 0.0060776472551697693 -0.038679011512922107 0 0.0064000614484480611 -0.037283744201006837 0 0.0068240463933346542 -0.03822399241200615 0 0.007940473420085364 -0.037739660268344209 0 0.0068031198211303953 -0.03931485470566911 0 0.0068240463933346542 -0.03822399241200615 0 0.0062858748559214755 -0.038351455291507242 0 0.0064000614484480611 -0.037283744201006837 0 0.0068240463933346542 -0.03822399241200615 0 0.0061917826941265443 -0.037943527114434647 0 0.0068240463933346542 -0.03822399241200615 0 0.0062858748559214755 -0.038351455291507242 0 0.0061917826941265443 -0.037943527114434647 0 0.0056776237573394782 -0.038047587030134083 0 0.0051433639814222332 -0.038205589332103294 0 0.0053742062921481376 -0.038027836839584134 0 0.0062858748559214755 -0.038351455291507242 0 0.0058847667886203206 -0.037913587726882129 0 0.0060776472551697693 -0.038679011512922107 0 0.0064000614484480611 -0.037283744201006837 0 0.0061917826941265443 -0.037943527114434647 0 0.0058847667886203206 -0.037913587726882129 0 0.0062858748559214755 -0.038351455291507242 0 0.0061917826941265443 -0.037943527114434647 0 0.0058847667886203206 -0.037913587726882129 0 0.0055679706172426565 -0.03789347136219192 0 0.0056776237573394782 -0.038047587030134083 0 0.0053742062921481376 -0.038027836839584134 0 0.0058847667886203206 -0.037913587726882129 0 0.0060776472551697693 -0.038679011512922107 0 0.005451918133844498 -0.038969011273154656 0 0.0068031198211303953 -0.03931485470566911 0 0.0060776472551697693 -0.038679011512922107 0 0.005451918133844498 -0.038969011273154656 0 -0.0016394961574714728 -0.037148484698329542 0 0.00035995942848804146 -0.037155164519432765 0 -0.00055777492775056585 -0.036265915925846902 0 0.0021214109523309942 -0.038546874243151785 0 0.0030342728859912003 -0.038030259687840129 0 0.00035995942848804146 -0.037155164519432765 0 0.002290774626846652 -0.037173926279608048 0 0.0014759334220943003 -0.036214747524220194 0 0.0030342728859912003 -0.038030259687840129 0 0.0033950826710535485 -0.037889699654348317 0 0.005451918133844498 -0.038969011273154656 0 0.0049339132362171039 -0.038683153913729874 0 0.004399110196352184 -0.038620653322460743 0 0.0058847667886203206 -0.037913587726882129 0 0.005451918133844498 -0.038969011273154656 0 0.0049339132362171039 -0.038683153913729874 0 0.0061306507230768177 -0.03817052605052669 0 0.0048750693496108551 -0.038626545915051914 0 0.0056776237573394782 -0.038047587030134083 0 0.0049339132362171039 -0.038683153913729874 0 0.0051433639814222332 -0.038205589332103294 0 0.0054256379059159886 -0.037867133590165199 0 0.0053742062921481376 -0.038027836839584134 0 0.0050683719191387359 -0.03802232379383879 0 0.0051433639814222332 -0.038205589332103294 0 0.0053742062921481376 -0.038027836839584134 0 0.0050683719191387359 -0.03802232379383879 0 0.0051433639814222332 -0.038205589332103294 0 0.0050683719191387359 -0.03802232379383879 0 0.0045962771698729544 -0.038247134708635742 0 0.0049339132362171039 -0.038683153913729874 0 0.0051433639814222332 -0.038205589332103294 0 0.0045962771698729544 -0.038247134708635742 0 0.0046188734934578509 -0.037945622341275256 0 0.0050683719191387359 -0.03802232379383879 0 0.0045962771698729544 -0.038247134708635742 0 0.0046188734934578509 -0.037945622341275256 0 0.0045962771698729544 -0.038247134708635742 0 0.0041104381681933014 -0.038062126882796456 0 0.0045962771698729544 -0.038247134708635742 0 0.0041104381681933014 -0.038062126882796456 0 0.0041797844438328079 -0.038199378631982132 0 0.0045962771698729544 -0.038247134708635742 0 0.004399110196352184 -0.038620653322460743 0 0.0041797844438328079 -0.038199378631982132 0 0.0049339132362171039 -0.038683153913729874 0 0.0045962771698729544 -0.038247134708635742 0 0.004399110196352184 -0.038620653322460743 0 0.002290774626846652 -0.037173926279608048 0 0.0030313843650248001 -0.036643222306157783 0 0.0034746184505346912 -0.037048452830862444 0 0.002290774626846652 -0.037173926279608048 0 0.002464351610921883 -0.036355048950461627 0 0.0030313843650248001 -0.036643222306157783 0 0.002290774626846652 -0.037173926279608048 0 0.002464351610921883 -0.036355048950461627 0 0.0014759334220943003 -0.036214747524220194 0 0.002464351610921883 -0.036355048950461627 0 0.002411694441097179 -0.03523106151221863 0 0.0014759334220943003 -0.036214747524220194 0 0.002464351610921883 -0.036355048950461627 0 0.0030313843650248001 -0.036643222306157783 0 0.0032508558469172017 -0.035842129752413146 0 0.002464351610921883 -0.036355048950461627 0 0.002411694441097179 -0.03523106151221863 0 0.0032508558469172017 -0.035842129752413146 0 0.002411694441097179 -0.03523106151221863 0 0.0036638121280778233 -0.034805760797860789 0 0.0027514940699039018 -0.033210369065818889 0 0.002411694441097179 -0.03523106151221863 0 0.0027514940699039018 -0.033210369065818889 0 0.0013991681679919989 -0.033582611367267312 0 0.002411694441097179 -0.03523106151221863 0 0.00075141664592243541 -0.034765037387650896 0 0.0013991681679919989 -0.033582611367267312 0 0.002411694441097179 -0.03523106151221863 0 0.00075141664592243541 -0.034765037387650896 0 0.0014759334220943003 -0.036214747524220194 0 0.00075141664592243541 -0.034765037387650896 0 0.0014759334220943003 -0.036214747524220194 0 0.00035323347340726461 -0.036012062626425839 0 0.00035995942848804146 -0.037155164519432765 0 0.0014759334220943003 -0.036214747524220194 0 0.00035323347340726461 -0.036012062626425839 0 0.00035995942848804146 -0.037155164519432765 0 -0.00055777492775056585 -0.036265915925846902 0 0.00035323347340726461 -0.036012062626425839 0 -0.00055777492775056585 -0.036265915925846902 0 -0.00034164411712621731 -0.035196013896648511 0 -0.0015413680122713855 -0.035598704240505576 0 -0.00055777492775056585 -0.036265915925846902 0 0.00035323347340726461 -0.036012062626425839 0 -0.00034164411712621731 -0.035196013896648511 0 0.00075141664592243541 -0.034765037387650896 0 0.00035323347340726461 -0.036012062626425839 0 -0.00034164411712621731 -0.035196013896648511 0 0.00075141664592243541 -0.034765037387650896 0 -0.00034164411712621731 -0.035196013896648511 0 -0.00076769769736396022 -0.033620856426755323 0 -0.00034164411712621731 -0.035196013896648511 0 -0.0012302769599972137 -0.034607908330721297 0 -0.00076769769736396022 -0.033620856426755323 0 -0.00034164411712621731 -0.035196013896648511 0 -0.0012302769599972137 -0.034607908330721297 0 -0.0015413680122713855 -0.035598704240505576 0 -0.0012302769599972137 -0.034607908330721297 0 -0.001914225406080345 -0.033328994394346174 0 -0.00076769769736396022 -0.033620856426755323 0 -0.0012302769599972137 -0.034607908330721297 0 -0.0022787227511777168 -0.034470806648265594 0 -0.001914225406080345 -0.033328994394346174 0 -0.0012302769599972137 -0.034607908330721297 0 -0.0022787227511777168 -0.034470806648265594 0 -0.0015413680122713855 -0.035598704240505576 0 -0.0016394961574714728 -0.037148484698329542 0 -0.00055777492775056585 -0.036265915925846902 0 -0.0015413680122713855 -0.035598704240505576 0 -0.0022787227511777168 -0.034470806648265594 0 -0.0015413680122713855 -0.035598704240505576 0 -0.0026664202297429058 -0.035902308520174321 0 -0.0016394961574714728 -0.037148484698329542 0 -0.0015413680122713855 -0.035598704240505576 0 -0.0026664202297429058 -0.035902308520174321 0 0.0022516270768311239 -0.038510299127717987 0 0.0024117835169276255 -0.036756593754077541 0 0.0043349112657319923 -0.038408677998772241 0 0.0046647968022803937 -0.037880460643062948 0 0.0058196510471193556 -0.036842976576826482 0 0.00062316141511033283 -0.038059397418404479 0 0.0002171487479289015 -0.039047623105982102 0 -0.00095406689728751908 -0.0368518450496651 0 0.0046647968022803937 -0.037880460643062948 0 0.0047701761694991006 -0.037309670032316646 0 0.0058196510471193556 -0.036842976576826482 0 0.00074744998758046117 -0.039213621069010926 0 0.00062316141511033283 -0.038059397418404479 0 0.00059698738736759156 -0.039026500374417239 0 0.00062316141511033283 -0.038059397418404479 0 0.00059698738736759156 -0.039026500374417239 0 0.0002171487479289015 -0.039047623105982102 0 0.00074744998758046117 -0.039213621069010926 0 0.00067355203275891115 -0.038784976458369577 0 0.00059698738736759156 -0.039026500374417239 0 0.00090735196105932916 -0.038612667182850169 0 0.00059698738736759156 -0.039026500374417239 0 0.0002171487479289015 -0.039047623105982102 0 0.0043349112657319923 -0.038408677998772241 0 0.0044320703984029814 -0.038343179976690969 0 0.0046647968022803937 -0.037880460643062948 0 0.0032598996868903425 -0.038267508290082047 0 0.0037431976983735202 -0.038097489982584699 0 0.0039971797345505055 -0.037879862001853885 0 0.0036890755365030729 -0.038017725916716656 0 0.0037431976983735202 -0.038097489982584699 0 0.00387081340371813 -0.038072966429672304 0 0.0032598996868903425 -0.038267508290082047 0 0.0036890755365030729 -0.038017725916716656 0 0.0037431976983735202 -0.038097489982584699 0 0.0036890755365030729 -0.038017725916716656 0 0.0041104381681933014 -0.038062126882796456 0 0.00387081340371813 -0.038072966429672304 0 0.0041104381681933014 -0.038062126882796456 0 0.00387081340371813 -0.038072966429672304 0 0.0039643152812739958 -0.038075615810590262 0 0.0037431976983735202 -0.038097489982584699 0 0.00387081340371813 -0.038072966429672304 0 0.0039643152812739958 -0.038075615810590262 0 0.0041104381681933014 -0.038062126882796456 0 0.0041797844438328079 -0.038199378631982132 0 0.0039643152812739958 -0.038075615810590262 0 0.0033950826710535485 -0.037889699654348317 0 0.004117488415596361 -0.03771783765763774 0 0.004399110196352184 -0.038620653322460743 0 0.0040658700094687653 -0.037682818590472247 0 0.0040807379420679636 -0.03798722427200639 0 0.004399110196352184 -0.038620653322460743 0 0.0041797844438328079 -0.038199378631982132 0 0.0040807379420679636 -0.03798722427200639 0 0.002290774626846652 -0.037173926279608048 0 0.0040658700094687653 -0.037682818590472247 0 0.0034746184505346912 -0.037048452830862444 0 0.0041797844438328079 -0.038199378631982132 0 0.0039643152812739958 -0.038075615810590262 0 0.0040807379420679636 -0.03798722427200639 0 0.0040272220545449662 -0.037947593557397269 0 0.0040728192048746252 -0.037841708305040689 0 0.0040807379420679636 -0.03798722427200639 0 0.0039643152812739958 -0.038075615810590262 0 0.0040272220545449662 -0.037947593557397269 0 0.0039971797345505055 -0.037879862001853885 0 0.0039643152812739958 -0.038075615810590262 0 0.0040272220545449662 -0.037947593557397269 0 0.0040807379420679636 -0.03798722427200639 0 0.0040658700094687653 -0.037682818590472247 0 0.0034746184505346912 -0.037048452830862444 0 0.0039851249401544426 -0.037230238324546867 0 0.0040728192048746252 -0.037841708305040689 0 0.0040658700094687653 -0.037682818590472247 0 0.0040807379420679636 -0.03798722427200639 0 0.0040272220545449662 -0.037947593557397269 0 0.0040728192048746252 -0.037841708305040689 0 0.0040981177139714116 -0.037794517157613901 0 0.0040728192048746252 -0.037841708305040689 0 0.0041133551273899336 -0.037751157803110259 0 0.0040981177139714116 -0.037794517157613901 0 0.0040728192048746252 -0.037841708305040689 0 0.0041133551273899336 -0.037751157803110259 0 0.0040658700094687653 -0.037682818590472247 0 0.0040658700094687653 -0.037682818590472247 0 0.0041228015026034273 -0.037415880549042109 0 0.0039851249401544426 -0.037230238324546867 0 0.0032598996868903425 -0.038267508290082047 0 0.0039971797345505055 -0.037879862001853885 0 0.0042545202339850912 -0.037649134897166738 0 0.0037880231647616368 -0.038293596889489197 0 0.0041643084778603071 -0.037669297009640779 0 0.0044320703984029814 -0.038343179976690969 0 0.0046647968022803937 -0.037880460643062948 0 0.0042545202339850912 -0.037649134897166738 0 0.0037431976983735202 -0.038097489982584699 0 0.0039643152812739958 -0.038075615810590262 0 0.0039971797345505055 -0.037879862001853885 0 0.0040272220545449662 -0.037947593557397269 0 0.0039971797345505055 -0.037879862001853885 0 0.0040981177139714116 -0.037794517157613901 0 0.0041133551273899336 -0.037751157803110259 0 0.0040981177139714116 -0.037794517157613901 0 0.0042545202339850912 -0.037649134897166738 0 0.0039971797345505055 -0.037879862001853885 0 0.0040981177139714116 -0.037794517157613901 0 0.0042545202339850912 -0.037649134897166738 0 0.0041133551273899336 -0.037751157803110259 0 0.0040658700094687653 -0.037682818590472247 0 0.0042545202339850912 -0.037649134897166738 0 0.0040658700094687653 -0.037682818590472247 0 0.0041228015026034273 -0.037415880549042109 0 0.0042545202339850912 -0.037649134897166738 0 0.0041228015026034273 -0.037415880549042109 0 0.0042545202339850912 -0.037649134897166738 0 0.0042239781600628681 -0.037179225213125382 0 0.0046647968022803937 -0.037880460643062948 0 0.0042545202339850912 -0.037649134897166738 0 0.0047701761694991006 -0.037309670032316646 0 0.0047701761694991006 -0.037309670032316646 0 0.004511901380815554 -0.037015030581397268 0 0.0048618347265364133 -0.03657377179942569 0 0.0047701761694991006 -0.037309670032316646 0 0.0048618347265364133 -0.03657377179942569 0 0.0058196510471193556 -0.036842976576826482 0 0.0048618347265364133 -0.03657377179942569 0 0.0049893247456132689 -0.035183904886743445 0 0.0058196510471193556 -0.036842976576826482 0 0.0042545202339850912 -0.037649134897166738 0 0.0047701761694991006 -0.037309670032316646 0 0.004511901380815554 -0.037015030581397268 0 0.004511901380815554 -0.037015030581397268 0 0.0048618347265364133 -0.03657377179942569 0 0.0041739849590507021 -0.036141784440273758 0 0.004511901380815554 -0.037015030581397268 0 0.0040439058293690686 -0.036854337548551636 0 0.0041739849590507021 -0.036141784440273758 0 0.0042545202339850912 -0.037649134897166738 0 0.004511901380815554 -0.037015030581397268 0 0.0042239781600628681 -0.037179225213125382 0 0.004511901380815554 -0.037015030581397268 0 0.0042239781600628681 -0.037179225213125382 0 0.0040439058293690686 -0.036854337548551636 0 0.0048618347265364133 -0.03657377179942569 0 0.0041739849590507021 -0.036141784440273758 0 0.0049893247456132689 -0.035183904886743445 0 0.0030313843650248001 -0.036643222306157783 0 0.0034746184505346912 -0.037048452830862444 0 0.0035882989937351716 -0.036525148446145392 0 0.0034746184505346912 -0.037048452830862444 0 0.0035882989937351716 -0.036525148446145392 0 0.0040439058293690686 -0.036854337548551636 0 0.0034746184505346912 -0.037048452830862444 0 0.0039851249401544426 -0.037230238324546867 0 0.0040439058293690686 -0.036854337548551636 0 0.0041228015026034273 -0.037415880549042109 0 0.0042239781600628681 -0.037179225213125382 0 0.0039851249401544426 -0.037230238324546867 0 0.0042239781600628681 -0.037179225213125382 0 0.0039851249401544426 -0.037230238324546867 0 0.0040439058293690686 -0.036854337548551636 0 0.0035882989937351716 -0.036525148446145392 0 0.0040439058293690686 -0.036854337548551636 0 0.0041739849590507021 -0.036141784440273758 0 0.0035882989937351716 -0.036525148446145392 0 0.0041739849590507021 -0.036141784440273758 0 0.0032508558469172017 -0.035842129752413146 0 0.0030313843650248001 -0.036643222306157783 0 0.0035882989937351716 -0.036525148446145392 0 0.0032508558469172017 -0.035842129752413146 0 0.0041739849590507021 -0.036141784440273758 0 0.0036638121280778233 -0.034805760797860789 0 0.0049893247456132689 -0.035183904886743445 0 0.0036638121280778233 -0.034805760797860789 0 0.0049893247456132689 -0.035183904886743445 0 0.0045646212372347254 -0.032884359752386225 0 0.002411694441097179 -0.03523106151221863 0 0.0032508558469172017 -0.035842129752413146 0 0.0036638121280778233 -0.034805760797860789 0 0.0041739849590507021 -0.036141784440273758 0 0.0032508558469172017 -0.035842129752413146 0 0.0036638121280778233 -0.034805760797860789 0 0.0049893247456132689 -0.035183904886743445 0 0.0058196510471193556 -0.036842976576826482 0 0.0063175805473729687 -0.033771531483464449 0 0.0024117835169276255 -0.036756593754077541 0 0.00228218732387926 -0.033903546351724018 0 -0.00095406689728751908 -0.0368518450496651 0 0.00077934814942195692 -0.034931205702884924 0 -0.0017030850394933658 -0.034035252938577974 0 -0.00095406689728751908 -0.0368518450496651 0 0.00059933331408896942 -0.036688896180419213 0 0.00077934814942195692 -0.034931205702884924 0 0.00062316141511033283 -0.038059397418404479 0 -0.00095406689728751908 -0.0368518450496651 0 0.00059933331408896942 -0.036688896180419213 0 0.0022483204815694781 -0.032566668056669988 0 0.00077934814942195692 -0.034931205702884924 0 -0.00020859364307224286 -0.032041339796761166 0 0.00077934814942195692 -0.034931205702884924 0 -0.0017030850394933658 -0.034035252938577974 0 -0.00020859364307224286 -0.032041339796761166 0 -0.0017030850394933658 -0.034035252938577974 0 -0.00020859364307224286 -0.032041339796761166 0 -0.0024144224314689156 -0.030971870341494588 0 0.00228218732387926 -0.033903546351724018 0 0.001963269941625591 -0.030647519383676634 0 0.0022483204815694781 -0.032566668056669988 0 0.0012413306854067263 -0.029615947689983754 0 -0.00020859364307224286 -0.032041339796761166 0 0.0012413306854067263 -0.029615947689983754 0 -0.00094126257491901116 -0.029877114361494088 0 -0.00086575606538085001 -0.028211345915752868 0 0.0012413306854067263 -0.029615947689983754 0 -0.00020859364307224286 -0.032041339796761166 0 -0.00094126257491901116 -0.029877114361494088 0 -0.00094126257491901116 -0.029877114361494088 0 -0.0025069932031716842 -0.028477239405617177 0 -0.0024144224314689156 -0.030971870341494588 0 -0.00020859364307224286 -0.032041339796761166 0 -0.00094126257491901116 -0.029877114361494088 0 -0.0024144224314689156 -0.030971870341494588 0 -0.00086575606538085001 -0.028211345915752868 0 -0.0025069932031716842 -0.028477239405617177 0 -0.0014232974148709757 -0.026740375039090897 0 -0.0025069932031716842 -0.028477239405617177 0 -0.00065640821974454172 -0.02598619654844737 0 -0.002132888773121855 -0.026593935329488394 0 -0.00094126257491901116 -0.029877114361494088 0 -0.00086575606538085001 -0.028211345915752868 0 -0.0025069932031716842 -0.028477239405617177 0 -0.002239973552525571 -0.028112880133252281 0 -0.0012281831704350492 -0.026858461893381761 0 0.00064146739302281444 -0.028961286327473454 0 0.0013616848657342642 -0.026947179052563854 0 -0.00011839812956090548 -0.026623717526240934 0 0.00092264010519003991 -0.029269966544151513 0 -5.8965042769365153e-05 -0.026775930746057539 0 0.0012413306854067263 -0.029615947689983754 0 -0.00086575606538085001 -0.028211345915752868 0 -0.00011839812956090548 -0.026623717526240934 0 0.0045895384138505621 -0.028104161785684048 0 0.0045169170108343738 -0.029796788999693853 0 0.0030227461470700811 -0.029353876171249012 0 0.0045895384138505621 -0.028104161785684048 0 0.0053778038401170961 -0.029088210425614009 0 0.0045169170108343738 -0.029796788999693853 0 0.0045895384138505621 -0.028104161785684048 0 0.0030227461470700811 -0.029353876171249012 0 0.0030572773799060191 -0.027074123120374629 0 -0.0030242057731136255 -0.027313050035795268 0 -0.0025069932031716842 -0.028477239405617177 0 -0.0024144224314689156 -0.030971870341494588 0 0.0045895384138505621 -0.028104161785684048 0 0.0061204066979340171 -0.027722663074320041 0 0.0053778038401170961 -0.029088210425614009 0 0.0061204066979340171 -0.027722663074320041 0 0.0053778038401170961 -0.029088210425614009 0 0.0062770193031194991 -0.030701163868708074 0 -0.0030242057731136255 -0.027313050035795268 0 -0.0025069932031716842 -0.028477239405617177 0 -0.002132888773121855 -0.026593935329488394 0 0.001250468142482753 -0.028243296880545159 0 0.001963269941625591 -0.030647519383676634 0 0.0053778038401170961 -0.029088210425614009 0 0.0062770193031194991 -0.030701163868708074 0 0.0045169170108343738 -0.029796788999693853 0 0.0062770193031194991 -0.030701163868708074 0 0.0045169170108343738 -0.029796788999693853 0 0.0046950931790584486 -0.031143636779974837 0 0.0045169170108343738 -0.029796788999693853 0 0.0033761517625343351 -0.031347351816780139 0 0.0030227461470700811 -0.029353876171249012 0 0.0033761517625343351 -0.031347351816780139 0 0.0046950931790584486 -0.031143636779974837 0 0.0045646212372347254 -0.032884359752386225 0 0.0045169170108343738 -0.029796788999693853 0 0.0033761517625343351 -0.031347351816780139 0 0.0046950931790584486 -0.031143636779974837 0 0.0063175805473729687 -0.033771531483464449 0 0.0062770193031194991 -0.030701163868708074 0 0.0045646212372347254 -0.032884359752386225 0 0.0062770193031194991 -0.030701163868708074 0 0.0046950931790584486 -0.031143636779974837 0 0.0045646212372347254 -0.032884359752386225 0 0.0049893247456132689 -0.035183904886743445 0 0.0063175805473729687 -0.033771531483464449 0 0.0045646212372347254 -0.032884359752386225 0 0.0036638121280778233 -0.034805760797860789 0 0.0045646212372347254 -0.032884359752386225 0 0.0027514940699039018 -0.033210369065818889 0 0.0033761517625343351 -0.031347351816780139 0 0.0045646212372347254 -0.032884359752386225 0 0.0027514940699039018 -0.033210369065818889 0 0.0013991681679919989 -0.033582611367267312 0 0.0013596303574459473 -0.031263797433641341 0 0.00032011733404119664 -0.032825794775528799 0 0.00075141664592243541 -0.034765037387650896 0 0.0013991681679919989 -0.033582611367267312 0 0.00032011733404119664 -0.032825794775528799 0 0.0027514940699039018 -0.033210369065818889 0 0.0013991681679919989 -0.033582611367267312 0 0.0013596303574459473 -0.031263797433641341 0 0.0033761517625343351 -0.031347351816780139 0 0.0027514940699039018 -0.033210369065818889 0 0.0013596303574459473 -0.031263797433641341 0 -0.001914225406080345 -0.033328994394346174 0 -0.00076769769736396022 -0.033620856426755323 0 -0.00095298381563800865 -0.031738551237263414 0 -0.001914225406080345 -0.033328994394346174 0 -0.00095298381563800865 -0.031738551237263414 0 -0.0024466405202659756 -0.032137349803941194 0 0.00075141664592243541 -0.034765037387650896 0 0.00032011733404119664 -0.032825794775528799 0 -0.00076769769736396022 -0.033620856426755323 0 0.00032011733404119664 -0.032825794775528799 0 -0.00076769769736396022 -0.033620856426755323 0 -0.00095298381563800865 -0.031738551237263414 0 0.0013596303574459473 -0.031263797433641341 0 -0.00095298381563800865 -0.031738551237263414 0 -0.00048261152064650012 -0.029537297423657492 0 0.0013596303574459473 -0.031263797433641341 0 0.00032011733404119664 -0.032825794775528799 0 -0.00095298381563800865 -0.031738551237263414 0 -0.00095298381563800865 -0.031738551237263414 0 -0.0023857060698915427 -0.030240922239143379 0 -0.00048261152064650012 -0.029537297423657492 0 -0.00095298381563800865 -0.031738551237263414 0 -0.0024466405202659756 -0.032137349803941194 0 -0.0023857060698915427 -0.030240922239143379 0 -0.0023857060698915427 -0.030240922239143379 0 -0.00048261152064650012 -0.029537297423657492 0 -0.0027267678954433624 -0.027932282530530542 0 -0.00026182119594936093 -0.027214945343036138 0 0.0013963452357814157 -0.028779314521288277 0 0.0017843479846976127 -0.024630902195471566 0 -0.00048261152064650012 -0.029537297423657492 0 -0.00026182119594936093 -0.027214945343036138 0 0.0013963452357814157 -0.028779314521288277 0 -0.00048261152064650012 -0.029537297423657492 0 -0.00026182119594936093 -0.027214945343036138 0 -0.0027267678954433624 -0.027932282530530542 0 -0.00026182119594936093 -0.027214945343036138 0 -0.0011047067185502709 -0.024913864144422777 0 -0.0027267678954433624 -0.027932282530530542 0 0.0033761517625343351 -0.031347351816780139 0 0.0013596303574459473 -0.031263797433641341 0 0.0030227461470700811 -0.029353876171249012 0 0.0013596303574459473 -0.031263797433641341 0 -0.00048261152064650012 -0.029537297423657492 0 0.0013963452357814157 -0.028779314521288277 0 0.0013596303574459473 -0.031263797433641341 0 0.0030227461470700811 -0.029353876171249012 0 0.0013963452357814157 -0.028779314521288277 0 0.0015534175592873312 -0.028504902003631538 0 0.0039208326519461689 -0.027027486033543532 0 0.0030227461470700811 -0.029353876171249012 0 0.0013963452357814157 -0.028779314521288277 0 0.0030572773799060191 -0.027074123120374629 0 0.0013963452357814157 -0.028779314521288277 0 0.0048002677825055712 -0.026021899503862109 0 0.0017843479846976127 -0.024630902195471566 0 0.0017843479846976127 -0.024630902195471566 0 9.2837362626998408e-05 -0.022574479884362425 0 0.0023324089863195133 -0.021191409278706004 0 0.0017843479846976127 -0.024630902195471566 0 0.0050186057936149036 -0.022270084156212327 0 0.0023324089863195133 -0.021191409278706004 0 0.0048002677825055712 -0.026021899503862109 0 0.0017843479846976127 -0.024630902195471566 0 0.0050186057936149036 -0.022270084156212327 0 -0.0011047067185502709 -0.024913864144422777 0 -0.0030752730739798196 -0.025114832274490538 0 -0.0027267678954433624 -0.027932282530530542 0 -0.00026182119594936093 -0.027214945343036138 0 0.0017843479846976127 -0.024630902195471566 0 -0.0011047067185502709 -0.024913864144422777 0 0.0017843479846976127 -0.024630902195471566 0 -0.0011047067185502709 -0.024913864144422777 0 9.2837362626998408e-05 -0.022574479884362425 0 -0.0011047067185502709 -0.024913864144422777 0 9.2837362626998408e-05 -0.022574479884362425 0 -0.0022780930349027319 -0.021884128447685471 0 -0.0011047067185502709 -0.024913864144422777 0 -0.0022780930349027319 -0.021884128447685471 0 -0.0030752730739798196 -0.025114832274490538 0 9.2837362626998408e-05 -0.022574479884362425 0 -0.0022780930349027319 -0.021884128447685471 0 -0.00015584442270303136 -0.020032690367642714 0 0.0018141853468753577 -0.011004162227913061 0 0.0036477704607984851 -0.0091852585255862308 0 0.0024741140886425572 -0.0085465942553271963 0 0.0018141853468753577 -0.011004162227913061 0 0.0024741140886425572 -0.0085465942553271963 0 0.00096350104732595876 -0.0098249907581939352 0 -0.00033475457645606559 -0.016684720765433991 0 0.001902097525324088 -0.011444551159303313 0 0.001902097525324088 -0.011444551159303313 0 0.0032817246860562177 -0.016013577753796117 0 9.2837362626998408e-05 -0.022574479884362425 0 -0.00015584442270303136 -0.020032690367642714 0 0.0023324089863195133 -0.021191409278706004 0 0.0032182648869933782 -0.0078017401378559391 0 0.0031749151399694656 -0.008701510050362609 0 0.0045981554155673666 -0.0074520382396112451 0 0.001902097525324088 -0.011444551159303313 0 0.0050012215808260792 -0.0066491498260768684 0 0.001902097525324088 -0.011444551159303313 0 0.002396359005796541 -0.0094718603080207447 0 0.0032182648869933782 -0.0078017401378559391 0 0.0031749151399694656 -0.008701510050362609 0 0.0024741140886425572 -0.0085465942553271963 0 0.0032182648869933782 -0.0078017401378559391 0 0.0024741140886425572 -0.0085465942553271963 0 0.0024355575147119528 -0.0074342260915725615 0 0.0024741140886425572 -0.0085465942553271963 0 0.001841616572706591 -0.0078754289510375719 0 0.0024355575147119528 -0.0074342260915725615 0 0.0024741140886425572 -0.0085465942553271963 0 0.001841616572706591 -0.0078754289510375719 0 0.0014099041126567008 -0.0086153145045382174 0 0.0062742300845514938 -0.011140629072126143 0 0.0043410487662003385 -0.010253034019807667 0 0.0062982230730450053 -0.0094874187497320153 0 0.0058736276298744722 -0.016440911490167735 0 0.0032817246860562177 -0.016013577753796117 0 0.0022262185013865268 -0.0094184267483020511 0 0.0043410487662003385 -0.010253034019807667 0 0.0050503761064437502 -0.0089045554081776251 0 0.0022262185013865268 -0.0094184267483020511 0 0.0050503761064437502 -0.0089045554081776251 0 0.0045981554155673666 -0.0074520382396112451 0 0.0050503761064437502 -0.0089045554081776251 0 0.0062982230730450053 -0.0094874187497320153 0 0.0062487349993946934 -0.0073239322042712518 0 0.0043410487662003385 -0.010253034019807667 0 0.0050503761064437502 -0.0089045554081776251 0 0.0062982230730450053 -0.0094874187497320153 0 0.00026832768741941887 -0.0028517371577456365 0 0.00025106999156277257 -0.0027059799537850291 0 0.00019307770497702816 -0.002584018245565727 0 0.0062982230730450053 -0.0094874187497320153 0 0.0081556450579457311 -0.0092535768928709832 0 0.0062487349993946934 -0.0073239322042712518 0 0.0018132787598831896 -0.0084780576409002502 0 0.0035439036126476793 -0.0046626966049244144 0 0.00026832768741941887 -0.0028517371577456365 0 0.00027630016209671929 -0.002711265511945143 0 0.00025106999156277257 -0.0027059799537850291 0 0.0062742300845514938 -0.011140629072126143 0 0.0062982230730450053 -0.0094874187497320153 0 0.0074555492586875832 -0.010798756755832393 0 0.0062742300845514938 -0.011140629072126143 0 0.0074555492586875832 -0.010798756755832393 0 0.0081635088790220026 -0.012172024538281584 0 0.0062982230730450053 -0.0094874187497320153 0 0.0074555492586875832 -0.010798756755832393 0 0.0081556450579457311 -0.0092535768928709832 0 0.0074555492586875832 -0.010798756755832393 0 0.0081556450579457311 -0.0092535768928709832 0 0.0084123469366195573 -0.011957232811301524 0 0.0018132787598831896 -0.0084780576409002502 0 0.0034059473599940067 -0.019732026347149649 0 5.4150090193519825e-06 -0.011199991012432277 0 0.0037480950959660969 -0.014686309234209107 0 0.00093734796061587704 -0.017161748445547534 0 0.0018132787598831896 -0.0084780576409002502 0 -0.0011044898961775436 -0.015222049866303041 0 -0.0022357893119605266 -0.011670494491665412 0 -0.0033207249750996644 -0.011455860525779526 0 -0.0019542038749058243 -0.012769855841597934 0 -0.0011044898961775436 -0.015222049866303041 0 0.0034059473599940067 -0.019732026347149649 0 -0.0022357893119605266 -0.011670494491665412 0 -0.0016285500822656577 -0.011248248295231817 0 -0.0034708420980293876 -0.010484414262667959 0 -0.0022357893119605266 -0.011670494491665412 0 -0.0033207249750996644 -0.011455860525779526 0 -0.0034708420980293876 -0.010484414262667959 0 0.0018132787598831896 -0.0084780576409002502 0 -0.0014576829769357453 -0.0051008631001802206 0 -0.0016285500822656577 -0.011248248295231817 0 -0.0034708420980293876 -0.010484414262667959 0 -0.00093432535218807066 -0.010495507360769589 0 -0.0016285500822656577 -0.011248248295231817 0 -0.00023617819891649404 -0.011459915395482962 0 -0.0012263248263715851 -0.012140709163808791 0 -0.0016285500822656577 -0.011248248295231817 0 -0.00023617819891649404 -0.011459915395482962 0 -0.00093432535218807066 -0.010495507360769589 0 -0.0022357893119605266 -0.011670494491665412 0 -0.0016285500822656577 -0.011248248295231817 0 -0.0012263248263715851 -0.012140709163808791 0 0.0016842545964338492 -0.010462568835113421 0 -0.00023617819891649404 -0.011459915395482962 0 -0.00093432535218807066 -0.010495507360769589 0 -0.00023617819891649404 -0.011459915395482962 0 0.0006015459323731304 -0.012351185101389444 0 -0.0012263248263715851 -0.012140709163808791 0 0.0006015459323731304 -0.012351185101389444 0 -0.0012263248263715851 -0.012140709163808791 0 -0.00052742759989205391 -0.014327794576903341 0 -0.0024364407808291706 -0.013785584447021758 0 -0.0013774360017439239 -0.020055387663818466 0 -0.0012263248263715851 -0.012140709163808791 0 -0.0020585154969960809 -0.012880887190342145 0 -0.00052742759989205391 -0.014327794576903341 0 -0.00081404667384381529 -0.012730320620731084 0 -0.0011044898961775436 -0.015222049866303041 0 -0.0022357893119605266 -0.011670494491665412 0 -0.0012263248263715851 -0.012140709163808791 0 -0.0019542038749058243 -0.012769855841597934 0 -0.0012007894416318299 -0.0231250103036496 0 0.0011795102261399312 -0.022993866379314158 0 -0.00065640821974454172 -0.02598619654844737 0 -0.0011044898961775436 -0.015222049866303041 0 -0.0013774360017439239 -0.020055387663818466 0 -0.0017465162157369377 -0.020266137953296241 0 -0.0012007894416318299 -0.0231250103036496 0 0.0011795102261399312 -0.022993866379314158 0 -0.0017465162157369377 -0.020266137953296241 0 -0.0012007894416318299 -0.0231250103036496 0 -0.0024735198401904745 -0.022815413962870422 0 -0.0012007894416318299 -0.0231250103036496 0 -0.0025742942281697786 -0.024851824164399718 0 -0.0024735198401904745 -0.022815413962870422 0 -0.0036422776443553718 -0.017626754034755669 0 -0.0049828766452321592 -0.015154494230115298 0 -0.0067222316438905793 -0.018112875409931211 0 -0.0016891067227636086 -0.024007679897771372 0 -0.0013774360017439239 -0.020055387663818466 0 -0.00039779727274793586 -0.025178373934186597 0 -0.00011839812956090548 -0.026623717526240934 0 -0.0014232974148709757 -0.026740375039090897 0 0.0013616848657342642 -0.026947179052563854 0 -0.00039779727274793586 -0.025178373934186597 0 -0.00011839812956090548 -0.026623717526240934 0 -0.0012007894416318299 -0.0231250103036496 0 -0.00065640821974454172 -0.02598619654844737 0 -0.0025742942281697786 -0.024851824164399718 0 -0.0013774360017439239 -0.020055387663818466 0 -0.0012281831704350492 -0.026858461893381761 0 -0.00086575606538085001 -0.028211345915752868 0 -0.00011839812956090548 -0.026623717526240934 0 -0.0014232974148709757 -0.026740375039090897 0 -0.00065640821974454172 -0.02598619654844737 0 -0.002132888773121855 -0.026593935329488394 0 -0.0025742942281697786 -0.024851824164399718 0 -0.0030242057731136255 -0.027313050035795268 0 -0.002132888773121855 -0.026593935329488394 0 -0.0025742942281697786 -0.024851824164399718 0 -0.0030242057731136255 -0.027313050035795268 0 -0.0025742942281697786 -0.024851824164399718 0 -0.0038911714712413963 -0.022181374311306699 0 0.0061204066979340171 -0.027722663074320041 0 0.0050185049902145085 -0.026430333370012025 0 0.0058028675121507582 -0.024656736983247874 0 0.001250468142482753 -0.028243296880545159 0 0.0034059473599940067 -0.019732026347149649 0 0.0045895384138505621 -0.028104161785684048 0 0.0061204066979340171 -0.027722663074320041 0 0.0050185049902145085 -0.026430333370012025 0 0.0039208326519461689 -0.027027486033543532 0 0.0059898133936503945 -0.021262635345272288 0 0.0030572773799060191 -0.027074123120374629 0 0.0050185049902145085 -0.026430333370012025 0 0.0055264349485083745 -0.024565973527045152 0 0.0045895384138505621 -0.028104161785684048 0 0.0030572773799060191 -0.027074123120374629 0 0.0050185049902145085 -0.026430333370012025 0 0.0058736276298744722 -0.016440911490167735 0 0.0059898133936503945 -0.021262635345272288 0 0.0048002677825055712 -0.026021899503862109 0 0.0050186057936149036 -0.022270084156212327 0 0.0077824943281576348 -0.023370876082117756 0 0.0061204066979340171 -0.027722663074320041 0 0.0058028675121507582 -0.024656736983247874 0 0.0058811731052721078 -0.024302966114767881 0 0.0074555492586875832 -0.010798756755832393 0 0.0081635088790220026 -0.012172024538281584 0 0.0084123469366195573 -0.011957232811301524 0 0.0059898133936503945 -0.021262635345272288 0 0.0061035945977748855 -0.021468513003269851 0 0.0056767803396672676 -0.024506594234961997 0 0.0058028675121507582 -0.024656736983247874 0 0.0058811731052721078 -0.024302966114767881 0 0.0059898133936503945 -0.021262635345272288 0 0.0034059473599940067 -0.019732026347149649 0 -0.0017465162157369377 -0.020266137953296241 0 -0.0038911714712413963 -0.022181374311306699 0 -0.0024735198401904745 -0.022815413962870422 0 -0.0025742942281697786 -0.024851824164399718 0 -0.0038911714712413963 -0.022181374311306699 0 -0.0024735198401904745 -0.022815413962870422 0 0.0050185049902145085 -0.026430333370012025 0 0.0055264349485083745 -0.024565973527045152 0 0.0058028675121507582 -0.024656736983247874 0 0.0047884523771608636 -0.0078236546567710258 0 0.0046776402502939005 -0.0082830887635220174 0 0.0045942198857780343 -0.0077573366947570402 0 0.016706877771060162 -0.0077652046692371661 0 0.015602292710776192 -0.0083179758217494792 0 0.013564004700955118 -0.0037652300442741174 0 0.0046776402502939005 -0.0082830887635220174 0 0.0043296185851522274 -0.0076851884754549531 0 0.0045942198857780343 -0.0077573366947570402 0 0.0047884523771608636 -0.0078236546567710258 0 0.0049728452237697597 -0.0079078623339824683 0 0.0046776402502939005 -0.0082830887635220174 0 0.0097600496839027433 -0.010006683016385231 0 0.0090630408404861491 -0.0055856387140332522 0 0.0047884523771608636 -0.0078236546567710258 0 0.0049728452237697597 -0.0079078623339824683 0 0.0049772316799214069 -0.0076254136611382892 0 0.0049728452237697597 -0.0079078623339824683 0 0.0052025577774924827 -0.0080058576724253965 0 0.0046776402502939005 -0.0082830887635220174 0 0.0044210963441029885 -0.012288142775137066 0 0.0097600496839027433 -0.010006683016385231 0 0.0044210963441029885 -0.012288142775137066 0 0.0049501674011517864 -0.0080493461829319549 0 0.0049728452237697597 -0.0079078623339824683 0 0.0052025577774924827 -0.0080058576724253965 0 0.005209971668570036 -0.0078080432166426081 0 0.0044210963441029885 -0.012288142775137066 0 0.003618114562449027 -0.0170811359025618 0 0.011112776603792038 -0.012188952909072763 0 0.0061420585932784781 -0.019553045854860545 0 0.0074865970384450651 -0.013916393437097253 0 0.0074337667344595692 -0.014804833630882881 0 0.0063674166260718566 -0.014753413067870069 0 0.0074337667344595692 -0.014804833630882881 0 0.0063674166260718566 -0.014753413067870069 0 0.0073686316853672903 -0.015713668212213424 0 0.0074865970384450651 -0.013916393437097253 0 0.0063674166260718566 -0.014753413067870069 0 0.0062471456254025995 -0.014528803728703223 0 0.003618114562449027 -0.0170811359025618 0 0.0061420585932784781 -0.019553045854860545 0 0.018020001695740036 -0.008473588079843131 0 0.01657256542032402 -0.011233927948743809 0 0.020360520609817558 -0.011973944920294704 0 0.011112776603792038 -0.012188952909072763 0 0.015705825640171936 -0.014248826470700771 0 0.011112776603792038 -0.012188952909072763 0 0.0097600496839027433 -0.010006683016385231 0 0.0097600496839027433 -0.010006683016385231 0 0.014671420809517699 -0.0080097219981344094 0 0.018020001695740036 -0.008473588079843131 0 0.017344957654997429 -0.0074647955954612807 0 0.01657256542032402 -0.011233927948743809 0 0.017344957654997429 -0.0074647955954612807 0 0.015602292710776192 -0.0083179758217494792 0 0.01657256542032402 -0.011233927948743809 0 0.013618568356483505 -0.010034662408537164 0 0.01025029951488199 -0.009388725448643713 0 0.012205569098362786 -0.0064404339417306203 0 0.015602292710776192 -0.0083179758217494792 0 0.013618568356483505 -0.010034662408537164 0 0.012205569098362786 -0.0064404339417306203 0 0.015602292710776192 -0.0083179758217494792 0 0.013618568356483505 -0.010034662408537164 0 0.01657256542032402 -0.011233927948743809 0 0.014560789604296168 -0.0096390929726552083 0 0.012655991839469038 -0.0060371851023381046 0 0.01025029951488199 -0.009388725448643713 0 0.012205569098362786 -0.0064404339417306203 0 0.0082658321858052834 -0.0046125699577969272 0 0.012205569098362786 -0.0064404339417306203 0 0.01054959248448176 -0.0032946349319812021 0 0.0082658321858052834 -0.0046125699577969272 0 0.015602292710776192 -0.0083179758217494792 0 0.012205569098362786 -0.0064404339417306203 0 0.013564004700955118 -0.0037652300442741174 0 0.012205569098362786 -0.0064404339417306203 0 0.013564004700955118 -0.0037652300442741174 0 0.01054959248448176 -0.0032946349319812021 0 0.013564004700955118 -0.0037652300442741174 0 0.01054959248448176 -0.0032946349319812021 0 0.011820237748266427 -0.0021549790089182364 0 0.0043296185851522274 -0.0076851884754549531 0 0.0041336289953495383 -0.0073080757018955484 0 0.0045476694322120863 -0.0073749544019940036 0 0.0090630408404861491 -0.0055856387140332522 0 0.0071812757566104141 -0.003575016367390983 0 0.01054959248448176 -0.0032946349319812021 0 0.010756842026962024 -0.0013246976575856967 0 0.011820237748266427 -0.0021549790089182364 0 0.010756842026962024 -0.0013246976575856967 0 0.0090188609580898835 -0.0015682438637037491 0 0.008530290425233138 -0.00048206122753728886 0 0.01054959248448176 -0.0032946349319812021 0 0.010756842026962024 -0.0013246976575856967 0 0.0090188609580898835 -0.0015682438637037491 0 0.0071812757566104141 -0.003575016367390983 0 0.0046242907236047808 -0.002639913411699891 0 0.0072050519944648426 0.0019235784095245686 0 0.0067449367572345433 0.0027107428477826149 0 0.0046174243866356829 0.00083509722377621113 0 0.0083354691087525121 -0.00014284942316068909 0 0.0071812757566104141 -0.003575016367390983 0 0.0041336289953495383 -0.0073080757018955484 0 0.0045476694322120863 -0.0073749544019940036 0 0.0046543061079492238 -0.0067619742988014892 0 0.0045476694322120863 -0.0073749544019940036 0 0.0049220059664873399 -0.0072694801810266035 0 0.0046543061079492238 -0.0067619742988014892 0 0.0045476694322120863 -0.0073749544019940036 0 0.0047602645100922021 -0.0075732949302295153 0 0.0049220059664873399 -0.0072694801810266035 0 0.0047884523771608636 -0.0078236546567710258 0 0.0047602645100922021 -0.0075732949302295153 0 0.0045942198857780343 -0.0077573366947570402 0 0.0045476694322120863 -0.0073749544019940036 0 0.0047602645100922021 -0.0075732949302295153 0 0.0045942198857780343 -0.0077573366947570402 0 0.0043296185851522274 -0.0076851884754549531 0 0.0045476694322120863 -0.0073749544019940036 0 0.0045942198857780343 -0.0077573366947570402 0 0.0049728452237697597 -0.0079078623339824683 0 0.005209971668570036 -0.0078080432166426081 0 0.0049772316799214069 -0.0076254136611382892 0 0.005209971668570036 -0.0078080432166426081 0 0.0049772316799214069 -0.0076254136611382892 0 0.0052154764899180386 -0.0075177152608151806 0 0.0047884523771608636 -0.0078236546567710258 0 0.0047602645100922021 -0.0075732949302295153 0 0.0049772316799214069 -0.0076254136611382892 0 0.0047602645100922021 -0.0075732949302295153 0 0.0049772316799214069 -0.0076254136611382892 0 0.0049220059664873399 -0.0072694801810266035 0 0.0049772316799214069 -0.0076254136611382892 0 0.0052154764899180386 -0.0075177152608151806 0 0.0049220059664873399 -0.0072694801810266035 0 0.0049220059664873399 -0.0072694801810266035 0 0.0050436305032507513 -0.0068077234834568769 0 0.0046543061079492238 -0.0067619742988014892 0 0.0052154764899180386 -0.0075177152608151806 0 0.0049220059664873399 -0.0072694801810266035 0 0.0054056541458734966 -0.0070151375422240142 0 0.0049220059664873399 -0.0072694801810266035 0 0.0054056541458734966 -0.0070151375422240142 0 0.0050436305032507513 -0.0068077234834568769 0 -0.0019272832507364701 -0.0077924536182988509 0 -0.00087831468494481803 -0.0084570297861193949 0 -0.00059382808871625528 -0.0074794852454872314 0 -0.00087831468494481803 -0.0084570297861193949 0 -3.1246290685698479e-05 -0.0081358115711921454 0 -0.00059382808871625528 -0.0074794852454872314 0 -0.00087831468494481803 -0.0084570297861193949 0 -0.00034234914304667025 -0.0091210077604930648 0 -3.1246290685698479e-05 -0.0081358115711921454 0 -0.0043237519555227926 -0.013256607305630833 0 -0.0010318841407900398 -0.012894309137030355 0 -0.00087831468494481803 -0.0084570297861193949 0 -0.00034234914304667025 -0.0091210077604930648 0 -0.0015618365244969967 -0.0097739410523480161 0 -0.0019272832507364701 -0.0077924536182988509 0 -0.00087831468494481803 -0.0084570297861193949 0 -0.0015618365244969967 -0.0097739410523480161 0 0.0019536978120966195 -0.0069424928871852105 0 -0.0010318841407900398 -0.012894309137030355 0 0.0052154764899180386 -0.0075177152608151806 0 0.0054056541458734966 -0.0070151375422240142 0 0.0055779838378892371 -0.0078664101771785989 0 0.005209971668570036 -0.0078080432166426081 0 0.0052154764899180386 -0.0075177152608151806 0 0.0055779838378892371 -0.0078664101771785989 0 0.0024741140886425572 -0.0085465942553271963 0 0.0014099041126567008 -0.0086153145045382174 0 0.00096350104732595876 -0.0098249907581939352 0 0.00087711039041677417 -0.0090530510057793435 0 0.0014099041126567008 -0.0086153145045382174 0 0.00096350104732595876 -0.0098249907581939352 0 0.00087711039041677417 -0.0090530510057793435 0 0.0014099041126567008 -0.0086153145045382174 0 0.00087498886088087857 -0.0085391810572852909 0 0.001841616572706591 -0.0078754289510375719 0 0.0014099041126567008 -0.0086153145045382174 0 0.0011459377815403104 -0.0079161478492488606 0 0.0014099041126567008 -0.0086153145045382174 0 0.0011459377815403104 -0.0079161478492488606 0 0.00087498886088087857 -0.0085391810572852909 0 0.0011459377815403104 -0.0079161478492488606 0 0.00066197819087520434 -0.0078780457666018013 0 0.00087498886088087857 -0.0085391810572852909 0 0.0011459377815403104 -0.0079161478492488606 0 0.00066197819087520434 -0.0078780457666018013 0 0.00090362385077531228 -0.0073330857142530695 0 0.0003304812642125031 -0.0079523822423848371 0 -0.00034212168320384791 -0.010262421589033633 0 0.00087711039041677417 -0.0090530510057793435 0 -3.0243700666307162e-05 -0.0093578365774884837 0 0.00096350104732595876 -0.0098249907581939352 0 0.00066197819087520434 -0.0078780457666018013 0 0.00087498886088087857 -0.0085391810572852909 0 -3.0243700666307162e-05 -0.0093578365774884837 0 0.00087711039041677417 -0.0090530510057793435 0 0.00087498886088087857 -0.0085391810572852909 0 -3.0243700666307162e-05 -0.0093578365774884837 0 0.00066197819087520434 -0.0078780457666018013 0 0.00069359658815259411 -0.0084969250521690146 0 -3.1246290685698479e-05 -0.0081358115711921454 0 0.00066197819087520434 -0.0078780457666018013 0 -3.1246290685698479e-05 -0.0081358115711921454 0 0.00027677954828227055 -0.007405649868302399 0 -3.1246290685698479e-05 -0.0081358115711921454 0 0.00027677954828227055 -0.007405649868302399 0 -0.00059382808871625528 -0.0074794852454872314 0 -0.002511817755537949 -0.014549378484772092 0 -0.0028669551992662828 -0.020231382919252267 0 -0.0051062495733558725 -0.018806846112388625 0 -0.00034234914304667025 -0.0091210077604930648 0 0.00069359658815259411 -0.0084969250521690146 0 -3.1246290685698479e-05 -0.0081358115711921454 0 -0.0043237519555227926 -0.013256607305630833 0 -0.00034212168320384791 -0.010262421589033633 0 -0.0063449344461357663 -0.016462986660265994 0 -0.002511817755537949 -0.014549378484772092 0 -0.0051062495733558725 -0.018806846112388625 0 0.0018141853468753577 -0.011004162227913061 0 0.00096350104732595876 -0.0098249907581939352 0 -0.0005182456690351236 -0.013091709759064448 0 -3.0243700666307162e-05 -0.0093578365774884837 0 0.00096350104732595876 -0.0098249907581939352 0 -0.0005182456690351236 -0.013091709759064448 0 -0.00034212168320384791 -0.010262421589033633 0 -0.0029034726054374929 -0.019584725958334701 0 -0.0022780930349027319 -0.021884128447685471 0 -0.0044455194496474774 -0.023791399158088818 0 -0.0030752730739798196 -0.025114832274490538 0 -0.00033475457645606559 -0.016684720765433991 0 -0.0029034726054374929 -0.019584725958334701 0 -0.0063449344461357663 -0.016462986660265994 0 -0.0051062495733558725 -0.018806846112388625 0 -0.0073304531735228313 -0.02024160007876092 0 -0.0028669551992662828 -0.020231382919252267 0 -0.004208615588441684 -0.02131843406543479 0 -0.0051062495733558725 -0.018806846112388625 0 -0.0029034726054374929 -0.019584725958334701 0 -0.0038549642349974601 -0.02065235678820929 0 -0.0051062495733558725 -0.018806846112388625 0 -0.0057608771873839644 -0.020754223309786071 0 -0.0073304531735228313 -0.02024160007876092 0 -0.004208615588441684 -0.02131843406543479 0 -0.0051062495733558725 -0.018806846112388625 0 -0.0057608771873839644 -0.020754223309786071 0 -0.0029660209928695351 -0.020294103468890289 0 -0.004208615588441684 -0.02131843406543479 0 -0.0034103358784910789 -0.024674670493185887 0 -0.004208615588441684 -0.02131843406543479 0 -0.0053187332228900432 -0.024133214577404988 0 -0.0034103358784910789 -0.024674670493185887 0 -0.0029034726054374929 -0.019584725958334701 0 -0.0040273900816738878 -0.026116082193290487 0 -0.004208615588441684 -0.02131843406543479 0 -0.0053187332228900432 -0.024133214577404988 0 -0.0063914399794231897 -0.022633880774964064 0 -0.004208615588441684 -0.02131843406543479 0 -0.0057608771873839644 -0.020754223309786071 0 -0.0063914399794231897 -0.022633880774964064 0 -0.0053187332228900432 -0.024133214577404988 0 -0.0063914399794231897 -0.022633880774964064 0 -0.0070830026608023266 -0.02503164798603999 0 -0.0044776063298714924 -0.026546582849987718 0 -0.0030752730739798196 -0.025114832274490538 0 -0.0027267678954433624 -0.027932282530530542 0 -0.0044455194496474774 -0.023791399158088818 0 -0.0044776063298714924 -0.026546582849987718 0 -0.0030752730739798196 -0.025114832274490538 0 -0.00028325217944839381 -0.016234550904813527 0 0.0020384312914831595 -0.015091486492830411 0 0.0029606138024215966 -0.018874222218418987 0 0.0051816546084088536 -0.0080721032119323854 0 0.005209971668570036 -0.0078080432166426081 0 0.0055779838378892371 -0.0078664101771785989 0 0.0044210963441029885 -0.012288142775137066 0 -0.0010318841407900398 -0.012894309137030355 0 -0.0063449344461357663 -0.016462986660265994 0 -0.010070186103877691 -0.01832095100543291 0 -0.0073304531735228313 -0.02024160007876092 0 -0.0010318841407900398 -0.012894309137030355 0 -0.0031197758773902802 -0.02172780770178118 0 -0.010070186103877691 -0.01832095100543291 0 -0.0073304531735228313 -0.02024160007876092 0 -0.0089283602899382294 -0.023254756856157639 0 -0.0057608771873839644 -0.020754223309786071 0 -0.0073304531735228313 -0.02024160007876092 0 -0.0063914399794231897 -0.022633880774964064 0 -0.0073304531735228313 -0.02024160007876092 0 -0.0063914399794231897 -0.022633880774964064 0 -0.0089283602899382294 -0.023254756856157639 0 -0.0063914399794231897 -0.022633880774964064 0 -0.0089283602899382294 -0.023254756856157639 0 -0.0070830026608023266 -0.02503164798603999 0 -0.00046841613059019565 -0.018756857830764376 0 0.0029606138024215966 -0.018874222218418987 0 0.0017767118328264034 -0.021381072687611764 0 -0.00028325217944839381 -0.016234550904813527 0 -0.00046841613059019565 -0.018756857830764376 0 0.0029606138024215966 -0.018874222218418987 0 -0.00046841613059019565 -0.018756857830764376 0 0.0017767118328264034 -0.021381072687611764 0 -0.00064465958761000168 -0.021266782805459371 0 0.0041577730027543992 -0.024654943654470084 0 0.0061420585932784781 -0.019553045854860545 0 0.0017767118328264034 -0.021381072687611764 0 0.0020685697405252793 -0.023830973317987291 0 -0.00064465958761000168 -0.021266782805459371 0 0.0029606138024215966 -0.018874222218418987 0 0.0017767118328264034 -0.021381072687611764 0 0.0038710541019339184 -0.022640888354085759 0 -0.0089283602899382294 -0.023254756856157639 0 -0.0070830026608023266 -0.02503164798603999 0 -0.0076488356868383766 -0.027651994609146427 0 -0.0031197758773902802 -0.02172780770178118 0 -0.0022508891762315791 -0.025117351598296131 0 -0.0070830026608023266 -0.02503164798603999 0 -0.0076488356868383766 -0.027651994609146427 0 -0.006247363411093828 -0.028900814280320767 0 -0.0069769769972465928 -0.025332248644463849 0 -0.006572289927397593 -0.029063455429365441 0 0.0017767118328264034 -0.021381072687611764 0 0.0038710541019339184 -0.022640888354085759 0 0.0020685697405252793 -0.023830973317987291 0 0.0038710541019339184 -0.022640888354085759 0 0.0020685697405252793 -0.023830973317987291 0 0.0047712094470675134 -0.026387144403834811 0 -0.0022508891762315791 -0.025117351598296131 0 0.003223250676417324 -0.027929885462440709 0 0.0041577730027543992 -0.024654943654470084 0 0.003223250676417324 -0.027929885462440709 0 -0.0076488356868383766 -0.027651994609146427 0 -0.006247363411093828 -0.028900814280320767 0 -0.006425868647304574 -0.031775715859820954 0 0.006356497366609635 -0.025185347371142995 0 0.0064179593019269773 -0.025933296024520547 0 0.0068346128201202923 -0.026265451760598451 0 0.006356497366609635 -0.025185347371142995 0 0.0064179593019269773 -0.025933296024520547 0 0.0050845803186112129 -0.025034228960293638 0 0.006356497366609635 -0.025185347371142995 0 0.0050845803186112129 -0.025034228960293638 0 0.0051651827322560673 -0.02397492800410396 0 -0.0044776063298714924 -0.026546582849987718 0 -0.0027267678954433624 -0.027932282530530542 0 -0.0042938214756592643 -0.028853543912957576 0 -0.0040273900816738878 -0.026116082193290487 0 -0.0042123741729304361 -0.028322521136428719 0 -0.0034103358784910789 -0.024674670493185887 0 -0.0054593269954439473 -0.026902339514030219 0 -0.0042938214756592643 -0.028853543912957576 0 -0.0070830026608023266 -0.02503164798603999 0 -0.0054593269954439473 -0.026902339514030219 0 -0.0063706985421054406 -0.029063620128896708 0 -0.0053187332228900432 -0.024133214577404988 0 -0.0034103358784910789 -0.024674670493185887 0 -0.0054593269954439473 -0.026902339514030219 0 -0.0053187332228900432 -0.024133214577404988 0 -0.0070830026608023266 -0.02503164798603999 0 -0.0054593269954439473 -0.026902339514030219 0 -0.0054593269954439473 -0.026902339514030219 0 -0.0063706985421054406 -0.029063620128896708 0 -0.0042938214756592643 -0.028853543912957576 0 -0.0063706985421054406 -0.029063620128896708 0 -0.0042938214756592643 -0.028853543912957576 0 -0.0049772393477252787 -0.030370452089939985 0 -0.0042938214756592643 -0.028853543912957576 0 -0.0036914422604524414 -0.030130308440551232 0 -0.0049772393477252787 -0.030370452089939985 0 -0.0027267678954433624 -0.027932282530530542 0 -0.0042938214756592643 -0.028853543912957576 0 -0.00326535822373297 -0.029245153365445656 0 -0.0023857060698915427 -0.030240922239143379 0 -0.0027267678954433624 -0.027932282530530542 0 -0.00326535822373297 -0.029245153365445656 0 -0.0042938214756592643 -0.028853543912957576 0 -0.0036914422604524414 -0.030130308440551232 0 -0.00326535822373297 -0.029245153365445656 0 -0.0023857060698915427 -0.030240922239143379 0 -0.0036914422604524414 -0.030130308440551232 0 -0.00326535822373297 -0.029245153365445656 0 -0.0024466405202659756 -0.032137349803941194 0 -0.0023857060698915427 -0.030240922239143379 0 -0.0030986084694031384 -0.031319701369832809 0 -0.0024466405202659756 -0.032137349803941194 0 -0.0030986084694031384 -0.031319701369832809 0 -0.0041066387926229977 -0.031611842153244314 0 -0.0023857060698915427 -0.030240922239143379 0 -0.0036914422604524414 -0.030130308440551232 0 -0.0030986084694031384 -0.031319701369832809 0 -0.0036914422604524414 -0.030130308440551232 0 -0.0030986084694031384 -0.031319701369832809 0 -0.0043262036531551522 -0.030858889965526114 0 -0.0030986084694031384 -0.031319701369832809 0 -0.0041066387926229977 -0.031611842153244314 0 -0.0043262036531551522 -0.030858889965526114 0 -0.006247363411093828 -0.028900814280320767 0 -0.0054317003768984788 -0.032652978826980213 0 -0.006425868647304574 -0.031775715859820954 0 -0.0063706985421054406 -0.029063620128896708 0 -0.0049772393477252787 -0.030370452089939985 0 -0.0056943760235967627 -0.031787093004525258 0 -0.006572289927397593 -0.029063455429365441 0 -0.0010130565121764571 -0.030794259829501 0 -0.0042876619040545039 -0.032317689217554263 0 -0.0024293477783382555 -0.032109378442247913 0 -0.0041066387926229977 -0.031611842153244314 0 -0.0051576023861221419 -0.032252622610836612 0 -0.0048481062157111985 -0.031376454655945359 0 -0.0048481062157111985 -0.031376454655945359 0 -0.0049772393477252787 -0.030370452089939985 0 -0.0056943760235967627 -0.031787093004525258 0 -0.0036914422604524414 -0.030130308440551232 0 -0.0043262036531551522 -0.030858889965526114 0 -0.0049772393477252787 -0.030370452089939985 0 -0.0041066387926229977 -0.031611842153244314 0 -0.0048481062157111985 -0.031376454655945359 0 -0.0043262036531551522 -0.030858889965526114 0 -0.0048481062157111985 -0.031376454655945359 0 -0.0043262036531551522 -0.030858889965526114 0 -0.0049772393477252787 -0.030370452089939985 0 0.0077993912756688282 -0.026784559944529381 0 0.007609021354500963 -0.026978198520276477 0 0.007450992442686195 -0.026488575774894996 0 -0.0010130565121764571 -0.030794259829501 0 0.003223250676417324 -0.027929885462440709 0 -0.0051576023861221419 -0.032252622610836612 0 -0.0048481062157111985 -0.031376454655945359 0 -0.0056943760235967627 -0.031787093004525258 0 0.0014070926722919814 -0.032404742785822095 0 -0.00014038342869328446 -0.030973091586503434 0 0.00022808693755444601 -0.033047497976969493 0 -0.0010130565121764571 -0.030794259829501 0 0.0028559049192756389 -0.03165821164791683 0 -0.0024293477783382555 -0.032109378442247913 0 -0.0010130565121764571 -0.030794259829501 0 0.0077993912756688282 -0.026784559944529381 0 0.007609021354500963 -0.026978198520276477 0 0.0078868473543028932 -0.027147058280129324 0 0.0078490485832065394 -0.03442148706838237 0 0.0075951646423196573 -0.033056872257158289 0 0.0082136154278812969 -0.03363007311563819 0 0.0028559049192756389 -0.03165821164791683 0 0.0013534735391402986 -0.034189259927350259 0 -0.0041774352514939769 -0.033013802066077243 0 -0.0031109777741653464 -0.03370357386372351 0 -0.0038788366418468136 -0.035008032510362927 0 -0.0024293477783382555 -0.032109378442247913 0 0.0028559049192756389 -0.03165821164791683 0 -0.003947577540431629 -0.032888901053286915 0 -0.0041774352514939769 -0.033013802066077243 0 -0.0031109777741653464 -0.03370357386372351 0 -0.0041066387926229977 -0.031611842153244314 0 -0.0050109304085806808 -0.032112706916576687 0 -0.0036916711921034591 -0.033308177682494985 0 -0.0024293477783382555 -0.032109378442247913 0 -0.0035007643367945505 -0.033348674717586138 0 -0.0022787227511777168 -0.034470806648265594 0 -0.001914225406080345 -0.033328994394346174 0 -0.0036916711921034591 -0.033308177682494985 0 -0.001914225406080345 -0.033328994394346174 0 -0.0024466405202659756 -0.032137349803941194 0 -0.0036916711921034591 -0.033308177682494985 0 -0.0024466405202659756 -0.032137349803941194 0 -0.0041066387926229977 -0.031611842153244314 0 -0.0036916711921034591 -0.033308177682494985 0 0.0091409678906287806 -0.026449629095746548 0 0.013753511110591437 -0.021033388412098106 0 0.0059826156963530457 -0.026679226682372711 0 0.0064179593019269773 -0.025933296024520547 0 0.0050845803186112129 -0.025034228960293638 0 0.0059468099575141547 -0.026733878880063081 0 0.0064789355845372709 -0.026468762148609645 0 0.0068004671968496027 -0.026869305890977201 0 0.0091409678906287806 -0.026449629095746548 0 0.0066966546989579243 -0.026748592659951616 0 0.0059468099575141547 -0.026733878880063081 0 0.0064789355845372709 -0.026468762148609645 0 0.0064179593019269773 -0.025933296024520547 0 0.006356497366609635 -0.025185347371142995 0 0.0068346128201202923 -0.026265451760598451 0 0.0075002258277898819 -0.026386615644644097 0 0.0064789355845372709 -0.026468762148609645 0 0.0064179593019269773 -0.025933296024520547 0 0.0068346128201202923 -0.026265451760598451 0 0.0068346128201202923 -0.026265451760598451 0 0.0075002258277898819 -0.026386615644644097 0 0.0071880747444961115 -0.026627672765576489 0 0.0052582449434306153 -0.027360292940233656 0 0.003223250676417324 -0.027929885462440709 0 0.007609021354500963 -0.026978198520276477 0 0.0071880747444961115 -0.026627672765576489 0 0.0068004671968496027 -0.026869305890977201 0 0.007609021354500963 -0.026978198520276477 0 0.0075002258277898819 -0.026386615644644097 0 0.0071880747444961115 -0.026627672765576489 0 0.0064789355845372709 -0.026468762148609645 0 0.0068346128201202923 -0.026265451760598451 0 0.0068004671968496027 -0.026869305890977201 0 0.0068346128201202923 -0.026265451760598451 0 0.0071880747444961115 -0.026627672765576489 0 0.0068004671968496027 -0.026869305890977201 0 0.0078490485832065394 -0.03442148706838237 0 0.0088843539357037257 -0.033879649375267981 0 0.0082136154278812969 -0.03363007311563819 0 0.007609021354500963 -0.026978198520276477 0 0.0068004671968496027 -0.026869305890977201 0 0.0066051253731837321 -0.027884780611962624 0 0.0028559049192756389 -0.03165821164791683 0 0.0091842683463354748 -0.031021609133471763 0 0.007609021354500963 -0.026978198520276477 0 0.0078868473543028932 -0.027147058280129324 0 0.0066051253731837321 -0.027884780611962624 0 0.011187636563115022 -0.029359509441503336 0 0.010815621210684854 -0.028724244339475891 0 0.011537404013614505 -0.028832641425180914 0 0.010815621210684854 -0.028724244339475891 0 0.011537404013614505 -0.028832641425180914 0 0.01189168510973225 -0.028298173513496162 0 0.0059468099575141547 -0.026733878880063081 0 0.0068004671968496027 -0.026869305890977201 0 0.0066051253731837321 -0.027884780611962624 0 0.0091409678906287806 -0.026449629095746548 0 0.0091842683463354748 -0.031021609133471763 0 0.0091409678906287806 -0.026449629095746548 0 0.012961984651742286 -0.027349571832737909 0 0.015188636640158581 -0.024715024146309102 0 0.014377120727787317 -0.026084707382849716 0 0.013731758504657701 -0.024940447263580738 0 0.019041770351136158 -0.02376693128229198 0 0.015293738734176731 -0.028313730283169972 0 0.012961984651742286 -0.027349571832737909 0 0.015293738734176731 -0.028313730283169972 0 0.014377120727787317 -0.026084707382849716 0 0.013731758504657701 -0.024940447263580738 0 0.013573911208634182 -0.027457967464725862 0 0.021300575133961885 -0.025281666367698567 0 0.022914445511444937 -0.023754419491844137 0 0.022061091968926673 -0.027387793972474036 0 0.021300575133961885 -0.025281666367698567 0 0.020460086461451307 -0.026348630682262501 0 0.022061091968926673 -0.027387793972474036 0 0.021300575133961885 -0.025281666367698567 0 0.022914445511444937 -0.023754419491844137 0 0.021451107519306754 -0.023966875368912892 0 0.021300575133961885 -0.025281666367698567 0 0.020847390524046192 -0.024489423121212637 0 0.021451107519306754 -0.023966875368912892 0 0.019446765060070762 -0.025990578635005136 0 0.019978074063639988 -0.025484674734378199 0 0.020460086461451307 -0.026348630682262501 0 0.019446765060070762 -0.025990578635005136 0 0.019978074063639988 -0.025484674734378199 0 0.019471419653770281 -0.025388496848643669 0 0.019978074063639988 -0.025484674734378199 0 0.020460086461451307 -0.026348630682262501 0 0.020522418892413297 -0.025186897585201082 0 0.021300575133961885 -0.025281666367698567 0 0.020460086461451307 -0.026348630682262501 0 0.020522418892413297 -0.025186897585201082 0 0.020847390524046192 -0.024489423121212637 0 0.020382620558241176 -0.024515418735475081 0 0.020522418892413297 -0.025186897585201082 0 0.021300575133961885 -0.025281666367698567 0 0.020847390524046192 -0.024489423121212637 0 0.020522418892413297 -0.025186897585201082 0 0.020847390524046192 -0.024489423121212637 0 0.020394962221542495 -0.024047435572962312 0 0.02071325988988764 -0.023693187294311264 0 0.020847390524046192 -0.024489423121212637 0 0.02071325988988764 -0.023693187294311264 0 0.021451107519306754 -0.023966875368912892 0 0.020847390524046192 -0.024489423121212637 0 0.020382620558241176 -0.024515418735475081 0 0.020394962221542495 -0.024047435572962312 0 0.020382620558241176 -0.024515418735475081 0 0.020394962221542495 -0.024047435572962312 0 0.020032647117801516 -0.024195701113735261 0 0.020032647117801516 -0.024195701113735261 0 0.020071322648401661 -0.024815316941333172 0 0.019769779162745315 -0.024545887692704129 0 0.020382620558241176 -0.024515418735475081 0 0.020032647117801516 -0.024195701113735261 0 0.020071322648401661 -0.024815316941333172 0 0.020382620558241176 -0.024515418735475081 0 0.020071322648401661 -0.024815316941333172 0 0.020522418892413297 -0.025186897585201082 0 0.019978074063639988 -0.025484674734378199 0 0.020071322648401661 -0.024815316941333172 0 0.020522418892413297 -0.025186897585201082 0 0.019446765060070762 -0.025990578635005136 0 0.019244454383429168 -0.02478377512157914 0 0.019471419653770281 -0.025388496848643669 0 0.019978074063639988 -0.025484674734378199 0 0.020071322648401661 -0.024815316941333172 0 0.01972179790541467 -0.025031627318366681 0 0.019978074063639988 -0.025484674734378199 0 0.01972179790541467 -0.025031627318366681 0 0.019471419653770281 -0.025388496848643669 0 0.01972179790541467 -0.025031627318366681 0 0.019450432951304435 -0.0249945671485697 0 0.019471419653770281 -0.025388496848643669 0 0.020071322648401661 -0.024815316941333172 0 0.01972179790541467 -0.025031627318366681 0 0.019769779162745315 -0.024545887692704129 0 0.01972179790541467 -0.025031627318366681 0 0.019769779162745315 -0.024545887692704129 0 0.019244454383429168 -0.02478377512157914 0 0.019769779162745315 -0.024545887692704129 0 0.019244454383429168 -0.02478377512157914 0 0.019730096468226717 -0.023959427662218039 0 0.020032647117801516 -0.024195701113735261 0 0.019769779162745315 -0.024545887692704129 0 0.019730096468226717 -0.023959427662218039 0 0.019244454383429168 -0.02478377512157914 0 0.019450432951304435 -0.0249945671485697 0 0.019471419653770281 -0.025388496848643669 0 0.01972179790541467 -0.025031627318366681 0 0.019244454383429168 -0.02478377512157914 0 0.019450432951304435 -0.0249945671485697 0 0.021408642577566923 -0.01572120332934215 0 0.022316878616494857 -0.014627802595811966 0 0.02022800059966251 -0.014102063087379969 0 0.020511646863065565 -0.023564728809303628 0 0.02018111848818523 -0.019281501166201889 0 0.019244454383429168 -0.02478377512157914 0 0.019730096468226717 -0.023959427662218039 0 0.020039292903145607 -0.022775279130696741 0 0.020039292903145607 -0.022775279130696741 0 0.020243528960189567 -0.023542844560729546 0 0.020219248773726307 -0.02304726071215819 0 0.02018111848818523 -0.019281501166201889 0 0.020406339138051864 -0.019776408528008063 0 0.019730096468226717 -0.023959427662218039 0 0.020061360244593793 -0.023772661404263744 0 0.020243528960189567 -0.023542844560729546 0 0.019730096468226717 -0.023959427662218039 0 0.020039292903145607 -0.022775279130696741 0 0.020243528960189567 -0.023542844560729546 0 0.020032647117801516 -0.024195701113735261 0 0.019730096468226717 -0.023959427662218039 0 0.020061360244593793 -0.023772661404263744 0 0.020394962221542495 -0.024047435572962312 0 0.020061360244593793 -0.023772661404263744 0 0.020243528960189567 -0.023542844560729546 0 0.020394962221542495 -0.024047435572962312 0 0.020032647117801516 -0.024195701113735261 0 0.020061360244593793 -0.023772661404263744 0 0.020243528960189567 -0.023542844560729546 0 0.02071325988988764 -0.023693187294311264 0 0.020219248773726307 -0.02304726071215819 0 0.020394962221542495 -0.024047435572962312 0 0.020243528960189567 -0.023542844560729546 0 0.02071325988988764 -0.023693187294311264 0 0.02071325988988764 -0.023693187294311264 0 0.020219248773726307 -0.02304726071215819 0 0.020997661748157603 -0.023142761173963345 0 0.020219248773726307 -0.02304726071215819 0 0.020997661748157603 -0.023142761173963345 0 0.020993206879138103 -0.021958704062865844 0 0.019764646840982447 -0.022554916224380436 0 0.020219248773726307 -0.02304726071215819 0 0.020993206879138103 -0.021958704062865844 0 0.019041770351136158 -0.02376693128229198 0 0.013753511110591437 -0.021033388412098106 0 0.022914445511444937 -0.023754419491844137 0 0.021761231911198258 -0.021597516541826331 0 0.022021157792870536 -0.018641407761363745 0 0.015188636640158581 -0.024715024146309102 0 0.013731758504657701 -0.024940447263580738 0 0.013906343094760753 -0.02240724050521065 0 0.022914445511444937 -0.023754419491844137 0 0.02162082822701409 -0.022883980176079944 0 0.021761231911198258 -0.021597516541826331 0 0.022914445511444937 -0.023754419491844137 0 0.021451107519306754 -0.023966875368912892 0 0.02162082822701409 -0.022883980176079944 0 0.02071325988988764 -0.023693187294311264 0 0.021451107519306754 -0.023966875368912892 0 0.020997661748157603 -0.023142761173963345 0 0.021451107519306754 -0.023966875368912892 0 0.02162082822701409 -0.022883980176079944 0 0.020997661748157603 -0.023142761173963345 0 0.02162082822701409 -0.022883980176079944 0 0.020997661748157603 -0.023142761173963345 0 0.020993206879138103 -0.021958704062865844 0 0.019764646840982447 -0.022554916224380436 0 0.020993206879138103 -0.021958704062865844 0 0.022021157792870536 -0.018641407761363745 0 0.02018111848818523 -0.019281501166201889 0 0.021135803743677409 -0.019892044651286654 0 0.021761231911198258 -0.021597516541826331 0 0.020993206879138103 -0.021958704062865844 0 0.022021157792870536 -0.018641407761363745 0 0.02162082822701409 -0.022883980176079944 0 0.021761231911198258 -0.021597516541826331 0 0.020993206879138103 -0.021958704062865844 0 0.022914445511444937 -0.023754419491844137 0 0.023396091382627052 -0.017034772024542497 0 0.022021157792870536 -0.018641407761363745 0 0.020026905508357881 -0.015480147570259405 0 0.022021157792870536 -0.018641407761363745 0 0.018540663753758936 -0.018108889171339338 0 0.023396091382627052 -0.017034772024542497 0 0.020026905508357881 -0.015480147570259405 0 0.022021157792870536 -0.018641407761363745 0 0.018528386218097166 -0.022641113913535443 0 0.018540663753758936 -0.018108889171339338 0 0.013704464831593828 -0.015730125864802467 0 0.020026905508357881 -0.015480147570259405 0 0.018540663753758936 -0.018108889171339338 0 0.013704464831593828 -0.015730125864802467 0 0.02018111848818523 -0.019281501166201889 0 0.01718442322573516 -0.013856032240743015 0 0.018528386218097166 -0.022641113913535443 0 0.022021157792870536 -0.018641407761363745 0 0.018540663753758936 -0.018108889171339338 0 0.020026905508357881 -0.015480147570259405 0 0.01657256542032402 -0.011233927948743809 0 0.013704464831593828 -0.015730125864802467 0 0.020026905508357881 -0.015480147570259405 0 0.01657256542032402 -0.011233927948743809 0 0.020360520609817558 -0.011973944920294704 0 0.013753511110591437 -0.021033388412098106 0 0.015705825640171936 -0.014248826470700771 0 0.023396091382627052 -0.017034772024542497 0 0.020026905508357881 -0.015480147570259405 0 0.020360520609817558 -0.011973944920294704 0 0.012912573188733886 -0.019831161394310386 0 0.010999257473207775 -0.016403702706409434 0 0.013119217131516011 -0.017002819375791074 0 0.0095356089998452388 -0.013763013848471841 0 0.010999257473207775 -0.016403702706409434 0 0.013119217131516011 -0.017002819375791074 0 0.013753511110591437 -0.021033388412098106 0 0.0061420585932784781 -0.019553045854860545 0 0.018776053980773824 -0.0097395814852548925 0 0.020550125974672963 -0.012179461857524655 0 0.01759764125896306 -0.012678807023856006 0 0.014560789604296168 -0.0096390929726552083 0 0.01718442322573516 -0.013856032240743015 0 0.013618568356483505 -0.010034662408537164 0 0.01657256542032402 -0.011233927948743809 0 0.013704464831593828 -0.015730125864802467 0 0.013618568356483505 -0.010034662408537164 0 0.01025029951488199 -0.009388725448643713 0 0.013704464831593828 -0.015730125864802467 0 0.022316878616494857 -0.014627802595811966 0 0.020550125974672963 -0.012179461857524655 0 0.02022800059966251 -0.014102063087379969 0 0.020550125974672963 -0.012179461857524655 0 0.02022800059966251 -0.014102063087379969 0 0.01759764125896306 -0.012678807023856006 0 0.02022800059966251 -0.014102063087379969 0 0.018419892551595284 -0.015439636710285335 0 0.01759764125896306 -0.012678807023856006 0 0.021408642577566923 -0.01572120332934215 0 0.02022800059966251 -0.014102063087379969 0 0.018419892551595284 -0.015439636710285335 0 0.020511646863065565 -0.023564728809303628 0 0.018340685276965467 -0.028611301598911183 0 0.019446765060070762 -0.025990578635005136 0 0.019244454383429168 -0.02478377512157914 0 0.018246218049218877 -0.02770007410026502 0 0.020511646863065565 -0.023564728809303628 0 0.018551309971866724 -0.021398915943418681 0 0.019550317266746046 -0.027840045437107903 0 0.018705896741764292 -0.027839405785638652 0 0.019004870706759571 -0.02850583114369588 0 0.018705896741764292 -0.027839405785638652 0 0.019004870706759571 -0.02850583114369588 0 0.018194956728986782 -0.028510387336538587 0 0.018382884836581424 -0.029097321362294856 0 0.019004870706759571 -0.02850583114369588 0 0.018194956728986782 -0.028510387336538587 0 0.018534819895491543 -0.028749650254322807 0 0.018340685276965467 -0.028611301598911183 0 0.018382884836581424 -0.029097321362294856 0 0.018633020542218943 -0.028741033365620373 0 0.018246218049218877 -0.02770007410026502 0 0.018382884836581424 -0.029097321362294856 0 0.018633020542218943 -0.028741033365620373 0 0.018623758669814985 -0.029126271041644825 0 0.018633020542218943 -0.028741033365620373 0 0.019197939073524892 -0.028822483614073111 0 0.019014048523818966 -0.029177600560641666 0 0.018633020542218943 -0.028741033365620373 0 0.018623758669814985 -0.029126271041644825 0 0.019014048523818966 -0.029177600560641666 0 0.018633020542218943 -0.028741033365620373 0 0.019197939073524892 -0.028822483614073111 0 0.01897441073873524 -0.028154654400970994 0 0.019197939073524892 -0.028822483614073111 0 0.01897441073873524 -0.028154654400970994 0 0.019907521489026206 -0.027920195430762598 0 0.018633020542218943 -0.028741033365620373 0 0.01897441073873524 -0.028154654400970994 0 0.018246218049218877 -0.02770007410026502 0 0.019446765060070762 -0.025990578635005136 0 0.018246218049218877 -0.02770007410026502 0 0.019508599736507693 -0.027347398327757313 0 0.01897441073873524 -0.028154654400970994 0 0.018246218049218877 -0.02770007410026502 0 0.019508599736507693 -0.027347398327757313 0 0.019446765060070762 -0.025990578635005136 0 0.020460086461451307 -0.026348630682262501 0 0.019508599736507693 -0.027347398327757313 0 0.020460086461451307 -0.026348630682262501 0 0.019508599736507693 -0.027347398327757313 0 0.020640092336097988 -0.027430574800226842 0 0.020460086461451307 -0.026348630682262501 0 0.020640092336097988 -0.027430574800226842 0 0.022061091968926673 -0.027387793972474036 0 0.020640092336097988 -0.027430574800226842 0 0.019907521489026206 -0.027920195430762598 0 0.021611969828317115 -0.027916264624698282 0 0.019508599736507693 -0.027347398327757313 0 0.020640092336097988 -0.027430574800226842 0 0.019907521489026206 -0.027920195430762598 0 0.01897441073873524 -0.028154654400970994 0 0.019508599736507693 -0.027347398327757313 0 0.019907521489026206 -0.027920195430762598 0 0.012005185481581269 -0.033163776678001564 0 0.012220121937911202 -0.033395230838389064 0 0.012066137068728168 -0.03264972228511244 0 0.020640092336097988 -0.027430574800226842 0 0.022061091968926673 -0.027387793972474036 0 0.021611969828317115 -0.027916264624698282 0 0.012005185481581269 -0.033163776678001564 0 0.011990317732916466 -0.033511590538385296 0 0.012220121937911202 -0.033395230838389064 0 0.013401353121936542 -0.031977782660647117 0 0.013749207676571578 -0.030675197493420583 0 0.015293738734176731 -0.028313730283169972 0 0.016826231383268858 -0.029457705261515886 0 0.013749207676571578 -0.030675197493420583 0 0.016826231383268858 -0.029457705261515886 0 0.015548238957379792 -0.029633435516477177 0 0.015523859598715469 -0.030023476562584389 0 0.015221704278549348 -0.030193360218608595 0 0.015293738734176731 -0.028313730283169972 0 0.013749207676571578 -0.030675197493420583 0 0.012005185481581269 -0.033163776678001564 0 0.011399463995886068 -0.032700392920543823 0 0.010902356781749284 -0.03328422242014846 0 0.012005185481581269 -0.033163776678001564 0 0.011973283680158894 -0.033547051626887127 0 0.010902356781749284 -0.03328422242014846 0 0.012220121937911202 -0.033395230838389064 0 0.012066137068728168 -0.03264972228511244 0 0.013101855126425418 -0.032007608756647446 0 0.012066137068728168 -0.03264972228511244 0 0.011593754270972463 -0.031974553361050088 0 0.013101855126425418 -0.032007608756647446 0 0.011399463995886068 -0.032700392920543823 0 0.012066137068728168 -0.03264972228511244 0 0.011593754270972463 -0.031974553361050088 0 0.012005185481581269 -0.033163776678001564 0 0.011399463995886068 -0.032700392920543823 0 0.012066137068728168 -0.03264972228511244 0 0.016826231383268858 -0.029457705261515886 0 0.016589202320301075 -0.030153664080345189 0 0.019677986853960806 -0.029140385177486589 0 0.019532750691868155 -0.028821110092714725 0 0.018335667657416035 -0.029719033486232893 0 0.02088716268085667 -0.028108960787677217 0 0.016826231383268858 -0.029457705261515886 0 0.019197939073524892 -0.028822483614073111 0 0.019907521489026206 -0.027920195430762598 0 0.021611969828317115 -0.027916264624698282 0 0.01997178654068139 -0.028361795854908372 0 0.019677986853960806 -0.029140385177486589 0 0.019532750691868155 -0.028821110092714725 0 0.019197939073524892 -0.028822483614073111 0 0.01997178654068139 -0.028361795854908372 0 0.019532750691868155 -0.028821110092714725 0 0.019197939073524892 -0.028822483614073111 0 0.019532750691868155 -0.028821110092714725 0 0.019014048523818966 -0.029177600560641666 0 0.019394373785301865 -0.028910322475691183 0 0.018782081437117817 -0.029361639169418103 0 0.019677986853960806 -0.029140385177486589 0 0.018854388254746043 -0.030611139434863526 0 0.018335667657416035 -0.029719033486232893 0 0.013101855126425418 -0.032007608756647446 0 0.013984851280005 -0.030621652667199437 0 0.011690074196391164 -0.030712361585700686 0 0.015648819811742744 -0.03524581867755746 0 0.012223827461895457 -0.035465600507045322 0 0.016589202320301075 -0.030153664080345189 0 0.015648819811742744 -0.03524581867755746 0 0.011593754270972463 -0.031974553361050088 0 0.013101855126425418 -0.032007608756647446 0 0.011690074196391164 -0.030712361585700686 0 0.013482558071523048 -0.040182822121686557 0 0.013223102933756899 -0.038884253283795654 0 0.014383780948145103 -0.039190602322881025 0 0.015238068229193363 -0.040170298285807739 0 0.014383780948145103 -0.039190602322881025 0 0.015302736485920267 -0.038977230373310759 0 0.015238068229193363 -0.040170298285807739 0 0.013482558071523048 -0.040182822121686557 0 0.014383780948145103 -0.039190602322881025 0 0.015238068229193363 -0.040170298285807739 0 0.015302736485920267 -0.038977230373310759 0 0.016230268168045538 -0.038750049817042789 0 0.015648819811742744 -0.03524581867755746 0 0.015665658438620295 -0.040546895306475844 0 0.015553119285917528 -0.039952739212285669 0 0.016741912097633468 -0.03992933644358241 0 0.016230268168045538 -0.038750049817042789 0 0.019399507230318695 -0.032950013718052798 0 0.021044887502280046 -0.03632846493792815 0 0.016741912097633468 -0.03992933644358241 0 0.017274784752113293 -0.038377264030574551 0 0.018109553854380823 -0.038964331543859018 0 0.016741912097633468 -0.03992933644358241 0 0.017274784752113293 -0.038377264030574551 0 0.016230268168045538 -0.038750049817042789 0 0.018382884836581424 -0.029097321362294856 0 0.018597877653196461 -0.029436612153400304 0 0.018228392457516878 -0.029575101528405551 0 0.019399507230318695 -0.032950013718052798 0 0.021311518705536318 -0.030281077211411773 0 0.018382884836581424 -0.029097321362294856 0 0.018597877653196461 -0.029436612153400304 0 0.018623758669814985 -0.029126271041644825 0 0.018854388254746043 -0.030611139434863526 0 0.017143780453165287 -0.030731717715649001 0 0.018335667657416035 -0.029719033486232893 0 0.015648819811742744 -0.03524581867755746 0 0.019399507230318695 -0.032950013718052798 0 0.019399507230318695 -0.032950013718052798 0 0.018782081437117817 -0.029361639169418103 0 0.018597877653196461 -0.029436612153400304 0 0.018623758669814985 -0.029126271041644825 0 0.019014048523818966 -0.029177600560641666 0 -0.0026664202297429058 -0.035902308520174321 0 -0.0038788366418468136 -0.035008032510362927 0 -0.0035018167127436562 -0.037162869743625287 0 -0.0022787227511777168 -0.034470806648265594 0 -0.0026664202297429058 -0.035902308520174321 0 -0.0038788366418468136 -0.035008032510362927 0 -0.0022787227511777168 -0.034470806648265594 0 -0.0031109777741653464 -0.03370357386372351 0 -0.0038788366418468136 -0.035008032510362927 0 -0.0023921224528025424 -0.034388896256736426 0 -0.0035007643367945505 -0.033348674717586138 0 0.0075951646423196573 -0.033056872257158289 0 0.0085100761114855726 -0.033139893385397592 0 0.0082136154278812969 -0.03363007311563819 0 0.0075951646423196573 -0.033056872257158289 0 0.0081598957851780913 -0.032231277851443599 0 0.007148889967520812 -0.031100713046411411 0 0.0013534735391402986 -0.034189259927350259 0 0.0049190139664339718 -0.035113886058626795 0 0.0075951646423196573 -0.033056872257158289 0 0.0081598957851780913 -0.032231277851443599 0 0.0085100761114855726 -0.033139893385397592 0 0.0092462814660128276 -0.032494721877041645 0 0.010338876018642154 -0.032362797428255402 0 0.0093330563552587679 -0.030851187713938702 0 0.0081598957851780913 -0.032231277851443599 0 0.0092462814660128276 -0.032494721877041645 0 0.0093330563552587679 -0.030851187713938702 0 0.00814100147060552 -0.03223672917379504 0 0.0089696027873703323 -0.033699084801083454 0 0.0081598957851780913 -0.032231277851443599 0 0.0092462814660128276 -0.032494721877041645 0 0.0089232825550243852 -0.033525144030759367 0 0.0096542644798344786 -0.034781648299137609 0 0.0089232825550243852 -0.033525144030759367 0 0.0098140786307724971 -0.03329083567506895 0 0.0088843539357037257 -0.033879649375267981 0 0.0085100761114855726 -0.033139893385397592 0 0.0082136154278812969 -0.03363007311563819 0 0.0091842683463354748 -0.031021609133471763 0 0.0089696027873703323 -0.033699084801083454 0 0.0092462814660128276 -0.032494721877041645 0 0.0089232825550243852 -0.033525144030759367 0 0.0098140786307724971 -0.03329083567506895 0 0.0091842683463354748 -0.031021609133471763 0 0.013749207676571578 -0.030675197493420583 0 0.0096542644798344786 -0.034781648299137609 0 0.0098140786307724971 -0.03329083567506895 0 0.010902356781749284 -0.03328422242014846 0 0.010815621210684854 -0.028724244339475891 0 0.01189168510973225 -0.028298173513496162 0 0.011904891702270607 -0.028158710555896718 0 0.0096542644798344786 -0.034781648299137609 0 0.011973283680158894 -0.033547051626887127 0 0.010902356781749284 -0.03328422242014846 0 0.011593754270972463 -0.031974553361050088 0 0.011690074196391164 -0.030712361585700686 0 0.010338876018642154 -0.032362797428255402 0 0.011399463995886068 -0.032700392920543823 0 0.010902356781749284 -0.03328422242014846 0 0.010338876018642154 -0.032362797428255402 0 0.0098140786307724971 -0.03329083567506895 0 0.010902356781749284 -0.03328422242014846 0 0.010338876018642154 -0.032362797428255402 0 0.0092462814660128276 -0.032494721877041645 0 0.0098140786307724971 -0.03329083567506895 0 0.010338876018642154 -0.032362797428255402 0 0.011399463995886068 -0.032700392920543823 0 0.011593754270972463 -0.031974553361050088 0 0.010338876018642154 -0.032362797428255402 0 0.012223827461895457 -0.035465600507045322 0 0.0111423680224218 -0.035433515236146122 0 0.011690074196391164 -0.030712361585700686 0 0.010338876018642154 -0.032362797428255402 0 0.0093330563552587679 -0.030851187713938702 0 0.013482558071523048 -0.040182822121686557 0 0.012130320965875799 -0.039840748027042211 0 0.011488028540639116 -0.040007842715708397 0 0.013482558071523048 -0.040182822121686557 0 0.013223102933756899 -0.038884253283795654 0 0.012472186216647656 -0.039281774725180706 0 0.013223102933756899 -0.038884253283795654 0 0.012472186216647656 -0.039281774725180706 0 0.011989101549798655 -0.038427502141291703 0 0.013482558071523048 -0.040182822121686557 0 0.012130320965875799 -0.039840748027042211 0 0.012472186216647656 -0.039281774725180706 0 0.012472186216647656 -0.039281774725180706 0 0.011717161837074934 -0.039173863331930729 0 0.011989101549798655 -0.038427502141291703 0 0.012130320965875799 -0.039840748027042211 0 0.012472186216647656 -0.039281774725180706 0 0.011717161837074934 -0.039173863331930729 0 0.012130320965875799 -0.039840748027042211 0 0.011717161837074934 -0.039173863331930729 0 0.010914665966560948 -0.03949547911372938 0 0.011977995063488791 -0.03972965533916778 0 0.010464068617174922 -0.039038672712139184 0 0.011717161837074934 -0.039173863331930729 0 0.010914665966560948 -0.03949547911372938 0 0.011099326535612349 -0.038767542556115663 0 0.012130320965875799 -0.039840748027042211 0 0.011488028540639116 -0.040007842715708397 0 0.010006392577764422 -0.038514257175338205 0 0.011488028540639116 -0.040007842715708397 0 0.008764835652891368 -0.039673280656399988 0 0.010006392577764422 -0.038514257175338205 0 0.0081598957851780913 -0.032231277851443599 0 0.0093330563552587679 -0.030851187713938702 0 0.007148889967520812 -0.031100713046411411 0 0.0111423680224218 -0.035433515236146122 0 0.0049190139664339718 -0.035113886058626795 0 0.008764835652891368 -0.039673280656399988 0 0.0087327351523754111 -0.039447047386784277 0 0.010006392577764422 -0.038514257175338205 0 0.0049190139664339718 -0.035113886058626795 0 0.0051908606891858675 -0.035891345685490385 0 0.0087327351523754111 -0.039447047386784277 0 0.010006392577764422 -0.038514257175338205 0 0.007940473420085364 -0.037739660268344209 0 0.010914665966560948 -0.03949547911372938 0 0.0095824775055594162 -0.039037182293394465 0 0.011099326535612349 -0.038767542556115663 0 0.010464068617174922 -0.039038672712139184 0 0.0087572791806378499 -0.038363445431922799 0 0.0087327351523754111 -0.039447047386784277 0 0.007940473420085364 -0.037739660268344209 0 0.0077813922872116085 -0.038862312085344346 0 0.0068240463933346542 -0.03822399241200615 0 0.007940473420085364 -0.037739660268344209 0 0.0077813922872116085 -0.038862312085344346 0 0.0021214109523309942 -0.038546874243151785 0 0.0049190139664339718 -0.035113886058626795 0 0.0068031198211303953 -0.03931485470566911 0 0.0087518932608372201 -0.039619666060278773 0 0.0077813922872116085 -0.038862312085344346 0 -0.0016394961574714728 -0.037148484698329542 0 -0.0026664202297429058 -0.035902308520174321 0 -0.0035018167127436562 -0.037162869743625287 0 0.0087518932608372201 -0.039619666060278773 0 0.0087327351523754111 -0.039447047386784277 0 0.0077813922872116085 -0.038862312085344346 0 0.0093335684340409009 -0.037531840397938811 0 0.010488395465315898 -0.038001740377414349 0 0.010278833429244631 -0.036525019439885315 0 0.0092792021058642048 -0.037660263312013539 0 0.010188395105075626 -0.036596764814532882 0 0.0095824775055594162 -0.039037182293394465 0 0.0094250333415552556 -0.038283395285643368 0 0.010488395465315898 -0.038001740377414349 0 0.0093335684340409009 -0.037531840397938811 0 0.0094250333415552556 -0.038283395285643368 0 0.010488395465315898 -0.038001740377414349 0 0.0095824775055594162 -0.039037182293394465 0 0.010488395465315898 -0.038001740377414349 0 0.011099326535612349 -0.038767542556115663 0 0.010488395465315898 -0.038001740377414349 0 0.011861051281874604 -0.037284356169154931 0 0.010278833429244631 -0.036525019439885315 0 0.010488395465315898 -0.038001740377414349 0 0.011861051281874604 -0.037284356169154931 0 0.011989101549798655 -0.038427502141291703 0 0.010488395465315898 -0.038001740377414349 0 0.011099326535612349 -0.038767542556115663 0 0.011989101549798655 -0.038427502141291703 0 0.011717161837074934 -0.039173863331930729 0 0.011099326535612349 -0.038767542556115663 0 0.011989101549798655 -0.038427502141291703 0 0.013223102933756899 -0.038884253283795654 0 0.011989101549798655 -0.038427502141291703 0 0.013101287333342268 -0.037883090726601447 0 0.011861051281874604 -0.037284356169154931 0 0.011989101549798655 -0.038427502141291703 0 0.013101287333342268 -0.037883090726601447 0 0.011861051281874604 -0.037284356169154931 0 0.013101287333342268 -0.037883090726601447 0 0.01313150379406873 -0.036865608350869571 0 0.011861051281874604 -0.037284356169154931 0 0.012310801799850437 -0.036095641171053065 0 0.01313150379406873 -0.036865608350869571 0 0.012310801799850437 -0.036095641171053065 0 0.011443120204652227 -0.034999955529173676 0 0.013214454664106229 -0.034999915875115285 0 0.012310801799850437 -0.036095641171053065 0 0.011443120204652227 -0.034999955529173676 0 0.010278833429244631 -0.036525019439885315 0 0.011861051281874604 -0.037284356169154931 0 0.012310801799850437 -0.036095641171053065 0 0.010278833429244631 -0.036525019439885315 0 0.011443120204652227 -0.034999955529173676 0 0.010278833429244631 -0.036525019439885315 0 0.0096717270603547869 -0.03499994325236358 0 0.010278833429244631 -0.036525019439885315 0 0.0096717270603547869 -0.03499994325236358 0 0.0088543114641931441 -0.036109829949769946 0 0.0079003305066265486 -0.034999956193088128 0 0.0096717270603547869 -0.03499994325236358 0 0.0088543114641931441 -0.036109829949769946 0 0.0090267174793755896 -0.03775758401537823 0 0.010278833429244631 -0.036525019439885315 0 0.0088543114641931441 -0.036109829949769946 0 0.015596368265625611 -0.03760160709512704 0 0.015207121041593295 -0.036727569228829228 0 0.016354358496896603 -0.036690702061237666 0 0.015596368265625611 -0.03760160709512704 0 0.016430603700420116 -0.037420084494076244 0 0.016240013041360205 -0.038157475031381421 0 0.015596368265625611 -0.03760160709512704 0 0.016430603700420116 -0.037420084494076244 0 0.016354358496896603 -0.036690702061237666 0 0.016430603700420116 -0.037420084494076244 0 0.016240013041360205 -0.038157475031381421 0 0.017502242144675498 -0.03722247623839104 0 0.016326048274587054 -0.038104017030895325 0 0.017580347558405967 -0.037071023975422071 0 0.016430603700420116 -0.037420084494076244 0 0.016354358496896603 -0.036690702061237666 0 0.017502242144675498 -0.03722247623839104 0 0.017274784752113293 -0.038377264030574551 0 0.016240013041360205 -0.038157475031381421 0 0.017689823455024751 -0.036939144164751109 0 0.017274784752113293 -0.038377264030574551 0 0.016230268168045538 -0.038750049817042789 0 0.016240013041360205 -0.038157475031381421 0 0.016230268168045538 -0.038750049817042789 0 0.016240013041360205 -0.038157475031381421 0 0.015662338309138029 -0.038361372581395235 0 0.015596368265625611 -0.03760160709512704 0 0.015662338309138029 -0.038361372581395235 0 0.014950984373117593 -0.03837703169177991 0 0.015596368265625611 -0.03760160709512704 0 0.016240013041360205 -0.038157475031381421 0 0.015662338309138029 -0.038361372581395235 0 0.015302736485920267 -0.038977230373310759 0 0.016230268168045538 -0.038750049817042789 0 0.015662338309138029 -0.038361372581395235 0 0.014383780948145103 -0.039190602322881025 0 0.015302736485920267 -0.038977230373310759 0 0.014950984373117593 -0.03837703169177991 0 0.015302736485920267 -0.038977230373310759 0 0.015662338309138029 -0.038361372581395235 0 0.014950984373117593 -0.03837703169177991 0 0.014383780948145103 -0.039190602322881025 0 0.014950984373117593 -0.03837703169177991 0 0.014047088130742718 -0.038352054339069006 0 0.014950984373117593 -0.03837703169177991 0 0.014047088130742718 -0.038352054339069006 0 0.014401784839885993 -0.037468713336382395 0 0.013223102933756899 -0.038884253283795654 0 0.013101287333342268 -0.037883090726601447 0 0.014047088130742718 -0.038352054339069006 0 0.013223102933756899 -0.038884253283795654 0 0.014383780948145103 -0.039190602322881025 0 0.014047088130742718 -0.038352054339069006 0 0.013101287333342268 -0.037883090726601447 0 0.01313150379406873 -0.036865608350869571 0 0.014401784839885993 -0.037468713336382395 0 0.013101287333342268 -0.037883090726601447 0 0.014047088130742718 -0.038352054339069006 0 0.014401784839885993 -0.037468713336382395 0 0.015596368265625611 -0.03760160709512704 0 0.014401784839885993 -0.037468713336382395 0 0.015207121041593295 -0.036727569228829228 0 0.015596368265625611 -0.03760160709512704 0 0.014950984373117593 -0.03837703169177991 0 0.014401784839885993 -0.037468713336382395 0 0.014401784839885993 -0.037468713336382395 0 0.015207121041593295 -0.036727569228829228 0 0.01412849251394591 -0.036145558458671401 0 0.015207121041593295 -0.036727569228829228 0 0.01412849251394591 -0.036145558458671401 0 0.015520337216881777 -0.035907509486735822 0 0.012310801799850437 -0.036095641171053065 0 0.01313150379406873 -0.036865608350869571 0 0.01412849251394591 -0.036145558458671401 0 0.01313150379406873 -0.036865608350869571 0 0.014401784839885993 -0.037468713336382395 0 0.01412849251394591 -0.036145558458671401 0 0.012310801799850437 -0.036095641171053065 0 0.01412849251394591 -0.036145558458671401 0 0.013214454664106229 -0.034999915875115285 0 0.01412849251394591 -0.036145558458671401 0 0.013214454664106229 -0.034999915875115285 0 0.014985837629601076 -0.034999907242369753 0 0.01412849251394591 -0.036145558458671401 0 0.014985837629601076 -0.034999907242369753 0 0.015520337216881777 -0.035907509486735822 0 0.014985837629601076 -0.034999907242369753 0 0.015520337216881777 -0.035907509486735822 0 0.016757245362370839 -0.03499994473988028 0 0.015520337216881777 -0.035907509486735822 0 0.016354358496896603 -0.036690702061237666 0 0.016757245362370839 -0.03499994473988028 0 0.015207121041593295 -0.036727569228829228 0 0.015520337216881777 -0.035907509486735822 0 0.016354358496896603 -0.036690702061237666 0 0.016354358496896603 -0.036690702061237666 0 0.01760065576716539 -0.035999908985795102 0 0.017502242144675498 -0.03722247623839104 0 0.016354358496896603 -0.036690702061237666 0 0.016757245362370839 -0.03499994473988028 0 0.01760065576716539 -0.035999908985795102 0 0.018528391503685432 -0.034999933295283142 0 0.01760065576716539 -0.035999908985795102 0 0.018878412605989572 -0.036162083948087641 0 0.016757245362370839 -0.03499994473988028 0 0.018528391503685432 -0.034999933295283142 0 0.01760065576716539 -0.035999908985795102 0 0.018528658175253773 -0.034999995846850915 0 0.018976161888935118 -0.036246241231965667 0 0.020441014680274473 -0.034999998129539987 0 0.018528749347669383 -0.035000379283217614 0 0.019043363845893165 -0.036083575069893709 0 0.019213903194834615 -0.036113734582856723 0 0.019715404261921799 -0.03753744873863217 0 0.020225565034160679 -0.036337582204949363 0 0.019043363845893165 -0.036083575069893709 0 0.019706611591283674 -0.037399666276682966 0 0.019043363845893165 -0.036083575069893709 0 0.017580347558405967 -0.037071023975422071 0 0.01760065576716539 -0.035999908985795102 0 0.018878412605989572 -0.036162083948087641 0 0.017502242144675498 -0.03722247623839104 0 0.019097578869276845 -0.035754597168097438 0 0.017689823455024751 -0.036939144164751109 0 0.018693365890964864 -0.037284196780899399 0 0.017274784752113293 -0.038377264030574551 0 0.017689823455024751 -0.036939144164751109 0 0.018693365890964864 -0.037284196780899399 0 0.019097578869276845 -0.035754597168097438 0 0.018693365890964864 -0.037284196780899399 0 0.019715404261921799 -0.03753744873863217 0 0.018693365890964864 -0.037284196780899399 0 0.019715404261921799 -0.03753744873863217 0 0.019539207159135378 -0.037888817092776209 0 0.02173475331481935 -0.034952093429123983 0 0.022326253600322355 -0.033268942715920645 0 0.023763452648273193 -0.03295408672484295 0 0.018693365890964864 -0.037284196780899399 0 0.019539207159135378 -0.037888817092776209 0 0.018109553854380823 -0.038964331543859018 0 0.020671972939063095 -0.036353657660311019 0 0.021044887502280046 -0.03632846493792815 0 0.021679098775227244 -0.034922937870987825 0 0.02173475331481935 -0.034952093429123983 0 0.021681963268460093 -0.033941809445198465 0 0.021681963268460093 -0.033941809445198465 0 0.022326253600322355 -0.033268942715920645 0 0.020844217931590997 -0.032931909215883869 0 0.02173475331481935 -0.034952093429123983 0 0.021681963268460093 -0.033941809445198465 0 0.022326253600322355 -0.033268942715920645 0 0.017274784752113293 -0.038377264030574551 0 0.018693365890964864 -0.037284196780899399 0 0.018109553854380823 -0.038964331543859018 0 0.023161106874648413 -0.035314610786454863 0 0.022848073488357535 -0.035787914085734313 0 0.022556021316375591 -0.035100340197646643 0 0.023161106874648413 -0.035314610786454863 0 0.022848073488357535 -0.035787914085734313 0 0.023319984824100283 -0.035675082688207092 0 0.021621808097135393 -0.034913837328894554 0 0.020630751594807022 -0.034338833944384188 0 0.021679098775227244 -0.034922937870987825 0 0.022848073488357535 -0.035787914085734313 0 0.022556021316375591 -0.035100340197646643 0 0.021679098775227244 -0.034922937870987825 0 0.01833774558773189 -0.032981998416192683 0 0.020844217931590997 -0.032931909215883869 0 0.021679098775227244 -0.034922937870987825 0 0.021681963268460093 -0.033941809445198465 0 0.020844217931590997 -0.032931909215883869 0 0.020671972939063095 -0.036353657660311019 0 0.021716918944471381 -0.035919952054686996 0 0.019715404261921799 -0.03753744873863217 0 0.019539207159135378 -0.037888817092776209 0 0.020790025841440345 -0.036982761814414414 0 0.021679098775227244 -0.034922937870987825 0 0.022556021316375591 -0.035100340197646643 0 0.022714478666411915 -0.034768704138492867 0 0.021679098775227244 -0.034922937870987825 0 0.02173475331481935 -0.034952093429123983 0 0.022714478666411915 -0.034768704138492867 0 0.019715404261921799 -0.03753744873863217 0 0.020790025841440345 -0.036982761814414414 0 0.020225565034160679 -0.036337582204949363 0 0.022839819662924761 -0.034871428048806115 0 0.022714478666411915 -0.034768704138492867 0 0.022844772824107629 -0.034985360020981335 0 0.022556021316375591 -0.035100340197646643 0 0.022714478666411915 -0.034768704138492867 0 0.022844772824107629 -0.034985360020981335 0 0.023161106874648413 -0.035314610786454863 0 0.022556021316375591 -0.035100340197646643 0 0.022844772824107629 -0.034985360020981335 0 0.023161106874648413 -0.035314610786454863 0 0.022844772824107629 -0.034985360020981335 0 0.023142088920505934 -0.035061330311424749 0 0.022839819662924761 -0.034871428048806115 0 0.023142088920505934 -0.035061330311424749 0 0.023322603620611296 -0.034958484068867736 0 0.022839819662924761 -0.034871428048806115 0 0.022844772824107629 -0.034985360020981335 0 0.023142088920505934 -0.035061330311424749 0 0.022839819662924761 -0.034871428048806115 0 0.022714478666411915 -0.034768704138492867 0 0.023019349984934604 -0.035242094172377808 0 0.021716918944471381 -0.035919952054686996 0 0.022569694673364324 -0.035629421160575318 0 0.020790025841440345 -0.036982761814414414 0 0.021028440545801032 -0.035943336490696358 0 0.022141385528158527 -0.036058641478134056 0 0.020790025841440345 -0.036982761814414414 0 0.020225565034160679 -0.036337582204949363 0 0.021028440545801032 -0.035943336490696358 0 0.019043363845893165 -0.036083575069893709 0 0.020440803290006963 -0.035000277862626335 0 0.019213903194834615 -0.036113734582856723 0 0.020225565034160679 -0.036337582204949363 0 0.020441260450104807 -0.034999993693949245 0 0.020225565034160679 -0.036337582204949363 0 0.020441260450104807 -0.034999993693949245 0 0.021028440545801032 -0.035943336490696358 0 0.021028440545801032 -0.035943336490696358 0 0.022002162127385344 -0.034999926087760716 0 0.022141385528158527 -0.036058641478134056 0 0.020441260450104807 -0.034999993693949245 0 0.021028440545801032 -0.035943336490696358 0 0.022002162127385344 -0.034999926087760716 0 0.02356333513876719 -0.035000132697052766 0 0.022569694673364324 -0.035629421160575318 0 0.023565130899673839 -0.034998885419457962 0 0.023019349984934604 -0.035242094172377808 0 0.023179977972555769 -0.035367055916159011 0 0.022002162127385344 -0.034999926087760716 0 0.023563557534487321 -0.035000025390292129 0 0.022141385528158527 -0.036058641478134056 0 0.023614885261562531 -0.035026836388840993 0 0.02459910649871919 -0.034999947087344871 0 0.02443206915856911 -0.034910796461108909 0 0.024069225286228988 -0.034717364917760653 0 0.024602822499766863 -0.034997997754422604 0 0.023565130899673839 -0.034998885419457962 0 0.023179977972555769 -0.035367055916159011 0 0.024597789609051617 -0.035000861147849539 0 0.02443206915856911 -0.034910796461108909 0 0.024185811541172268 -0.034920126983945789 0 0.024069225286228988 -0.034717364917760653 0 0.02443206915856911 -0.034910796461108909 0 0.024185811541172268 -0.034920126983945789 0 0.024380263333060221 -0.035017302035465159 0 0.024185811541172268 -0.034920126983945789 0 0.024380263333060221 -0.035017302035465159 0 0.024123997848319808 -0.035083099166499356 0 0.024380263333060221 -0.035017302035465159 0 0.024371525868953262 -0.035109235016440643 0 0.024123997848319808 -0.035083099166499356 0 0.024185811541172268 -0.034920126983945789 0 0.023924882625328065 -0.034982961864434288 0 0.024123997848319808 -0.035083099166499356 0 0.022915303976736419 -0.034935212584225363 0 0.023614885261562531 -0.035026836388840993 0 0.022839819662924761 -0.034871428048806115 0 0.023701557069281374 -0.034908043830525225 0 0.023322603620611296 -0.034958484068867736 0 0.022839819662924761 -0.034871428048806115 0 0.023701557069281374 -0.034908043830525225 0 0.024069225286228988 -0.034717364917760653 0 0.022839819662924761 -0.034871428048806115 0 0.023019349984934604 -0.035242094172377808 0 0.023179977972555769 -0.035367055916159011 0 0.024185811541172268 -0.034920126983945789 0 0.023924882625328065 -0.034982961864434288 0 0.023701557069281374 -0.034908043830525225 0 0.023924882625328065 -0.034982961864434288 0 0.023701557069281374 -0.034908043830525225 0 0.023668256754573232 -0.034990720324091368 0 0.023701557069281374 -0.034908043830525225 0 0.023668256754573232 -0.034990720324091368 0 0.023322603620611296 -0.034958484068867736 0 0.024185811541172268 -0.034920126983945789 0 0.023701557069281374 -0.034908043830525225 0 0.024069225286228988 -0.034717364917760653 0 0.024602822499766863 -0.034997997754422604 0 0.026566249825572839 -0.034920874142003837 0 0.02660402290959674 -0.034999621116398712 0 0.024602822499766863 -0.034997997754422604 0 0.024818743794139626 -0.034997770573380174 0 0.026566249825572839 -0.034920874142003837 0 0.02443206915856911 -0.034910796461108909 0 0.024602822499766863 -0.034997997754422604 0 0.024818743794139626 -0.034997770573380174 0 0.02443206915856911 -0.034910796461108909 0 0.024380263333060221 -0.035017302035465159 0 0.024818743794139626 -0.034997770573380174 0 0.024982978953537491 -0.034923486278651057 0 0.025642834996334522 -0.034642084363879617 0 0.024818743794139626 -0.034997770573380174 0 0.026838897202581407 -0.034792561513054682 0 0.027245482038871029 -0.034653701995245666 0 0.024818743794139626 -0.034997770573380174 0 0.024371525868953262 -0.035109235016440643 0 0.024358437759077936 -0.0351813114252141 0 0.024380263333060221 -0.035017302035465159 0 0.024818743794139626 -0.034997770573380174 0 0.024371525868953262 -0.035109235016440643 0 0.026566249825572839 -0.034920874142003837 0 0.026838897202581407 -0.034792561513054682 0 0.027432264699206749 -0.034537721942267244 0 0.024818743794139626 -0.034997770573380174 0 0.026566249825572839 -0.034920874142003837 0 0.026838897202581407 -0.034792561513054682 0 0.027432264699206749 -0.034537721942267244 0 0.027459434418354491 -0.034392336033544094 0 0.02808304330989338 -0.033789290602141357 0 0.026838897202581407 -0.034792561513054682 0 0.027459434418354491 -0.034392336033544094 0 0.027245482038871029 -0.034653701995245666 0 0.026838897202581407 -0.034792561513054682 0 0.027432264699206749 -0.034537721942267244 0 0.027459434418354491 -0.034392336033544094 0 0.027459434418354491 -0.034392336033544094 0 0.027245482038871029 -0.034653701995245666 0 0.027409380993841825 -0.034191109963011314 0 0.024371525868953262 -0.035109235016440643 0 0.024358437759077936 -0.0351813114252141 0 0.024199363534308047 -0.035232591253077879 0 0.024358437759077936 -0.0351813114252141 0 0.024220688150868051 -0.035407182843678366 0 0.024199363534308047 -0.035232591253077879 0 0.024220688150868051 -0.035407182843678366 0 0.024158878537567648 -0.035625182991161082 0 0.024345281982321654 -0.035724284664595485 0 0.024358437759077936 -0.0351813114252141 0 0.024220688150868051 -0.035407182843678366 0 0.024345281982321654 -0.035724284664595485 0 0.025642834996334522 -0.034642084363879617 0 0.026359380514667272 -0.035591236030678791 0 0.024220688150868051 -0.035407182843678366 0 0.024158878537567648 -0.035625182991161082 0 0.02402983193008891 -0.035578305173317948 0 0.027409380993841825 -0.034191109963011314 0 0.027664080389639085 -0.033783161778385445 0 0.027039121922910726 -0.033951637022866375 0 0.027245482038871029 -0.034653701995245666 0 0.027409380993841825 -0.034191109963011314 0 0.027664080389639085 -0.033783161778385445 0 0.027545417045134142 -0.034149530395807239 0 0.027750128180310731 -0.033337710342119152 0 0.027459434418354491 -0.034392336033544094 0 0.02808304330989338 -0.033789290602141357 0 0.028649500463507914 -0.032810522639053145 0 0.027459434418354491 -0.034392336033544094 0 0.027409380993841825 -0.034191109963011314 0 0.027039121922910726 -0.033951637022866375 0 0.023542172449356965 -0.035252718923987791 0 0.023922197212002536 -0.035238516609325088 0 0.023812395165335357 -0.035437348010943281 0 0.023542172449356965 -0.035252718923987791 0 0.023739399227917079 -0.035102030253229201 0 0.023922197212002536 -0.035238516609325088 0 0.023161106874648413 -0.035314610786454863 0 0.023142088920505934 -0.035061330311424749 0 0.023542172449356965 -0.035252718923987791 0 0.023142088920505934 -0.035061330311424749 0 0.023542172449356965 -0.035252718923987791 0 0.023436199091865867 -0.035061651156284616 0 0.023142088920505934 -0.035061330311424749 0 0.023436199091865867 -0.035061651156284616 0 0.023322603620611296 -0.034958484068867736 0 0.023668256754573232 -0.034990720324091368 0 0.023436199091865867 -0.035061651156284616 0 0.023322603620611296 -0.034958484068867736 0 0.023668256754573232 -0.034990720324091368 0 0.023436199091865867 -0.035061651156284616 0 0.023739399227917079 -0.035102030253229201 0 0.023542172449356965 -0.035252718923987791 0 0.023436199091865867 -0.035061651156284616 0 0.023739399227917079 -0.035102030253229201 0 0.023924882625328065 -0.034982961864434288 0 0.023668256754573232 -0.034990720324091368 0 0.023739399227917079 -0.035102030253229201 0 0.023924882625328065 -0.034982961864434288 0 0.023739399227917079 -0.035102030253229201 0 0.024123997848319808 -0.035083099166499356 0 0.023739399227917079 -0.035102030253229201 0 0.024123997848319808 -0.035083099166499356 0 0.023922197212002536 -0.035238516609325088 0 0.024371525868953262 -0.035109235016440643 0 0.024123997848319808 -0.035083099166499356 0 0.024199363534308047 -0.035232591253077879 0 0.024123997848319808 -0.035083099166499356 0 0.024199363534308047 -0.035232591253077879 0 0.023922197212002536 -0.035238516609325088 0 0.024220688150868051 -0.035407182843678366 0 0.024199363534308047 -0.035232591253077879 0 0.02404629660770111 -0.035379753527935862 0 0.024199363534308047 -0.035232591253077879 0 0.023922197212002536 -0.035238516609325088 0 0.02404629660770111 -0.035379753527935862 0 0.023922197212002536 -0.035238516609325088 0 0.023812395165335357 -0.035437348010943281 0 0.02404629660770111 -0.035379753527935862 0 0.023812395165335357 -0.035437348010943281 0 0.02404629660770111 -0.035379753527935862 0 0.02402983193008891 -0.035578305173317948 0 0.024220688150868051 -0.035407182843678366 0 0.02404629660770111 -0.035379753527935862 0 0.02402983193008891 -0.035578305173317948 0 0.023812395165335357 -0.035437348010943281 0 0.02402983193008891 -0.035578305173317948 0 0.023814826338482031 -0.035731300915589126 0 0.023812395165335357 -0.035437348010943281 0 0.023619083593909164 -0.035584409691865118 0 0.023814826338482031 -0.035731300915589126 0 0.023542172449356965 -0.035252718923987791 0 0.023812395165335357 -0.035437348010943281 0 0.023619083593909164 -0.035584409691865118 0 0.023161106874648413 -0.035314610786454863 0 0.023542172449356965 -0.035252718923987791 0 0.023619083593909164 -0.035584409691865118 0 0.023161106874648413 -0.035314610786454863 0 0.023619083593909164 -0.035584409691865118 0 0.023319984824100283 -0.035675082688207092 0 0.022848073488357535 -0.035787914085734313 0 0.023319984824100283 -0.035675082688207092 0 0.023623753254819427 -0.03594889598253289 0 0.023619083593909164 -0.035584409691865118 0 0.023623753254819427 -0.03594889598253289 0 0.023814826338482031 -0.035731300915589126 0 0.023619083593909164 -0.035584409691865118 0 0.023319984824100283 -0.035675082688207092 0 0.023623753254819427 -0.03594889598253289 0 0.016058421841984537 -0.030861761165463276 0 0.01626255815895895 -0.030174011487640536 0 0.017163989521355383 -0.03065959732259296 0 0.023623753254819427 -0.03594889598253289 0 0.023814826338482031 -0.035731300915589126 0 0.024036690226932923 -0.035780231659562914 0 0.023623753254819427 -0.03594889598253289 0 0.024036690226932923 -0.035780231659562914 0 0.024070444387167055 -0.035976056313246671 0 0.02402983193008891 -0.035578305173317948 0 0.023814826338482031 -0.035731300915589126 0 0.024036690226932923 -0.035780231659562914 0 0.024158878537567648 -0.035625182991161082 0 0.02402983193008891 -0.035578305173317948 0 0.024036690226932923 -0.035780231659562914 0 0.016058421841984537 -0.030861761165463276 0 0.015342484811994534 -0.030036240999062103 0 0.01626255815895895 -0.030174011487640536 0 0.015342484811994534 -0.030036240999062103 0 0.01626255815895895 -0.030174011487640536 0 0.016222958191127922 -0.029555380161812885 0 0.019999687243551612 -0.033482803542206868 0 0.01898625677623296 -0.03305015096470907 0 0.01626255815895895 -0.030174011487640536 0 0.016222958191127922 -0.029555380161812885 0 0.01709999841785996 -0.029880853896890582 0 0.01626255815895895 -0.030174011487640536 0 0.017163989521355383 -0.03065959732259296 0 0.01709999841785996 -0.029880853896890582 0 0.027664080389639085 -0.033783161778385445 0 0.027159351353230016 -0.033233304091502096 0 0.027039121922910726 -0.033951637022866375 0 0.024036690226932923 -0.035780231659562914 0 0.024070444387167055 -0.035976056313246671 0 0.024345281982321654 -0.035724284664595485 0 0.024158878537567648 -0.035625182991161082 0 0.024036690226932923 -0.035780231659562914 0 0.024345281982321654 -0.035724284664595485 0 0.01898625677623296 -0.03305015096470907 0 0.023809381495916798 -0.030727928434852034 0 0.024070444387167055 -0.035976056313246671 0 0.024345281982321654 -0.035724284664595485 0 0.02433552735227635 -0.036041433884677662 0 0.027664080389639085 -0.033783161778385445 0 0.027159351353230016 -0.033233304091502096 0 0.027519688398918964 -0.032571126807089901 0 0.026359380514667272 -0.035591236030678791 0 0.023809381495916798 -0.030727928434852034 0 0.027159351353230016 -0.033233304091502096 0 0.027519688398918964 -0.032571126807089901 0 0.026987242584991949 -0.032699178992927541 0 0.014557901793048098 -0.029489562922680984 0 0.0150628331136957 -0.028953597472734221 0 0.014408475621485548 -0.028617799122755465 0 0.027722409884719971 -0.025175570715968258 0 0.027873189577363799 -0.025831550618056993 0 0.028521443378403476 -0.025517865431880202 0 0.023809381495916798 -0.030727928434852034 0 0.021080429806239625 -0.027559557507776496 0 0.023809381495916798 -0.030727928434852034 0 0.028150026009064352 -0.028840325514002899 0 0.015342484811994534 -0.030036240999062103 0 0.0150628331136957 -0.028953597472734221 0 0.015663075790947955 -0.029194460187908382 0 0.015342484811994534 -0.030036240999062103 0 0.014557901793048098 -0.029489562922680984 0 0.0150628331136957 -0.028953597472734221 0 0.0150628331136957 -0.028953597472734221 0 0.015388534097370366 -0.028215108579377961 0 0.014867981900670011 -0.028315090537325008 0 0.0150628331136957 -0.028953597472734221 0 0.014867981900670011 -0.028315090537325008 0 0.014408475621485548 -0.028617799122755465 0 0.027873189577363799 -0.025831550618056993 0 0.02851182616255328 -0.026069073166803104 0 0.028002164861461773 -0.026457674209688167 0 0.014867981900670011 -0.028315090537325008 0 0.014408475621485548 -0.028617799122755465 0 0.01430922772712959 -0.027691107048761147 0 0.021080429806239625 -0.027559557507776496 0 0.021967198842713996 -0.0212509301187454 0 0.016222958191127922 -0.029555380161812885 0 0.016423587213298028 -0.02880943610997893 0 0.016846556607842449 -0.029272925474969302 0 0.016222958191127922 -0.029555380161812885 0 0.015663075790947955 -0.029194460187908382 0 0.016423587213298028 -0.02880943610997893 0 0.016222958191127922 -0.029555380161812885 0 0.016846556607842449 -0.029272925474969302 0 0.01709999841785996 -0.029880853896890582 0 0.0150628331136957 -0.028953597472734221 0 0.015663075790947955 -0.029194460187908382 0 0.015809386454588046 -0.028626750257117198 0 0.015342484811994534 -0.030036240999062103 0 0.016222958191127922 -0.029555380161812885 0 0.015663075790947955 -0.029194460187908382 0 0.0150628331136957 -0.028953597472734221 0 0.015388534097370366 -0.028215108579377961 0 0.015809386454588046 -0.028626750257117198 0 0.015663075790947955 -0.029194460187908382 0 0.015809386454588046 -0.028626750257117198 0 0.016423587213298028 -0.02880943610997893 0 0.015388534097370366 -0.028215108579377961 0 0.015809386454588046 -0.028626750257117198 0 0.016177773694826234 -0.028081358053388503 0 0.016423587213298028 -0.02880943610997893 0 0.017055237117949217 -0.028338565398757388 0 0.016177773694826234 -0.028081358053388503 0 0.015809386454588046 -0.028626750257117198 0 0.016423587213298028 -0.02880943610997893 0 0.016177773694826234 -0.028081358053388503 0 0.017055237117949217 -0.028338565398757388 0 0.017145478450913451 -0.028912705064332259 0 0.017656392457691742 -0.028853025617680546 0 0.016423587213298028 -0.02880943610997893 0 0.017055237117949217 -0.028338565398757388 0 0.017145478450913451 -0.028912705064332259 0 0.016423587213298028 -0.02880943610997893 0 0.017145478450913451 -0.028912705064332259 0 0.016846556607842449 -0.029272925474969302 0 0.017145478450913451 -0.028912705064332259 0 0.017376866530660225 -0.029424248855222275 0 0.016846556607842449 -0.029272925474969302 0 0.017376866530660225 -0.029424248855222275 0 0.016846556607842449 -0.029272925474969302 0 0.01709999841785996 -0.029880853896890582 0 0.017145478450913451 -0.028912705064332259 0 0.017376866530660225 -0.029424248855222275 0 0.017656392457691742 -0.028853025617680546 0 0.017376866530660225 -0.029424248855222275 0 0.017656392457691742 -0.028853025617680546 0 0.017796924073526038 -0.029417313547450433 0 0.017055237117949217 -0.028338565398757388 0 0.017656392457691742 -0.028853025617680546 0 0.01763040706071508 -0.028217988858974839 0 0.017656392457691742 -0.028853025617680546 0 0.018194956728986782 -0.028510387336538587 0 0.018068192736181987 -0.029119931317347924 0 0.017656392457691742 -0.028853025617680546 0 0.018194956728986782 -0.028510387336538587 0 0.01763040706071508 -0.028217988858974839 0 0.018382884836581424 -0.029097321362294856 0 0.018194956728986782 -0.028510387336538587 0 0.018068192736181987 -0.029119931317347924 0 0.017656392457691742 -0.028853025617680546 0 0.018068192736181987 -0.029119931317347924 0 0.017796924073526038 -0.029417313547450433 0 0.018068192736181987 -0.029119931317347924 0 0.018228392457516878 -0.029575101528405551 0 0.017796924073526038 -0.029417313547450433 0 0.018228392457516878 -0.029575101528405551 0 0.017770135278824088 -0.029920345724355174 0 0.017796924073526038 -0.029417313547450433 0 0.021311518705536318 -0.030281077211411773 0 0.018999055580881989 -0.030567075916122934 0 0.018382884836581424 -0.029097321362294856 0 0.018068192736181987 -0.029119931317347924 0 0.018228392457516878 -0.029575101528405551 0 0.025200326023193196 -0.031594220263914584 0 0.023362200039501402 -0.031519315958947372 0 0.023763452648273193 -0.03295408672484295 0 0.022326253600322355 -0.033268942715920645 0 0.023362200039501402 -0.031519315958947372 0 0.023763452648273193 -0.03295408672484295 0 0.022326253600322355 -0.033268942715920645 0 0.023362200039501402 -0.031519315958947372 0 0.020681146442595107 -0.031109013860095455 0 0.022326253600322355 -0.033268942715920645 0 0.020844217931590997 -0.032931909215883869 0 0.020681146442595107 -0.031109013860095455 0 0.01833774558773189 -0.032981998416192683 0 0.020844217931590997 -0.032931909215883869 0 0.020681146442595107 -0.031109013860095455 0 0.018999055580881989 -0.030567075916122934 0 0.017282805699531039 -0.030639029859718635 0 0.01833774558773189 -0.032981998416192683 0 0.016058421841984537 -0.030861761165463276 0 0.017163989521355383 -0.03065959732259296 0 0.01833774558773189 -0.032981998416192683 0 0.020681146442595107 -0.031109013860095455 0 0.017163989521355383 -0.03065959732259296 0 0.020630751594807022 -0.034338833944384188 0 0.019999687243551612 -0.033482803542206868 0 0.017376866530660225 -0.029424248855222275 0 0.017770135278824088 -0.029920345724355174 0 0.01709999841785996 -0.029880853896890582 0 0.017770135278824088 -0.029920345724355174 0 0.017163989521355383 -0.03065959732259296 0 0.01709999841785996 -0.029880853896890582 0 0.017376866530660225 -0.029424248855222275 0 0.017770135278824088 -0.029920345724355174 0 0.017796924073526038 -0.029417313547450433 0 0.034997163561456858 -0.031580362278684 0 0.035249390356191027 -0.031388035523217089 0 0.034624179602871161 -0.032511568420641651 0 0.034997163561456858 -0.031580362278684 0 0.035249390356191027 -0.031388035523217089 0 0.03540938761016018 -0.030358446135242807 0 0.035249390356191027 -0.031388035523217089 0 0.03501206293046747 -0.032181902072033162 0 0.034624179602871161 -0.032511568420641651 0 0.035748510518689845 -0.031673160725021486 0 0.034666866798244822 -0.031260811506722018 0 0.035249390356191027 -0.031388035523217089 0 0.036990571868426886 -0.031852499848079099 0 0.036369401458984221 -0.030176168462961107 0 0.034666866798244822 -0.031260811506722018 0 0.035423972090942869 -0.030012867638352862 0 0.03501206293046747 -0.032181902072033162 0 0.034624179602871161 -0.032511568420641651 0 0.034813058034673189 -0.033019783698517276 0 0.034624179602871161 -0.032511568420641651 0 0.034324211333138142 -0.03339648872619292 0 0.034813058034673189 -0.033019783698517276 0 0.034997163561456858 -0.031580362278684 0 0.034624179602871161 -0.032511568420641651 0 0.033766487510354791 -0.033541192132187772 0 0.034999860011924788 -0.031579731484929208 0 0.034546881523385871 -0.033500560626882926 0 0.035000713828454703 -0.031579986925444017 0 0.035360029577579527 -0.03347722017652334 0 0.034997584001091965 -0.034999831877084442 0 0.035360029577579527 -0.03347722017652334 0 0.034997584001091965 -0.034999831877084442 0 0.033837547752911222 -0.034999261022713744 0 0.034546881523385871 -0.033500560626882926 0 0.033833687836098691 -0.034999291478012819 0 0.033766487510354791 -0.033541192132187772 0 0.033829122954716594 -0.034999059952924273 0 0.033798097118274743 -0.034415765090959852 0 0.033829122954716594 -0.034999059952924273 0 0.033798097118274743 -0.034415765090959852 0 0.032397083203788472 -0.034999218111299878 0 0.033766487510354791 -0.033541192132187772 0 0.033798097118274743 -0.034415765090959852 0 0.034324211333138142 -0.03339648872619292 0 0.034624179602871161 -0.032511568420641651 0 0.033766487510354791 -0.033541192132187772 0 0.034324211333138142 -0.03339648872619292 0 0.032779352683204172 -0.035203777013224309 0 0.033732998030186048 -0.033052912161630706 0 0.034324211333138142 -0.03339648872619292 0 0.034431125853689834 -0.03407421271142138 0 0.034813058034673189 -0.033019783698517276 0 0.033798097118274743 -0.034415765090959852 0 0.034324211333138142 -0.03339648872619292 0 0.034431125853689834 -0.03407421271142138 0 0.033457895583440714 -0.034999158230408854 0 0.033827545692592179 -0.033892663781373261 0 0.032747484718461804 -0.033206733364463011 0 0.032779352683204172 -0.035203777013224309 0 0.031850340816720182 -0.035184556067221179 0 0.031943584577788675 -0.0363339093105082 0 0.032390230981856692 -0.034999988443212907 0 0.031381579095064484 -0.034999993491783295 0 0.033798097118274743 -0.034415765090959852 0 0.034431125853689834 -0.03407421271142138 0 0.032397083203788472 -0.034999218111299878 0 0.032779352683204172 -0.035203777013224309 0 0.03239091045232758 -0.034999605968829867 0 0.032779352683204172 -0.035203777013224309 0 0.031381678418344661 -0.035001106916364558 0 0.031853864776579706 -0.036210823830028112 0 0.031381368113842872 -0.0349999757516763 0 0.031173099346633509 -0.035921964781093663 0 0.031381368113842872 -0.0349999757516763 0 0.031173099346633509 -0.035921964781093663 0 0.030612479744444785 -0.034999994008281715 0 0.030913426891487582 -0.035708252510976063 0 0.030612281016409237 -0.035000058009452759 0 0.030497699592085582 -0.035343579073049344 0 0.030757840814340708 -0.035875666732475275 0 0.030016694936441626 -0.035854537673168596 0 0.031853864776579706 -0.036210823830028112 0 0.031173099346633509 -0.035921964781093663 0 0.031659408327172164 -0.036788580353393392 0 0.030913426891487582 -0.035708252510976063 0 0.031850340816720182 -0.035184556067221179 0 0.031850340816720182 -0.035184556067221179 0 0.030408977932834806 -0.031412602945959378 0 0.030757840814340708 -0.035875666732475275 0 0.030527632249269149 -0.036582244121244487 0 0.030016694936441626 -0.035854537673168596 0 0.034666866798244822 -0.031260811506722018 0 0.033732998030186048 -0.033052912161630706 0 0.033827545692592179 -0.033892663781373261 0 0.032747484718461804 -0.033206733364463011 0 0.03261607768094698 -0.03156423587829546 0 0.03189577695361713 -0.033490101862183118 0 0.03244540592983805 -0.031819628811374477 0 0.030785422691306141 -0.031375391974335809 0 0.032043176438919622 -0.031410662787353799 0 0.032747484718461804 -0.033206733364463011 0 0.03261607768094698 -0.03156423587829546 0 0.031850340816720182 -0.035184556067221179 0 0.032520287265722495 -0.029959749448816034 0 0.032520287265722495 -0.029959749448816034 0 0.034000554798311863 -0.028812741015301672 0 0.030408977932834806 -0.031412602945959378 0 0.032520287265722495 -0.029959749448816034 0 0.032869003914997551 -0.026296391434623517 0 0.032992878153054503 -0.027680352570109975 0 0.033720522284171939 -0.028177034483486851 0 0.030778208460545794 -0.025570589657672015 0 0.032869003914997551 -0.026296391434623517 0 0.031685901507789632 -0.027591082867557324 0 0.034389578363526366 -0.029972000228154484 0 0.03440909155546519 -0.029980859470637507 0 0.034395017044696129 -0.029877235144082619 0 0.034666866798244822 -0.031260811506722018 0 0.032520287265722495 -0.029959749448816034 0 0.032869003914997551 -0.026296391434623517 0 0.032575331055746372 -0.027543697900546237 0 0.032992878153054503 -0.027680352570109975 0 0.032869003914997551 -0.026296391434623517 0 0.032575331055746372 -0.027543697900546237 0 0.031685901507789632 -0.027591082867557324 0 0.030778208460545794 -0.025570589657672015 0 0.031685901507789632 -0.027591082867557324 0 0.029568342761598445 -0.029878743455399578 0 0.030408977932834806 -0.031412602945959378 0 0.029375109479727816 -0.028723799866840219 0 0.028234458112657623 -0.031767436933885854 0 0.029008471748783463 -0.031375765953967578 0 0.02864522211932443 -0.032439208849152981 0 0.028234458112657623 -0.031767436933885854 0 0.029008471748783463 -0.031375765953967578 0 0.029568342761598445 -0.029878743455399578 0 0.029008471748783463 -0.031375765953967578 0 0.02864522211932443 -0.032439208849152981 0 0.028474083052469613 -0.032446929205240393 0 0.030527632249269149 -0.036582244121244487 0 0.029097223500840118 -0.036137710877740377 0 0.030016694936441626 -0.035854537673168596 0 0.030408977932834806 -0.031412602945959378 0 0.028745045596266998 -0.034746149975214149 0 0.029097223500840118 -0.036137710877740377 0 0.030016694936441626 -0.035854537673168596 0 0.029528394045174565 -0.03540893772351484 0 0.030497699592085582 -0.035343579073049344 0 0.030016694936441626 -0.035854537673168596 0 0.029528394045174565 -0.03540893772351484 0 0.030497699592085582 -0.035343579073049344 0 0.029528394045174565 -0.03540893772351484 0 0.030610487768401785 -0.034999615607580123 0 0.029528394045174565 -0.03540893772351484 0 0.030610487768401785 -0.034999615607580123 0 0.028608100746518532 -0.034999062969234766 0 0.029528394045174565 -0.03540893772351484 0 0.028608100746518532 -0.034999062969234766 0 0.02830739146631199 -0.035161935667991036 0 0.029097223500840118 -0.036137710877740377 0 0.029528394045174565 -0.03540893772351484 0 0.02830739146631199 -0.035161935667991036 0 0.02830739146631199 -0.035161935667991036 0 0.02660402290959674 -0.034999621116398712 0 0.027823547289438567 -0.03463235253740387 0 0.029097223500840118 -0.036137710877740377 0 0.02830739146631199 -0.035161935667991036 0 0.027823547289438567 -0.03463235253740387 0 0.028608100746518532 -0.034999062969234766 0 0.02830739146631199 -0.035161935667991036 0 0.02660402290959674 -0.034999621116398712 0 0.026566249825572839 -0.034920874142003837 0 0.027432264699206749 -0.034537721942267244 0 0.027823547289438567 -0.03463235253740387 0 0.026566249825572839 -0.034920874142003837 0 0.02660402290959674 -0.034999621116398712 0 0.027823547289438567 -0.03463235253740387 0 0.027823547289438567 -0.03463235253740387 0 0.02808304330989338 -0.033789290602141357 0 0.028474083052469613 -0.032446929205240393 0 0.027432264699206749 -0.034537721942267244 0 0.027823547289438567 -0.03463235253740387 0 0.02808304330989338 -0.033789290602141357 0 0.02864522211932443 -0.032439208849152981 0 0.027823547289438567 -0.03463235253740387 0 0.028474083052469613 -0.032446929205240393 0 0.028745045596266998 -0.034746149975214149 0 0.028119720356489356 -0.034481394918715311 0 0.02808304330989338 -0.033789290602141357 0 0.028474083052469613 -0.032446929205240393 0 0.028649500463507914 -0.032810522639053145 0 0.027750128180310731 -0.033337710342119152 0 0.027780704661319437 -0.032276826072057216 0 0.028474083052469613 -0.032446929205240393 0 0.028649500463507914 -0.032810522639053145 0 0.028960679328739476 -0.03144902611866273 0 0.027159351353230016 -0.033233304091502096 0 0.027039121922910726 -0.033951637022866375 0 0.026588705234736908 -0.033144809355936548 0 0.028474083052469613 -0.032446929205240393 0 0.028960679328739476 -0.03144902611866273 0 0.029009817960362238 -0.030988431453334069 0 0.026588705234736908 -0.033144809355936548 0 0.026677003234567002 -0.032509990763283134 0 0.026240550218867658 -0.032360656248447361 0 0.028960679328739476 -0.03144902611866273 0 0.02905239294421872 -0.030914919797847482 0 0.029009817960362238 -0.030988431453334069 0 0.027780704661319437 -0.032276826072057216 0 0.027210283510678709 -0.031894985667579256 0 0.026588705234736908 -0.033144809355936548 0 0.026987242584991949 -0.032699178992927541 0 0.026677003234567002 -0.032509990763283134 0 0.027159351353230016 -0.033233304091502096 0 0.026588705234736908 -0.033144809355936548 0 0.026987242584991949 -0.032699178992927541 0 0.027519688398918964 -0.032571126807089901 0 0.026987242584991949 -0.032699178992927541 0 0.026810229174990773 -0.032168951551459657 0 0.026987242584991949 -0.032699178992927541 0 0.026677003234567002 -0.032509990763283134 0 0.026810229174990773 -0.032168951551459657 0 0.026677003234567002 -0.032509990763283134 0 0.026810229174990773 -0.032168951551459657 0 0.026526849556883298 -0.032241668156037379 0 0.027873189577363799 -0.025831550618056993 0 0.02851182616255328 -0.026069073166803104 0 0.028852909763696269 -0.025796073877569329 0 0.027873189577363799 -0.025831550618056993 0 0.028521443378403476 -0.025517865431880202 0 0.028852909763696269 -0.025796073877569329 0 0.033148144360846399 -0.023696091235236326 0 0.028523785412542278 -0.026724154223270472 0 0.033148144360846399 -0.023696091235236326 0 0.03218548700901077 -0.026482995941480937 0 0.026810229174990773 -0.032168951551459657 0 0.026369289735123959 -0.031942714204782757 0 0.02621481966296758 -0.031799185635681994 0 0.028555229430602371 -0.026084306977577822 0 0.028852909763696269 -0.025796073877569329 0 0.029334792313635682 -0.025925020363185173 0 0.028555229430602371 -0.026084306977577822 0 0.029334792313635682 -0.025925020363185173 0 0.029496756293763221 -0.026053309423266911 0 0.028521443378403476 -0.025517865431880202 0 0.028852909763696269 -0.025796073877569329 0 0.029334792313635682 -0.025925020363185173 0 0.026369289735123959 -0.031942714204782757 0 0.026239597368081603 -0.031803716531787068 0 0.026240550218867658 -0.032360656248447361 0 0.037493685752016545 -0.021786775304310876 0 0.037505105130431732 -0.021680723645340537 0 0.037514406836893763 -0.02165162038957865 0 0.026192735084208597 -0.031768368995588742 0 0.026239597368081603 -0.031803716531787068 0 0.026240550218867658 -0.032360656248447361 0 0.028150026009064352 -0.028840325514002899 0 0.028259202193674452 -0.028698899419401961 0 0.026192735084208597 -0.031768368995588742 0 0.026242684437797696 -0.03179884578150885 0 0.026141438598376719 -0.031699993445150045 0 0.028259202193674452 -0.028698899419401961 0 0.03218548700901077 -0.026482995941480937 0 0.028132997440218466 -0.028813683945764203 0 0.028259202193674452 -0.028698899419401961 0 0.027779944129004686 -0.029920763299370285 0 0.028259202193674452 -0.028698899419401961 0 0.026810229174990773 -0.032168951551459657 0 0.026369289735123959 -0.031942714204782757 0 0.026526849556883298 -0.032241668156037379 0 0.026369289735123959 -0.031942714204782757 0 0.026526849556883298 -0.032241668156037379 0 0.026240550218867658 -0.032360656248447361 0 0.026677003234567002 -0.032509990763283134 0 0.026526849556883298 -0.032241668156037379 0 0.026240550218867658 -0.032360656248447361 0 0.02905239294421872 -0.030914919797847482 0 0.029343744855522054 -0.031006620913570277 0 0.029312262995908136 -0.031493456665240137 0 0.02905239294421872 -0.030914919797847482 0 0.029208811533465742 -0.030833260621434148 0 0.029343744855522054 -0.031006620913570277 0 0.029208811533465742 -0.030833260621434148 0 0.029343744855522054 -0.031006620913570277 0 0.029596182151049082 -0.03075002737096472 0 0.029343744855522054 -0.031006620913570277 0 0.029791917925555488 -0.031168587282196573 0 0.029596182151049082 -0.03075002737096472 0 0.027210283510678709 -0.031894985667579256 0 0.032653494440774936 -0.028660080625241963 0 0.026192735084208597 -0.031768368995588742 0 0.026240550218867658 -0.032360656248447361 0 0.025980338277292295 -0.031700079264368027 0 0.029343744855522054 -0.031006620913570277 0 0.029312262995908136 -0.031493456665240137 0 0.029791917925555488 -0.031168587282196573 0 0.032653494440774936 -0.028660080625241963 0 0.03733727306877116 -0.024551713970715813 0 0.033756073931446029 -0.025594924238703104 0 0.034434391339220702 -0.025541671160255193 0 0.035200574668884453 -0.026709444234583053 0 0.03218548700901077 -0.026482995941480937 0 0.03733727306877116 -0.024551713970715813 0 0.026192735084208597 -0.031768368995588742 0 0.026141438598376719 -0.031699993445150045 0 0.025980338277292295 -0.031700079264368027 0 0.03218548700901077 -0.026482995941480937 0 0.032653494440774936 -0.028660080625241963 0 0.029312262995908136 -0.031493456665240137 0 0.030484846044428141 -0.031519042736155203 0 0.029791917925555488 -0.031168587282196573 0 0.030484846044428141 -0.031519042736155203 0 0.029791917925555488 -0.031168587282196573 0 0.030809774309370958 -0.030418409390188455 0 0.032653494440774936 -0.028660080625241963 0 0.035188990207071384 -0.029376512513149645 0 0.040129910946931496 -0.027058870875573852 0 0.039073209268869112 -0.027213976803535812 0 0.03988838034363424 -0.026495311332830677 0 0.029596182151049082 -0.03075002737096472 0 0.029691072423784669 -0.030363283503746105 0 0.030809774309370958 -0.030418409390188455 0 0.029791917925555488 -0.031168587282196573 0 0.029596182151049082 -0.03075002737096472 0 0.030809774309370958 -0.030418409390188455 0 0.029208811533465742 -0.030833260621434148 0 0.029596182151049082 -0.03075002737096472 0 0.029691072423784669 -0.030363283503746105 0 0.029691072423784669 -0.030363283503746105 0 0.029009817960362238 -0.030988431453334069 0 0.029568342761598445 -0.029878743455399578 0 0.029208811533465742 -0.030833260621434148 0 0.029691072423784669 -0.030363283503746105 0 0.029009817960362238 -0.030988431453334069 0 0.02905239294421872 -0.030914919797847482 0 0.029208811533465742 -0.030833260621434148 0 0.029009817960362238 -0.030988431453334069 0 0.029008471748783463 -0.031375765953967578 0 0.028474083052469613 -0.032446929205240393 0 0.029009817960362238 -0.030988431453334069 0 0.029008471748783463 -0.031375765953967578 0 0.029009817960362238 -0.030988431453334069 0 0.029568342761598445 -0.029878743455399578 0 0.029568342761598445 -0.029878743455399578 0 0.031722356152451003 -0.028982468907863219 0 0.031454813646567679 -0.02959973577297987 0 0.031685901507789632 -0.027591082867557324 0 0.029568342761598445 -0.029878743455399578 0 0.031722356152451003 -0.028982468907863219 0 0.031685901507789632 -0.027591082867557324 0 0.032643834251616453 -0.028346649727087597 0 0.031722356152451003 -0.028982468907863219 0 0.032575331055746372 -0.027543697900546237 0 0.031685901507789632 -0.027591082867557324 0 0.032643834251616453 -0.028346649727087597 0 0.032575331055746372 -0.027543697900546237 0 0.032992878153054503 -0.027680352570109975 0 0.032643834251616453 -0.028346649727087597 0 0.032992878153054503 -0.027680352570109975 0 0.032643834251616453 -0.028346649727087597 0 0.033720522284171939 -0.028177034483486851 0 0.032864896592849774 -0.028423226156107356 0 0.03375329651960414 -0.029029700148534086 0 0.032643834251616453 -0.028346649727087597 0 0.032748690643183608 -0.028836782042568405 0 0.033600750535114729 -0.028621316216721277 0 0.032643834251616453 -0.028346649727087597 0 0.031722356152451003 -0.028982468907863219 0 0.032748690643183608 -0.028836782042568405 0 0.033303314334724124 -0.029018032397492094 0 0.031454813646567679 -0.02959973577297987 0 0.032314497024311953 -0.029684306838074166 0 0.032748690643183608 -0.028836782042568405 0 0.033303314334724124 -0.029018032397492094 0 0.031454813646567679 -0.02959973577297987 0 0.031722356152451003 -0.028982468907863219 0 0.032748690643183608 -0.028836782042568405 0 0.031454813646567679 -0.02959973577297987 0 0.032748690643183608 -0.028836782042568405 0 0.033303314334724124 -0.029018032397492094 0 0.033600750535114729 -0.028621316216721277 0 0.029691072423784669 -0.030363283503746105 0 0.029568342761598445 -0.029878743455399578 0 0.031454813646567679 -0.02959973577297987 0 0.029691072423784669 -0.030363283503746105 0 0.031454813646567679 -0.02959973577297987 0 0.030809774309370958 -0.030418409390188455 0 0.031454813646567679 -0.02959973577297987 0 0.030809774309370958 -0.030418409390188455 0 0.032314497024311953 -0.029684306838074166 0 0.030809774309370958 -0.030418409390188455 0 0.032526577468692051 -0.030859346726851745 0 0.032314497024311953 -0.029684306838074166 0 0.030484846044428141 -0.031519042736155203 0 0.030809774309370958 -0.030418409390188455 0 0.032526577468692051 -0.030859346726851745 0 0.035188990207071384 -0.029376512513149645 0 0.034898304106644108 -0.029155825659002724 0 0.039073209268869112 -0.027213976803535812 0 0.037686099668600009 -0.027674145436326719 0 0.038379712319457443 -0.026796671530619161 0 0.039073209268869112 -0.027213976803535812 0 0.038379712319457443 -0.026796671530619161 0 0.039081618994049126 -0.026404784470225224 0 0.032526577468692051 -0.030859346726851745 0 0.033914533875405002 -0.02912043395153624 0 0.035241254976451294 -0.028301488946504381 0 0.037686099668600009 -0.027674145436326719 0 0.035241254976451294 -0.028301488946504381 0 0.036669448462571252 -0.026798429850179991 0 0.034898304106644108 -0.029155825659002724 0 0.035098209910865881 -0.028560941012876043 0 0.032526577468692051 -0.030859346726851745 0 0.032314497024311953 -0.029684306838074166 0 0.033914533875405002 -0.02912043395153624 0 0.033303314334724124 -0.029018032397492094 0 0.032314497024311953 -0.029684306838074166 0 0.033914533875405002 -0.02912043395153624 0 0.033303314334724124 -0.029018032397492094 0 0.034243929457124019 -0.0287752374767988 0 0.033914533875405002 -0.02912043395153624 0 0.034243929457124019 -0.0287752374767988 0 0.034788638176356641 -0.028516239082500797 0 0.034624530148973084 -0.028610458614679903 0 0.034243929457124019 -0.0287752374767988 0 0.034788638176356641 -0.028516239082500797 0 0.033914533875405002 -0.02912043395153624 0 0.034788638176356641 -0.028516239082500797 0 0.033914533875405002 -0.02912043395153624 0 0.035241254976451294 -0.028301488946504381 0 0.035241254976451294 -0.028301488946504381 0 0.034998760042156823 -0.027702774218975098 0 0.034999219103983056 -0.025995506930794901 0 0.034788638176356641 -0.028516239082500797 0 0.034998760042156823 -0.027702774218975098 0 0.034624530148973084 -0.028610458614679903 0 0.034788638176356641 -0.028516239082500797 0 0.035241254976451294 -0.028301488946504381 0 0.034998760042156823 -0.027702774218975098 0 0.034998760042156823 -0.027702774218975098 0 0.034546469448144226 -0.028780625132737589 0 0.034624530148973084 -0.028610458614679903 0 0.035000206444336372 -0.027701654099638793 0 0.034889952748865846 -0.029177805464666667 0 0.034999789618282297 -0.027701355275610285 0 0.035944872763720694 -0.028781431275144018 0 0.035000246366790687 -0.029640153545128521 0 0.035944872763720694 -0.028781431275144018 0 0.036077360312784267 -0.029257533237997277 0 0.03540938761016018 -0.030358446135242807 0 0.034889952748865846 -0.029177805464666667 0 0.034799182047199367 -0.028976519470837354 0 0.034243929457124019 -0.0287752374767988 0 0.034489471575686013 -0.028621229866391356 0 0.033932427881322169 -0.028762349147618951 0 0.034243929457124019 -0.0287752374767988 0 0.034489471575686013 -0.028621229866391356 0 0.034624530148973084 -0.028610458614679903 0 0.034889952748865846 -0.029177805464666667 0 0.034961841661664619 -0.029650219423830525 0 0.033303314334724124 -0.029018032397492094 0 0.034243929457124019 -0.0287752374767988 0 0.033932427881322169 -0.028762349147618951 0 0.033303314334724124 -0.029018032397492094 0 0.033932427881322169 -0.028762349147618951 0 0.033600750535114729 -0.028621316216721277 0 0.034912868754401277 -0.030497249800634504 0 0.033805616079733987 -0.029446698472214507 0 0.034647821704275945 -0.029857832027450949 0 0.034489471575686013 -0.028621229866391356 0 0.033932427881322169 -0.028762349147618951 0 0.033600750535114729 -0.028621316216721277 0 0.034889952748865846 -0.029177805464666667 0 0.03375329651960414 -0.029029700148534086 0 0.034389578363526366 -0.029972000228154484 0 0.034395017044696129 -0.029877235144082619 0 0.034384242385019782 -0.029852958312218826 0 0.033805616079733987 -0.029446698472214507 0 0.034647821704275945 -0.029857832027450949 0 0.033720522284171939 -0.028177034483486851 0 0.034384968213434515 -0.029773563643846725 0 0.034395017044696129 -0.029877235144082619 0 0.034384242385019782 -0.029852958312218826 0 0.034961841661664619 -0.029650219423830525 0 0.034000554798311863 -0.028812741015301672 0 0.034961841661664619 -0.029650219423830525 0 0.035423972090942869 -0.030012867638352862 0 0.036077360312784267 -0.029257533237997277 0 0.036369401458984221 -0.030176168462961107 0 0.03540938761016018 -0.030358446135242807 0 0.032643834251616453 -0.028346649727087597 0 0.033805616079733987 -0.029446698472214507 0 0.033720522284171939 -0.028177034483486851 0 0.035944872763720694 -0.028781431275144018 0 0.03540938761016018 -0.030358446135242807 0 0.035000246366790687 -0.029640153545128521 0 0.035249390356191027 -0.031388035523217089 0 0.036369401458984221 -0.030176168462961107 0 0.03540938761016018 -0.030358446135242807 0 0.034997163561456858 -0.031580362278684 0 0.03540938761016018 -0.030358446135242807 0 0.035000246366790687 -0.029640153545128521 0 0.034999861729355791 -0.022580368461455023 0 0.03627609746789752 -0.022295366076273079 0 0.035971313102548197 -0.02140127154853224 0 0.036324305655075974 -0.022294896602922817 0 0.037214364841939122 -0.022906165658813534 0 0.03627609746789752 -0.022295366076273079 0 0.035989464512237265 -0.023867473622664059 0 0.037525872124303215 -0.023796220005586462 0 0.034999861729355791 -0.022580368461455023 0 0.035989464512237265 -0.023867473622664059 0 0.034999889711221928 -0.02428756827536456 0 0.034999861729355791 -0.022580368461455023 0 0.03627609746789752 -0.022295366076273079 0 0.035989464512237265 -0.023867473622664059 0 0.035989464512237265 -0.023867473622664059 0 0.034999889711221928 -0.02428756827536456 0 0.036050871534262181 -0.025451592657992107 0 0.034999889711221928 -0.02428756827536456 0 0.034999219103983056 -0.025995506930794901 0 0.036050871534262181 -0.025451592657992107 0 0.035241254976451294 -0.028301488946504381 0 0.034999219103983056 -0.025995506930794901 0 0.036050871534262181 -0.025451592657992107 0 0.035241254976451294 -0.028301488946504381 0 0.036050871534262181 -0.025451592657992107 0 0.036669448462571252 -0.026798429850179991 0 0.035989464512237265 -0.023867473622664059 0 0.036050871534262181 -0.025451592657992107 0 0.037525872124303215 -0.023796220005586462 0 0.036050871534262181 -0.025451592657992107 0 0.037560272374442871 -0.025938784374303147 0 0.037525872124303215 -0.023796220005586462 0 0.037686099668600009 -0.027674145436326719 0 0.036669448462571252 -0.026798429850179991 0 0.037560272374442871 -0.025938784374303147 0 0.037686099668600009 -0.027674145436326719 0 0.037560272374442871 -0.025938784374303147 0 0.038379712319457443 -0.026796671530619161 0 0.036050871534262181 -0.025451592657992107 0 0.036669448462571252 -0.026798429850179991 0 0.037560272374442871 -0.025938784374303147 0 0.038379712319457443 -0.026796671530619161 0 0.038862429831793797 -0.025250760068483181 0 0.039081618994049126 -0.026404784470225224 0 0.037560272374442871 -0.025938784374303147 0 0.038379712319457443 -0.026796671530619161 0 0.038862429831793797 -0.025250760068483181 0 0.037560272374442871 -0.025938784374303147 0 0.038862429831793797 -0.025250760068483181 0 0.037525872124303215 -0.023796220005586462 0 0.038311620709109914 -0.023534347611469986 0 0.037214364841939122 -0.022906165658813534 0 0.037380410083706399 -0.0218258637586989 0 0.037097849215037823 -0.022108771398701734 0 0.037435021019416884 -0.021727606393010569 0 0.03627609746789752 -0.022295366076273079 0 0.037097849215037823 -0.022108771398701734 0 0.037204486472220855 -0.021538739487421694 0 0.037104936458550786 -0.020590199027577836 0 0.037393977336259203 -0.01996067535103151 0 0.036532496251685073 -0.019885404455524981 0 0.037294005311717143 -0.021169715000411413 0 0.036862736159917801 -0.020698671841766242 0 0.037097849215037823 -0.022108771398701734 0 0.037435021019416884 -0.021727606393010569 0 0.037204486472220855 -0.021538739487421694 0 0.037104936458550786 -0.020590199027577836 0 0.037941355847422711 -0.020659468890677799 0 0.037393977336259203 -0.01996067535103151 0 0.037941355847422711 -0.020659468890677799 0 0.037609622028448898 -0.021447288577932103 0 0.037893584647622817 -0.021341291212477815 0 0.037104936458550786 -0.020590199027577836 0 0.037941355847422711 -0.020659468890677799 0 0.037609622028448898 -0.021447288577932103 0 0.037609622028448898 -0.021447288577932103 0 0.037698157840428972 -0.021537197377975586 0 0.037893584647622817 -0.021341291212477815 0 0.037435021019416884 -0.021727606393010569 0 0.037609622028448898 -0.021447288577932103 0 0.037482156674649943 -0.021662823424152836 0 0.037380410083706399 -0.0218258637586989 0 0.037435021019416884 -0.021727606393010569 0 0.037482156674649943 -0.021662823424152836 0 0.037294005311717143 -0.021169715000411413 0 0.03762095823932398 -0.021454092485286687 0 0.037482156674649943 -0.021662823424152836 0 0.037495262971809433 -0.021752864267054341 0 0.03756497491838677 -0.02167126790208556 0 0.037380410083706399 -0.0218258637586989 0 0.037482156674649943 -0.021662823424152836 0 0.037495262971809433 -0.021752864267054341 0 0.038862429831793797 -0.025250760068483181 0 0.039081618994049126 -0.026404784470225224 0 0.03988838034363424 -0.026495311332830677 0 0.037380410083706399 -0.0218258637586989 0 0.037495262971809433 -0.021752864267054341 0 0.037551774560721569 -0.021752247081315578 0 0.038311620709109914 -0.023534347611469986 0 0.03733727306877116 -0.024551713970715813 0 0.036880989610900701 -0.021731532274471894 0 0.03733727306877116 -0.024551713970715813 0 0.039073209268869112 -0.027213976803535812 0 0.039081618994049126 -0.026404784470225224 0 0.03988838034363424 -0.026495311332830677 0 0.037505105130431732 -0.021680723645340537 0 0.037546924338314046 -0.021680343278119317 0 0.037531490623474412 -0.021718309943408582 0 0.037546924338314046 -0.021680343278119317 0 0.037531490623474412 -0.021718309943408582 0 0.03756497491838677 -0.02167126790208556 0 0.037495262971809433 -0.021752864267054341 0 0.037531490623474412 -0.021718309943408582 0 0.03756497491838677 -0.02167126790208556 0 0.037546924338314046 -0.021680343278119317 0 0.03756497491838677 -0.02167126790208556 0 0.037614764032637409 -0.021620396873321079 0 0.037609622028448898 -0.021447288577932103 0 0.03756497491838677 -0.02167126790208556 0 0.037698157840428972 -0.021537197377975586 0 0.037609622028448898 -0.021447288577932103 0 0.037482156674649943 -0.021662823424152836 0 0.03756497491838677 -0.02167126790208556 0 0.03756497491838677 -0.02167126790208556 0 0.037698157840428972 -0.021537197377975586 0 0.037614764032637409 -0.021620396873321079 0 0.037784363122599196 -0.021481971764532714 0 0.037614764032637409 -0.021620396873321079 0 0.037435349968153904 -0.021537387238618547 0 0.037698157840428972 -0.021537197377975586 0 0.037784363122599196 -0.021481971764532714 0 0.037893584647622817 -0.021341291212477815 0 0.037698157840428972 -0.021537197377975586 0 0.037784363122599196 -0.021481971764532714 0 0.037614764032637409 -0.021620396873321079 0 0.037546924338314046 -0.021680343278119317 0 0.037614764032637409 -0.021620396873321079 0 0.037514406836893763 -0.02165162038957865 0 0.037614764032637409 -0.021620396873321079 0 0.037514406836893763 -0.02165162038957865 0 0.037435349968153904 -0.021537387238618547 0 0.037505105130431732 -0.021680723645340537 0 0.037546924338314046 -0.021680343278119317 0 0.037514406836893763 -0.02165162038957865 0 0.033148144360846399 -0.023696091235236326 0 0.021967198842713996 -0.0212509301187454 0 0.037493685752016545 -0.021786775304310876 0 0.037435349968153904 -0.021537387238618547 0 0.037971885810017099 -0.021646697077360815 0 0.037493685752016545 -0.021786775304310876 0 0.037514406836893763 -0.02165162038957865 0 0.037435349968153904 -0.021537387238618547 0 0.037435349968153904 -0.021537387238618547 0 0.037556446939500186 -0.019704030116446725 0 0.036395474294841995 -0.019327252542223793 0 0.037429406633452816 -0.021421950845063077 0 0.037313134445311293 -0.020201907865044239 0 0.037784363122599196 -0.021481971764532714 0 0.037435349968153904 -0.021537387238618547 0 0.038249466434424242 -0.02121371043588471 0 0.037435349968153904 -0.021537387238618547 0 0.037556446939500186 -0.019704030116446725 0 0.037971885810017099 -0.021646697077360815 0 0.037941355847422711 -0.020659468890677799 0 0.038249466434424242 -0.02121371043588471 0 0.037893584647622817 -0.021341291212477815 0 0.037784363122599196 -0.021481971764532714 0 0.038249466434424242 -0.02121371043588471 0 0.037893584647622817 -0.021341291212477815 0 0.037941355847422711 -0.020659468890677799 0 0.038249466434424242 -0.02121371043588471 0 0.038626511505142173 -0.01991403860204197 0 0.037313134445311293 -0.020201907865044239 0 0.037183837619750471 -0.018356234648835356 0 0.037556446939500186 -0.019704030116446725 0 0.036395474294841995 -0.019327252542223793 0 0.036831940321172166 -0.017182367991386178 0 0.025012710525426373 -0.013447331591939182 0 0.024600671634897854 -0.013708331410223283 0 0.011838119575814042 -0.0094601216380120687 0 0.012331544488238665 -0.0095578389640851042 0 0.012025480209324594 -0.0094729932064445063 0 0.036395474294841995 -0.019327252542223793 0 0.036831940321172166 -0.017182367991386178 0 0.03570807905785045 -0.016729429797608171 0 0.036831940321172166 -0.017182367991386178 0 0.03570807905785045 -0.016729429797608171 0 0.036157295110515658 -0.014957146899077216 0 0.012331544488238665 -0.0095578389640851042 0 0.012325713909660601 -0.010200483386014567 0 0.01208009197037916 -0.0097943706387433813 0 0.037941355847422711 -0.020659468890677799 0 0.038626511505142173 -0.01991403860204197 0 0.038004844657099718 -0.019934371480326077 0 0.038626511505142173 -0.01991403860204197 0 0.038215636191597235 -0.019298227706878252 0 0.038004844657099718 -0.019934371480326077 0 0.03570807905785045 -0.016729429797608171 0 0.036157295110515658 -0.014957146899077216 0 0.035261038239143852 -0.014503455819778306 0 0.038626511505142173 -0.01991403860204197 0 0.038728076187164499 -0.018551272869623305 0 0.038215636191597235 -0.019298227706878252 0 0.037183837619750471 -0.018356234648835356 0 0.036854665579873866 -0.016288318890620657 0 0.024600671634897854 -0.013708331410223283 0 0.02425368162373516 -0.012501093833101724 0 0.012331544488238665 -0.0095578389640851042 0 0.012880859447132345 -0.010422057259219197 0 0.012325713909660601 -0.010200483386014567 0 0.012304018089720569 -0.010149401115147319 0 0.012693864042533981 -0.010996788029998377 0 0.02425368162373516 -0.012501093833101724 0 0.026527221150591852 -0.013247758785458513 0 0.012880859447132345 -0.010422057259219197 0 0.012325713909660601 -0.010200483386014567 0 0.012660960329318153 -0.011031215148519272 0 0.012880859447132345 -0.010422057259219197 0 0.012660960329318153 -0.011031215148519272 0 0.013534727288506307 -0.012164055446155094 0 0.012311480153588589 -0.010356742026645587 0 0.01231401639687018 -0.010406856424428179 0 0.012123950784941164 -0.010318068098010957 0 0.012660960329318153 -0.011031215148519272 0 0.013191278550184168 -0.011986178991846553 0 0.013534727288506307 -0.012164055446155094 0 0.012311480153588589 -0.010356742026645587 0 0.01231401639687018 -0.010406856424428179 0 0.012357478186453597 -0.010416541273150155 0 0.012693864042533981 -0.010996788029998377 0 0.014746393842769517 -0.0080442692715735793 0 0.010659616943276726 -0.0063429788256221418 0 0.014746393842769517 -0.0080442692715735793 0 0.010659616943276726 -0.0063429788256221418 0 0.0098859343624221642 -0.0043384631152647655 0 0.010255273331763909 -0.0048667248320541983 0 0.010163840762644085 -0.0047534816787407176 0 0.010194394081969966 -0.004566743185249981 0 0.014746393842769517 -0.0080442692715735793 0 0.026527221150591852 -0.013247758785458513 0 0.010155242103113641 -0.0048835941860357985 0 0.010330338036567658 -0.0045562574117243241 0 0.010194394081969966 -0.004566743185249981 0 0.036854665579873866 -0.016288318890620657 0 0.037603428556015207 -0.015845766009988799 0 0.035694566912653748 -0.013071004197519326 0 0.035261038239143852 -0.014503455819778306 0 0.034935313157362292 -0.012590875403992381 0 0.038728076187164499 -0.018551272869623305 0 0.038263090124471606 -0.017934467758181867 0 0.03861125075832772 -0.01717692104490786 0 0.026527221150591852 -0.013247758785458513 0 0.037603428556015207 -0.015845766009988799 0 0.036157295110515658 -0.014957146899077216 0 0.035694566912653748 -0.013071004197519326 0 0.035261038239143852 -0.014503455819778306 0 0.038728076187164499 -0.018551272869623305 0 0.038059949506358881 -0.018699013236253111 0 0.038263090124471606 -0.017934467758181867 0 0.038059949506358881 -0.018699013236253111 0 0.038263090124471606 -0.017934467758181867 0 0.03789335832501415 -0.01788739405147818 0 0.038059949506358881 -0.018699013236253111 0 0.03789335832501415 -0.01788739405147818 0 0.037579661851569503 -0.018779475786592871 0 0.038263090124471606 -0.017934467758181867 0 0.038017036478179451 -0.017347755406506325 0 0.03861125075832772 -0.01717692104490786 0 0.038263090124471606 -0.017934467758181867 0 0.03789335832501415 -0.01788739405147818 0 0.038017036478179451 -0.017347755406506325 0 0.03789335832501415 -0.01788739405147818 0 0.037492597662755867 -0.017801146236655699 0 0.037285472756613328 -0.018390023744642763 0 0.03789335832501415 -0.01788739405147818 0 0.038017036478179451 -0.017347755406506325 0 0.037673610858876418 -0.017331719727049048 0 0.03789335832501415 -0.01788739405147818 0 0.037492597662755867 -0.017801146236655699 0 0.037673610858876418 -0.017331719727049048 0 0.037579661851569503 -0.018779475786592871 0 0.037090529259279324 -0.019284480467075024 0 0.037285472756613328 -0.018390023744642763 0 0.03789335832501415 -0.01788739405147818 0 0.037579661851569503 -0.018779475786592871 0 0.037285472756613328 -0.018390023744642763 0 0.037579661851569503 -0.018779475786592871 0 0.03772956739966446 -0.019401286729333968 0 0.037090529259279324 -0.019284480467075024 0 0.038728076187164499 -0.018551272869623305 0 0.038059949506358881 -0.018699013236253111 0 0.038215636191597235 -0.019298227706878252 0 0.038059949506358881 -0.018699013236253111 0 0.037579661851569503 -0.018779475786592871 0 0.03772956739966446 -0.019401286729333968 0 0.038059949506358881 -0.018699013236253111 0 0.038215636191597235 -0.019298227706878252 0 0.03772956739966446 -0.019401286729333968 0 0.03772956739966446 -0.019401286729333968 0 0.038004844657099718 -0.019934371480326077 0 0.037393977336259203 -0.01996067535103151 0 0.037941355847422711 -0.020659468890677799 0 0.038004844657099718 -0.019934371480326077 0 0.037393977336259203 -0.01996067535103151 0 0.038215636191597235 -0.019298227706878252 0 0.03772956739966446 -0.019401286729333968 0 0.038004844657099718 -0.019934371480326077 0 0.03772956739966446 -0.019401286729333968 0 0.037393977336259203 -0.01996067535103151 0 0.037090529259279324 -0.019284480467075024 0 0.037393977336259203 -0.01996067535103151 0 0.036532496251685073 -0.019885404455524981 0 0.037090529259279324 -0.019284480467075024 0 0.036862736159917801 -0.020698671841766242 0 0.036070112687630086 -0.019909190421792365 0 0.036532496251685073 -0.019885404455524981 0 0.036578848742702438 -0.018739720169380969 0 0.035880889360885029 -0.019335872362556517 0 0.036532496251685073 -0.019885404455524981 0 0.037090529259279324 -0.019284480467075024 0 0.036578848742702438 -0.018739720169380969 0 0.037090529259279324 -0.019284480467075024 0 0.037285472756613328 -0.018390023744642763 0 0.036578848742702438 -0.018739720169380969 0 0.037285472756613328 -0.018390023744642763 0 0.037115450347159649 -0.017594082260658964 0 0.036578848742702438 -0.018739720169380969 0 0.037492597662755867 -0.017801146236655699 0 0.037115450347159649 -0.017594082260658964 0 0.037673610858876418 -0.017331719727049048 0 0.037492597662755867 -0.017801146236655699 0 0.037285472756613328 -0.018390023744642763 0 0.037115450347159649 -0.017594082260658964 0 0.037115450347159649 -0.017594082260658964 0 0.036418389115755609 -0.017660845315031565 0 0.036578848742702438 -0.018739720169380969 0 0.036418389115755609 -0.017660845315031565 0 0.036578848742702438 -0.018739720169380969 0 0.035855062622317461 -0.018392829122528979 0 0.036578848742702438 -0.018739720169380969 0 0.035855062622317461 -0.018392829122528979 0 0.035880889360885029 -0.019335872362556517 0 0.036418389115755609 -0.017660845315031565 0 0.035855062622317461 -0.018392829122528979 0 0.03587915779956459 -0.016760340350618269 0 0.035855062622317461 -0.018392829122528979 0 0.034999747509185858 -0.017556208574561982 0 0.03587915779956459 -0.016760340350618269 0 0.035855062622317461 -0.018392829122528979 0 0.034999747509185858 -0.017556208574561982 0 0.034999912797467586 -0.019165255853334957 0 0.035855062622317461 -0.018392829122528979 0 0.034999912797467586 -0.019165255853334957 0 0.035880889360885029 -0.019335872362556517 0 0.034999951781686939 -0.019167060400689384 0 0.036338211252279734 -0.020486621846172708 0 0.035000001664406297 -0.020873872240539545 0 0.035000138332218884 -0.019166954317509709 0 0.036070112687630086 -0.019909190421792365 0 0.03627609746789752 -0.022295366076273079 0 0.037204486472220855 -0.021538739487421694 0 0.035971313102548197 -0.02140127154853224 0 0.037204486472220855 -0.021538739487421694 0 0.036338211252279734 -0.020486621846172708 0 0.035971313102548197 -0.02140127154853224 0 0.036338211252279734 -0.020486621846172708 0 0.035000001664406297 -0.020873872240539545 0 0.035971313102548197 -0.02140127154853224 0 0.034999861729355791 -0.022580368461455023 0 0.035000001664406297 -0.020873872240539545 0 0.035971313102548197 -0.02140127154853224 0 0.012895218013421575 -0.012284272829671263 0 0.014581047887295223 -0.01326188963411684 0 0.012591251452874192 -0.01487672739003572 0 0.012895218013421575 -0.012284272829671263 0 0.01533846043689409 -0.011315848118566603 0 0.014581047887295223 -0.01326188963411684 0 0.012895218013421575 -0.012284272829671263 0 0.012591251452874192 -0.01487672739003572 0 0.010934996943256749 -0.013069475287034463 0 0.012895218013421575 -0.012284272829671263 0 0.010934996943256749 -0.013069475287034463 0 0.010583892071901621 -0.010875960835747659 0 0.012895218013421575 -0.012284272829671263 0 0.013355401985697127 -0.010497619076760618 0 0.010583892071901621 -0.010875960835747659 0 0.012895218013421575 -0.012284272829671263 0 0.013355401985697127 -0.010497619076760618 0 0.01533846043689409 -0.011315848118566603 0 0.013355401985697127 -0.010497619076760618 0 0.01533846043689409 -0.011315848118566603 0 0.015100888794905174 -0.0091334438855040449 0 0.01533846043689409 -0.011315848118566603 0 0.01759764125896306 -0.012678807023856006 0 0.016746023518455114 -0.010034600292792179 0 0.018776053980773824 -0.0097395814852548925 0 0.01759764125896306 -0.012678807023856006 0 0.016746023518455114 -0.010034600292792179 0 0.01533846043689409 -0.011315848118566603 0 0.01759764125896306 -0.012678807023856006 0 0.014581047887295223 -0.01326188963411684 0 0.01759764125896306 -0.012678807023856006 0 0.014581047887295223 -0.01326188963411684 0 0.01547518107667804 -0.015159040206911624 0 0.018419892551595284 -0.015439636710285335 0 0.01759764125896306 -0.012678807023856006 0 0.01547518107667804 -0.015159040206911624 0 0.018551309971866724 -0.021398915943418681 0 0.016728879991309783 -0.02150847643066801 0 0.018705896741764292 -0.027839405785638652 0 0.018194956728986782 -0.028510387336538587 0 0.017962718361138479 -0.027781144671419022 0 0.018194956728986782 -0.028510387336538587 0 0.017962718361138479 -0.027781144671419022 0 0.01763040706071508 -0.028217988858974839 0 0.017055237117949217 -0.028338565398757388 0 0.01763040706071508 -0.028217988858974839 0 0.017126087907714076 -0.027563723635805826 0 0.017962718361138479 -0.027781144671419022 0 0.01763040706071508 -0.028217988858974839 0 0.017126087907714076 -0.027563723635805826 0 0.016728879991309783 -0.02150847643066801 0 0.01483233084431812 -0.02112040876676663 0 0.014581047887295223 -0.01326188963411684 0 0.01547518107667804 -0.015159040206911624 0 0.012591251452874192 -0.01487672739003572 0 0.017055237117949217 -0.028338565398757388 0 0.017126087907714076 -0.027563723635805826 0 0.016177773694826234 -0.028081358053388503 0 0.017126087907714076 -0.027563723635805826 0 0.016177773694826234 -0.028081358053388503 0 0.016029508995486524 -0.027332324069448424 0 0.015388534097370366 -0.028215108579377961 0 0.016177773694826234 -0.028081358053388503 0 0.015495364473426846 -0.027702865065497774 0 0.016177773694826234 -0.028081358053388503 0 0.015495364473426846 -0.027702865065497774 0 0.016029508995486524 -0.027332324069448424 0 0.0098247601873110314 -0.014603544896676536 0 0.0071949406842007346 -0.014394014503581002 0 0.0088700042010733723 -0.012697760559042441 0 0.015495364473426846 -0.027702865065497774 0 0.016029508995486524 -0.027332324069448424 0 0.014910548521370564 -0.02709701315783157 0 0.0129890945820243 -0.021687968379049606 0 0.010917129396005176 -0.015358130258395435 0 0.012591251452874192 -0.01487672739003572 0 0.0098247601873110314 -0.014603544896676536 0 0.010934996943256749 -0.013069475287034463 0 0.01483233084431812 -0.02112040876676663 0 0.0129890945820243 -0.021687968379049606 0 0.014867981900670011 -0.028315090537325008 0 0.01430922772712959 -0.027691107048761147 0 0.014994307332306729 -0.027774264128247832 0 0.01430922772712959 -0.027691107048761147 0 0.014994307332306729 -0.027774264128247832 0 0.014910548521370564 -0.02709701315783157 0 0.021967198842713996 -0.0212509301187454 0 0.010917129396005176 -0.015358130258395435 0 0.015388534097370366 -0.028215108579377961 0 0.014867981900670011 -0.028315090537325008 0 0.014994307332306729 -0.027774264128247832 0 0.015388534097370366 -0.028215108579377961 0 0.015495364473426846 -0.027702865065497774 0 0.014994307332306729 -0.027774264128247832 0 0.015495364473426846 -0.027702865065497774 0 0.014994307332306729 -0.027774264128247832 0 0.014910548521370564 -0.02709701315783157 0 0.011880001396283006 -0.0096419576362327866 0 0.011869568986156516 -0.009588968309618735 0 0.011703506834051367 -0.0095004638163281689 0 0.010917129396005176 -0.015358130258395435 0 0.010260232735346321 -0.010637781131015073 0 0.011838119575814042 -0.0094601216380120687 0 0.01171967842056274 -0.010235441894351469 0 0.011871061502102129 -0.009584855191365 0 0.025012710525426373 -0.013447331591939182 0 0.021967198842713996 -0.0212509301187454 0 0.01171967842056274 -0.010235441894351469 0 0.011886330845511928 -0.0097843331812792669 0 0.011871061502102129 -0.009584855191365 0 0.01171967842056274 -0.010235441894351469 0 0.012102176684226709 -0.0098511381090250188 0 0.011886330845511928 -0.0097843331812792669 0 0.010917129396005176 -0.015358130258395435 0 0.011681250842608354 -0.012681408573263548 0 0.011880001396283006 -0.0096419576362327866 0 0.011886330845511928 -0.0097843331812792669 0 0.011869568986156516 -0.009588968309618735 0 0.011886330845511928 -0.0097843331812792669 0 0.011869568986156516 -0.009588968309618735 0 0.011871061502102129 -0.009584855191365 0 0.011838119575814042 -0.0094601216380120687 0 0.011887646942232735 -0.0094288850866925174 0 0.012025480209324594 -0.0094729932064445063 0 0.011838119575814042 -0.0094601216380120687 0 0.011871061502102129 -0.009584855191365 0 0.011887646942232735 -0.0094288850866925174 0 0.011869568986156516 -0.009588968309618735 0 0.011871061502102129 -0.009584855191365 0 0.011814261895179708 -0.0094769764720684553 0 0.011871061502102129 -0.009584855191365 0 0.011887646942232735 -0.0094288850866925174 0 0.011814261895179708 -0.0094769764720684553 0 0.011814261895179708 -0.0094769764720684553 0 0.011708873256941065 -0.0093405219916231925 0 0.011703506834051367 -0.0095004638163281689 0 0.011869568986156516 -0.009588968309618735 0 0.011814261895179708 -0.0094769764720684553 0 0.011703506834051367 -0.0095004638163281689 0 0.011887646942232735 -0.0094288850866925174 0 0.011814261895179708 -0.0094769764720684553 0 0.011708873256941065 -0.0093405219916231925 0 0.011708873256941065 -0.0093405219916231925 0 0.011846290651480414 -0.009463851985558722 0 0.011521319294771327 -0.0090985533734369191 0 0.011887646942232735 -0.0094288850866925174 0 0.011708873256941065 -0.0093405219916231925 0 0.011846290651480414 -0.009463851985558722 0 0.011887646942232735 -0.0094288850866925174 0 0.011846290651480414 -0.009463851985558722 0 0.012025480209324594 -0.0094729932064445063 0 0.010934996943256749 -0.013069475287034463 0 0.0088700042010733723 -0.012697760559042441 0 0.010583892071901621 -0.010875960835747659 0 0.0098247601873110314 -0.014603544896676536 0 0.010934996943256749 -0.013069475287034463 0 0.0088700042010733723 -0.012697760559042441 0 0.010260232735346321 -0.010637781131015073 0 0.011465866833092222 -0.0099457708886582057 0 0.011703506834051367 -0.0095004638163281689 0 0.011521319294771327 -0.0090985533734369191 0 0.012395750237875293 -0.0089026285489614207 0 0.011708873256941065 -0.0093405219916231925 0 0.011703506834051367 -0.0095004638163281689 0 0.011521319294771327 -0.0090985533734369191 0 0.012395750237875293 -0.0089026285489614207 0 0.011947312755388779 -0.0075231380777423208 0 0.013337393170993516 -0.0077401620655028281 0 0.011521319294771327 -0.0090985533734369191 0 0.012395750237875293 -0.0089026285489614207 0 0.011947312755388779 -0.0075231380777423208 0 0.011521319294771327 -0.0090985533734369191 0 0.011947312755388779 -0.0075231380777423208 0 0.010428934969775936 -0.0075921620649229693 0 0.011947312755388779 -0.0075231380777423208 0 0.011539222884578789 -0.0064801509933892039 0 0.010428934969775936 -0.0075921620649229693 0 0.011947312755388779 -0.0075231380777423208 0 0.012970624403949343 -0.0067548288096969528 0 0.013337393170993516 -0.0077401620655028281 0 0.011947312755388779 -0.0075231380777423208 0 0.011539222884578789 -0.0064801509933892039 0 0.012164796162034272 -0.006086771479611057 0 0.011947312755388779 -0.0075231380777423208 0 0.012164796162034272 -0.006086771479611057 0 0.012970624403949343 -0.0067548288096969528 0 0.012331544488238665 -0.0095578389640851042 0 0.012025480209324594 -0.0094729932064445063 0 0.01208009197037916 -0.0097943706387433813 0 0.011846290651480414 -0.009463851985558722 0 0.012025480209324594 -0.0094729932064445063 0 0.01208009197037916 -0.0097943706387433813 0 0.011846290651480414 -0.009463851985558722 0 0.01208009197037916 -0.0097943706387433813 0 0.011714594904278076 -0.0098068956903800686 0 0.011846290651480414 -0.009463851985558722 0 0.011521319294771327 -0.0090985533734369191 0 0.011714594904278076 -0.0098068956903800686 0 0.011489054444195308 -0.0091137211498947598 0 0.011078771414052757 -0.008652495385415418 0 0.010428934969775936 -0.0075921620649229693 0 0.0096324770013251036 -0.0062717456007064113 0 0.01070476546951845 -0.0062853335240655858 0 0.011539222884578789 -0.0064801509933892039 0 0.010428934969775936 -0.0075921620649229693 0 0.01070476546951845 -0.0062853335240655858 0 0.01208009197037916 -0.0097943706387433813 0 0.011714594904278076 -0.0098068956903800686 0 0.012123950784941164 -0.010318068098010957 0 0.011078771414052757 -0.008652495385415418 0 0.010961724259699974 -0.0085490730743415441 0 0.012325713909660601 -0.010200483386014567 0 0.01208009197037916 -0.0097943706387433813 0 0.012123950784941164 -0.010318068098010957 0 0.010659616943276726 -0.0063429788256221418 0 0.010961724259699974 -0.0085490730743415441 0 0.0090182475501482326 -0.0052880710222662393 0 0.0096324770013251036 -0.0062717456007064113 0 0.0097521594791267763 -0.0057811923365758714 0 0.0096324770013251036 -0.0062717456007064113 0 0.0097521594791267763 -0.0057811923365758714 0 0.01070476546951845 -0.0062853335240655858 0 0.010659616943276726 -0.0063429788256221418 0 0.0098448756341330424 -0.0054765119985099543 0 0.012325713909660601 -0.010200483386014567 0 0.012311480153588589 -0.010356742026645587 0 0.012123950784941164 -0.010318068098010957 0 0.010312400236997272 -0.0054274320375741125 0 0.01070476546951845 -0.0062853335240655858 0 0.010710843114777033 -0.0051346112039627042 0 0.01070476546951845 -0.0062853335240655858 0 0.010710843114777033 -0.0051346112039627042 0 0.011330562100463581 -0.0055025881663122158 0 0.0098448756341330424 -0.0054765119985099543 0 0.01077410114400554 -0.006254100588608408 0 0.010710843114777033 -0.0051346112039627042 0 0.011183449233520441 -0.0045244875813649863 0 0.010618808486749592 -0.0045196080812962332 0 0.010312400236997272 -0.0054274320375741125 0 0.010710843114777033 -0.0051346112039627042 0 0.010391591169920406 -0.0048851442314082867 0 0.010710843114777033 -0.0051346112039627042 0 0.010391591169920406 -0.0048851442314082867 0 0.010618808486749592 -0.0045196080812962332 0 0.010155242103113641 -0.0048835941860357985 0 0.010391591169920406 -0.0048851442314082867 0 0.010330338036567658 -0.0045562574117243241 0 0.010391591169920406 -0.0048851442314082867 0 0.010618808486749592 -0.0045196080812962332 0 0.010330338036567658 -0.0045562574117243241 0 0.010155242103113641 -0.0048835941860357985 0 0.010312400236997272 -0.0054274320375741125 0 0.010391591169920406 -0.0048851442314082867 0 0.012164796162034272 -0.006086771479611057 0 0.011897794130916949 -0.0050788644409863297 0 0.013138343342721986 -0.0054593494925975622 0 0.012164796162034272 -0.006086771479611057 0 0.011330562100463581 -0.0055025881663122158 0 0.011897794130916949 -0.0050788644409863297 0 0.011539222884578789 -0.0064801509933892039 0 0.012164796162034272 -0.006086771479611057 0 0.011330562100463581 -0.0055025881663122158 0 0.011539222884578789 -0.0064801509933892039 0 0.01070476546951845 -0.0062853335240655858 0 0.011330562100463581 -0.0055025881663122158 0 0.010710843114777033 -0.0051346112039627042 0 0.011330562100463581 -0.0055025881663122158 0 0.011183449233520441 -0.0045244875813649863 0 0.011330562100463581 -0.0055025881663122158 0 0.011897794130916949 -0.0050788644409863297 0 0.011183449233520441 -0.0045244875813649863 0 0.011897794130916949 -0.0050788644409863297 0 0.012120445706757266 -0.004224496364158681 0 0.011183449233520441 -0.0045244875813649863 0 0.011897794130916949 -0.0050788644409863297 0 0.013138343342721986 -0.0054593494925975622 0 0.012120445706757266 -0.004224496364158681 0 0.013138343342721986 -0.0054593494925975622 0 0.013726716031252714 -0.0039503987266660883 0 0.012120445706757266 -0.004224496364158681 0 0.013138343342721986 -0.0054593494925975622 0 0.015117315967554579 -0.0053582073486248471 0 0.013726716031252714 -0.0039503987266660883 0 0.011673144561930584 -0.0036016463612753473 0 0.011592696514539209 -0.002481265193580386 0 0.013138343342721986 -0.0054593494925975622 0 0.014347063465064504 -0.0069333863424468007 0 0.015117315967554579 -0.0053582073486248471 0 0.013138343342721986 -0.0054593494925975622 0 0.012970624403949343 -0.0067548288096969528 0 0.014347063465064504 -0.0069333863424468007 0 0.012164796162034272 -0.006086771479611057 0 0.013138343342721986 -0.0054593494925975622 0 0.012970624403949343 -0.0067548288096969528 0 0.012970624403949343 -0.0067548288096969528 0 0.014347063465064504 -0.0069333863424468007 0 0.013337393170993516 -0.0077401620655028281 0 0.014261496470567268 -0.0070114102800222008 0 0.012903384521723989 -0.0083286582669173954 0 0.014347063465064504 -0.0069333863424468007 0 0.012389667543183434 -0.0089551337927038129 0 0.015100888794905174 -0.0091334438855040449 0 0.013355401985697127 -0.010497619076760618 0 0.012389667543183434 -0.0089551337927038129 0 0.015100888794905174 -0.0091334438855040449 0 0.011465866833092222 -0.0099457708886582057 0 0.012903384521723989 -0.0083286582669173954 0 0.013355401985697127 -0.010497619076760618 0 0.010583892071901621 -0.010875960835747659 0 0.012389667543183434 -0.0089551337927038129 0 0.018776053980773824 -0.0097395814852548925 0 0.016746023518455114 -0.010034600292792179 0 0.016927232948498083 -0.0073165790038887991 0 0.016746023518455114 -0.010034600292792179 0 0.015100888794905174 -0.0091334438855040449 0 0.016927232948498083 -0.0073165790038887991 0 0.01533846043689409 -0.011315848118566603 0 0.016746023518455114 -0.010034600292792179 0 0.015100888794905174 -0.0091334438855040449 0 0.014347063465064504 -0.0069333863424468007 0 0.015100888794905174 -0.0091334438855040449 0 0.016927232948498083 -0.0073165790038887991 0 0.01054959248448176 -0.0032946349319812021 0 0.0082658321858052834 -0.0046125699577969272 0 0.0090188609580898835 -0.0015682438637037491 0 0.0082658321858052834 -0.0046125699577969272 0 0.0080777646064991021 -0.001662862310768785 0 0.0090188609580898835 -0.0015682438637037491 0 0.012655991839469038 -0.0060371851023381046 0 0.011673144561930584 -0.0036016463612753473 0 0.014347063465064504 -0.0069333863424468007 0 0.016927232948498083 -0.0073165790038887991 0 0.015117315967554579 -0.0053582073486248471 0 0.0080777646064991021 -0.001662862310768785 0 0.0090188609580898835 -0.0015682438637037491 0 0.0086359746680451498 -0.00089305881104405208 0 0.0090188609580898835 -0.0015682438637037491 0 0.0086359746680451498 -0.00089305881104405208 0 0.008530290425233138 -0.00048206122753728886 0 0.0080777646064991021 -0.001662862310768785 0 0.0086359746680451498 -0.00089305881104405208 0 0.0094201848671361665 -0.00078104089294581537 0 0.0086359746680451498 -0.00089305881104405208 0 0.0086308264831414239 -0.0014471522811098276 0 0.0097785964712211824 -0.0017507900366159324 0 0.0086359746680451498 -0.00089305881104405208 0 0.0086308264831414239 -0.0014471522811098276 0 0.008530290425233138 -0.00048206122753728886 0 0.0086308264831414239 -0.0014471522811098276 0 0.008530290425233138 -0.00048206122753728886 0 0.0078973867682271531 -0.0016881375416426514 0 0.0086308264831414239 -0.0014471522811098276 0 0.0083503019318200734 -0.00198857359959172 0 0.0078973867682271531 -0.0016881375416426514 0 0.0086308264831414239 -0.0014471522811098276 0 0.0089602891585311047 -0.0019799888977093888 0 0.0097785964712211824 -0.0017507900366159324 0 0.0086308264831414239 -0.0014471522811098276 0 0.0089602891585311047 -0.0019799888977093888 0 0.0083503019318200734 -0.00198857359959172 0 0.0089602891585311047 -0.0019799888977093888 0 0.0088390083299266474 -0.0021082414257427937 0 0.0083503019318200734 -0.00198857359959172 0 0.0088390083299266474 -0.0021082414257427937 0 0.0083503019318200734 -0.00198857359959172 0 0.0084623774994102875 -0.0022049950471161564 0 0.0083503019318200734 -0.00198857359959172 0 0.0084623774994102875 -0.0022049950471161564 0 0.0078192688720599927 -0.0020016065914683317 0 0.010064637841134726 -0.0023248765645864939 0 0.0092362439071411208 -0.0022422584632376388 0 0.0094414079474820448 -0.0017880139967251189 0 0.010064637841134726 -0.0023248765645864939 0 0.0094414079474820448 -0.0017880139967251189 0 0.010043584129146898 -0.00159857957251585 0 0.010064637841134726 -0.0023248765645864939 0 0.010475264017810937 -0.0015762652866995735 0 0.010043584129146898 -0.00159857957251585 0 0.0089602891585311047 -0.0019799888977093888 0 0.0088390083299266474 -0.0021082414257427937 0 0.0094414079474820448 -0.0017880139967251189 0 0.0088390083299266474 -0.0021082414257427937 0 0.0092362439071411208 -0.0022422584632376388 0 0.0094414079474820448 -0.0017880139967251189 0 0.010064637841134726 -0.0023248765645864939 0 0.0092362439071411208 -0.0022422584632376388 0 0.0092570110005676925 -0.0024704966696769393 0 0.0088390083299266474 -0.0021082414257427937 0 0.0092362439071411208 -0.0022422584632376388 0 0.0088769929419064818 -0.0023655443153608072 0 0.0089602891585311047 -0.0019799888977093888 0 0.011770170376559511 -0.0028162104713761664 0 0.0097785964712211824 -0.0017507900366159324 0 0.0089602891585311047 -0.0019799888977093888 0 0.0094414079474820448 -0.0017880139967251189 0 0.010115272563889059 -0.0008180726557846064 0 0.0091796774221289956 -0.0019725182981002831 0 0.010921766116802309 -0.0017912395795511905 0 0.0094414079474820448 -0.0017880139967251189 0 0.010043584129146898 -0.00159857957251585 0 0.010115272563889059 -0.0008180726557846064 0 0.010475264017810937 -0.0015762652866995735 0 0.010043584129146898 -0.00159857957251585 0 0.010115272563889059 -0.0008180726557846064 0 0.011750215241468723 -0.002542029979707673 0 0.012176136792468302 -0.0034653171898085893 0 0.013726716031252714 -0.0039503987266660883 0 0.011782917385528398 -0.0025731390035258509 0 0.011592696514539209 -0.002481265193580386 0 0.011770170376559511 -0.0028162104713761664 0 0.011750215241468723 -0.002542029979707673 0 0.0097785964712211824 -0.0017507900366159324 0 0.011750215241468723 -0.002542029979707673 0 0.0097785964712211824 -0.0017507900366159324 0 0.0094201848671361665 -0.00078104089294581537 0 0.0086359746680451498 -0.00089305881104405208 0 0.0097785964712211824 -0.0017507900366159324 0 0.0094201848671361665 -0.00078104089294581537 0 0.012176136792468302 -0.0034653171898085893 0 0.013726716031252714 -0.0039503987266660883 0 0.012120445706757266 -0.004224496364158681 0 0.012120445706757266 -0.004224496364158681 0 0.011183449233520441 -0.0045244875813649863 0 0.011623947150356976 -0.0033198818662787902 0 0.012176136792468302 -0.0034653171898085893 0 0.012120445706757266 -0.004224496364158681 0 0.011623947150356976 -0.0033198818662787902 0 0.011183449233520441 -0.0045244875813649863 0 0.011623947150356976 -0.0033198818662787902 0 0.010932634940612153 -0.0039246707442648267 0 0.011623947150356976 -0.0033198818662787902 0 0.010932634940612153 -0.0039246707442648267 0 0.01128755381530734 -0.0032839152659498621 0 0.011770170376559511 -0.0028162104713761664 0 0.011623947150356976 -0.0033198818662787902 0 0.01128755381530734 -0.0032839152659498621 0 0.011750215241468723 -0.002542029979707673 0 0.012176136792468302 -0.0034653171898085893 0 0.011623947150356976 -0.0033198818662787902 0 0.011770170376559511 -0.0028162104713761664 0 0.011750215241468723 -0.002542029979707673 0 0.011623947150356976 -0.0033198818662787902 0 0.010540756645013777 -0.0041859322560476395 0 0.010330338036567658 -0.0045562574117243241 0 0.01036070637566908 -0.0042220115571205289 0 0.010618808486749592 -0.0045196080812962332 0 0.010540756645013777 -0.0041859322560476395 0 0.010330338036567658 -0.0045562574117243241 0 0.011183449233520441 -0.0045244875813649863 0 0.010618808486749592 -0.0045196080812962332 0 0.010932634940612153 -0.0039246707442648267 0 0.010618808486749592 -0.0045196080812962332 0 0.010540756645013777 -0.0041859322560476395 0 0.010932634940612153 -0.0039246707442648267 0 0.010932634940612153 -0.0039246707442648267 0 0.010613717565534477 -0.0038075366156209703 0 0.01128755381530734 -0.0032839152659498621 0 0.013183180502825688 -0.00099140907153877464 0 0.012767517003679804 -0.0016243610103558953 0 0.010540756645013777 -0.0041859322560476395 0 0.010932634940612153 -0.0039246707442648267 0 0.010613717565534477 -0.0038075366156209703 0 0.010540756645013777 -0.0041859322560476395 0 0.010613717565534477 -0.0038075366156209703 0 0.01036070637566908 -0.0042220115571205289 0 0.017712212547557008 0.0008595300888635534 0 0.018364071204109607 -0.0013881942948908445 0 0.015841430588535314 -0.001632395043759297 0 0.017712212547557008 0.0008595300888635534 0 0.018364071204109607 -0.0013881942948908445 0 0.019722380780748627 3.7183466280042557e-06 0 0.017712212547557008 0.0008595300888635534 0 0.015841430588535314 -0.001632395043759297 0 0.013716485513426146 0.00017905656585396807 0 0.015259728287462351 -0.0032104414851272722 0 0.015841430588535314 -0.001632395043759297 0 0.013575500449837827 -0.0027517633181441356 0 0.015259728287462351 -0.0032104414851272722 0 0.015841430588535314 -0.001632395043759297 0 0.016781417916530594 -0.0030908178433332015 0 0.015259728287462351 -0.0032104414851272722 0 0.016781417916530594 -0.0030908178433332015 0 0.015663825028830319 -0.0039839087660726849 0 0.018364071204109607 -0.0013881942948908445 0 0.015841430588535314 -0.001632395043759297 0 0.016781417916530594 -0.0030908178433332015 0 0.016781417916530594 -0.0030908178433332015 0 0.0183981524513454 -0.0030336611960459781 0 0.017578146681202042 -0.0037616305514469881 0 0.0183981524513454 -0.0030336611960459781 0 0.018747562961653773 -0.004139035432960049 0 0.017578146681202042 -0.0037616305514469881 0 0.018364071204109607 -0.0013881942948908445 0 0.016781417916530594 -0.0030908178433332015 0 0.0183981524513454 -0.0030336611960459781 0 0.010115272563889059 -0.0008180726557846064 0 0.011697943661727585 -0.0015399456207427001 0 0.013716485513426146 0.00017905656585396807 0 0.010921766116802309 -0.0017912395795511905 0 0.012767517003679804 -0.0016243610103558953 0 0.010475264017810937 -0.0015762652866995735 0 0.010115272563889059 -0.0008180726557846064 0 0.011697943661727585 -0.0015399456207427001 0 0.011697943661727585 -0.0015399456207427001 0 0.013716485513426146 0.00017905656585396807 0 0.013575500449837827 -0.0027517633181441356 0 0.015841430588535314 -0.001632395043759297 0 0.013716485513426146 0.00017905656585396807 0 0.013575500449837827 -0.0027517633181441356 0 0.015259728287462351 -0.0032104414851272722 0 0.013575500449837827 -0.0027517633181441356 0 0.014567125274655946 -0.0041093374195396307 0 0.013575500449837827 -0.0027517633181441356 0 0.011861226366348773 -0.0034038003628394414 0 0.013415429366450052 -0.0043996140649908907 0 0.011697943661727585 -0.0015399456207427001 0 0.013575500449837827 -0.0027517633181441356 0 0.011861226366348773 -0.0034038003628394414 0 0.010064637841134726 -0.0023248765645864939 0 0.011697943661727585 -0.0015399456207427001 0 0.011861226366348773 -0.0034038003628394414 0 0.010064637841134726 -0.0023248765645864939 0 0.010475264017810937 -0.0015762652866995735 0 0.011697943661727585 -0.0015399456207427001 0 0.010064637841134726 -0.0023248765645864939 0 0.011861226366348773 -0.0034038003628394414 0 0.010508533355721389 -0.0042112625908595535 0 0.011861226366348773 -0.0034038003628394414 0 0.01190096121086719 -0.0053101356773021819 0 0.010508533355721389 -0.0042112625908595535 0 0.011861226366348773 -0.0034038003628394414 0 0.01190096121086719 -0.0053101356773021819 0 0.013415429366450052 -0.0043996140649908907 0 0.014518405825086561 -9.4721260454538243e-05 0 0.016965801832130069 -0.00041524565669548956 0 0.01190096121086719 -0.0053101356773021819 0 0.013415429366450052 -0.0043996140649908907 0 0.015144334046168505 -0.0053097963749984406 0 0.013575500449837827 -0.0027517633181441356 0 0.013415429366450052 -0.0043996140649908907 0 0.014567125274655946 -0.0041093374195396307 0 0.013415429366450052 -0.0043996140649908907 0 0.014567125274655946 -0.0041093374195396307 0 0.015144334046168505 -0.0053097963749984406 0 0.020029682864916507 0.0032564598502852204 0 0.022423459736731734 0.0039083070741136637 0 0.01842212696932537 0.0012326659989972501 0 0.016870241869251266 0.0048921666307970898 0 0.017490649021913603 0.0035535160153710586 0 0.019659348000774568 0.0048711975920963128 0 0.020029682864916507 0.0032564598502852204 0 0.017490649021913603 0.0035535160153710586 0 0.022104758454004135 0.0044614282065603599 0 0.017490649021913603 0.0035535160153710586 0 0.019659348000774568 0.0048711975920963128 0 0.019896027410377964 0.0042907998667295879 0 0.017562948079002414 0.0034491447371750397 0 0.021227022245232114 0.0047816968815962216 0 0.020029682864916507 0.0032564598502852204 0 0.017490649021913603 0.0035535160153710586 0 0.01824150204825517 0.0025828717515432864 0 0.017490649021913603 0.0035535160153710586 0 0.017130685861234164 0.0023905922734433283 0 0.01824150204825517 0.0025828717515432864 0 0.017490649021913603 0.0035535160153710586 0 0.015695646148645357 0.0031880452785427566 0 0.017130685861234164 0.0023905922734433283 0 0.016870241869251266 0.0048921666307970898 0 0.017490649021913603 0.0035535160153710586 0 0.015695646148645357 0.0031880452785427566 0 0.022288430187307119 0.0013798781705332702 0 0.021227022245232114 0.0047816968815962216 0 0.022288430187307119 0.0013798781705332702 0 0.016965801832130069 -0.00041524565669548956 0 0.018675562723352551 -0.0052398165126725845 0 0.017595463590372125 -0.004559571615471672 0 0.015144334046168505 -0.0053097963749984406 0 0.018675562723352551 -0.0052398165126725845 0 0.018831877823096144 -0.0047326028499957897 0 0.017595463590372125 -0.004559571615471672 0 0.018747562961653773 -0.004139035432960049 0 0.018831877823096144 -0.0047326028499957897 0 0.017595463590372125 -0.004559571615471672 0 0.018747562961653773 -0.004139035432960049 0 0.017595463590372125 -0.004559571615471672 0 0.017578146681202042 -0.0037616305514469881 0 0.016781417916530594 -0.0030908178433332015 0 0.017578146681202042 -0.0037616305514469881 0 0.016583570174563054 -0.0041941657608313108 0 0.017595463590372125 -0.004559571615471672 0 0.017578146681202042 -0.0037616305514469881 0 0.016583570174563054 -0.0041941657608313108 0 0.022107741995090469 0.004860228926234493 0 0.019659348000774568 0.0048711975920963128 0 0.019896027410377964 0.0042907998667295879 0 0.017595463590372125 -0.004559571615471672 0 0.016583570174563054 -0.0041941657608313108 0 0.015144334046168505 -0.0053097963749984406 0 0.016583570174563054 -0.0041941657608313108 0 0.015663825028830319 -0.0039839087660726849 0 0.015144334046168505 -0.0053097963749984406 0 0.016781417916530594 -0.0030908178433332015 0 0.016583570174563054 -0.0041941657608313108 0 0.015663825028830319 -0.0039839087660726849 0 0.015259728287462351 -0.0032104414851272722 0 0.014567125274655946 -0.0041093374195396307 0 0.015663825028830319 -0.0039839087660726849 0 0.014567125274655946 -0.0041093374195396307 0 0.015663825028830319 -0.0039839087660726849 0 0.015144334046168505 -0.0053097963749984406 0 0.02318375887025529 0.0035113606230106138 0 0.02382140083110992 0.0032535311776595772 0 0.022582570847204865 0.0030527759648790844 0 0.020029682864916507 0.0032564598502852204 0 0.022104758454004135 0.0044614282065603599 0 0.022423459736731734 0.0039083070741136637 0 0.022717153096184439 0.0034336473287334725 0 0.022423459736731734 0.0039083070741136637 0 0.022582570847204865 0.0030527759648790844 0 0.022717153096184439 0.0034336473287334725 0 0.02318375887025529 0.0035113606230106138 0 0.022582570847204865 0.0030527759648790844 0 0.022717153096184439 0.0034336473287334725 0 0.022821991755168195 0.0036903534534035217 0 0.022423459736731734 0.0039083070741136637 0 0.022717153096184439 0.0034336473287334725 0 0.022821991755168195 0.0036903534534035217 0 0.02318375887025529 0.0035113606230106138 0 0.022821991755168195 0.0036903534534035217 0 0.022951015429981035 0.003940443144295743 0 0.02318375887025529 0.0035113606230106138 0 0.022104758454004135 0.0044614282065603599 0 0.022951015429981035 0.003940443144295743 0 0.023530889161520865 0.0042239875334380691 0 0.022104758454004135 0.0044614282065603599 0 0.022951015429981035 0.003940443144295743 0 0.022423459736731734 0.0039083070741136637 0 0.022821991755168195 0.0036903534534035217 0 0.022951015429981035 0.003940443144295743 0 0.022423459736731734 0.0039083070741136637 0 0.024425535702620002 0.0048787855297552311 0 0.023530889161520865 0.0042239875334380691 0 0.02382140083110992 0.0032535311776595772 0 0.030782486303673355 0.0011321012919813082 0 0.026554485032695616 -0.00026910779234779863 0 0.024425535702620002 0.0048787855297552311 0 0.02382140083110992 0.0032535311776595772 0 0.024846973144480644 0.0048920985264710093 0 0.024425535702620002 0.0048787855297552311 0 0.022104758454004135 0.0044614282065603599 0 0.023530889161520865 0.0042239875334380691 0 0.034684362667502085 -0.0017106116776693869 0 0.034435934295664133 -0.0022108104428453057 0 0.034478251047528503 -0.00190096744782427 0 0.022951015429981035 0.003940443144295743 0 0.023530889161520865 0.0042239875334380691 0 0.023384756729862875 0.0037259869594447829 0 0.022951015429981035 0.003940443144295743 0 0.023384756729862875 0.0037259869594447829 0 0.02318375887025529 0.0035113606230106138 0 0.023384756729862875 0.0037259869594447829 0 0.02318375887025529 0.0035113606230106138 0 0.02382140083110992 0.0032535311776595772 0 0.023530889161520865 0.0042239875334380691 0 0.023384756729862875 0.0037259869594447829 0 0.02382140083110992 0.0032535311776595772 0 0.030782486303673355 0.0011321012919813082 0 0.033976743148877081 -0.00065874370608702667 0 0.034825335082786214 -0.0017130552448898775 0 0.035220397889736736 -0.0010199772101927105 0 0.034606778375222157 -0.0011920680276836168 0 0.030782486303673355 0.0011321012919813082 0 0.032888371112020358 0.0011046203901448814 0 0.030453623402254444 0.0037761888517669259 0 0.029722766004540692 0.0033225678008008165 0 0.030113739697821405 0.0030992695531350885 0 0.022423459736731734 0.0039083070741136637 0 0.022582570847204865 0.0030527759648790844 0 0.022224998932410804 0.0024242367454597163 0 0.02382140083110992 0.0032535311776595772 0 0.022582570847204865 0.0030527759648790844 0 0.022535922934061429 0.0023764786522589838 0 0.030782486303673355 0.0011321012919813082 0 0.025589274764433872 0.0030254002202124946 0 0.029722766004540692 0.0033225678008008165 0 0.030113739697821405 0.0030992695531350885 0 0.029488381397844668 0.0027471102569306934 0 0.035220397889736736 -0.0010199772101927105 0 0.034860012148632089 -0.00078026196533729001 0 0.034606778375222157 -0.0011920680276836168 0 0.035220397889736736 -0.0010199772101927105 0 0.034860012148632089 -0.00078026196533729001 0 0.035111864816868121 -0.00050991039956894697 0 0.015676102698655207 0.0014810418234801129 0 0.017130685861234164 0.0023905922734433283 0 0.01842212696932537 0.0012326659989972501 0 0.015695646148645357 0.0031880452785427566 0 0.015676102698655207 0.0014810418234801129 0 0.017130685861234164 0.0023905922734433283 0 0.022362980291766293 0.0038475727540239961 0 0.020427379775334181 0.0019334750566552998 0 0.022582570847204865 0.0030527759648790844 0 0.022535922934061429 0.0023764786522589838 0 0.022224998932410804 0.0024242367454597163 0 0.020029682864916507 0.0032564598502852204 0 0.01824150204825517 0.0025828717515432864 0 0.01842212696932537 0.0012326659989972501 0 0.017130685861234164 0.0023905922734433283 0 0.01824150204825517 0.0025828717515432864 0 0.01842212696932537 0.0012326659989972501 0 0.025589274764433872 0.0030254002202124946 0 0.025639523134866393 0.0023371784655417237 0 0.029722766004540692 0.0033225678008008165 0 0.029488381397844668 0.0027471102569306934 0 0.028728349849663635 0.0028037638148133959 0 0.022535922934061429 0.0023764786522589838 0 0.022224998932410804 0.0024242367454597163 0 0.022439648785081655 0.0018927238086043814 0 0.022224998932410804 0.0024242367454597163 0 0.022423008157035136 0.0017770726025003814 0 0.022439648785081655 0.0018927238086043814 0 0.020427379775334181 0.0019334750566552998 0 0.018979126090967812 0.00047480303855959002 0 0.015676102698655207 0.0014810418234801129 0 0.01842212696932537 0.0012326659989972501 0 0.015546355604495911 -0.00077818262228435662 0 0.015676102698655207 0.0014810418234801129 0 0.015546355604495911 -0.00077818262228435662 0 0.013996332987597501 0.00082891255907834689 0 0.015546355604495911 -0.00077818262228435662 0 0.013996332987597501 0.00082891255907834689 0 0.013002426636333242 -0.0005142124029457872 0 0.015676102698655207 0.0014810418234801129 0 0.013996332987597501 0.00082891255907834689 0 0.014163104325243951 0.0023531564832924307 0 0.015695646148645357 0.0031880452785427566 0 0.015676102698655207 0.0014810418234801129 0 0.014163104325243951 0.0023531564832924307 0 0.013996332987597501 0.00082891255907834689 0 0.014163104325243951 0.0023531564832924307 0 0.012069051040200118 0.001607015245676168 0 0.012069051040200118 0.001607015245676168 0 0.013002426636333242 -0.0005142124029457872 0 0.010539519208742848 -0.0011562537210135294 0 0.013996332987597501 0.00082891255907834689 0 0.012069051040200118 0.001607015245676168 0 0.013002426636333242 -0.0005142124029457872 0 0.0088384976250834597 -0.003023102591655133 0 0.0080765818386850582 -0.0030607737073531176 0 0.0084984065946146648 -0.0035997752960249623 0 0.010594556454020718 -0.00017912293319740223 0 0.0094680306859255044 -0.0025471318190605778 0 0.0078948830643574535 -0.0034348209809270092 0 0.0080765818386850582 -0.0030607737073531176 0 0.0084984065946146648 -0.0035997752960249623 0 0.0080765818386850582 -0.0030607737073531176 0 0.0083385340033161996 -0.0027602501144827363 0 0.0076378444646265304 -0.0027212502594116633 0 0.0088384976250834597 -0.003023102591655133 0 0.0080765818386850582 -0.0030607737073531176 0 0.0083385340033161996 -0.0027602501144827363 0 0.0088384976250834597 -0.003023102591655133 0 0.0083385340033161996 -0.0027602501144827363 0 0.0087835714703936533 -0.0027401975333329787 0 0.0083385340033161996 -0.0027602501144827363 0 0.008579996181829988 -0.0025224095557386033 0 0.0087835714703936533 -0.0027401975333329787 0 0.008579996181829988 -0.0025224095557386033 0 0.0087835714703936533 -0.0027401975333329787 0 0.0089378903805796394 -0.0026121969665796278 0 0.0083385340033161996 -0.0027602501144827363 0 0.008579996181829988 -0.0025224095557386033 0 0.0079256505114944104 -0.0023848572039595083 0 0.0083385340033161996 -0.0027602501144827363 0 0.0079256505114944104 -0.0023848572039595083 0 0.0076378444646265304 -0.0027212502594116633 0 0.0079256505114944104 -0.0023848572039595083 0 0.0084623774994102875 -0.0022049950471161564 0 0.0078192688720599927 -0.0020016065914683317 0 0.008579996181829988 -0.0025224095557386033 0 0.0079256505114944104 -0.0023848572039595083 0 0.0084623774994102875 -0.0022049950471161564 0 0.008579996181829988 -0.0025224095557386033 0 0.0084623774994102875 -0.0022049950471161564 0 0.0088769929419064818 -0.0023655443153608072 0 0.008579996181829988 -0.0025224095557386033 0 0.0088769929419064818 -0.0023655443153608072 0 0.0089378903805796394 -0.0026121969665796278 0 0.0088390083299266474 -0.0021082414257427937 0 0.0084623774994102875 -0.0022049950471161564 0 0.0088769929419064818 -0.0023655443153608072 0 0.0092362439071411208 -0.0022422584632376388 0 0.0088769929419064818 -0.0023655443153608072 0 0.0092570110005676925 -0.0024704966696769393 0 0.0088769929419064818 -0.0023655443153608072 0 0.0092570110005676925 -0.0024704966696769393 0 0.0089378903805796394 -0.0026121969665796278 0 0.0092570110005676925 -0.0024704966696769393 0 0.0089378903805796394 -0.0026121969665796278 0 0.009329278853506609 -0.0027033818769938815 0 0.0093005681148259304 -0.0035808043217090196 0 0.010888492219719296 -0.0013403913527954879 0 0.010064637841134726 -0.0023248765645864939 0 0.010508533355721389 -0.0042112625908595535 0 0.0086926262795332838 -0.0054716523749787178 0 0.010064637841134726 -0.0023248765645864939 0 0.0092570110005676925 -0.0024704966696769393 0 0.009329278853506609 -0.0027033818769938815 0 0.01190096121086719 -0.0053101356773021819 0 0.010508533355721389 -0.0042112625908595535 0 0.0086926262795332838 -0.0054716523749787178 0 0.016870241869251266 0.0048921666307970898 0 0.015695646148645357 0.0031880452785427566 0 0.013467673454634083 0.00468686948193019 0 0.014518405825086561 -9.4721260454538243e-05 0 0.010888492219719296 -0.0013403913527954879 0 0.015695646148645357 0.0031880452785427566 0 0.014163104325243951 0.0023531564832924307 0 0.013467673454634083 0.00468686948193019 0 0.014163104325243951 0.0023531564832924307 0 0.012069051040200118 0.001607015245676168 0 0.013467673454634083 0.00468686948193019 0 0.0088384976250834597 -0.003023102591655133 0 0.0087835714703936533 -0.0027401975333329787 0 0.0091396039685367452 -0.002563508847347878 0 0.010594556454020718 -0.00017912293319740223 0 0.010888492219719296 -0.0013403913527954879 0 0.0087835714703936533 -0.0027401975333329787 0 0.0089378903805796394 -0.0026121969665796278 0 0.0091396039685367452 -0.002563508847347878 0 0.0087279809162407167 -0.0022776549685146756 0 0.010888492219719296 -0.0013403913527954879 0 0.035000155787748184 -0.014333568986651481 0 0.035903280280145687 -0.013348696579352025 0 0.034999999138056861 -0.014333692647684429 0 0.036156234335882879 -0.013056386820337655 0 0.03499998660308231 -0.012346901497753164 0 0.034999703127249912 -0.01433505677698442 0 0.035665656089126842 -0.014971744426382005 0 0.035662906462398065 -0.013728831028078724 0 0.03635591299411739 -0.01465875834839276 0 0.035665656089126842 -0.014971744426382005 0 0.035662906462398065 -0.013728831028078724 0 0.03635591299411739 -0.01465875834839276 0 0.036752305742138495 -0.013681745914344935 0 0.035662906462398065 -0.013728831028078724 0 0.03635591299411739 -0.01465875834839276 0 0.035665656089126842 -0.014971744426382005 0 0.036292148258717918 -0.015682904184483315 0 0.034999703127249912 -0.01433505677698442 0 0.035665656089126842 -0.014971744426382005 0 0.03499976188275826 -0.015944511539294732 0 0.035665656089126842 -0.014971744426382005 0 0.03499976188275826 -0.015944511539294732 0 0.03587915779956459 -0.016760340350618269 0 0.034999747509185858 -0.017556208574561982 0 0.03499976188275826 -0.015944511539294732 0 0.03587915779956459 -0.016760340350618269 0 0.036418389115755609 -0.017660845315031565 0 0.03587915779956459 -0.016760340350618269 0 0.0366971569960007 -0.016679116966959021 0 0.03587915779956459 -0.016760340350618269 0 0.036292148258717918 -0.015682904184483315 0 0.0366971569960007 -0.016679116966959021 0 0.035665656089126842 -0.014971744426382005 0 0.03587915779956459 -0.016760340350618269 0 0.036292148258717918 -0.015682904184483315 0 0.036292148258717918 -0.015682904184483315 0 0.0366971569960007 -0.016679116966959021 0 0.036963995595784824 -0.015484572370507071 0 0.0366971569960007 -0.016679116966959021 0 0.037483510061172717 -0.016406314417925193 0 0.036963995595784824 -0.015484572370507071 0 0.037115450347159649 -0.017594082260658964 0 0.036418389115755609 -0.017660845315031565 0 0.0366971569960007 -0.016679116966959021 0 0.037115450347159649 -0.017594082260658964 0 0.037483510061172717 -0.016406314417925193 0 0.037673610858876418 -0.017331719727049048 0 0.037115450347159649 -0.017594082260658964 0 0.0366971569960007 -0.016679116966959021 0 0.037483510061172717 -0.016406314417925193 0 0.036963995595784824 -0.015484572370507071 0 0.037100597417417412 -0.014496127237048545 0 0.03803030279779529 -0.014901569160563444 0 0.037483510061172717 -0.016406314417925193 0 0.036963995595784824 -0.015484572370507071 0 0.03803030279779529 -0.014901569160563444 0 0.03635591299411739 -0.01465875834839276 0 0.036292148258717918 -0.015682904184483315 0 0.036963995595784824 -0.015484572370507071 0 0.03635591299411739 -0.01465875834839276 0 0.036963995595784824 -0.015484572370507071 0 0.037100597417417412 -0.014496127237048545 0 0.03635591299411739 -0.01465875834839276 0 0.037100597417417412 -0.014496127237048545 0 0.036752305742138495 -0.013681745914344935 0 0.037100597417417412 -0.014496127237048545 0 0.037737132906733993 -0.013659745463971263 0 0.036752305742138495 -0.013681745914344935 0 0.037100597417417412 -0.014496127237048545 0 0.03803030279779529 -0.014901569160563444 0 0.037737132906733993 -0.013659745463971263 0 0.03803030279779529 -0.014901569160563444 0 0.038761606928408777 -0.013575198242358531 0 0.037737132906733993 -0.013659745463971263 0 0.039318142457319884 -0.014761104107278359 0 0.03803030279779529 -0.014901569160563444 0 0.038761606928408777 -0.013575198242358531 0 0.036933080015260425 -0.011263274494827393 0 0.036415341490062113 -0.010274744065247062 0 0.03424932205215462 -0.0073240062474029758 0 0.034368930413254388 -0.0072762362916926043 0 0.03430373312834796 -0.0076340924038796913 0 0.03424932205215462 -0.0073240062474029758 0 0.03430373312834796 -0.0076340924038796913 0 0.034165482559345178 -0.0071807268704744513 0 0.03424932205215462 -0.0073240062474029758 0 0.034452830411986352 -0.0072676384773559298 0 0.034165482559345178 -0.0071807268704744513 0 0.031523429806970267 -0.0048415182277377318 0 0.028267509751494894 -0.0034069642919818521 0 0.034368930413254388 -0.0072762362916926043 0 0.03430373312834796 -0.0076340924038796913 0 0.034451526798343644 -0.0076611989156697867 0 0.033575509745874255 -0.005586525573552225 0 0.031523429806970267 -0.0048415182277377318 0 0.03430373312834796 -0.0076340924038796913 0 0.034428797589972533 -0.0080572960660002177 0 0.034451526798343644 -0.0076611989156697867 0 0.036933080015260425 -0.011263274494827393 0 0.036028299863273897 -0.012066456184655469 0 0.039318142457319884 -0.014761104107278359 0 0.03803030279779529 -0.014901569160563444 0 0.038742876613108962 -0.016154193971166717 0 0.037483510061172717 -0.016406314417925193 0 0.03803030279779529 -0.014901569160563444 0 0.038742876613108962 -0.016154193971166717 0 0.037380723376239489 -0.016432945971788789 0 0.03874729405809748 -0.016585384719624431 0 0.037483510061172717 -0.016406314417925193 0 0.037946814167282412 -0.01669274495473301 0 0.037877843819411124 -0.016881912446702518 0 0.037483510061172717 -0.016406314417925193 0 0.037877843819411124 -0.016881912446702518 0 0.037673610858876418 -0.017331719727049048 0 0.038017036478179451 -0.017347755406506325 0 0.037877843819411124 -0.016881912446702518 0 0.037673610858876418 -0.017331719727049048 0 0.038333736785663763 -0.016863021587562782 0 0.037603428556015207 -0.015845766009988799 0 0.038017036478179451 -0.017347755406506325 0 0.038012439111333882 -0.016811712417067078 0 0.03861125075832772 -0.01717692104490786 0 0.038017036478179451 -0.017347755406506325 0 0.037877843819411124 -0.016881912446702518 0 0.038012439111333882 -0.016811712417067078 0 0.037946814167282412 -0.01669274495473301 0 0.037877843819411124 -0.016881912446702518 0 0.038012439111333882 -0.016811712417067078 0 0.038012439111333882 -0.016811712417067078 0 0.037835701876325241 -0.016728440550680915 0 0.037872303621433415 -0.01668528166053581 0 0.037946814167282412 -0.01669274495473301 0 0.037733274326592119 -0.017010192249123958 0 0.037835701876325241 -0.016728440550680915 0 0.039318142457319884 -0.014761104107278359 0 0.038742876613108962 -0.016154193971166717 0 0.039865269647860052 -0.015958676569236083 0 0.037946814167282412 -0.01669274495473301 0 0.038012439111333882 -0.016811712417067078 0 0.037835701876325241 -0.016728440550680915 0 0.03874729405809748 -0.016585384719624431 0 0.036028299863273897 -0.012066456184655469 0 0.034526164639919428 -0.0080396829043056194 0 0.034428797589972533 -0.0080572960660002177 0 0.034451526798343644 -0.0076611989156697867 0 0.022548541261695483 -0.00031808022115666854 0 0.022514286711584883 -0.00032553248282260157 0 0.022533159912959819 -0.00051868141184563681 0 0.027832507365826525 -0.0073984240446591009 0 0.036028299863273897 -0.012066456184655469 0 0.027832507365826525 -0.0073984240446591009 0 0.020781511060544822 -0.0049027772603759479 0 0.020781511060544822 -0.0049027772603759479 0 0.0229598323831087 -0.0099548460880325637 0 0.021928071447953154 -0.0049563916173075394 0 0.022900228445071572 -0.0048389872576217576 0 0.023853969473851887 -0.01028569875253625 0 0.010342131231064625 -0.0040858087702400694 0 0.01023531739104178 -0.0042580347983515723 0 0.01036070637566908 -0.0042220115571205289 0 0.027832507365826525 -0.0073984240446591009 0 0.0229598323831087 -0.0099548460880325637 0 0.037274917814173213 -0.017169215368217298 0 0.037835701876325241 -0.016728440550680915 0 0.036658291098789667 -0.016340196294747582 0 0.037274917814173213 -0.017169215368217298 0 0.037733274326592119 -0.017010192249123958 0 0.037835701876325241 -0.016728440550680915 0 0.037835701876325241 -0.016728440550680915 0 0.036658291098789667 -0.016340196294747582 0 0.037617775400761048 -0.015098748745304076 0 0.036097329778525478 -0.014137432373433251 0 0.036658291098789667 -0.016340196294747582 0 0.037617775400761048 -0.015098748745304076 0 0.014746393842769517 -0.0080442692715735793 0 0.0229598323831087 -0.0099548460880325637 0 0.037811931106218402 -0.016606512623044883 0 0.037603428556015207 -0.015845766009988799 0 0.021081103315294562 -0.010451888899803344 0 0.021197316643353375 -0.010507335714266226 0 0.021349523401352859 -0.010848788447208543 0 0.026527221150591852 -0.013247758785458513 0 0.0229598323831087 -0.0099548460880325637 0 0.010163840762644085 -0.0047534816787407176 0 0.01023531739104178 -0.0042580347983515723 0 0.010194394081969966 -0.004566743185249981 0 0.010330338036567658 -0.0045562574117243241 0 0.010194394081969966 -0.004566743185249981 0 0.01036070637566908 -0.0042220115571205289 0 0.01023531739104178 -0.0042580347983515723 0 0.010194394081969966 -0.004566743185249981 0 0.01036070637566908 -0.0042220115571205289 0 0.017712212547557008 0.0008595300888635534 0 0.022167980771480297 0.001406353906951161 0 0.019722380780748627 3.7183466280042557e-06 0 0.010613717565534477 -0.0038075366156209703 0 0.010342131231064625 -0.0040858087702400694 0 0.01036070637566908 -0.0042220115571205289 0 0.013183180502825688 -0.00099140907153877464 0 0.020781511060544822 -0.0049027772603759479 0 0.022167980771480297 0.001406353906951161 0 0.019722380780748627 3.7183466280042557e-06 0 0.021062708064092186 -4.6424110158046538e-05 0 0.020304354874524443 -0.0011294100433818976 0 0.022041048463399035 -0.00065644264082973284 0 0.020547742132724485 -0.0029446248216558066 0 0.018364071204109607 -0.0013881942948908445 0 0.019722380780748627 3.7183466280042557e-06 0 0.020304354874524443 -0.0011294100433818976 0 0.020304354874524443 -0.0011294100433818976 0 0.021062708064092186 -4.6424110158046538e-05 0 0.022041048463399035 -0.00065644264082973284 0 0.019722380780748627 3.7183466280042557e-06 0 0.020304354874524443 -0.0011294100433818976 0 0.021062708064092186 -4.6424110158046538e-05 0 0.020781511060544822 -0.0049027772603759479 0 0.021799885475073645 0.0007330566227104334 0 0.022167980771480297 0.001406353906951161 0 0.021906811600352044 0.00019191134580660499 0 0.022533159912959819 -0.00051868141184563681 0 0.022167980771480297 0.001406353906951161 0 0.021062708064092186 -4.6424110158046538e-05 0 0.021906811600352044 0.00019191134580660499 0 0.022548541261695483 -0.00031808022115666854 0 0.022533159912959819 -0.00051868141184563681 0 0.022665458503105883 -0.00066376591977064796 0 0.027832507365826525 -0.0073984240446591009 0 0.028267509751494894 -0.0034069642919818521 0 0.021906811600352044 0.00019191134580660499 0 0.022533159912959819 -0.00051868141184563681 0 0.022041048463399035 -0.00065644264082973284 0 0.021062708064092186 -4.6424110158046538e-05 0 0.021906811600352044 0.00019191134580660499 0 0.022041048463399035 -0.00065644264082973284 0 0.02246757642221911 -0.00069324736941765068 0 0.022665458503105883 -0.00066376591977064796 0 0.022524055742143646 -0.00083466748143497856 0 0.022533159912959819 -0.00051868141184563681 0 0.02246757642221911 -0.00069324736941765068 0 0.022665458503105883 -0.00066376591977064796 0 0.02246757642221911 -0.00069324736941765068 0 0.022041048463399035 -0.00065644264082973284 0 0.022524055742143646 -0.00083466748143497856 0 0.022533159912959819 -0.00051868141184563681 0 0.02246757642221911 -0.00069324736941765068 0 0.022041048463399035 -0.00065644264082973284 0 0.02289663525004804 -0.00091689296793380655 0 0.022524055742143646 -0.00083466748143497856 0 0.022678989505930874 -0.00084067686383607022 0 0.02289663525004804 -0.00091689296793380655 0 0.022665458503105883 -0.00066376591977064796 0 0.022524055742143646 -0.00083466748143497856 0 0.022041048463399035 -0.00065644264082973284 0 0.022524055742143646 -0.00083466748143497856 0 0.022634545609772985 -0.00088394457067976799 0 0.022524055742143646 -0.00083466748143497856 0 0.022634545609772985 -0.00088394457067976799 0 0.022678989505930874 -0.00084067686383607022 0 0.022196179068136854 -0.00045182875949571863 0 0.021064172407601091 -0.0026298550324973433 0 0.0183981524513454 -0.0030336611960459781 0 0.018747562961653773 -0.004139035432960049 0 0.020547742132724485 -0.0029446248216558066 0 0.018364071204109607 -0.0013881942948908445 0 0.020304354874524443 -0.0011294100433818976 0 0.020547742132724485 -0.0029446248216558066 0 0.018364071204109607 -0.0013881942948908445 0 0.0183981524513454 -0.0030336611960459781 0 0.020547742132724485 -0.0029446248216558066 0 0.034160386895407312 -0.0022326038387036297 0 0.034253372093979675 -0.002213236517310709 0 0.033977117961626259 -0.0023562301137450988 0 0.026554485032695616 -0.00026910779234779863 0 0.028294511288859056 -0.0015624211916108626 0 0.021064172407601091 -0.0026298550324973433 0 0.026554485032695616 -0.00026910779234779863 0 0.022634545609772985 -0.00088394457067976799 0 0.022913826216036031 -0.00071394330376977364 0 0.022678989505930874 -0.00084067686383607022 0 0.018747562961653773 -0.004139035432960049 0 0.020547742132724485 -0.0029446248216558066 0 0.019308153588472814 -0.0051936713413818355 0 0.034160386895407312 -0.0022326038387036297 0 0.034070983941183422 -0.0020914400977547249 0 0.034275896467119177 -0.0020332805597628794 0 0.034160386895407312 -0.0022326038387036297 0 0.034435934295664133 -0.0022108104428453057 0 0.034275896467119177 -0.0020332805597628794 0 0.033723729419556307 -0.00090413912578264091 0 0.026554485032695616 -0.00026910779234779863 0 0.018675562723352551 -0.0052398165126725845 0 0.018831877823096144 -0.0047326028499957897 0 0.019308153588472814 -0.0051936713413818355 0 0.022288430187307119 0.0013798781705332702 0 0.026554485032695616 -0.00026910779234779863 0 0.018747562961653773 -0.004139035432960049 0 0.018831877823096144 -0.0047326028499957897 0 0.019308153588472814 -0.0051936713413818355 0 0.031523429806970267 -0.0048415182277377318 0 0.028294511288859056 -0.0015624211916108626 0 0.033604647211519498 -0.0024912812792415927 0 0.033977117961626259 -0.0023562301137450988 0 0.033822651659932319 -0.0021852647557089639 0 0.033977117961626259 -0.0023562301137450988 0 0.033822651659932319 -0.0021852647557089639 0 0.034070983941183422 -0.0020914400977547249 0 0.034160386895407312 -0.0022326038387036297 0 0.033977117961626259 -0.0023562301137450988 0 0.034070983941183422 -0.0020914400977547249 0 0.034070983941183422 -0.0020914400977547249 0 0.033972666805714993 -0.0018995043381468126 0 0.03423890356057166 -0.0018039050571754412 0 0.033822651659932319 -0.0021852647557089639 0 0.034070983941183422 -0.0020914400977547249 0 0.033972666805714993 -0.0018995043381468126 0 0.034070983941183422 -0.0020914400977547249 0 0.03423890356057166 -0.0018039050571754412 0 0.034275896467119177 -0.0020332805597628794 0 0.03423890356057166 -0.0018039050571754412 0 0.034275896467119177 -0.0020332805597628794 0 0.034478251047528503 -0.00190096744782427 0 0.034435934295664133 -0.0022108104428453057 0 0.034275896467119177 -0.0020332805597628794 0 0.034478251047528503 -0.00190096744782427 0 0.03423890356057166 -0.0018039050571754412 0 0.034478251047528503 -0.00190096744782427 0 0.034496704406556195 -0.001565558629101583 0 0.034825335082786214 -0.0017130552448898775 0 0.034478251047528503 -0.00190096744782427 0 0.034496704406556195 -0.001565558629101583 0 0.034496704406556195 -0.001565558629101583 0 0.034606778375222157 -0.0011920680276836168 0 0.034159841763405009 -0.0013904333242684488 0 0.03423890356057166 -0.0018039050571754412 0 0.034496704406556195 -0.001565558629101583 0 0.034159841763405009 -0.0013904333242684488 0 0.034825335082786214 -0.0017130552448898775 0 0.034496704406556195 -0.001565558629101583 0 0.034606778375222157 -0.0011920680276836168 0 0.034606778375222157 -0.0011920680276836168 0 0.034510797501630421 -0.00075115179568495871 0 0.034159841763405009 -0.0013904333242684488 0 0.034860012148632089 -0.00078026196533729001 0 0.034606778375222157 -0.0011920680276836168 0 0.034510797501630421 -0.00075115179568495871 0 0.034510797501630421 -0.00075115179568495871 0 0.034159841763405009 -0.0013904333242684488 0 0.034086191794593212 -0.00031199449739563359 0 0.034195268025845361 -0.0013194476361823115 0 0.034441085577292266 -0.00059430144930400924 0 0.034159841763405009 -0.0013904333242684488 0 0.034358349079318486 -0.0010814564965871752 0 0.0347834903283663 -0.00091615290387890254 0 0.033972666805714993 -0.0018995043381468126 0 0.034159841763405009 -0.0013904333242684488 0 0.033880325379021907 -0.0016655392004260464 0 0.033972666805714993 -0.0018995043381468126 0 0.03423890356057166 -0.0018039050571754412 0 0.034159841763405009 -0.0013904333242684488 0 0.033880325379021907 -0.0016655392004260464 0 0.033965700617872026 -0.0013787628439097066 0 0.033675782082477006 -0.0016590106680041785 0 0.034159841763405009 -0.0013904333242684488 0 0.033880325379021907 -0.0016655392004260464 0 0.033965700617872026 -0.0013787628439097066 0 0.034159841763405009 -0.0013904333242684488 0 0.033965700617872026 -0.0013787628439097066 0 0.034358349079318486 -0.0010814564965871752 0 0.033965700617872026 -0.0013787628439097066 0 0.033616688548565248 -0.0012890685369576539 0 0.033675782082477006 -0.0016590106680041785 0 0.033965700617872026 -0.0013787628439097066 0 0.033616688548565248 -0.0012890685369576539 0 0.034035669796954576 -0.00095359790489361049 0 0.034531917202531348 -0.0024583232590720048 0 0.033896497894045516 -0.0039249115051056696 0 0.033943976943864938 -0.0052568467797023503 0 0.034187407852540916 -0.0060225859639927359 0 0.033517380069527584 -0.0057489762852457032 0 0.034187407852540916 -0.0060225859639927359 0 0.033883827055221888 -0.0065387334414063114 0 0.033517380069527584 -0.0057489762852457032 0 0.034187407852540916 -0.0060225859639927359 0 0.033883827055221888 -0.0065387334414063114 0 0.034351059213706979 -0.0067159619982216723 0 0.033896497894045516 -0.0039249115051056696 0 0.034154564470602562 -0.0044897574571789488 0 0.033972666805714993 -0.0018995043381468126 0 0.033880325379021907 -0.0016655392004260464 0 0.033636937232315832 -0.0020388697583432432 0 0.033822651659932319 -0.0021852647557089639 0 0.033972666805714993 -0.0018995043381468126 0 0.033636937232315832 -0.0020388697583432432 0 0.033880325379021907 -0.0016655392004260464 0 0.033675782082477006 -0.0016590106680041785 0 0.033636937232315832 -0.0020388697583432432 0 0.034452830411986352 -0.0072676384773559298 0 0.034351059213706979 -0.0067159619982216723 0 0.034165482559345178 -0.0071807268704744513 0 0.033604647211519498 -0.0024912812792415927 0 0.033822651659932319 -0.0021852647557089639 0 0.033636937232315832 -0.0020388697583432432 0 0.031523429806970267 -0.0048415182277377318 0 0.034154564470602562 -0.0044897574571789488 0 0.038229906473633737 -0.012412089574460895 0 0.038761606928408777 -0.013575198242358531 0 0.037737132906733993 -0.013659745463971263 0 0.033883827055221888 -0.0065387334414063114 0 0.034351059213706979 -0.0067159619982216723 0 0.034165482559345178 -0.0071807268704744513 0 0.036142861045499977 -0.0099391277991614114 0 0.036415341490062113 -0.010274744065247062 0 0.038229906473633737 -0.012412089574460895 0 0.037737132906733993 -0.013659745463971263 0 0.037345028247251166 -0.01278667690221142 0 0.037737132906733993 -0.013659745463971263 0 0.036752305742138495 -0.013681745914344935 0 0.037345028247251166 -0.01278667690221142 0 0.036752305742138495 -0.013681745914344935 0 0.036433998262777247 -0.012712631329137572 0 0.037345028247251166 -0.01278667690221142 0 0.036433998262777247 -0.012712631329137572 0 0.037433816237593065 -0.011778790159701341 0 0.037320652157540386 -0.011579729690483322 0 0.036433998262777247 -0.012712631329137572 0 0.037345028247251166 -0.01278667690221142 0 0.037433816237593065 -0.011778790159701341 0 0.036971586290620737 -0.012484099943242455 0 0.036553670059697653 -0.0090718026297062285 0 0.038229906473633737 -0.012412089574460895 0 0.037345028247251166 -0.01278667690221142 0 0.037433816237593065 -0.011778790159701341 0 0.038229906473633737 -0.012412089574460895 0 0.037433816237593065 -0.011778790159701341 0 0.037668304878211586 -0.011161902859301704 0 0.036142861045499977 -0.0099391277991614114 0 0.036034600510401978 -0.0057957999157518718 0 0.035537575142385862 -0.0028177419332491909 0 0.035556619236362476 -0.0027995927086277655 0 0.03553301943019159 -0.002741711993370536 0 0.037433816237593065 -0.011778790159701341 0 0.037309944389481202 -0.011563059789473026 0 0.037668304878211586 -0.011161902859301704 0 0.037063120359912688 -0.010122622469566992 0 0.036553670059697653 -0.0090718026297062285 0 0.036553670059697653 -0.0090718026297062285 0 0.036034600510401978 -0.0057957999157518718 0 0.034531917202531348 -0.0024583232590720048 0 0.036034600510401978 -0.0057957999157518718 0 0.035497278159393922 -0.0027669925683466352 0 0.035485252685778394 -0.0027509712667762617 0 0.035471835016522651 -0.0027554839812554076 0 0.036034600510401978 -0.0057957999157518718 0 0.035085755133345005 -0.0020313042397591742 0 0.035485252685778394 -0.0027509712667762617 0 0.03553301943019159 -0.002741711993370536 0 0.035471835016522651 -0.0027554839812554076 0 0.03553301943019159 -0.002741711993370536 0 0.035471835016522651 -0.0027554839812554076 0 0.035493753971968425 -0.0027802478926837924 0 0.035497278159393922 -0.0027669925683466352 0 0.035471835016522651 -0.0027554839812554076 0 0.035419940986129723 -0.0027663313092515848 0 0.036553670059697653 -0.0090718026297062285 0 0.036571362432464172 -0.0054585305761644673 0 0.035537575142385862 -0.0028177419332491909 0 0.03553301943019159 -0.002741711993370536 0 0.035629784750726687 -0.0027145768610218981 0 0.03553301943019159 -0.002741711993370536 0 0.035629784750726687 -0.0027145768610218981 0 0.035613906065781201 -0.0028312552787519126 0 0.03730620053359196 -0.011773362880437581 0 0.038451520044608022 -0.010483827707176875 0 0.036894806521009536 -0.010353842855160276 0 0.038451520044608022 -0.010483827707176875 0 0.037625157994474266 -0.0090232761306709656 0 0.036894806521009536 -0.010353842855160276 0 0.037625157994474266 -0.0090232761306709656 0 0.036894806521009536 -0.010353842855160276 0 0.036184813975051591 -0.0089195469989119761 0 0.036184813975051591 -0.0089195469989119761 0 0.034999985067132672 -0.010360137723088745 0 0.03499999871007977 -0.0083732875119814105 0 0.036894806521009536 -0.010353842855160276 0 0.034999985067132672 -0.010360137723088745 0 0.035983481158230281 -0.01134527263911413 0 0.036894806521009536 -0.010353842855160276 0 0.036184813975051591 -0.0089195469989119761 0 0.034999985067132672 -0.010360137723088745 0 0.034999985067132672 -0.010360137723088745 0 0.035983481158230281 -0.01134527263911413 0 0.03499998660308231 -0.012346901497753164 0 0.03730620053359196 -0.011773362880437581 0 0.036894806521009536 -0.010353842855160276 0 0.035983481158230281 -0.01134527263911413 0 0.03730620053359196 -0.011773362880437581 0 0.035983481158230281 -0.01134527263911413 0 0.036156234335882879 -0.013056386820337655 0 0.036752305742138495 -0.013681745914344935 0 0.036433998262777247 -0.012712631329137572 0 0.035662906462398065 -0.013728831028078724 0 0.036971586290620737 -0.012484099943242455 0 0.035903280280145687 -0.013348696579352025 0 0.035983481158230281 -0.01134527263911413 0 0.036156234335882879 -0.013056386820337655 0 0.03499998660308231 -0.012346901497753164 0 0.035278835735361273 -0.004536085694647923 0 0.035934823562705123 -0.0049699660595965986 0 0.035181508214295519 -0.0045914330372649097 0 0.035805488364054019 -0.0041230524324665542 0 0.036019827921027092 -0.0039253558455571158 0 0.035181508214295519 -0.0045914330372649097 0 0.035000126861412094 -0.0043985918374261322 0 0.034999979583225066 -0.0063868002526504021 0 0.035181508214295519 -0.0045914330372649097 0 0.035591039062667126 -0.0041885833100109493 0 0.035805488364054019 -0.0041230524324665542 0 0.035181508214295519 -0.0045914330372649097 0 0.035591039062667126 -0.0041885833100109493 0 0.035597554638525382 -0.003734542722772548 0 0.035591039062667126 -0.0041885833100109493 0 0.035871105683781004 -0.0040337452280356876 0 0.035597554638525382 -0.003734542722772548 0 0.035871105683781004 -0.0040337452280356876 0 0.036276889186549338 -0.003835926486573187 0 0.035597554638525382 -0.003734542722772548 0 0.035871105683781004 -0.0040337452280356876 0 0.035805488364054019 -0.0041230524324665542 0 0.035906942839786161 -0.0038906293959571308 0 0.035591039062667126 -0.0041885833100109493 0 0.035871105683781004 -0.0040337452280356876 0 0.035805488364054019 -0.0041230524324665542 0 0.036019827921027092 -0.0039253558455571158 0 0.035941707241996884 -0.0035860150060629727 0 0.035906942839786161 -0.0038906293959571308 0 0.035805488364054019 -0.0041230524324665542 0 0.036019827921027092 -0.0039253558455571158 0 0.035906942839786161 -0.0038906293959571308 0 0.035181508214295519 -0.0045914330372649097 0 0.03600163540610804 -0.006115606993280653 0 0.034999979583225066 -0.0063868002526504021 0 0.034999979583225066 -0.0063868002526504021 0 0.035784878804132045 -0.0074060124349024032 0 0.03499999871007977 -0.0083732875119814105 0 0.03600163540610804 -0.006115606993280653 0 0.034999979583225066 -0.0063868002526504021 0 0.035784878804132045 -0.0074060124349024032 0 0.036184813975051591 -0.0089195469989119761 0 0.035784878804132045 -0.0074060124349024032 0 0.03499999871007977 -0.0083732875119814105 0 0.036184813975051591 -0.0089195469989119761 0 0.035784878804132045 -0.0074060124349024032 0 0.036808022531248791 -0.007575428778858387 0 0.037625157994474266 -0.0090232761306709656 0 0.036184813975051591 -0.0089195469989119761 0 0.036808022531248791 -0.007575428778858387 0 0.03600163540610804 -0.006115606993280653 0 0.035784878804132045 -0.0074060124349024032 0 0.036808022531248791 -0.007575428778858387 0 0.035934823562705123 -0.0049699660595965986 0 0.036426426644869982 -0.0054572795128231873 0 0.036019827921027092 -0.0039253558455571158 0 0.03602275495088756 -0.0031544428953945588 0 0.035941707241996884 -0.0035860150060629727 0 0.03602275495088756 -0.0031544428953945588 0 0.035746249087959169 -0.0033396327968150314 0 0.035599161906027112 -0.0029317645600891317 0 0.03602275495088756 -0.0031544428953945588 0 0.035941707241996884 -0.0035860150060629727 0 0.035746249087959169 -0.0033396327968150314 0 0.035746249087959169 -0.0033396327968150314 0 0.035544182455600433 -0.0030504982289888925 0 0.035623084105119399 -0.0038085801597465079 0 0.035746249087959169 -0.0033396327968150314 0 0.035599161906027112 -0.0029317645600891317 0 0.035544182455600433 -0.0030504982289888925 0 0.03602275495088756 -0.0031544428953945588 0 0.035599161906027112 -0.0029317645600891317 0 0.035613906065781201 -0.0028312552787519126 0 0.036571362432464172 -0.0054585305761644673 0 0.036426426644869982 -0.0054572795128231873 0 0.035629784750726687 -0.0027145768610218981 0 0.03602275495088756 -0.0031544428953945588 0 0.035613906065781201 -0.0028312552787519126 0 0.035599161906027112 -0.0029317645600891317 0 0.035613906065781201 -0.0028312552787519126 0 0.035493753971968425 -0.0027802478926837924 0 0.034531917202531348 -0.0024583232590720048 0 0.035426845225779401 -0.0024733084823772102 0 0.035497278159393922 -0.0027669925683466352 0 0.035419940986129723 -0.0027663313092515848 0 0.035283260109859035 -0.0027372600589195459 0 0.035471835016522651 -0.0027554839812554076 0 0.035419940986129723 -0.0027663313092515848 0 0.035493753971968425 -0.0027802478926837924 0 0.03553301943019159 -0.002741711993370536 0 0.035613906065781201 -0.0028312552787519126 0 0.035493753971968425 -0.0027802478926837924 0 0.035419940986129723 -0.0027663313092515848 0 0.035493753971968425 -0.0027802478926837924 0 0.035444564340268776 -0.0028163856393936737 0 0.035599161906027112 -0.0029317645600891317 0 0.035493753971968425 -0.0027802478926837924 0 0.035444564340268776 -0.0028163856393936737 0 0.035599161906027112 -0.0029317645600891317 0 0.035444564340268776 -0.0028163856393936737 0 0.035544182455600433 -0.0030504982289888925 0 0.035419940986129723 -0.0027663313092515848 0 0.035444564340268776 -0.0028163856393936737 0 0.035283260109859035 -0.0027372600589195459 0 0.035081847997324438 -0.0024429636338301744 0 0.035283260109859035 -0.0027372600589195459 0 0.034875557520229479 -0.0017416379365263984 0 0.035081847997324438 -0.0024429636338301744 0 0.035283260109859035 -0.0027372600589195459 0 0.035623084105119399 -0.0038085801597465079 0 0.035540707627064107 -0.0020454089284799915 0 0.035671485075174245 -0.0013096608341960133 0 0.035540707627064107 -0.0020454089284799915 0 0.036110931847894906 -0.003140996409497165 0 0.035283260109859035 -0.0027372600589195459 0 0.035544182455600433 -0.0030504982289888925 0 0.035623084105119399 -0.0038085801597465079 0 0.035444564340268776 -0.0028163856393936737 0 0.035283260109859035 -0.0027372600589195459 0 0.035544182455600433 -0.0030504982289888925 0 0.036515108335192711 -0.0025083732070560623 0 0.036560925122007454 -0.0022932532763045273 0 0.03646333424324915 -0.0023398820095603566 0 0.035746249087959169 -0.0033396327968150314 0 0.035623084105119399 -0.0038085801597465079 0 0.035906942839786161 -0.0038906293959571308 0 0.035941707241996884 -0.0035860150060629727 0 0.035746249087959169 -0.0033396327968150314 0 0.035906942839786161 -0.0038906293959571308 0 0.035623084105119399 -0.0038085801597465079 0 0.035906942839786161 -0.0038906293959571308 0 0.036276889186549338 -0.003835926486573187 0 0.036110931847894906 -0.003140996409497165 0 0.0362780574370885 -0.002897418307689574 0 0.035871105683781004 -0.0040337452280356876 0 0.035906942839786161 -0.0038906293959571308 0 0.036276889186549338 -0.003835926486573187 0 0.036560925122007454 -0.0022932532763045273 0 0.036355865261821836 -0.002123201847619468 0 0.036620005015032771 -0.0019902182047911755 0 0.035671485075174245 -0.0013096608341960133 0 0.036048692403490915 -0.0011423871462991164 0 0.036560925122007454 -0.0022932532763045273 0 0.03646333424324915 -0.0023398820095603566 0 0.036355865261821836 -0.002123201847619468 0 0.034756296106262886 -0.00035224218992776124 0 0.035110488446222075 -0.00020342334790023813 0 0.03549186111831644 -0.00018215944058239469 0 0.034756296106262886 -0.00035224218992776124 0 0.035110488446222075 -0.00020342334790023813 0 0.034956644030460476 -0.00036348709410071085 0 0.035034267051502151 -0.00015141526509730073 0 0.034956644030460476 -0.00036348709410071085 0 0.034953951713745594 -0.00033138283680325355 0 0.035110488446222075 -0.00020342334790023813 0 0.035034267051502151 -0.00015141526509730073 0 0.034956644030460476 -0.00036348709410071085 0 0.034905131139902026 -0.00060265171134796182 0 0.034956644030460476 -0.00036348709410071085 0 0.034839928906233393 -0.0007547717630525246 0 0.034905131139902026 -0.00060265171134796182 0 0.034956644030460476 -0.00036348709410071085 0 0.034953951713745594 -0.00033138283680325355 0 0.034756296106262886 -0.00035224218992776124 0 0.034956644030460476 -0.00036348709410071085 0 0.034771115409077839 -0.0006771173286747817 0 0.034956644030460476 -0.00036348709410071085 0 0.034771115409077839 -0.0006771173286747817 0 0.034839928906233393 -0.0007547717630525246 0 0.034476980361634109 -0.001256262032208655 0 0.034771115409077839 -0.0006771173286747817 0 0.034718717196152063 -0.00099503129083895379 0 0.034476980361634109 -0.001256262032208655 0 0.034756296106262886 -0.00035224218992776124 0 0.034771115409077839 -0.0006771173286747817 0 0.034771115409077839 -0.0006771173286747817 0 0.034839928906233393 -0.0007547717630525246 0 0.034718717196152063 -0.00099503129083895379 0 0.034839928906233393 -0.0007547717630525246 0 0.034800061979845469 -0.0012751434815656522 0 0.034849328694973015 -0.00092767356219954111 0 0.034839928906233393 -0.0007547717630525246 0 0.034718717196152063 -0.00099503129083895379 0 0.034800061979845469 -0.0012751434815656522 0 0.034718717196152063 -0.00099503129083895379 0 0.034709890357034048 -0.0012390422769181196 0 0.034800061979845469 -0.0012751434815656522 0 0.034476980361634109 -0.001256262032208655 0 0.034718717196152063 -0.00099503129083895379 0 0.034709890357034048 -0.0012390422769181196 0 0.034531917202531348 -0.0024583232590720048 0 0.034466214080741658 -0.0009579601955183759 0 0.034765119067237851 -0.00091694578961962333 0 0.035283260109859035 -0.0027372600589195459 0 0.034875557520229479 -0.0017416379365263984 0 0.035540707627064107 -0.0020454089284799915 0 0.035045963603963108 -0.0016486273038946906 0 0.034744428179838922 -0.0013962492334881401 0 0.034800061979845469 -0.0012751434815656522 0 0.034875557520229479 -0.0017416379365263984 0 0.034765119067237851 -0.00091694578961962333 0 0.034875557520229479 -0.0017416379365263984 0 0.034813713436377187 -0.0013779779683962862 0 0.034800061979845469 -0.0012751434815656522 0 0.034875557520229479 -0.0017416379365263984 0 0.034813713436377187 -0.0013779779683962862 0 0.034476980361634109 -0.001256262032208655 0 0.034744428179838922 -0.0013962492334881401 0 0.034875557520229479 -0.0017416379365263984 0 0.034476980361634109 -0.001256262032208655 0 0.034709890357034048 -0.0012390422769181196 0 0.034744428179838922 -0.0013962492334881401 0 0.034709890357034048 -0.0012390422769181196 0 0.034744428179838922 -0.0013962492334881401 0 0.034800061979845469 -0.0012751434815656522 0 0.034035669796954576 -0.00095359790489361049 0 0.034836127770533742 -0.00067835421143790152 0 0.034358349079318486 -0.0010814564965871752 0 0.033965700617872026 -0.0013787628439097066 0 0.034035669796954576 -0.00095359790489361049 0 0.034358349079318486 -0.0010814564965871752 0 0.034800061979845469 -0.0012751434815656522 0 0.034813713436377187 -0.0013779779683962862 0 0.034849328694973015 -0.00092767356219954111 0 0.034813713436377187 -0.0013779779683962862 0 0.034849328694973015 -0.00092767356219954111 0 0.034836127770533742 -0.00067835421143790152 0 0.034466214080741658 -0.0009579601955183759 0 0.034725535929234413 -0.00083041467640774527 0 0.034905131139902026 -0.00060265171134796182 0 0.034839928906233393 -0.0007547717630525246 0 0.034849328694973015 -0.00092767356219954111 0 0.034905131139902026 -0.00060265171134796182 0 0.034849328694973015 -0.00092767356219954111 0 0.034836127770533742 -0.00067835421143790152 0 0.034905131139902026 -0.00060265171134796182 0 0.034836127770533742 -0.00067835421143790152 0 0.034955156707277821 -0.0005303742317395463 0 0.0347834903283663 -0.00091615290387890254 0 0.035139973363002688 -0.00038295990246727131 0 0.034955156707277821 -0.0005303742317395463 0 0.034836127770533742 -0.00067835421143790152 0 0.0347834903283663 -0.00091615290387890254 0 0.034955156707277821 -0.0005303742317395463 0 0.034441085577292266 -0.00059430144930400924 0 0.034748514755515603 0.00017414184708006879 0 0.034836127770533742 -0.00067835421143790152 0 0.034358349079318486 -0.0010814564965871752 0 0.0347834903283663 -0.00091615290387890254 0 0.034510797501630421 -0.00075115179568495871 0 0.03450775205034512 -0.0002469850957566574 0 0.03482696503874555 -0.0003915750428036639 0 0.034510797501630421 -0.00075115179568495871 0 0.034086191794593212 -0.00031199449739563359 0 0.03450775205034512 -0.0002469850957566574 0 0.034086191794593212 -0.00031199449739563359 0 0.034510453630258849 0.00018937920752680706 0 0.034406629189885574 0.0007983996034960514 0 0.03450775205034512 -0.0002469850957566574 0 0.034510453630258849 0.00018937920752680706 0 0.03485484145922068 0.00018645677151957394 0 0.034086191794593212 -0.00031199449739563359 0 0.03450775205034512 -0.0002469850957566574 0 0.034510453630258849 0.00018937920752680706 0 0.034510453630258849 0.00018937920752680706 0 0.034642513937417428 0.00055997610819449829 0 0.03485484145922068 0.00018645677151957394 0 0.034642513937417428 0.00055997610819449829 0 0.034499764937416508 0.00078866502521952203 0 0.03491157487365347 0.00059705822965023592 0 0.034642513937417428 0.00055997610819449829 0 0.034406629189885574 0.0007983996034960514 0 0.034499764937416508 0.00078866502521952203 0 0.034510453630258849 0.00018937920752680706 0 0.034642513937417428 0.00055997610819449829 0 0.034406629189885574 0.0007983996034960514 0 0.035139973363002688 -0.00038295990246727131 0 0.034955156707277821 -0.0005303742317395463 0 0.034953951713745594 -0.00033138283680325355 0 0.035139973363002688 -0.00038295990246727131 0 0.034953951713745594 -0.00033138283680325355 0 0.034956810684425743 -6.977410132983985e-05 0 0.034905131139902026 -0.00060265171134796182 0 0.034955156707277821 -0.0005303742317395463 0 0.034953951713745594 -0.00033138283680325355 0 0.035139973363002688 -0.00038295990246727131 0 0.034956810684425743 -6.977410132983985e-05 0 0.034772176858379453 0.00028732294651769079 0 0.035034267051502151 -0.00015141526509730073 0 0.034953951713745594 -0.00033138283680325355 0 0.034956810684425743 -6.977410132983985e-05 0 0.035034267051502151 -0.00015141526509730073 0 0.034956810684425743 -6.977410132983985e-05 0 0.035029102333125485 -7.1678024197941245e-05 0 0.034748514755515603 0.00017414184708006879 0 0.034773834606171151 0.00024394876263367641 0 0.034499764937416508 0.00078866502521952203 0 0.034772176858379453 0.00028732294651769079 0 0.034178433148810958 0.00073925544095516319 0 0.034406629189885574 0.0007983996034960514 0 0.034499764937416508 0.00078866502521952203 0 0.034772176858379453 0.00028732294651769079 0 0.034772176858379453 0.00028732294651769079 0 0.034397303314391982 -0.00029170208217773718 0 0.034265786473122235 0.00038021635640341861 0 0.034772176858379453 0.00028732294651769079 0 0.034265786473122235 0.00038021635640341861 0 0.034178433148810958 0.00073925544095516319 0 0.034956810684425743 -6.977410132983985e-05 0 0.034772176858379453 0.00028732294651769079 0 0.035029102333125485 -7.1678024197941245e-05 0 0.034772176858379453 0.00028732294651769079 0 0.035029102333125485 -7.1678024197941245e-05 0 0.034929057846144536 -0.00034426470780027672 0 0.035029102333125485 -7.1678024197941245e-05 0 0.034929057846144536 -0.00034426470780027672 0 0.035244912372706619 -0.00045610002416565941 0 0.034772176858379453 0.00028732294651769079 0 0.034929057846144536 -0.00034426470780027672 0 0.034397303314391982 -0.00029170208217773718 0 0.034929057846144536 -0.00034426470780027672 0 0.034397303314391982 -0.00029170208217773718 0 0.034840053375664884 -0.00087549208237380576 0 0.034685339604722622 0.0001179102713928465 0 0.034928279844523374 -0.00021828208936258068 0 0.034982033204415917 0.00052334922044814465 0 0.035285512577203672 0.00068357042483665933 0 0.035145268602513394 0.00061248082464922596 0 0.034982033204415917 0.00052334922044814465 0 0.035285512577203672 0.00068357042483665933 0 0.035146291479050407 0.00031580872652148977 0 0.035285512577203672 0.00068357042483665933 0 0.035654442642993056 0.0012168630754774059 0 0.035146291479050407 0.00031580872652148977 0 0.035675694663126492 0.0018469412625468187 0 0.035654442642993056 0.0012168630754774059 0 0.035351758521707098 0.0013026221286591812 0 0.035285512577203672 0.00068357042483665933 0 0.035654442642993056 0.0012168630754774059 0 0.035351758521707098 0.0013026221286591812 0 0.035351758521707098 0.0013026221286591812 0 0.035145268602513394 0.00061248082464922596 0 0.034402287960012309 0.0012612982807389344 0 0.035585701379200106 0.001698955656275861 0 0.035351758521707098 0.0013026221286591812 0 0.035744093319716182 0.0018093858763281031 0 0.035165754711115667 0.001469109881146556 0 0.035609194001177354 0.00077087865014864305 0 0.035285512577203672 0.00068357042483665933 0 0.035351758521707098 0.0013026221286591812 0 0.035145268602513394 0.00061248082464922596 0 0.034928279844523374 -0.00021828208936258068 0 0.035609194001177354 0.00077087865014864305 0 0.034929057846144536 -0.00034426470780027672 0 0.034840053375664884 -0.00087549208237380576 0 0.035205018758170538 -0.00080842245802990463 0 0.035205018758170538 -0.00080842245802990463 0 0.035391227325570637 -0.0014737583990473582 0 0.035675400948207474 -0.0010216609721617107 0 0.034840053375664884 -0.00087549208237380576 0 0.035205018758170538 -0.00080842245802990463 0 0.035391227325570637 -0.0014737583990473582 0 0.035205018758170538 -0.00080842245802990463 0 0.035675400948207474 -0.0010216609721617107 0 0.035244912372706619 -0.00045610002416565941 0 0.03627637821667945 0.001574917086776066 0 0.036417177862366888 0.0014462486569219416 0 0.036471740028984116 0.0010670685367440203 0 0.035609194001177354 0.00077087865014864305 0 0.036483479912829846 -0.00025914895954951646 0 0.035391227325570637 -0.0014737583990473582 0 0.035675400948207474 -0.0010216609721617107 0 0.036532195084481627 -0.0013268860703766424 0 0.036265694653757556 0.0016751619194866278 0 0.035609194001177354 0.00077087865014864305 0 0.036322005651746016 -0.0011320502448842838 0 0.035675400948207474 -0.0010216609721617107 0 0.036532195084481627 -0.0013268860703766424 0 0.036322005651746016 -0.0011320502448842838 0 0.035675400948207474 -0.0010216609721617107 0 0.035576784568178796 -0.00054730365103892304 0 0.036281850308706183 -0.0011775794202362603 0 0.036048692403490915 -0.0011423871462991164 0 0.036322005651746016 -0.0011320502448842838 0 0.035576784568178796 -0.00054730365103892304 0 0.03549186111831644 -0.00018215944058239469 0 0.035675400948207474 -0.0010216609721617107 0 0.035576784568178796 -0.00054730365103892304 0 0.035244912372706619 -0.00045610002416565941 0 0.034929057846144536 -0.00034426470780027672 0 0.035205018758170538 -0.00080842245802990463 0 0.035244912372706619 -0.00045610002416565941 0 0.035576784568178796 -0.00054730365103892304 0 0.035244912372706619 -0.00045610002416565941 0 0.035261804611643674 -0.00020860863919870898 0 0.035034267051502151 -0.00015141526509730073 0 0.035029102333125485 -7.1678024197941245e-05 0 0.035261804611643674 -0.00020860863919870898 0 0.035029102333125485 -7.1678024197941245e-05 0 0.035244912372706619 -0.00045610002416565941 0 0.035261804611643674 -0.00020860863919870898 0 0.035110488446222075 -0.00020342334790023813 0 0.035034267051502151 -0.00015141526509730073 0 0.035261804611643674 -0.00020860863919870898 0 0.035576784568178796 -0.00054730365103892304 0 0.035261804611643674 -0.00020860863919870898 0 0.03549186111831644 -0.00018215944058239469 0 0.035110488446222075 -0.00020342334790023813 0 0.035261804611643674 -0.00020860863919870898 0 0.03549186111831644 -0.00018215944058239469 0 0.036355865261821836 -0.002123201847619468 0 0.036620005015032771 -0.0019902182047911755 0 0.036422711857335671 -0.0018219616811279108 0 0.036355865261821836 -0.002123201847619468 0 0.036422711857335671 -0.0018219616811279108 0 0.036261026674307847 -0.0022245116380202818 0 0.0362780574370885 -0.002897418307689574 0 0.036228977816552217 -0.0022653745515318182 0 0.036422711857335671 -0.0018219616811279108 0 0.036485083481210712 -0.0013167795154972912 0 0.036261026674307847 -0.0022245116380202818 0 0.036322005651746016 -0.0011320502448842838 0 0.036620005015032771 -0.0019902182047911755 0 0.036422711857335671 -0.0018219616811279108 0 0.036322005651746016 -0.0011320502448842838 0 0.036422711857335671 -0.0018219616811279108 0 0.036485083481210712 -0.0013167795154972912 0 0.036322005651746016 -0.0011320502448842838 0 0.036532195084481627 -0.0013268860703766424 0 0.036485083481210712 -0.0013167795154972912 0 0.036483479912829846 -0.00025914895954951646 0 0.036054817838319431 -0.00033025056201758907 0 0.036515368963063635 0.001254518551132375 0 0.036471740028984116 0.0010670685367440203 0 0.036180953830177692 -0.00040062394700134737 0 0.036532195084481627 -0.0013268860703766424 0 0.036485083481210712 -0.0013167795154972912 0 0.036180953830177692 -0.00040062394700134737 0 0.036485083481210712 -0.0013167795154972912 0 0.036180953830177692 -0.00040062394700134737 0 0.036261026674307847 -0.0022245116380202818 0 0.036180953830177692 -0.00040062394700134737 0 0.034999560431933023 -0.0024126942145815643 0 0.036261026674307847 -0.0022245116380202818 0 0.035827336219378086 0.00093128350534645596 0 0.036180953830177692 -0.00040062394700134737 0 0.034999642983077665 -0.00042588792889672322 0 0.036180953830177692 -0.00040062394700134737 0 0.034999642983077665 -0.00042588792889672322 0 0.034999560431933023 -0.0024126942145815643 0 0.034999560431933023 -0.0024126942145815643 0 0.036261026674307847 -0.0022245116380202818 0 0.035597554638525382 -0.003734542722772548 0 0.036276889186549338 -0.003835926486573187 0 0.036261026674307847 -0.0022245116380202818 0 0.035597554638525382 -0.003734542722772548 0 0.035000126861412094 -0.0043985918374261322 0 0.034999560431933023 -0.0024126942145815643 0 0.035597554638525382 -0.003734542722772548 0 0.035181508214295519 -0.0045914330372649097 0 0.035000126861412094 -0.0043985918374261322 0 0.035597554638525382 -0.003734542722772548 0 0.023916030870312462 -0.001686461993553975 0 0.022213938581484877 -0.00032866181655344802 0 0.021341381456575395 -0.00089281401355379504 0 0.029539981020411901 0.0010219601505994387 0 0.029505152233887104 0.0012578717862835637 0 0.0291045823625335 0.0014390307200422875 0 0.026525386707399495 -0.00032283798100185746 0 0.026159865415881316 -0.00022575073964841309 0 0.029539981020411901 0.0010219601505994387 0 0.029326987627910951 0.0011573633878767307 0 0.029505152233887104 0.0012578717862835637 0 0.023916030870312462 -0.001686461993553975 0 0.022213938581484877 -0.00032866181655344802 0 0.025324509033305975 0.00026224494538637749 0 0.026525386707399495 -0.00032283798100185746 0 0.028138659419345752 0.00038521733128137276 0 0.029539981020411901 0.0010219601505994387 0 0.028200936243750554 0.00046669629772371 0 0.029326987627910951 0.0011573633878767307 0 0.023916030870312462 -0.001686461993553975 0 0.028200936243750554 0.00046669629772371 0 0.025324509033305975 0.00026224494538637749 0 0.028200936243750554 0.00046669629772371 0 0.029326987627910951 0.0011573633878767307 0 0.028780590206495794 0.000936208561222366 0 0.029326987627910951 0.0011573633878767307 0 0.029714663706465215 0.0014537871788012687 0 0.029505152233887104 0.0012578717862835637 0 0.029326987627910951 0.0011573633878767307 0 0.029714663706465215 0.0014537871788012687 0 0.028780590206495794 0.000936208561222366 0 0.029714663706465215 0.0014537871788012687 0 0.028780590206495794 0.000936208561222366 0 0.028734459315134145 0.00097488731910308371 0 0.029505152233887104 0.0012578717862835637 0 0.029407041952621654 0.0011353553063169416 0 0.0291045823625335 0.0014390307200422875 0 0.029714663706465215 0.0014537871788012687 0 0.029505152233887104 0.0012578717862835637 0 0.029407041952621654 0.0011353553063169416 0 0.029407041952621654 0.0011353553063169416 0 0.028803055559145124 0.00099123600345507644 0 0.0291045823625335 0.0014390307200422875 0 0.028803055559145124 0.00099123600345507644 0 0.0291045823625335 0.0014390307200422875 0 0.028087121327808873 0.0011241647341158078 0 0.026159865415881316 -0.00022575073964841309 0 0.018050330104522699 -0.0020347656452289931 0 0.0081362843903588101 -0.0056455539934698795 0 0.0080450483668057723 -0.0047524308348095507 0 0.0074451498703479958 -0.005151333152725048 0 0.018050330104522699 -0.0020347656452289931 0 0.014772219383907102 -0.003491254396092029 0 0.0081362843903588101 -0.0056455539934698795 0 0.0080450483668057723 -0.0047524308348095507 0 0.010060149058887973 -0.0048435041118305884 0 0.0080450483668057723 -0.0047524308348095507 0 0.010060149058887973 -0.0048435041118305884 0 0.0086944175489658201 -0.0041423839653518101 0 0.023916030870312462 -0.001686461993553975 0 0.021302119084075397 -0.0024332167013540592 0 0.021341381456575395 -0.00089281401355379504 0 0.021302119084075397 -0.0024332167013540592 0 0.018608587815436541 -0.0035396673044807078 0 0.021341381456575395 -0.00089281401355379504 0 0.010060149058887973 -0.0048435041118305884 0 0.010750484137710355 -0.0030712084774879396 0 0.0086944175489658201 -0.0041423839653518101 0 0.0087398832382131909 -0.00404027652433711 0 0.0094680306859255044 -0.0025471318190605778 0 0.010750484137710355 -0.0030712084774879396 0 0.0086944175489658201 -0.0041423839653518101 0 0.010539519208742848 -0.0011562537210135294 0 0.0086944175489658201 -0.0041423839653518101 0 0.0080733156974494014 -0.0037716107334667508 0 0.0077070613856675503 -0.0041625698291285693 0 0.0080450483668057723 -0.0047524308348095507 0 0.0086944175489658201 -0.0041423839653518101 0 0.0077070613856675503 -0.0041625698291285693 0 0.0086944175489658201 -0.0041423839653518101 0 0.0080733156974494014 -0.0037716107334667508 0 0.0084984065946146648 -0.0035997752960249623 0 0.0078948830643574535 -0.0034348209809270092 0 0.0080733156974494014 -0.0037716107334667508 0 0.0073280883396095852 -0.0037145515862685398 0 0.0078948830643574535 -0.0034348209809270092 0 0.0080733156974494014 -0.0037716107334667508 0 0.0084984065946146648 -0.0035997752960249623 0 0.010750484137710355 -0.0030712084774879396 0 0.010539519208742848 -0.0011562537210135294 0 0.011846143065126057 -0.0018524202265202013 0 0.013002426636333242 -0.0005142124029457872 0 0.010539519208742848 -0.0011562537210135294 0 0.011846143065126057 -0.0018524202265202013 0 0.013002426636333242 -0.0005142124029457872 0 0.011846143065126057 -0.0018524202265202013 0 0.013065448491661963 -0.0027627419158088905 0 0.010750484137710355 -0.0030712084774879396 0 0.011846143065126057 -0.0018524202265202013 0 0.013065448491661963 -0.0027627419158088905 0 0.014772219383907102 -0.003491254396092029 0 0.017957118896312265 -0.00075687702862919037 0 0.022318240355679898 -0.00021240415785897133 0 0.024629258757036514 0.0016568157935981948 0 0.010060149058887973 -0.0048435041118305884 0 0.010750484137710355 -0.0030712084774879396 0 0.013065448491661963 -0.0027627419158088905 0 0.022213938581484877 -0.00032866181655344802 0 0.021341381456575395 -0.00089281401355379504 0 0.022436499224192975 0.0008502076760576818 0 0.022213938581484877 -0.00032866181655344802 0 0.025324509033305975 0.00026224494538637749 0 0.026943838854101346 0.0024451558906118985 0 0.022213938581484877 -0.00032866181655344802 0 0.022436499224192975 0.0008502076760576818 0 0.022623623619729576 0.0011392336734198419 0 0.028200936243750554 0.00046669629772371 0 0.025324509033305975 0.00026224494538637749 0 0.026943838854101346 0.0024451558906118985 0 0.018979126090967812 0.00047480303855959002 0 0.017957118896312265 -0.00075687702862919037 0 0.015546355604495911 -0.00077818262228435662 0 0.013002426636333242 -0.0005142124029457872 0 0.013065448491661963 -0.0027627419158088905 0 0.022423008157035136 0.0017770726025003814 0 0.022436499224192975 0.0008502076760576818 0 0.022623623619729576 0.0011392336734198419 0 0.028728349849663635 0.0028037638148133959 0 0.026943838854101346 0.0024451558906118985 0 0.028409743884148856 0.0018533438246706674 0 0.025639523134866393 0.0023371784655417237 0 0.024629258757036514 0.0016568157935981948 0 0.022423008157035136 0.0017770726025003814 0 0.022439648785081655 0.0018927238086043814 0 0.022623623619729576 0.0011392336734198419 0 0.028728349849663635 0.0028037638148133959 0 0.029033696167295134 0.0019309041271559529 0 0.028409743884148856 0.0018533438246706674 0 0.029488381397844668 0.0027471102569306934 0 0.029033696167295134 0.0019309041271559529 0 0.029752728451756479 0.0021018682135825833 0 0.029488381397844668 0.0027471102569306934 0 0.028728349849663635 0.0028037638148133959 0 0.029033696167295134 0.0019309041271559529 0 0.029033696167295134 0.0019309041271559529 0 0.028667339146876362 0.0011161669874391765 0 0.029007536314139777 0.00084241595153451286 0 0.029033696167295134 0.0019309041271559529 0 0.029752728451756479 0.0021018682135825833 0 0.029007536314139777 0.00084241595153451286 0 0.032572026195189459 0.00087060234724674031 0 0.032434868001702623 0.00074692444132057236 0 0.028200936243750554 0.00046669629772371 0 0.026943838854101346 0.0024451558906118985 0 0.028409743884148856 0.0018533438246706674 0 0.028200936243750554 0.00046669629772371 0 0.028667339146876362 0.0011161669874391765 0 0.028409743884148856 0.0018533438246706674 0 0.029033696167295134 0.0019309041271559529 0 0.028667339146876362 0.0011161669874391765 0 0.028409743884148856 0.0018533438246706674 0 0.034860012148632089 -0.00078026196533729001 0 0.034510797501630421 -0.00075115179568495871 0 0.03482696503874555 -0.0003915750428036639 0 0.034860012148632089 -0.00078026196533729001 0 0.03482696503874555 -0.0003915750428036639 0 0.035111864816868121 -0.00050991039956894697 0 0.03482696503874555 -0.0003915750428036639 0 0.035111864816868121 -0.00050991039956894697 0 0.035130235059239241 -0.00011764210535080346 0 0.030113739697821405 0.0030992695531350885 0 0.029488381397844668 0.0027471102569306934 0 0.029752728451756479 0.0021018682135825833 0 0.035220397889736736 -0.0010199772101927105 0 0.035111864816868121 -0.00050991039956894697 0 0.035514853307496277 -0.00025101869822046212 0 0.032888371112020358 0.0011046203901448814 0 0.032572026195189459 0.00087060234724674031 0 0.035111864816868121 -0.00050991039956894697 0 0.035514853307496277 -0.00025101869822046212 0 0.035130235059239241 -0.00011764210535080346 0 0.035514853307496277 -0.00025101869822046212 0 0.035130235059239241 -0.00011764210535080346 0 0.035275111771983649 0.00036532210398502665 0 0.035514853307496277 -0.00025101869822046212 0 0.035275111771983649 0.00036532210398502665 0 0.035710964814913607 0.00040052704614986856 0 0.035130235059239241 -0.00011764210535080346 0 0.03485484145922068 0.00018645677151957394 0 0.035275111771983649 0.00036532210398502665 0 0.03450775205034512 -0.0002469850957566574 0 0.03482696503874555 -0.0003915750428036639 0 0.03485484145922068 0.00018645677151957394 0 0.03482696503874555 -0.0003915750428036639 0 0.035130235059239241 -0.00011764210535080346 0 0.03485484145922068 0.00018645677151957394 0 0.03485484145922068 0.00018645677151957394 0 0.03491157487365347 0.00059705822965023592 0 0.035275111771983649 0.00036532210398502665 0 0.034642513937417428 0.00055997610819449829 0 0.03485484145922068 0.00018645677151957394 0 0.03491157487365347 0.00059705822965023592 0 0.035275111771983649 0.00036532210398502665 0 0.03521370988957534 0.00089103443260314251 0 0.035517788702503189 0.00067935609081659729 0 0.035275111771983649 0.00036532210398502665 0 0.035517788702503189 0.00067935609081659729 0 0.035710964814913607 0.00040052704614986856 0 0.03491157487365347 0.00059705822965023592 0 0.035275111771983649 0.00036532210398502665 0 0.03521370988957534 0.00089103443260314251 0 0.033621538588699089 0.0014388514462788508 0 0.032627240990352628 0.0013994036436841169 0 0.033022702438833818 0.0010139095006948355 0 0.034499764937416508 0.00078866502521952203 0 0.033621538588699089 0.0014388514462788508 0 0.034178433148810958 0.00073925544095516319 0 0.034499764937416508 0.00078866502521952203 0 0.03491157487365347 0.00059705822965023592 0 0.03521370988957534 0.00089103443260314251 0 0.033621538588699089 0.0014388514462788508 0 0.034178433148810958 0.00073925544095516319 0 0.033762992692954005 0.00076988712659345558 0 0.034404045265891081 0.00084141400446653431 0 0.034508561752127069 0.0011861410971725913 0 0.028200936243750554 0.00046669629772371 0 0.028617897884895788 0.00081960690383551312 0 0.028780590206495794 0.000936208561222366 0 0.028617897884895788 0.00081960690383551312 0 0.028780590206495794 0.000936208561222366 0 0.028734459315134145 0.00097488731910308371 0 0.028200936243750554 0.00046669629772371 0 0.028667339146876362 0.0011161669874391765 0 0.028617897884895788 0.00081960690383551312 0 0.035517788702503189 0.00067935609081659729 0 0.035710964814913607 0.00040052704614986856 0 0.035843108784664714 0.00093284637019108577 0 0.028667339146876362 0.0011161669874391765 0 0.028617897884895788 0.00081960690383551312 0 0.029007536314139777 0.00084241595153451286 0 0.032434868001702623 0.00074692444132057236 0 0.031626649770067281 0.00078819913505862786 0 0.028617897884895788 0.00081960690383551312 0 0.029007536314139777 0.00084241595153451286 0 0.02841427352113263 0.0010677129350503821 0 0.033621538588699089 0.0014388514462788508 0 0.032627240990352628 0.0013994036436841169 0 0.032079713302744457 0.0018866533669433024 0 0.03521370988957534 0.00089103443260314251 0 0.035517788702503189 0.00067935609081659729 0 0.035843108784664714 0.00093284637019108577 0 0.035710964814913607 0.00040052704614986856 0 0.035843108784664714 0.00093284637019108577 0 0.035910001364066198 0.00094241572326061855 0 0.034508561752127069 0.0011861410971725913 0 0.033386291953958522 0.001127714557627115 0 0.032627240990352628 0.0013994036436841169 0 0.0321076787830629 0.001438356823627431 0 0.032079713302744457 0.0018866533669433024 0 0.0321076787830629 0.001438356823627431 0 0.032079713302744457 0.0018866533669433024 0 0.031484447745917278 0.0013602471221197845 0 0.029714663706465215 0.0014537871788012687 0 0.02841427352113263 0.0010677129350503821 0 0.028734459315134145 0.00097488731910308371 0 0.029180298105645697 0.0015524309804429673 0 0.031626649770067281 0.00078819913505862786 0 0.029714663706465215 0.0014537871788012687 0 0.031811200267123051 0.0019123038220432457 0 0.031484447745917278 0.0013602471221197845 0 0.032079713302744457 0.0018866533669433024 0 0.031811200267123051 0.0019123038220432457 0 0.031484447745917278 0.0013602471221197845 0 0.033386291953958522 0.001127714557627115 0 0.031626649770067281 0.00078819913505862786 0 0.028617897884895788 0.00081960690383551312 0 0.02841427352113263 0.0010677129350503821 0 0.028734459315134145 0.00097488731910308371 0 0.031177466787791912 0.00086367267051596947 0 0.031696577036017054 0.00035874326598922085 0 0.030401111912648292 0.00073252242206622604 0 0.029714663706465215 0.0014537871788012687 0 0.031177466787791912 0.00086367267051596947 0 0.031484447745917278 0.0013602471221197845 0 0.031177466787791912 0.00086367267051596947 0 0.032171134918007098 0.0010775513305621395 0 0.031696577036017054 0.00035874326598922085 0 0.031177466787791912 0.00086367267051596947 0 0.031484447745917278 0.0013602471221197845 0 0.032171134918007098 0.0010775513305621395 0 0.0321076787830629 0.001438356823627431 0 0.031484447745917278 0.0013602471221197845 0 0.032171134918007098 0.0010775513305621395 0 0.032627240990352628 0.0013994036436841169 0 0.0321076787830629 0.001438356823627431 0 0.032171134918007098 0.0010775513305621395 0 0.032627240990352628 0.0013994036436841169 0 0.032171134918007098 0.0010775513305621395 0 0.033022702438833818 0.0010139095006948355 0 0.032171134918007098 0.0010775513305621395 0 0.032496838881697 0.00061901415060488445 0 0.033022702438833818 0.0010139095006948355 0 0.032171134918007098 0.0010775513305621395 0 0.032496838881697 0.00061901415060488445 0 0.031696577036017054 0.00035874326598922085 0 0.032496838881697 0.00061901415060488445 0 0.032521217723482827 5.7305335080851854e-05 0 0.031696577036017054 0.00035874326598922085 0 0.032496838881697 0.00061901415060488445 0 0.032521217723482827 5.7305335080851854e-05 0 0.033289381236536492 0.00057962251651061955 0 0.032521217723482827 5.7305335080851854e-05 0 0.031696577036017054 0.00035874326598922085 0 0.03150614074479547 -0.00021371388353121117 0 0.031696577036017054 0.00035874326598922085 0 0.03150614074479547 -0.00021371388353121117 0 0.030319799267744425 0.00014833714228715828 0 0.034397303314391982 -0.00029170208217773718 0 0.034265786473122235 0.00038021635640341861 0 0.033762992692954005 0.00076988712659345558 0 0.034265786473122235 0.00038021635640341861 0 0.034178433148810958 0.00073925544095516319 0 0.033762992692954005 0.00076988712659345558 0 0.033621538588699089 0.0014388514462788508 0 0.033762992692954005 0.00076988712659345558 0 0.033022702438833818 0.0010139095006948355 0 0.033762992692954005 0.00076988712659345558 0 0.033022702438833818 0.0010139095006948355 0 0.033289381236536492 0.00057962251651061955 0 0.032496838881697 0.00061901415060488445 0 0.033022702438833818 0.0010139095006948355 0 0.033289381236536492 0.00057962251651061955 0 0.033762992692954005 0.00076988712659345558 0 0.033289381236536492 0.00057962251651061955 0 0.034306078807759086 0.00040556606055997273 0 0.032521217723482827 5.7305335080851854e-05 0 0.033289381236536492 0.00057962251651061955 0 0.033451802640873406 0.00018625608565760849 0 0.033289381236536492 0.00057962251651061955 0 0.033451802640873406 0.00018625608565760849 0 0.034306078807759086 0.00040556606055997273 0 0.034982033204415917 0.00052334922044814465 0 0.033762992692954005 0.00076988712659345558 0 0.034306078807759086 0.00040556606055997273 0 0.034685339604722622 0.0001179102713928465 0 0.033888692850524531 0.00069049117095248253 0 0.034982033204415917 0.00052334922044814465 0 0.034306078807759086 0.00040556606055997273 0 0.035146291479050407 0.00031580872652148977 0 0.034306078807759086 0.00040556606055997273 0 0.035146291479050407 0.00031580872652148977 0 0.033303618065100862 -0.00024677354135377267 0 0.035146291479050407 0.00031580872652148977 0 0.033303618065100862 -0.00024677354135377267 0 0.033450216824987881 -0.0012396062708234872 0 0.033451802640873406 0.00018625608565760849 0 0.034306078807759086 0.00040556606055997273 0 0.033303618065100862 -0.00024677354135377267 0 0.032521217723482827 5.7305335080851854e-05 0 0.033451802640873406 0.00018625608565760849 0 0.033303618065100862 -0.00024677354135377267 0 0.033303618065100862 -0.00024677354135377267 0 0.033450216824987881 -0.0012396062708234872 0 0.032144432826090356 -0.00075808951672426221 0 0.035654442642993056 0.0012168630754774059 0 0.035146291479050407 0.00031580872652148977 0 0.036477007247029479 0.0013290350992608874 0 0.035163728975153567 0.00030772674368496916 0 0.034951095658228168 9.1937510748982655e-05 0 0.03150614074479547 -0.00021371388353121117 0 0.032144432826090356 -0.00075808951672426221 0 0.031379808232266618 -0.00070732242502279292 0 0.032521217723482827 5.7305335080851854e-05 0 0.033303618065100862 -0.00024677354135377267 0 0.032144432826090356 -0.00075808951672426221 0 0.032521217723482827 5.7305335080851854e-05 0 0.03150614074479547 -0.00021371388353121117 0 0.032144432826090356 -0.00075808951672426221 0 0.032059785310566226 -0.0014029417902734207 0 0.033450216824987881 -0.0012396062708234872 0 0.032144432826090356 -0.00075808951672426221 0 0.032059785310566226 -0.0014029417902734207 0 0.032144432826090356 -0.00075808951672426221 0 0.031606002321330054 -0.0011177704664825897 0 0.032144432826090356 -0.00075808951672426221 0 0.031379808232266618 -0.00070732242502279292 0 0.031606002321330054 -0.0011177704664825897 0 0.031379808232266618 -0.00070732242502279292 0 0.031606002321330054 -0.0011177704664825897 0 0.030954657996046141 -0.0010378407718995156 0 0.031379808232266618 -0.00070732242502279292 0 0.030954657996046141 -0.0010378407718995156 0 0.03064742488482685 -0.00057652187857314509 0 0.030209825620498586 -0.0011782830999938786 0 0.03064742488482685 -0.00057652187857314509 0 0.029302980316581483 -0.00036386581743750397 0 0.030209825620498586 -0.0011782830999938786 0 0.030954657996046141 -0.0010378407718995156 0 0.03064742488482685 -0.00057652187857314509 0 0.03064742488482685 -0.00057652187857314509 0 0.030319799267744425 0.00014833714228715828 0 0.029302980316581483 -0.00036386581743750397 0 0.03150614074479547 -0.00021371388353121117 0 0.03064742488482685 -0.00057652187857314509 0 0.030319799267744425 0.00014833714228715828 0 0.03150614074479547 -0.00021371388353121117 0 0.031379808232266618 -0.00070732242502279292 0 0.03064742488482685 -0.00057652187857314509 0 0.031696577036017054 0.00035874326598922085 0 0.030319799267744425 0.00014833714228715828 0 0.030401111912648292 0.00073252242206622604 0 0.030319799267744425 0.00014833714228715828 0 0.029605683041296262 0.00074441188863764529 0 0.030401111912648292 0.00073252242206622604 0 0.030319799267744425 0.00014833714228715828 0 0.029370710917189874 0.00027600195116008884 0 0.029302980316581483 -0.00036386581743750397 0 0.030319799267744425 0.00014833714228715828 0 0.029370710917189874 0.00027600195116008884 0 0.029605683041296262 0.00074441188863764529 0 0.029370710917189874 0.00027600195116008884 0 0.029605683041296262 0.00074441188863764529 0 0.029034201074187468 0.00066806172951364661 0 0.029714663706465215 0.0014537871788012687 0 0.029407041952621654 0.0011353553063169416 0 0.029605683041296262 0.00074441188863764529 0 0.029407041952621654 0.0011353553063169416 0 0.029605683041296262 0.00074441188863764529 0 0.029034201074187468 0.00066806172951364661 0 0.029714663706465215 0.0014537871788012687 0 0.031177466787791912 0.00086367267051596947 0 0.030401111912648292 0.00073252242206622604 0 0.029714663706465215 0.0014537871788012687 0 0.029605683041296262 0.00074441188863764529 0 0.030401111912648292 0.00073252242206622604 0 0.028087121327808873 0.0011241647341158078 0 0.02828276330746711 0.00058631499770097706 0 0.027677421573331171 0.00069397730548644823 0 0.028803055559145124 0.00099123600345507644 0 0.028087121327808873 0.0011241647341158078 0 0.02828276330746711 0.00058631499770097706 0 0.028803055559145124 0.00099123600345507644 0 0.02828276330746711 0.00058631499770097706 0 0.029034201074187468 0.00066806172951364661 0 0.029407041952621654 0.0011353553063169416 0 0.028803055559145124 0.00099123600345507644 0 0.029034201074187468 0.00066806172951364661 0 0.02828276330746711 0.00058631499770097706 0 0.029034201074187468 0.00066806172951364661 0 0.028681471091497761 0.00023609293336871031 0 0.029370710917189874 0.00027600195116008884 0 0.028681471091497761 0.00023609293336871031 0 0.029302980316581483 -0.00036386581743750397 0 0.029370710917189874 0.00027600195116008884 0 0.029034201074187468 0.00066806172951364661 0 0.028681471091497761 0.00023609293336871031 0 0.02828276330746711 0.00058631499770097706 0 0.028681471091497761 0.00023609293336871031 0 0.02813059844413722 0.00011656400942084218 0 0.02828276330746711 0.00058631499770097706 0 0.02813059844413722 0.00011656400942084218 0 0.027791580229826529 0.00034069516825404537 0 0.028681471091497761 0.00023609293336871031 0 0.02813059844413722 0.00011656400942084218 0 0.028457847448127883 -0.00018223713794498388 0 0.028457847448127883 -0.00018223713794498388 0 0.029302980316581483 -0.00036386581743750397 0 0.028311284319691571 -0.00064020760747533615 0 0.02813059844413722 0.00011656400942084218 0 0.028457847448127883 -0.00018223713794498388 0 0.027970971472263965 -0.0002647353560311934 0 0.028457847448127883 -0.00018223713794498388 0 0.028311284319691571 -0.00064020760747533615 0 0.027970971472263965 -0.0002647353560311934 0 0.028681471091497761 0.00023609293336871031 0 0.028457847448127883 -0.00018223713794498388 0 0.029302980316581483 -0.00036386581743750397 0 0.029047950268132006 -0.0010051422999047387 0 0.028516410342476775 -0.0010491884510182427 0 0.029302980316581483 -0.00036386581743750397 0 0.029625892861320707 -0.00094661171977597242 0 0.029338426244546779 -0.00038227621987055473 0 0.028516410342476775 -0.0010491884510182427 0 0.029302980316581483 -0.00036386581743750397 0 0.028311284319691571 -0.00064020760747533615 0 0.028516410342476775 -0.0010491884510182427 0 0.028004250841402342 -0.001042594247439126 0 0.028311284319691571 -0.00064020760747533615 0 0.028004250841402342 -0.001042594247439126 0 0.027737899259596622 -0.00058345833902731026 0 0.027442700869781469 -0.00079686624016326582 0 0.028311284319691571 -0.00064020760747533615 0 0.027737899259596622 -0.00058345833902731026 0 0.027970971472263965 -0.0002647353560311934 0 0.028004250841402342 -0.001042594247439126 0 0.028311284319691571 -0.00064020760747533615 0 0.027737899259596622 -0.00058345833902731026 0 0.027442700869781469 -0.00079686624016326582 0 0.027170422876636666 -0.00050873480410183183 0 0.026868644879367555 -0.00087166153058382061 0 0.027737899259596622 -0.00058345833902731026 0 0.027442700869781469 -0.00079686624016326582 0 0.027170422876636666 -0.00050873480410183183 0 0.027124696848432189 -0.0010182713824876774 0 0.027442700869781469 -0.00079686624016326582 0 0.026866443951000119 -0.00057720840210753548 0 0.027184512664799335 -0.00076749013444416979 0 0.027363559134345794 -0.00083352052286025154 0 0.016691603246901214 -0.0043467730744083189 0 0.016626388330251329 -0.0040680020209246685 0 0.017837821084115451 -0.0032052394222877559 0 0.027170422876636666 -0.00050873480410183183 0 0.027499111441081209 -0.0002620198462355042 0 0.027170726804968265 -0.00024866265756483703 0 0.027737899259596622 -0.00058345833902731026 0 0.027170422876636666 -0.00050873480410183183 0 0.027499111441081209 -0.0002620198462355042 0 0.026998616443556278 -0.00038083306946193519 0 0.027170726804968265 -0.00024866265756483703 0 0.026818716058076602 -0.00021728562765658855 0 0.027170422876636666 -0.00050873480410183183 0 0.026998616443556278 -0.00038083306946193519 0 0.027170726804968265 -0.00024866265756483703 0 0.027170422876636666 -0.00050873480410183183 0 0.026998616443556278 -0.00038083306946193519 0 0.026823106912827192 -0.00055480848778106614 0 0.027170726804968265 -0.00024866265756483703 0 0.027315394240824548 -5.6222775269473589e-05 0 0.026818716058076602 -0.00021728562765658855 0 0.027499111441081209 -0.0002620198462355042 0 0.027170726804968265 -0.00024866265756483703 0 0.027315394240824548 -5.6222775269473589e-05 0 0.027499111441081209 -0.0002620198462355042 0 0.027315394240824548 -5.6222775269473589e-05 0 0.027639614267693961 4.7653852053148861e-05 0 0.027499111441081209 -0.0002620198462355042 0 0.027970971472263965 -0.0002647353560311934 0 0.027639614267693961 4.7653852053148861e-05 0 0.02813059844413722 0.00011656400942084218 0 0.027970971472263965 -0.0002647353560311934 0 0.027639614267693961 4.7653852053148861e-05 0 0.027737899259596622 -0.00058345833902731026 0 0.027499111441081209 -0.0002620198462355042 0 0.027970971472263965 -0.0002647353560311934 0 0.015316586471076331 -0.0053353445693437307 0 0.015772428010973723 -0.0053820370115293106 0 0.016626388330251329 -0.0040680020209246685 0 0.0045787157464210028 -0.0085973549158503016 0 0.0049579334487720884 -0.0089527472762724394 0 0.0051746280710083404 -0.0083234407789942212 0 0.013393154159134791 -0.00089205193944371427 0 0.013778198854184682 -0.0041418615168381254 0 0.025460052798631751 -0.00084280482939903389 0 0.025741927261924494 -0.00090348396399141432 0 0.025670637290070245 -0.00077189813198957164 0 0.025741927261924494 -0.00090348396399141432 0 0.025670637290070245 -0.00077189813198957164 0 0.025712831779917639 -0.00078935680003760188 0 0.026214498955307211 -6.6905953815695897e-05 0 0.022809523562352885 -0.0024797313508770026 0 0.026248973684121005 -0.00076833646542496267 0 0.025741927261924494 -0.00090348396399141432 0 0.026175351828219222 -0.0004341006595092785 0 0.013778198854184682 -0.0041418615168381254 0 0.022809523562352885 -0.0024797313508770026 0 0.022809523562352885 -0.0024797313508770026 0 0.027363559134345794 -0.00083352052286025154 0 0.022809523562352885 -0.0024797313508770026 0 0.021414746156170124 -0.0025519328256520903 0 0.026214399142527073 -0.00083947289487770597 0 0.026823106912827192 -0.00055480848778106614 0 0.026818716058076602 -0.00021728562765658855 0 0.026248973684121005 -0.00076833646542496267 0 0.026175351828219222 -0.0004341006595092785 0 0.026866443951000119 -0.00057720840210753548 0 0.026214399142527073 -0.00083947289487770597 0 0.026868644879367555 -0.00087166153058382061 0 0.026823106912827192 -0.00055480848778106614 0 0.027170422876636666 -0.00050873480410183183 0 0.026868644879367555 -0.00087166153058382061 0 0.026823106912827192 -0.00055480848778106614 0 0.013778198854184682 -0.0041418615168381254 0 0.010673736288450595 -0.0066411437750211718 0 0.015772428010973723 -0.0053820370115293106 0 0.016691603246901214 -0.0043467730744083189 0 0.016626388330251329 -0.0040680020209246685 0 0.0061811149322815858 -0.0078610012817627219 0 0.0051746280710083404 -0.0083234407789942212 0 0.0054789029510461783 -0.0079462735359429743 0 0.026998616443556278 -0.00038083306946193519 0 0.026823106912827192 -0.00055480848778106614 0 0.026818716058076602 -0.00021728562765658855 0 0.0061811149322815858 -0.0078610012817627219 0 0.0057082442182499783 -0.0076635637242541393 0 0.0054789029510461783 -0.0079462735359429743 0 0.0061811149322815858 -0.0078610012817627219 0 0.0057082442182499783 -0.0076635637242541393 0 0.0059773869046971942 -0.0075349669101190207 0 0.0049579334487720884 -0.0089527472762724394 0 0.0061811149322815858 -0.0078610012817627219 0 0.0051746280710083404 -0.0083234407789942212 0 0.0051746280710083404 -0.0083234407789942212 0 0.0054789029510461783 -0.0079462735359429743 0 0.0050075547613038498 -0.0079641043603254375 0 0.0057082442182499783 -0.0076635637242541393 0 0.0054789029510461783 -0.0079462735359429743 0 0.0052640847912169015 -0.0075768697286316689 0 0.0054789029510461783 -0.0079462735359429743 0 0.0052640847912169015 -0.0075768697286316689 0 0.0050075547613038498 -0.0079641043603254375 0 0.0050075547613038498 -0.0079641043603254375 0 0.0047021146470807938 -0.0073895069132158464 0 0.0044716170248955958 -0.0078714079401648943 0 0.0052640847912169015 -0.0075768697286316689 0 0.0050075547613038498 -0.0079641043603254375 0 0.0047021146470807938 -0.0073895069132158464 0 0.0050075547613038498 -0.0079641043603254375 0 0.0047306948016689289 -0.0082861772333561214 0 0.0044716170248955958 -0.0078714079401648943 0 0.0045787157464210028 -0.0085973549158503016 0 0.0051746280710083404 -0.0083234407789942212 0 0.0047306948016689289 -0.0082861772333561214 0 0.0051746280710083404 -0.0083234407789942212 0 0.0050075547613038498 -0.0079641043603254375 0 0.0047306948016689289 -0.0082861772333561214 0 0.0048284359389432633 -0.0065859577581338005 0 0.0047021146470807938 -0.0073895069132158464 0 0.0040066754840195661 -0.0069605608593824317 0 0.0052640847912169015 -0.0075768697286316689 0 0.0047021146470807938 -0.0073895069132158464 0 0.0051395022799548612 -0.0071189907078861693 0 0.0048284359389432633 -0.0065859577581338005 0 0.0047021146470807938 -0.0073895069132158464 0 0.0051395022799548612 -0.0071189907078861693 0 0.0052640847912169015 -0.0075768697286316689 0 0.0051395022799548612 -0.0071189907078861693 0 0.0056049138060784917 -0.0072793219985490135 0 0.0057082442182499783 -0.0076635637242541393 0 0.0052640847912169015 -0.0075768697286316689 0 0.0056049138060784917 -0.0072793219985490135 0 0.0051395022799548612 -0.0071189907078861693 0 0.0053917772294718794 -0.006818467499970656 0 0.0056049138060784917 -0.0072793219985490135 0 0.0048284359389432633 -0.0065859577581338005 0 0.0051395022799548612 -0.0071189907078861693 0 0.0053917772294718794 -0.006818467499970656 0 0.0048284359389432633 -0.0065859577581338005 0 0.0053917772294718794 -0.006818467499970656 0 0.0056194559090347604 -0.0062762370874567793 0 0.0057795249995298489 -0.0068289877168691933 0 0.0062075924479218954 -0.0066245507426222917 0 0.0056194559090347604 -0.0062762370874567793 0 0.0053917772294718794 -0.006818467499970656 0 0.0057795249995298489 -0.0068289877168691933 0 0.0056194559090347604 -0.0062762370874567793 0 0.0057795249995298489 -0.0068289877168691933 0 0.00620288971293403 -0.0072082844189777411 0 0.0062075924479218954 -0.0066245507426222917 0 0.0053917772294718794 -0.006818467499970656 0 0.0057795249995298489 -0.0068289877168691933 0 0.0056049138060784917 -0.0072793219985490135 0 0.0056049138060784917 -0.0072793219985490135 0 0.0059773869046971942 -0.0075349669101190207 0 0.00620288971293403 -0.0072082844189777411 0 0.0057795249995298489 -0.0068289877168691933 0 0.0056049138060784917 -0.0072793219985490135 0 0.00620288971293403 -0.0072082844189777411 0 0.0057082442182499783 -0.0076635637242541393 0 0.0056049138060784917 -0.0072793219985490135 0 0.0059773869046971942 -0.0075349669101190207 0 0.0061811149322815858 -0.0078610012817627219 0 0.00620288971293403 -0.0072082844189777411 0 0.0069971345632555164 -0.006922503984956271 0 0.0061811149322815858 -0.0078610012817627219 0 0.0059773869046971942 -0.0075349669101190207 0 0.00620288971293403 -0.0072082844189777411 0 0.0062075924479218954 -0.0066245507426222917 0 0.0064219325751516372 -0.0059600354854829505 0 0.0069971345632555164 -0.006922503984956271 0 0.00620288971293403 -0.0072082844189777411 0 0.0062075924479218954 -0.0066245507426222917 0 0.0069971345632555164 -0.006922503984956271 0 0.0064219325751516372 -0.0059600354854829505 0 0.0058318617596632115 -0.0055794147107080033 0 0.0064099341564291977 -0.0052602754927299419 0 0.0064219325751516372 -0.0059600354854829505 0 0.0058318617596632115 -0.0055794147107080033 0 0.0056194559090347604 -0.0062762370874567793 0 0.0062075924479218954 -0.0066245507426222917 0 0.0064219325751516372 -0.0059600354854829505 0 0.0056194559090347604 -0.0062762370874567793 0 0.0048284359389432633 -0.0065859577581338005 0 0.004985261387112477 -0.0055347498749648682 0 0.0038928199499602542 -0.005997258557348022 0 0.0048284359389432633 -0.0065859577581338005 0 0.0056194559090347604 -0.0062762370874567793 0 0.004985261387112477 -0.0055347498749648682 0 0.0058318617596632115 -0.0055794147107080033 0 0.0056194559090347604 -0.0062762370874567793 0 0.004985261387112477 -0.0055347498749648682 0 0.027791580229826529 0.00034069516825404537 0 0.027639614267693961 4.7653852053148861e-05 0 0.02734315277217432 0.00026926690553055776 0 0.02813059844413722 0.00011656400942084218 0 0.027791580229826529 0.00034069516825404537 0 0.027639614267693961 4.7653852053148861e-05 0 0.0061811149322815858 -0.0078610012817627219 0 0.0069971345632555164 -0.006922503984956271 0 0.0090515976478294721 -0.0068671174188446229 0 0.016626388330251329 -0.0040680020209246685 0 0.017837821084115451 -0.0032052394222877559 0 0.018249053167836721 -0.0026597227824420085 0 0.010673736288450595 -0.0066411437750211718 0 0.013826780398291912 -0.0048196070736568142 0 0.027315394240824548 -5.6222775269473589e-05 0 0.027639614267693961 4.7653852053148861e-05 0 0.02734315277217432 0.00026926690553055776 0 0.027315394240824548 -5.6222775269473589e-05 0 0.026818716058076602 -0.00021728562765658855 0 0.02734315277217432 0.00026926690553055776 0 0.021414746156170124 -0.0025519328256520903 0 0.023024862467395761 -0.0011934837896688517 0 0.0072583066375383398 -0.0062276789151794708 0 0.007102061189320141 -0.0052949715428804341 0 0.0090515976478294721 -0.0068671174188446229 0 0.0064219325751516372 -0.0059600354854829505 0 0.0069971345632555164 -0.006922503984956271 0 0.0072583066375383398 -0.0062276789151794708 0 0.0064219325751516372 -0.0059600354854829505 0 0.0072583066375383398 -0.0062276789151794708 0 0.007102061189320141 -0.0052949715428804341 0 0.0069971345632555164 -0.006922503984956271 0 0.0072583066375383398 -0.0062276789151794708 0 0.0090515976478294721 -0.0068671174188446229 0 0.0064219325751516372 -0.0059600354854829505 0 0.007102061189320141 -0.0052949715428804341 0 0.0064099341564291977 -0.0052602754927299419 0 0.0076440909615209879 -0.0048793492870673697 0 0.008992075395921428 -0.0041060351221747634 0 0.007102061189320141 -0.0052949715428804341 0 0.0090515976478294721 -0.0068671174188446229 0 0.011490100331771665 -0.0020609546317637223 0 0.0090515976478294721 -0.0068671174188446229 0 0.012958001782123384 -0.0040343918599469314 0 0.011490100331771665 -0.0020609546317637223 0 0.027791580229826529 0.00034069516825404537 0 0.02734315277217432 0.00026926690553055776 0 0.027677421573331171 0.00069397730548644823 0 0.017837821084115451 -0.0032052394222877559 0 0.018249053167836721 -0.0026597227824420085 0 0.018985895030730719 -0.0020238668497836059 0 0.023024862467395761 -0.0011934837896688517 0 0.020589588458662749 -0.0010216841616701416 0 0.013826780398291912 -0.0048196070736568142 0 0.020589588458662749 -0.0010216841616701416 0 0.02828276330746711 0.00058631499770097706 0 0.027791580229826529 0.00034069516825404537 0 0.027677421573331171 0.00069397730548644823 0 0.018050330104522699 -0.0020347656452289931 0 0.020589588458662749 -0.0010216841616701416 0 0.0073454843988547906 -0.0055087677770721318 0 0.0074451498703479958 -0.005151333152725048 0 0.0068076081978097848 -0.0050773211566392182 0 0.018909069243807284 0.0015683697442649472 0 0.012958001782123384 -0.0040343918599469314 0 0.011490100331771665 -0.0020609546317637223 0 0.0081362843903588101 -0.0056455539934698795 0 0.0073454843988547906 -0.0055087677770721318 0 0.0074451498703479958 -0.005151333152725048 0 0.018050330104522699 -0.0020347656452289931 0 0.008992075395921428 -0.0041060351221747634 0 0.0080450483668057723 -0.0047524308348095507 0 0.0071603323056814968 -0.0046741894900660897 0 0.0077070613856675503 -0.0041625698291285693 0 0.0080450483668057723 -0.0047524308348095507 0 0.0074451498703479958 -0.005151333152725048 0 0.0071603323056814968 -0.0046741894900660897 0 0.0074451498703479958 -0.005151333152725048 0 0.0071603323056814968 -0.0046741894900660897 0 0.0068076081978097848 -0.0050773211566392182 0 0.0071603323056814968 -0.0046741894900660897 0 0.0063410116080969397 -0.0045583953675304781 0 0.0068076081978097848 -0.0050773211566392182 0 0.0071603323056814968 -0.0046741894900660897 0 0.0063410116080969397 -0.0045583953675304781 0 0.0068241563336619388 -0.0041228863772761939 0 0.007102061189320141 -0.0052949715428804341 0 0.0068076081978097848 -0.0050773211566392182 0 0.0064099341564291977 -0.0052602754927299419 0 0.007102061189320141 -0.0052949715428804341 0 0.0073454843988547906 -0.0055087677770721318 0 0.0068076081978097848 -0.0050773211566392182 0 0.0068076081978097848 -0.0050773211566392182 0 0.0064099341564291977 -0.0052602754927299419 0 0.0057989884856335435 -0.0049340659309262272 0 0.0058318617596632115 -0.0055794147107080033 0 0.0064099341564291977 -0.0052602754927299419 0 0.0057989884856335435 -0.0049340659309262272 0 0.004985261387112477 -0.0055347498749648682 0 0.0057989884856335435 -0.0049340659309262272 0 0.0046737331382235665 -0.004662596364627126 0 0.0058318617596632115 -0.0055794147107080033 0 0.004985261387112477 -0.0055347498749648682 0 0.0057989884856335435 -0.0049340659309262272 0 0.0046737331382235665 -0.004662596364627126 0 0.0054293742252578565 -0.0043450177242094637 0 0.004622739654324878 -0.0041364559215225126 0 0.0057989884856335435 -0.0049340659309262272 0 0.0046737331382235665 -0.004662596364627126 0 0.0054293742252578565 -0.0043450177242094637 0 0.0063410116080969397 -0.0045583953675304781 0 0.0057989884856335435 -0.0049340659309262272 0 0.0054293742252578565 -0.0043450177242094637 0 0.0063410116080969397 -0.0045583953675304781 0 0.0068076081978097848 -0.0050773211566392182 0 0.0057989884856335435 -0.0049340659309262272 0 0.0054293742252578565 -0.0043450177242094637 0 0.0059642572735621778 -0.0041007438466005384 0 0.0051766856747113756 -0.0038689315219729362 0 0.0063410116080969397 -0.0045583953675304781 0 0.0054293742252578565 -0.0043450177242094637 0 0.0059642572735621778 -0.0041007438466005384 0 0.0054293742252578565 -0.0043450177242094637 0 0.0051766856747113756 -0.0038689315219729362 0 0.004622739654324878 -0.0041364559215225126 0 0.0051766856747113756 -0.0038689315219729362 0 0.0042325094222806434 -0.0037009777645062325 0 0.0049300479016119994 -0.0035302172017783367 0 0.0051766856747113756 -0.0038689315219729362 0 0.0061451852137354903 -0.0035747806878476747 0 0.0049300479016119994 -0.0035302172017783367 0 0.0059642572735621778 -0.0041007438466005384 0 0.0051766856747113756 -0.0038689315219729362 0 0.0061451852137354903 -0.0035747806878476747 0 0.0059642572735621778 -0.0041007438466005384 0 0.0068241563336619388 -0.0041228863772761939 0 0.0061451852137354903 -0.0035747806878476747 0 0.0073280883396095852 -0.0037145515862685398 0 0.0068241563336619388 -0.0041228863772761939 0 0.0061451852137354903 -0.0035747806878476747 0 0.0080733156974494014 -0.0037716107334667508 0 0.0073280883396095852 -0.0037145515862685398 0 0.0077070613856675503 -0.0041625698291285693 0 0.0071603323056814968 -0.0046741894900660897 0 0.0077070613856675503 -0.0041625698291285693 0 0.0068241563336619388 -0.0041228863772761939 0 0.0073280883396095852 -0.0037145515862685398 0 0.0077070613856675503 -0.0041625698291285693 0 0.0068241563336619388 -0.0041228863772761939 0 0.0063410116080969397 -0.0045583953675304781 0 0.0059642572735621778 -0.0041007438466005384 0 0.0068241563336619388 -0.0041228863772761939 0 0.0016821991671239257 -0.0039669090369307859 0 0.0019847549167054208 -0.0043926816189283173 0 0.0013656895360345651 -0.0044446226527979239 0 0.0016821991671239257 -0.0039669090369307859 0 0.0013656895360345651 -0.0044446226527979239 0 0.0008478517274328911 -0.0041831703411505401 0 0.001192709305901971 -0.0039569485416032051 0 0.0016821991671239257 -0.0039669090369307859 0 0.0010688340546430304 -0.0042053618322341014 0 0.0016060094722700562 -0.003946243893838049 0 0.00095588756826639075 -0.0042230321431019876 0 0.001192709305901971 -0.0039569485416032051 0 0.00097254250578575807 -0.0037766039612326299 0 0.0014340754743954747 -0.0037370534941278816 0 0.001192709305901971 -0.0039569485416032051 0 0.0016821991671239257 -0.0039669090369307859 0 0.0014340754743954747 -0.0037370534941278816 0 0.0016821991671239257 -0.0039669090369307859 0 0.0026346604855461788 -0.0041148616190011342 0 0.0021464507487352481 -0.0035983218561891576 0 0.0051766856747113756 -0.0038689315219729362 0 0.0042325094222806434 -0.0037009777645062325 0 0.004622739654324878 -0.0041364559215225126 0 0.0042325094222806434 -0.0037009777645062325 0 0.004622739654324878 -0.0041364559215225126 0 0.0035081911711216168 -0.0042240793403880072 0 0.0016821991671239257 -0.0039669090369307859 0 0.0026346604855461788 -0.0041148616190011342 0 0.0019847549167054208 -0.0043926816189283173 0 0.0034428549640087439 -0.0038549937546730581 0 0.0027223015522519966 -0.0043629535198949068 0 0.0046737331382235665 -0.004662596364627126 0 0.0035081911711216168 -0.0042240793403880072 0 0.003926524758732528 -0.0050401471902058615 0 0.0046737331382235665 -0.004662596364627126 0 0.004622739654324878 -0.0041364559215225126 0 0.0035081911711216168 -0.0042240793403880072 0 0.004985261387112477 -0.0055347498749648682 0 0.0046737331382235665 -0.004662596364627126 0 0.003926524758732528 -0.0050401471902058615 0 0.0027223015522519966 -0.0043629535198949068 0 0.0020150717843347983 -0.0052052010265517916 0 0.0035081911711216168 -0.0042240793403880072 0 0.003926524758732528 -0.0050401471902058615 0 0.0019533389884918181 -0.0051691310573304282 0 0.0013656895360345651 -0.0044446226527979239 0 0.00061864320122569159 -0.00488547417772533 0 0.0019533389884918181 -0.0051691310573304282 0 0.0019847549167054208 -0.0043926816189283173 0 0.0013656895360345651 -0.0044446226527979239 0 0.0019533389884918181 -0.0051691310573304282 0 0.0013656895360345651 -0.0044446226527979239 0 0.0008478517274328911 -0.0041831703411505401 0 0.00053456777659427837 -0.0046665396317416589 0 0.0013656895360345651 -0.0044446226527979239 0 0.00053456777659427837 -0.0046665396317416589 0 0.00061864320122569159 -0.00488547417772533 0 0.0008478517274328911 -0.0041831703411505401 0 0.00053456777659427837 -0.0046665396317416589 0 -7.2528923126771415e-05 -0.0048044350893010441 0 0.00053456777659427837 -0.0046665396317416589 0 0.00061864320122569159 -0.00488547417772533 0 2.3189474514907311e-05 -0.0049131342997455552 0 0.00061864320122569159 -0.00488547417772533 0 -0.00017825848633676607 -0.0052992707519229623 0 2.3189474514907311e-05 -0.0049131342997455552 0 0.0019533389884918181 -0.0051691310573304282 0 0.0016477570967612387 -0.0063744343109551236 0 -0.00017825848633676607 -0.0052992707519229623 0 0.00061864320122569159 -0.00488547417772533 0 0.0019533389884918181 -0.0051691310573304282 0 -0.00017825848633676607 -0.0052992707519229623 0 0.0016477570967612387 -0.0063744343109551236 0 -0.00017825848633676607 -0.0052992707519229623 0 0.00078201910654957267 -0.0074542433396968689 0 0.0016477570967612387 -0.0063744343109551236 0 0.0023196953779213978 -0.0076423591062123588 0 0.00078201910654957267 -0.0074542433396968689 0 -0.00017825848633676607 -0.0052992707519229623 0 -0.00072160207829004026 -0.0037019629066410184 0 -0.001500010773353738 -0.0038102009907695169 0 -0.00030205226551249055 -0.0052703577752418402 0 -0.00025314328969159417 -0.0058218450897389506 0 -0.00017825848633676607 -0.0052992707519229623 0 -0.00072160207829004026 -0.0037019629066410184 0 -0.00044778580736823978 -0.0039259833550090231 0 0.004985261387112477 -0.0055347498749648682 0 0.003926524758732528 -0.0050401471902058615 0 0.0038928199499602542 -0.005997258557348022 0 0.003926524758732528 -0.0050401471902058615 0 0.0019533389884918181 -0.0051691310573304282 0 0.0038928199499602542 -0.005997258557348022 0 0.0019533389884918181 -0.0051691310573304282 0 0.0038928199499602542 -0.005997258557348022 0 0.0029469455200538471 -0.0066039299044606163 0 0.0019533389884918181 -0.0051691310573304282 0 0.0016477570967612387 -0.0063744343109551236 0 0.0029469455200538471 -0.0066039299044606163 0 0.0016477570967612387 -0.0063744343109551236 0 0.0029469455200538471 -0.0066039299044606163 0 0.0023196953779213978 -0.0076423591062123588 0 0.0029469455200538471 -0.0066039299044606163 0 0.0032951653579488859 -0.0075464846829986993 0 0.0023196953779213978 -0.0076423591062123588 0 0.0038928199499602542 -0.005997258557348022 0 0.0029469455200538471 -0.0066039299044606163 0 0.0040066754840195661 -0.0069605608593824317 0 0.0029469455200538471 -0.0066039299044606163 0 0.0040066754840195661 -0.0069605608593824317 0 0.0032951653579488859 -0.0075464846829986993 0 0.0047021146470807938 -0.0073895069132158464 0 0.0040066754840195661 -0.0069605608593824317 0 0.004258588865064904 -0.0074534767340349063 0 0.0048284359389432633 -0.0065859577581338005 0 0.0038928199499602542 -0.005997258557348022 0 0.0040066754840195661 -0.0069605608593824317 0 0.0045787157464210028 -0.0085973549158503016 0 0.0047306948016689289 -0.0082861772333561214 0 0.0041694494925088631 -0.0083460855648130571 0 0.0047306948016689289 -0.0082861772333561214 0 0.0041694494925088631 -0.0083460855648130571 0 0.0044716170248955958 -0.0078714079401648943 0 0.0041694494925088631 -0.0083460855648130571 0 0.0044716170248955958 -0.0078714079401648943 0 0.0039271018311710622 -0.0078061974969905745 0 0.0040066754840195661 -0.0069605608593824317 0 0.004258588865064904 -0.0074534767340349063 0 0.0039271018311710622 -0.0078061974969905745 0 0.0047021146470807938 -0.0073895069132158464 0 0.0044716170248955958 -0.0078714079401648943 0 0.004258588865064904 -0.0074534767340349063 0 0.0044716170248955958 -0.0078714079401648943 0 0.004258588865064904 -0.0074534767340349063 0 0.0039271018311710622 -0.0078061974969905745 0 0.0040066754840195661 -0.0069605608593824317 0 0.0039271018311710622 -0.0078061974969905745 0 0.0032951653579488859 -0.0075464846829986993 0 0.0039271018311710622 -0.0078061974969905745 0 0.0034201826017050811 -0.00846838918449613 0 0.0032951653579488859 -0.0075464846829986993 0 0.0041694494925088631 -0.0083460855648130571 0 0.0039271018311710622 -0.0078061974969905745 0 0.0034201826017050811 -0.00846838918449613 0 0.0034201826017050811 -0.00846838918449613 0 0.0023196953779213978 -0.0076423591062123588 0 0.0016430210479272771 -0.0088758579986044431 0 0.0034201826017050811 -0.00846838918449613 0 0.0032951653579488859 -0.0075464846829986993 0 0.0023196953779213978 -0.0076423591062123588 0 0.0034201826017050811 -0.00846838918449613 0 0.0038253851156625439 -0.0090641687414544456 0 0.0016430210479272771 -0.0088758579986044431 0 0.0052312021316171043 -0.0021973995150932828 0 0.0063291734260643119 -0.0021308669094979851 0 0.0067791475125288788 -0.0011247036683838135 0 0.0052312021316171043 -0.0021973995150932828 0 0.0067791475125288788 -0.0011247036683838135 0 0.0044948610432251008 -0.000883838928801893 0 0.0063399280640920623 -0.0046550949252031799 0 0.0013006412580993808 -0.0036997122839494412 0 0.013778198854184682 -0.0041418615168381254 0 0.0063399280640920623 -0.0046550949252031799 0 0.012258827439073935 -0.0034524172872243265 0 0.014138460053249221 -0.0016017184306815694 0 0.010799188188380607 -0.0012385421504919655 0 0.0045787157464210028 -0.0085973549158503016 0 0.0049579334487720884 -0.0089527472762724394 0 0.0038034721919785238 -0.0089433580985181158 0 0.0041694494925088631 -0.0083460855648130571 0 0.0034201826017050811 -0.00846838918449613 0 0.0038034721919785238 -0.0089433580985181158 0 0.0054735514604411445 -0.0073802673234209682 0 0.0063399280640920623 -0.0046550949252031799 0 0.0063291734260643119 -0.0021308669094979851 0 0.0074215456298813128 -0.0020875556547112527 0 0.0067791475125288788 -0.0011247036683838135 0 0.013393154159134791 -0.00089205193944371427 0 0.0063399280640920623 -0.0046550949252031799 0 0.0045787157464210028 -0.0085973549158503016 0 0.0041694494925088631 -0.0083460855648130571 0 0.0038034721919785238 -0.0089433580985181158 0 -0.00072160207829004026 -0.0037019629066410184 0 -0.001500010773353738 -0.0038102009907695169 0 -0.00069162690029868541 -0.0029303064920385546 0 -0.00072160207829004026 -0.0037019629066410184 0 -0.00069162690029868541 -0.0029303064920385546 0 -0.00073685926695434044 -0.002916503753613789 0 -0.00025314328969159417 -0.0058218450897389506 0 0.0013006412580993808 -0.0036997122839494412 0 0.0023196953779213978 -0.0076423591062123588 0 0.00078201910654957267 -0.0074542433396968689 0 0.0016430210479272771 -0.0088758579986044431 0 -0.001500010773353738 -0.0038102009907695169 0 -0.0019861725917021951 -0.0028493375425897396 0 -0.00069162690029868541 -0.0029303064920385546 0 -0.00052891338438129198 -0.0028136997131330342 0 -0.00037051516005207909 -0.0027467050883978029 0 -0.00046568950756977818 -0.0027540150089791797 0 0.0023845357120413435 -0.0023138099384519728 0 0.0013006412580993808 -0.0036997122839494412 0 0.0013006412580993808 -0.0036997122839494412 0 -0.001741821346225312 -0.0026872568656137546 0 -0.00068106221260581096 -0.0028947358574259339 0 -0.00052891338438129198 -0.0028136997131330342 0 -0.00069162690029868541 -0.0029303064920385546 0 -0.00052891338438129198 -0.0028136997131330342 0 -0.00046568950756977818 -0.0027540150089791797 0 -0.00069162690029868541 -0.0029303064920385546 0 -0.0024725963552427923 -0.0011348545658862537 0 -0.0013279948851176373 -0.0022008808251119984 0 -0.00068106221260581096 -0.0028947358574259339 0 -0.00069162690029868541 -0.0029303064920385546 0 -0.00073685926695434044 -0.002916503753613789 0 -0.0028445649417313435 0.0024346352337920375 0 -0.0048880030191280673 0.00091860394976511675 0 -0.0011304567048066743 -0.0023551641324590792 0 -0.00068106221260581096 -0.0028947358574259339 0 -0.00073685926695434044 -0.002916503753613789 0 -0.0011304567048066743 -0.0023551641324590792 0 -0.00073685926695434044 -0.002916503753613789 0 -0.00016481597542995763 -0.0035957198392161794 0 -0.00044778580736823978 -0.0039259833550090231 0 -0.00072160207829004026 -0.0037019629066410184 0 -0.00073685926695434044 -0.002916503753613789 0 -0.00044778580736823978 -0.0039259833550090231 0 -0.00073685926695434044 -0.002916503753613789 0 -0.00016481597542995763 -0.0035957198392161794 0 -0.0011304567048066743 -0.0023551641324590792 0 -0.00016481597542995763 -0.0035957198392161794 0 3.1279284942849606e-05 -0.0028909073066128222 0 -0.0011304567048066743 -0.0023551641324590792 0 3.1279284942849606e-05 -0.0028909073066128222 0 -0.0011304567048066743 -0.0023551641324590792 0 0.00020752211365670866 -0.0021457723930655495 0 -0.0011304567048066743 -0.0023551641324590792 0 0.00047778507195520031 -0.00042725120803813801 0 0.00020752211365670866 -0.0021457723930655495 0 -0.0028445649417313435 0.0024346352337920375 0 -0.00070747289776375473 0.0012105587851675311 0 -0.0011304567048066743 -0.0023551641324590792 0 -0.00070747289776375473 0.0012105587851675311 0 -0.0011304567048066743 -0.0023551641324590792 0 0.00047778507195520031 -0.00042725120803813801 0 0.0030153401857713679 0.00070278974029153152 0 0.00095373607474287319 -0.0032338210231787406 0 0.003104817308942381 0.00087161977821087532 0 0.0014482964473745594 -0.00064968141893724529 0 0.00095717417758109347 -0.0030905518536334538 0 0.003104817308942381 0.00087161977821087532 0 0.0016313534489955054 -0.003434307748640987 0 0.0010350647989033402 -0.0032398627038240642 0 0.00047778507195520031 -0.00042725120803813801 0 0.0014482964473745594 -0.00064968141893724529 0 0.00089800885694220648 -0.00150513438196645 0 0.003104817308942381 0.00087161977821087532 0 0.0016381717214742936 0.0010402919111910768 0 0.0014482964473745594 -0.00064968141893724529 0 0.0016381717214742936 0.0010402919111910768 0 0.00047778507195520031 -0.00042725120803813801 0 0.0014482964473745594 -0.00064968141893724529 0 0.0014482964473745594 -0.00064968141893724529 0 0.00089800885694220648 -0.00150513438196645 0 0.00095717417758109347 -0.0030905518536334538 0 0.00047778507195520031 -0.00042725120803813801 0 0.00020752211365670866 -0.0021457723930655495 0 0.00089800885694220648 -0.00150513438196645 0 0.003104817308942381 0.00087161977821087532 0 0.0044903925506367074 0.00040026447610058729 0 0.0016313534489955054 -0.003434307748640987 0 0.0022173673728512031 -0.0025226244746940889 0 0.00096398659859497926 -0.003512154002693378 0 -7.6646500570046132e-05 -0.0043150452423544551 0 3.5930384021576545e-05 -0.0038921178111816042 0 0.00033898828083513767 -0.0036565395268866353 0 3.5930384021576545e-05 -0.0038921178111816042 0 -0.0002027116922059196 -0.0040661648882111649 0 -0.00027179501161315442 -0.0037576802676951176 0 -7.6646500570046132e-05 -0.0043150452423544551 0 3.5930384021576545e-05 -0.0038921178111816042 0 -0.0002027116922059196 -0.0040661648882111649 0 3.5930384021576545e-05 -0.0038921178111816042 0 0.00016848875154805619 -0.0036345673621802966 0 -0.00027179501161315442 -0.0037576802676951176 0 3.5930384021576545e-05 -0.0038921178111816042 0 0.00016848875154805619 -0.0036345673621802966 0 0.00033898828083513767 -0.0036565395268866353 0 0.00016848875154805619 -0.0036345673621802966 0 0.00033898828083513767 -0.0036565395268866353 0 0.00030218051935934002 -0.0036560541947253237 0 0.00016848875154805619 -0.0036345673621802966 0 0.00013914424724972661 -0.0034861752252497826 0 0.00030218051935934002 -0.0036560541947253237 0 0.00016848875154805619 -0.0036345673621802966 0 0.00013914424724972661 -0.0034861752252497826 0 -0.00027179501161315442 -0.0037576802676951176 0 0.0016313534489955054 -0.003434307748640987 0 0.0010350647989033402 -0.0032398627038240642 0 -0.0007821957266257528 -0.0066798964225950226 0 0.00020752211365670866 -0.0021457723930655495 0 0.00089800885694220648 -0.00150513438196645 0 0.00095717417758109347 -0.0030905518536334538 0 3.1279284942849606e-05 -0.0028909073066128222 0 0.00020752211365670866 -0.0021457723930655495 0 0.00095717417758109347 -0.0030905518536334538 0 -0.00016481597542995763 -0.0035957198392161794 0 3.1279284942849606e-05 -0.0028909073066128222 0 0.00095717417758109347 -0.0030905518536334538 0 0.00033898828083513767 -0.0036565395268866353 0 0.00030218051935934002 -0.0036560541947253237 0 0.00034056473240001657 -0.0038166818275892954 0 0.00095373607474287319 -0.0032338210231787406 0 2.9142775884769993e-05 -0.0049199660506819114 0 0.00096398659859497926 -0.003512154002693378 0 2.9142775884769993e-05 -0.0049199660506819114 0 0.00030218051935934002 -0.0036560541947253237 0 0.00035927408980491104 -0.0037995900858077735 0 0.00034056473240001657 -0.0038166818275892954 0 0.00013914424724972661 -0.0034861752252497826 0 0.00030218051935934002 -0.0036560541947253237 0 0.0003225599265861098 -0.003722922196499496 0 0.00030218051935934002 -0.0036560541947253237 0 0.0003225599265861098 -0.003722922196499496 0 0.00035927408980491104 -0.0037995900858077735 0 0.0003225599265861098 -0.003722922196499496 0 0.00042637731174959015 -0.0039262358902421813 0 0.00056443007105632932 -0.0038362131192185285 0 0.0003225599265861098 -0.003722922196499496 0 0.00042637731174959015 -0.0039262358902421813 0 0.00035927408980491104 -0.0037995900858077735 0 0.00035927408980491104 -0.0037995900858077735 0 0.00042623828353131356 -0.0039627958674618323 0 0.00034056473240001657 -0.0038166818275892954 0 0.00042637731174959015 -0.0039262358902421813 0 0.00035927408980491104 -0.0037995900858077735 0 0.00042623828353131356 -0.0039627958674618323 0 2.9142775884769993e-05 -0.0049199660506819114 0 0.00036179999145337724 -0.0044446841981433134 0 -8.082271891169647e-05 -0.0047656475787702943 0 -0.00018579556106218344 -0.0047177330310466774 0 6.2220874128204103e-05 -0.0045947543808453114 0 -8.082271891169647e-05 -0.0047656475787702943 0 6.2220874128204103e-05 -0.0045947543808453114 0 -7.2528923126771415e-05 -0.0048044350893010441 0 0.00050479692987425503 -0.0043629132626762795 0 0.00039601704477505365 -0.0045647104227772121 0 0.00064566423521296293 -0.004226401479794863 0 0.00042623828353131356 -0.0039627958674618323 0 0.00042388917215665118 -0.0040054114859404246 0 0.00034056473240001657 -0.0038166818275892954 0 0.00054198730763617528 -0.004057880946673911 0 2.9142775884769993e-05 -0.0049199660506819114 0 -0.00017825848633676607 -0.0052992707519229623 0 2.3189474514907311e-05 -0.0049131342997455552 0 -0.00018579556106218344 -0.0047177330310466774 0 -8.082271891169647e-05 -0.0047656475787702943 0 2.3189474514907311e-05 -0.0049131342997455552 0 -7.2528923126771415e-05 -0.0048044350893010441 0 -8.082271891169647e-05 -0.0047656475787702943 0 2.3189474514907311e-05 -0.0049131342997455552 0 -0.00018579556106218344 -0.0047177330310466774 0 -0.00017825848633676607 -0.0052992707519229623 0 -0.00018579556106218344 -0.0047177330310466774 0 -0.00044778580736823978 -0.0039259833550090231 0 -0.00018579556106218344 -0.0047177330310466774 0 -0.00044778580736823978 -0.0039259833550090231 0 -0.00019743461871923247 -0.0042158750015053037 0 -0.00016481597542995763 -0.0035957198392161794 0 0.00095717417758109347 -0.0030905518536334538 0 6.2220874128204103e-05 -0.0045947543808453114 0 -0.00016481597542995763 -0.0035957198392161794 0 -0.00044778580736823978 -0.0039259833550090231 0 -0.00019743461871923247 -0.0042158750015053037 0 -0.00016481597542995763 -0.0035957198392161794 0 -0.00019743461871923247 -0.0042158750015053037 0 6.2220874128204103e-05 -0.0045947543808453114 0 -0.00018579556106218344 -0.0047177330310466774 0 -0.00019743461871923247 -0.0042158750015053037 0 6.2220874128204103e-05 -0.0045947543808453114 0 -0.013919849730127328 0.0018249639951195542 0 -0.015221070486459503 -0.0007625412976275328 0 -0.012103255304491238 -0.0014730337922824837 0 -0.014839172472787741 0.0028896840895468851 0 -0.01489469918127604 0.0028764462024400985 0 -0.014907676638620209 0.0029656731560584937 0 -0.01112243317361831 0.0010704405009530514 0 -0.015329130799614515 -0.00033353229349213494 0 -0.0081641598987150822 0.0039474806616436129 0 -0.010265422815453703 0.0075325905362031379 0 -0.011826875265646452 0.0067006711672797353 0 -0.01112243317361831 0.0010704405009530514 0 -0.014380966976494845 0.010143444420725537 0 -0.0059888529664055678 0.0054073988437573191 0 -0.01112243317361831 0.0010704405009530514 0 -0.0059888529664055678 0.0054073988437573191 0 -0.014380966976494845 0.010143444420725537 0 -0.0019654444634814548 -0.0045837615666316665 0 -0.0027618908204834519 -0.0037206487503206793 0 -0.0018742133447986046 -0.0040013996855838624 0 -0.0019654444634814548 -0.0045837615666316665 0 -0.0018742133447986046 -0.0040013996855838624 0 -0.0015001045077953942 -0.0042551057512394781 0 -0.0027618908204834519 -0.0037206487503206793 0 -0.0018742133447986046 -0.0040013996855838624 0 -0.0018036675309141066 -0.0036121589930238119 0 -0.01112243317361831 0.0010704405009530514 0 -0.0058423878393856037 -0.0031541188307266026 0 -0.0027618908204834519 -0.0037206487503206793 0 -0.0016463541399340269 -0.0032434218336697641 0 -0.0018036675309141066 -0.0036121589930238119 0 -0.013919849730127328 0.0018249639951195542 0 -0.015221070486459503 -0.0007625412976275328 0 -0.017738646261705238 -0.00053205938779143393 0 -0.0015859808805509111 -0.0033515071652932358 0 -0.0016097708315352169 -0.0032524385480977645 0 -0.0011935233696705298 -0.0033657875354660321 0 -0.0015859808805509111 -0.0033515071652932358 0 -0.0016463541399340269 -0.0032434218336697641 0 -0.0018036675309141066 -0.0036121589930238119 0 -0.0055780349166049759 -0.0033301261846101948 0 -0.0058423878393856037 -0.0031541188307266026 0 -0.0016097708315352169 -0.0032524385480977645 0 -0.0011935233696705298 -0.0033657875354660321 0 -0.0010929617766922194 -0.0030385311207474647 0 -0.0011935233696705298 -0.0033657875354660321 0 -0.0013291006273736796 -0.0035375132904338943 0 -0.00090978382352175236 -0.0036329615227590662 0 -0.0015859808805509111 -0.0033515071652932358 0 -0.0011935233696705298 -0.0033657875354660321 0 -0.0013291006273736796 -0.0035375132904338943 0 -0.0013291006273736796 -0.0035375132904338943 0 -0.0013664203309933722 -0.0037851858860103883 0 -0.00090978382352175236 -0.0036329615227590662 0 -0.0013664203309933722 -0.0037851858860103883 0 -0.00081032469381431044 -0.0039635497760894915 0 -0.00090978382352175236 -0.0036329615227590662 0 -0.0013664203309933722 -0.0037851858860103883 0 -0.0015201778965189517 -0.0035732567245982273 0 -0.0018036675309141066 -0.0036121589930238119 0 -0.0018742133447986046 -0.0040013996855838624 0 -0.0013664203309933722 -0.0037851858860103883 0 -0.0018036675309141066 -0.0036121589930238119 0 -0.0015859808805509111 -0.0033515071652932358 0 -0.0013291006273736796 -0.0035375132904338943 0 -0.0015201778965189517 -0.0035732567245982273 0 -0.0013291006273736796 -0.0035375132904338943 0 -0.0013664203309933722 -0.0037851858860103883 0 -0.0015201778965189517 -0.0035732567245982273 0 -0.0015859808805509111 -0.0033515071652932358 0 -0.0015201778965189517 -0.0035732567245982273 0 -0.0018036675309141066 -0.0036121589930238119 0 -0.0018742133447986046 -0.0040013996855838624 0 -0.0013664203309933722 -0.0037851858860103883 0 -0.0015001045077953942 -0.0042551057512394781 0 -0.0011318276409436655 -0.0045248254792823158 0 -0.0010987077330323763 -0.0041795646746859462 0 -0.00078144097279166233 -0.0042967332203235039 0 -0.0011318276409436655 -0.0045248254792823158 0 -0.0015001045077953942 -0.0042551057512394781 0 -0.0010987077330323763 -0.0041795646746859462 0 -0.0013664203309933722 -0.0037851858860103883 0 -0.0015001045077953942 -0.0042551057512394781 0 -0.0010987077330323763 -0.0041795646746859462 0 -0.0013664203309933722 -0.0037851858860103883 0 -0.0010987077330323763 -0.0041795646746859462 0 -0.00081032469381431044 -0.0039635497760894915 0 -0.00081032469381431044 -0.0039635497760894915 0 -0.00078144097279166233 -0.0042967332203235039 0 -0.0004628690547832279 -0.0040672855159268884 0 -0.0010987077330323763 -0.0041795646746859462 0 -0.00081032469381431044 -0.0039635497760894915 0 -0.00078144097279166233 -0.0042967332203235039 0 -7.6646500570046132e-05 -0.0043150452423544551 0 -0.0002027116922059196 -0.0040661648882111649 0 -0.00042395562984976664 -0.0042802765578869809 0 -0.00078144097279166233 -0.0042967332203235039 0 -0.00042395562984976664 -0.0042802765578869809 0 -0.0004628690547832279 -0.0040672855159268884 0 -0.0002027116922059196 -0.0040661648882111649 0 -0.00042395562984976664 -0.0042802765578869809 0 -0.0004628690547832279 -0.0040672855159268884 0 -0.00081032469381431044 -0.0039635497760894915 0 -0.0004628690547832279 -0.0040672855159268884 0 -0.00027179501161315442 -0.0037576802676951176 0 -0.0002027116922059196 -0.0040661648882111649 0 -0.0004628690547832279 -0.0040672855159268884 0 -0.00027179501161315442 -0.0037576802676951176 0 -0.00027179501161315442 -0.0037576802676951176 0 -0.00090978382352175236 -0.0036329615227590662 0 -0.00055269119813029029 -0.0033901645879345359 0 -0.00081032469381431044 -0.0039635497760894915 0 -0.00027179501161315442 -0.0037576802676951176 0 -0.00090978382352175236 -0.0036329615227590662 0 -0.0011935233696705298 -0.0033657875354660321 0 -0.00090978382352175236 -0.0036329615227590662 0 -0.00055269119813029029 -0.0033901645879345359 0 -0.0011935233696705298 -0.0033657875354660321 0 -0.00055269119813029029 -0.0033901645879345359 0 -0.0010929617766922194 -0.0030385311207474647 0 0.00013914424724972661 -0.0034861752252497826 0 -0.00027179501161315442 -0.0037576802676951176 0 -0.00055269119813029029 -0.0033901645879345359 0 -0.00055269119813029029 -0.0033901645879345359 0 -0.00086102839627977084 -0.0019027898278012069 0 -0.0010929617766922194 -0.0030385311207474647 0 0.00010994795064201916 -0.0035070433879187861 0 -8.3730946801873786e-06 -0.0027091021873718495 0 0.00013914424724972661 -0.0034861752252497826 0 0.0003225599265861098 -0.003722922196499496 0 0.00056443007105632932 -0.0038362131192185285 0 0.00013914424724972661 -0.0034861752252497826 0 -0.00055269119813029029 -0.0033901645879345359 0 -0.00086102839627977084 -0.0019027898278012069 0 0.00042637731174959015 -0.0039262358902421813 0 0.00056443007105632932 -0.0038362131192185285 0 0.00052491041996631396 -0.0039786822521835231 0 -0.00086102839627977084 -0.0019027898278012069 0 -0.0018928305518513251 -0.0013379384887135298 0 -0.0022101382688114461 -0.0021289857390943889 0 -0.017738646261705238 -0.00053205938779143393 0 -0.016947784770547279 -0.0028870013805873166 0 -0.017100859018134386 -0.0037195362468156121 0 -0.0018383893474868409 -0.0034367323151962862 0 -0.0010929617766922194 -0.0030385311207474647 0 -0.0022101382688114461 -0.0021289857390943889 0 -0.0058423878393856037 -0.0031541188307266026 0 -0.0099683212363825477 -0.0024352151998964532 0 -0.00086102839627977084 -0.0019027898278012069 0 -0.0010929617766922194 -0.0030385311207474647 0 -0.0022101382688114461 -0.0021289857390943889 0 -0.0058423878393856037 -0.0031541188307266026 0 -0.00088588471569036123 -0.0022843273123515457 0 -0.016491329008143298 -0.003335801935800299 0 -0.015329130799614515 -0.00033353229349213494 0 -0.015221070486459503 -0.0007625412976275328 0 -0.016947784770547279 -0.0028870013805873166 0 -0.012103255304491238 -0.0014730337922824837 0 -0.016947784770547279 -0.0028870013805873166 0 -0.016606341684068597 -0.0031849399988188691 0 -0.016395647938174437 -0.0031796629326189085 0 -0.015221070486459503 -0.0007625412976275328 0 -0.017738646261705238 -0.00053205938779143393 0 -0.016947784770547279 -0.0028870013805873166 0 -0.016777955499009456 -0.0033562792213613548 0 -0.016947784770547279 -0.0028870013805873166 0 -0.016606341684068597 -0.0031849399988188691 0 -0.016685023321353687 -0.0033635967105337034 0 -0.016777955499009456 -0.0033562792213613548 0 -0.016606341684068597 -0.0031849399988188691 0 -0.016777955499009456 -0.0033562792213613548 0 -0.016947784770547279 -0.0028870013805873166 0 -0.017100859018134386 -0.0037195362468156121 0 -0.017100859018134386 -0.0037195362468156121 0 -0.016932303683160579 -0.0038888965677411559 0 -0.017077849123184621 -0.0042234848943454905 0 -0.0099683212363825477 -0.0024352151998964532 0 -0.010061518354311858 -0.003153848484741963 0 -0.0018928305518513251 -0.0013379384887135298 0 -0.0022101382688114461 -0.0021289857390943889 0 -0.0025890561593291611 -0.00086894052120834234 0 -0.016777955499009456 -0.0033562792213613548 0 -0.017100859018134386 -0.0037195362468156121 0 -0.016932303683160579 -0.0038888965677411559 0 -0.016932303683160579 -0.0038888965677411559 0 -0.017041590573933105 -0.0041984573515459079 0 -0.016907776941395228 -0.0040571635835746191 0 -0.016828481239314748 -0.0039819156819915639 0 -0.016840904591283699 -0.0038951358709343039 0 -0.016907776941395228 -0.0040571635835746191 0 -0.016828481239314748 -0.0039819156819915639 0 -0.01675109815649083 -0.0038276469356403912 0 -0.016734849914681743 -0.0039149796491024114 0 -0.016828481239314748 -0.0039819156819915639 0 -0.016782456662722683 -0.0040506081038088433 0 -0.016907776941395228 -0.0040571635835746191 0 -0.016828481239314748 -0.0039819156819915639 0 -0.016734849914681743 -0.0039149796491024114 0 -0.016782456662722683 -0.0040506081038088433 0 -0.016932303683160579 -0.0038888965677411559 0 -0.016840904591283699 -0.0038951358709343039 0 -0.016907776941395228 -0.0040571635835746191 0 -0.016932303683160579 -0.0038888965677411559 0 -0.016786334721962486 -0.003762650665134956 0 -0.016840904591283699 -0.0038951358709343039 0 -0.016828481239314748 -0.0039819156819915639 0 -0.016840904591283699 -0.0038951358709343039 0 -0.01675109815649083 -0.0038276469356403912 0 -0.016786334721962486 -0.003762650665134956 0 -0.016840904591283699 -0.0038951358709343039 0 -0.01675109815649083 -0.0038276469356403912 0 -0.016786334721962486 -0.003762650665134956 0 -0.01675109815649083 -0.0038276469356403912 0 -0.016685890576732258 -0.0036635184410968181 0 -0.016786334721962486 -0.003762650665134956 0 -0.016739904345728408 -0.0035260972280645401 0 -0.016685890576732258 -0.0036635184410968181 0 -0.016932303683160579 -0.0038888965677411559 0 -0.016786334721962486 -0.003762650665134956 0 -0.016739904345728408 -0.0035260972280645401 0 -0.016777955499009456 -0.0033562792213613548 0 -0.016932303683160579 -0.0038888965677411559 0 -0.016739904345728408 -0.0035260972280645401 0 -0.016739904345728408 -0.0035260972280645401 0 -0.016633418529007401 -0.0035461275516282774 0 -0.016685890576732258 -0.0036635184410968181 0 -0.016685023321353687 -0.0033635967105337034 0 -0.016777955499009456 -0.0033562792213613548 0 -0.016739904345728408 -0.0035260972280645401 0 -0.016685023321353687 -0.0033635967105337034 0 -0.016739904345728408 -0.0035260972280645401 0 -0.016612966789267155 -0.0033945759525627161 0 -0.016739904345728408 -0.0035260972280645401 0 -0.016633418529007401 -0.0035461275516282774 0 -0.016612966789267155 -0.0033945759525627161 0 -0.016633418529007401 -0.0035461275516282774 0 -0.016559750966924826 -0.0034962877285703944 0 -0.016612966789267155 -0.0033945759525627161 0 -0.016633418529007401 -0.0035461275516282774 0 -0.016559750966924826 -0.0034962877285703944 0 -0.016573623454416399 -0.0036150986757038633 0 -0.016489171731177522 -0.0035121487078805616 0 -0.016573623454416399 -0.0036150986757038633 0 -0.016476796405824671 -0.003653424639417369 0 -0.016489171731177522 -0.0035121487078805616 0 -0.016559750966924826 -0.0034962877285703944 0 -0.016532674214627417 -0.0033882105028557345 0 -0.016489171731177522 -0.0035121487078805616 0 -0.016559750966924826 -0.0034962877285703944 0 -0.016573623454416399 -0.0036150986757038633 0 -0.016573623454416399 -0.0036150986757038633 0 -0.016545810148884014 -0.0037711502687392652 0 -0.016476796405824671 -0.003653424639417369 0 -0.016573623454416399 -0.0036150986757038633 0 -0.016654461343453355 -0.0037924696726570378 0 -0.016545810148884014 -0.0037711502687392652 0 -0.016633418529007401 -0.0035461275516282774 0 -0.016573623454416399 -0.0036150986757038633 0 -0.016685890576732258 -0.0036635184410968181 0 -0.016573623454416399 -0.0036150986757038633 0 -0.016685890576732258 -0.0036635184410968181 0 -0.016654461343453355 -0.0037924696726570378 0 -0.01675109815649083 -0.0038276469356403912 0 -0.016685890576732258 -0.0036635184410968181 0 -0.016654461343453355 -0.0037924696726570378 0 -0.01675109815649083 -0.0038276469356403912 0 -0.016654461343453355 -0.0037924696726570378 0 -0.016734849914681743 -0.0039149796491024114 0 -0.016654461343453355 -0.0037924696726570378 0 -0.01663705049415139 -0.0039383569734682961 0 -0.016734849914681743 -0.0039149796491024114 0 -0.016545810148884014 -0.0037711502687392652 0 -0.01663705049415139 -0.0039383569734682961 0 -0.016498601064200712 -0.0038974402719591265 0 -0.016654461343453355 -0.0037924696726570378 0 -0.016545810148884014 -0.0037711502687392652 0 -0.01663705049415139 -0.0039383569734682961 0 -0.01663705049415139 -0.0039383569734682961 0 -0.016551991808525731 -0.0040604983850602606 0 -0.016684760406975068 -0.0040986321561250223 0 -0.01663705049415139 -0.0039383569734682961 0 -0.016498601064200712 -0.0038974402719591265 0 -0.016551991808525731 -0.0040604983850602606 0 -0.01663705049415139 -0.0039383569734682961 0 -0.016782456662722683 -0.0040506081038088433 0 -0.016684760406975068 -0.0040986321561250223 0 -0.01663705049415139 -0.0039383569734682961 0 -0.016734849914681743 -0.0039149796491024114 0 -0.016782456662722683 -0.0040506081038088433 0 -0.016426804645001358 -0.0039911934992611997 0 -0.016498601064200712 -0.0038974402719591265 0 -0.016382089734299013 -0.0038592858715149167 0 -0.016266451694222653 -0.0039175330401695638 0 -0.016426804645001358 -0.0039911934992611997 0 -0.016395586119297055 -0.0041797227976247782 0 -0.016266451694222653 -0.0039175330401695638 0 -0.016426804645001358 -0.0039911934992611997 0 -0.016382089734299013 -0.0038592858715149167 0 -0.016426804645001358 -0.0039911934992611997 0 -0.016498601064200712 -0.0038974402719591265 0 -0.016551991808525731 -0.0040604983850602606 0 -0.016498601064200712 -0.0038974402719591265 0 -0.016430530645201714 -0.0037568817839122022 0 -0.016382089734299013 -0.0038592858715149167 0 -0.016545810148884014 -0.0037711502687392652 0 -0.016498601064200712 -0.0038974402719591265 0 -0.016430530645201714 -0.0037568817839122022 0 -0.01630227137847547 -0.0037494272044447294 0 -0.016430530645201714 -0.0037568817839122022 0 -0.016382089734299013 -0.0038592858715149167 0 -0.01630227137847547 -0.0037494272044447294 0 -0.016430530645201714 -0.0037568817839122022 0 -0.016378203315984458 -0.0036408283845825468 0 -0.016281329756818057 -0.0036368243076816517 0 -0.01630227137847547 -0.0037494272044447294 0 -0.016378203315984458 -0.0036408283845825468 0 -0.016545810148884014 -0.0037711502687392652 0 -0.016430530645201714 -0.0037568817839122022 0 -0.016476796405824671 -0.003653424639417369 0 -0.016430530645201714 -0.0037568817839122022 0 -0.016378203315984458 -0.0036408283845825468 0 -0.016476796405824671 -0.003653424639417369 0 -0.016378203315984458 -0.0036408283845825468 0 -0.016476796405824671 -0.003653424639417369 0 -0.016417671933117078 -0.0035661074104901352 0 -0.016489171731177522 -0.0035121487078805616 0 -0.016476796405824671 -0.003653424639417369 0 -0.016417671933117078 -0.0035661074104901352 0 -0.016489171731177522 -0.0035121487078805616 0 -0.016417671933117078 -0.0035661074104901352 0 -0.016401450969380393 -0.0034639354974569342 0 -0.016281329756818057 -0.0036368243076816517 0 -0.016378203315984458 -0.0036408283845825468 0 -0.016323048535606274 -0.0035508790301489448 0 -0.016378203315984458 -0.0036408283845825468 0 -0.016417671933117078 -0.0035661074104901352 0 -0.016323048535606274 -0.0035508790301489448 0 -0.016417671933117078 -0.0035661074104901352 0 -0.016323048535606274 -0.0035508790301489448 0 -0.016401450969380393 -0.0034639354974569342 0 -0.016323048535606274 -0.0035508790301489448 0 -0.016331079738511792 -0.0034553528960963279 0 -0.016401450969380393 -0.0034639354974569342 0 -0.016255490272611105 -0.0034385514394910106 0 -0.016323048535606274 -0.0035508790301489448 0 -0.016331079738511792 -0.0034553528960963279 0 -0.016255490272611105 -0.0034385514394910106 0 -0.016331079738511792 -0.0034553528960963279 0 -0.016301192540672235 -0.0033983418673631627 0 -0.016331079738511792 -0.0034553528960963279 0 -0.016365747825153792 -0.0034074540326604346 0 -0.016301192540672235 -0.0033983418673631627 0 -0.016331079738511792 -0.0034553528960963279 0 -0.016365747825153792 -0.0034074540326604346 0 -0.016401450969380393 -0.0034639354974569342 0 -0.016338701784805249 -0.0033610722164793588 0 -0.016375997784530413 -0.0033226652354614492 0 -0.016403628894185594 -0.0033676412649842956 0 -0.016365747825153792 -0.0034074540326604346 0 -0.016338701784805249 -0.0033610722164793588 0 -0.016403628894185594 -0.0033676412649842956 0 -0.016365747825153792 -0.0034074540326604346 0 -0.016338701784805249 -0.0033610722164793588 0 -0.016301192540672235 -0.0033983418673631627 0 -0.016270393472802173 -0.0033542674409624217 0 -0.016338701784805249 -0.0033610722164793588 0 -0.016301192540672235 -0.0033983418673631627 0 -0.016270393472802173 -0.0033542674409624217 0 -0.016338701784805249 -0.0033610722164793588 0 -0.016314717689844944 -0.0033155287070831298 0 -0.016270393472802173 -0.0033542674409624217 0 -0.0162824248996052 -0.0032720942729193357 0 -0.016314717689844944 -0.0033155287070831298 0 -0.016338701784805249 -0.0033610722164793588 0 -0.016314717689844944 -0.0033155287070831298 0 -0.016375997784530413 -0.0033226652354614492 0 -0.016314717689844944 -0.0033155287070831298 0 -0.016375997784530413 -0.0033226652354614492 0 -0.016353502677122524 -0.0032819186970458923 0 -0.016375997784530413 -0.0033226652354614492 0 -0.016353502677122524 -0.0032819186970458923 0 -0.016412617526260043 -0.0032891060920378534 0 -0.016353502677122524 -0.0032819186970458923 0 -0.016389040450990551 -0.003255221557716684 0 -0.016351521630453579 -0.0032314165808758591 0 -0.0162824248996052 -0.0032720942729193357 0 -0.016353502677122524 -0.0032819186970458923 0 -0.016351521630453579 -0.0032314165808758591 0 -0.0162824248996052 -0.0032720942729193357 0 -0.016314717689844944 -0.0033155287070831298 0 -0.016353502677122524 -0.0032819186970458923 0 -0.016449741159516935 -0.0032549346225821019 0 -0.016493443414005222 -0.0032211491670864731 0 -0.016427915396358166 -0.0032157212333856116 0 -0.016449741159516935 -0.0032549346225821019 0 -0.016389040450990551 -0.003255221557716684 0 -0.016427915396358166 -0.0032157212333856116 0 -0.016449741159516935 -0.0032549346225821019 0 -0.016389040450990551 -0.003255221557716684 0 -0.016412617526260043 -0.0032891060920378534 0 -0.016353502677122524 -0.0032819186970458923 0 -0.016389040450990551 -0.003255221557716684 0 -0.016412617526260043 -0.0032891060920378534 0 -0.016412617526260043 -0.0032891060920378534 0 -0.016439319396214888 -0.0033276227691557332 0 -0.016403628894185594 -0.0033676412649842956 0 -0.016375997784530413 -0.0033226652354614492 0 -0.016412617526260043 -0.0032891060920378534 0 -0.016403628894185594 -0.0033676412649842956 0 -0.016449741159516935 -0.0032549346225821019 0 -0.016412617526260043 -0.0032891060920378534 0 -0.016439319396214888 -0.0033276227691557332 0 -0.016449741159516935 -0.0032549346225821019 0 -0.016439319396214888 -0.0033276227691557332 0 -0.016486405758349153 -0.0032972582981438386 0 -0.016439319396214888 -0.0033276227691557332 0 -0.016403628894185594 -0.0033676412649842956 0 -0.016458714426084202 -0.0033913172755445455 0 -0.016439319396214888 -0.0033276227691557332 0 -0.016458714426084202 -0.0033913172755445455 0 -0.016486405758349153 -0.0032972582981438386 0 -0.016403628894185594 -0.0033676412649842956 0 -0.016401450969380393 -0.0034639354974569342 0 -0.016458714426084202 -0.0033913172755445455 0 -0.016365747825153792 -0.0034074540326604346 0 -0.016403628894185594 -0.0033676412649842956 0 -0.016401450969380393 -0.0034639354974569342 0 -0.016489171731177522 -0.0035121487078805616 0 -0.016401450969380393 -0.0034639354974569342 0 -0.016458714426084202 -0.0033913172755445455 0 -0.016489171731177522 -0.0035121487078805616 0 -0.016458714426084202 -0.0033913172755445455 0 -0.016532674214627417 -0.0033882105028557345 0 -0.016532674214627417 -0.0033882105028557345 0 -0.016486405758349153 -0.0032972582981438386 0 -0.016546515816847056 -0.0032861903402521138 0 -0.016458714426084202 -0.0033913172755445455 0 -0.016532674214627417 -0.0033882105028557345 0 -0.016486405758349153 -0.0032972582981438386 0 -0.016685023321353687 -0.0033635967105337034 0 -0.016612966789267155 -0.0033945759525627161 0 -0.016606341684068597 -0.0031849399988188691 0 -0.016612966789267155 -0.0033945759525627161 0 -0.016606341684068597 -0.0031849399988188691 0 -0.016546515816847056 -0.0032861903402521138 0 -0.016559750966924826 -0.0034962877285703944 0 -0.016532674214627417 -0.0033882105028557345 0 -0.016612966789267155 -0.0033945759525627161 0 -0.016532674214627417 -0.0033882105028557345 0 -0.016612966789267155 -0.0033945759525627161 0 -0.016546515816847056 -0.0032861903402521138 0 -0.016606341684068597 -0.0031849399988188691 0 -0.016546515816847056 -0.0032861903402521138 0 -0.016493443414005222 -0.0032211491670864731 0 -0.016486405758349153 -0.0032972582981438386 0 -0.016546515816847056 -0.0032861903402521138 0 -0.016493443414005222 -0.0032211491670864731 0 -0.016449741159516935 -0.0032549346225821019 0 -0.016486405758349153 -0.0032972582981438386 0 -0.016493443414005222 -0.0032211491670864731 0 -0.016606341684068597 -0.0031849399988188691 0 -0.016493443414005222 -0.0032211491670864731 0 -0.016395647938174437 -0.0031796629326189085 0 -0.016395647938174437 -0.0031796629326189085 0 -0.016287620349323882 -0.0031988349096645228 0 -0.016351521630453579 -0.0032314165808758591 0 -0.0162824248996052 -0.0032720942729193357 0 -0.016287620349323882 -0.0031988349096645228 0 -0.016351521630453579 -0.0032314165808758591 0 -0.016389040450990551 -0.003255221557716684 0 -0.016351521630453579 -0.0032314165808758591 0 -0.016394854445238884 -0.0032259830200713751 0 -0.016395647938174437 -0.0031796629326189085 0 -0.016351521630453579 -0.0032314165808758591 0 -0.016394854445238884 -0.0032259830200713751 0 -0.016493443414005222 -0.0032211491670864731 0 -0.016395647938174437 -0.0031796629326189085 0 -0.016427915396358166 -0.0032157212333856116 0 -0.016389040450990551 -0.003255221557716684 0 -0.016394854445238884 -0.0032259830200713751 0 -0.016427915396358166 -0.0032157212333856116 0 -0.016395647938174437 -0.0031796629326189085 0 -0.016394854445238884 -0.0032259830200713751 0 -0.016427915396358166 -0.0032157212333856116 0 -0.016585735478166195 -0.0047695397917589897 0 -0.017145143575124439 -0.0050301377554659108 0 -0.016591310082589645 -0.0053805800488491151 0 -0.016585735478166195 -0.0047695397917589897 0 -0.016840299185364085 -0.0044436625560418897 0 -0.017145143575124439 -0.0050301377554659108 0 -0.01627996500744474 -0.0044691696353631504 0 -0.016585735478166195 -0.0047695397917589897 0 -0.016523619888806379 -0.004453544349924757 0 -0.01627996500744474 -0.0044691696353631504 0 -0.016523619888806379 -0.004453544349924757 0 -0.016395586119297055 -0.0041797227976247782 0 -0.016523619888806379 -0.004453544349924757 0 -0.016395586119297055 -0.0041797227976247782 0 -0.016634656690694038 -0.0042455662450424569 0 -0.016426804645001358 -0.0039911934992611997 0 -0.016551991808525731 -0.0040604983850602606 0 -0.016395586119297055 -0.0041797227976247782 0 -0.016551991808525731 -0.0040604983850602606 0 -0.016395586119297055 -0.0041797227976247782 0 -0.016634656690694038 -0.0042455662450424569 0 -0.016684760406975068 -0.0040986321561250223 0 -0.016634656690694038 -0.0042455662450424569 0 -0.016814677027637174 -0.0041994017484184602 0 -0.016782456662722683 -0.0040506081038088433 0 -0.016684760406975068 -0.0040986321561250223 0 -0.016814677027637174 -0.0041994017484184602 0 -0.016551991808525731 -0.0040604983850602606 0 -0.016684760406975068 -0.0040986321561250223 0 -0.016634656690694038 -0.0042455662450424569 0 -0.016634656690694038 -0.0042455662450424569 0 -0.016814677027637174 -0.0041994017484184602 0 -0.016840299185364085 -0.0044436625560418897 0 -0.016585735478166195 -0.0047695397917589897 0 -0.016523619888806379 -0.004453544349924757 0 -0.016840299185364085 -0.0044436625560418897 0 -0.016523619888806379 -0.004453544349924757 0 -0.016634656690694038 -0.0042455662450424569 0 -0.016840299185364085 -0.0044436625560418897 0 -0.0079225473876841923 -0.0044940424886653757 0 -0.0080189910858140968 -0.0042110537820127109 0 -0.0077356722535240783 -0.0043917408961214521 0 -0.016840299185364085 -0.0044436625560418897 0 -0.017116953243078433 -0.004246135207280231 0 -0.017145143575124439 -0.0050301377554659108 0 -0.016840299185364085 -0.0044436625560418897 0 -0.017041590573933105 -0.0041984573515459079 0 -0.017116953243078433 -0.004246135207280231 0 -0.016814677027637174 -0.0041994017484184602 0 -0.016840299185364085 -0.0044436625560418897 0 -0.017041590573933105 -0.0041984573515459079 0 -0.016814677027637174 -0.0041994017484184602 0 -0.017041590573933105 -0.0041984573515459079 0 -0.016907776941395228 -0.0040571635835746191 0 -0.016932303683160579 -0.0038888965677411559 0 -0.017041590573933105 -0.0041984573515459079 0 -0.017077849123184621 -0.0042234848943454905 0 -0.016782456662722683 -0.0040506081038088433 0 -0.016814677027637174 -0.0041994017484184602 0 -0.016907776941395228 -0.0040571635835746191 0 -0.011002089249174684 -0.0035984432860295167 0 -0.010061518354311858 -0.003153848484741963 0 -0.010061518354311858 -0.003153848484741963 0 -0.0018962297582122572 -0.0033761622200949837 0 -0.0080189910858140968 -0.0042110537820127109 0 -0.0079296548788499559 -0.0041608332059262718 0 -0.0077356722535240783 -0.0043917408961214521 0 -0.010061518354311858 -0.003153848484741963 0 -0.012749594305014052 -0.0046428056169037927 0 -0.003990792870094689 -0.0046511976815972571 0 -0.0018962297582122572 -0.0033761622200949837 0 -0.00035798549732119042 -0.0045508279352207007 0 -0.00044825108008598828 -0.004806798537793781 0 -7.9841785207093502e-05 -0.0045866751727103453 0 -0.00035798549732119042 -0.0045508279352207007 0 -7.9841785207093502e-05 -0.0045866751727103453 0 -0.00031433639251900706 -0.0042990383333040847 0 -0.0018962297582122572 -0.0033761622200949837 0 0.00049817774530090751 -0.0043159684522772728 0 -0.00063899628504297367 -0.0045237551422253079 0 -0.00035798549732119042 -0.0045508279352207007 0 -0.00044825108008598828 -0.004806798537793781 0 -0.00086102839627977084 -0.0019027898278012069 0 -0.0018928305518513251 -0.0013379384887135298 0 -0.0019060726025184524 -0.00045106233862472154 0 -8.3730946801873786e-06 -0.0027091021873718495 0 -0.0018962297582122572 -0.0033761622200949837 0 -0.0018928305518513251 -0.0013379384887135298 0 -0.0025890561593291611 -0.00086894052120834234 0 -0.0019060726025184524 -0.00045106233862472154 0 0.00056443007105632932 -0.0038362131192185285 0 0.00062132322097898122 -0.003996065251476345 0 0.00052491041996631396 -0.0039786822521835231 0 0.00062132322097898122 -0.003996065251476345 0 0.00052491041996631396 -0.0039786822521835231 0 0.00052862943664127074 -0.0040531916247892059 0 0.00052491041996631396 -0.0039786822521835231 0 0.00052862943664127074 -0.0040531916247892059 0 0.00048612301328477636 -0.0040428345056949489 0 -7.9841785207093502e-05 -0.0045866751727103453 0 -1.153145468667122e-05 -0.0041877645890166307 0 0.00027228930009039567 -0.0043355746906492418 0 -7.9841785207093502e-05 -0.0045866751727103453 0 -1.153145468667122e-05 -0.0041877645890166307 0 -0.00031433639251900706 -0.0042990383333040847 0 -1.153145468667122e-05 -0.0041877645890166307 0 -0.00027308686244412482 -0.0039408217866260644 0 -0.00031433639251900706 -0.0042990383333040847 0 -1.153145468667122e-05 -0.0041877645890166307 0 -0.00027308686244412482 -0.0039408217866260644 0 0.00021024794254894132 -0.0038962220773164666 0 -0.00027308686244412482 -0.0039408217866260644 0 -0.00054757132571319519 -0.0041275962060005568 0 -0.00061531971204705448 -0.0038874465234940573 0 -0.00027308686244412482 -0.0039408217866260644 0 -0.00031433639251900706 -0.0042990383333040847 0 -0.00054757132571319519 -0.0041275962060005568 0 -0.00063899628504297367 -0.0045237551422253079 0 -0.00035798549732119042 -0.0045508279352207007 0 -0.00031433639251900706 -0.0042990383333040847 0 -0.00063899628504297367 -0.0045237551422253079 0 -0.00031433639251900706 -0.0042990383333040847 0 -0.00054757132571319519 -0.0041275962060005568 0 -0.00063899628504297367 -0.0045237551422253079 0 -0.00054757132571319519 -0.0041275962060005568 0 -0.00082738844477056443 -0.0042586394880258002 0 -0.0080189910858140968 -0.0042110537820127109 0 -0.0079296548788499559 -0.0041608332059262718 0 -0.0081494697259295 -0.003938828494975454 0 -0.012749594305014052 -0.0046428056169037927 0 -0.010712337609837275 -0.0051603796929386133 0 -0.003990792870094689 -0.0046511976815972571 0 -0.010712337609837275 -0.0051603796929386133 0 -0.00054757132571319519 -0.0041275962060005568 0 -0.00082738844477056443 -0.0042586394880258002 0 -0.00061531971204705448 -0.0038874465234940573 0 -0.0173267866587332 -0.0055903808311664306 0 -0.010712337609837275 -0.0051603796929386133 0 -0.010712337609837275 -0.0051603796929386133 0 -0.0087314352520053776 -0.0055686907328082241 0 -0.016873819909135595 -0.0065410929259062042 0 -0.017154890623749232 -0.0058426138524574093 0 -0.017062929188398031 -0.0072551232791566497 0 -0.00082738844477056443 -0.0042586394880258002 0 -0.00092085412704769607 -0.0038115260950918207 0 -0.00061531971204705448 -0.0038874465234940573 0 -0.016495485469177534 -0.0059764882823781021 0 -0.016873819909135595 -0.0065410929259062042 0 -0.017108188782384962 -0.0058591217074478357 0 -0.016495485469177534 -0.0059764882823781021 0 -0.017108188782384962 -0.0058591217074478357 0 -0.016591310082589645 -0.0053805800488491151 0 -0.017145143575124439 -0.0050301377554659108 0 -0.017108188782384962 -0.0058591217074478357 0 -0.016591310082589645 -0.0053805800488491151 0 0.00060619035187634701 -0.0041342170720406217 0 0.00064786523081947764 -0.0041018737361420195 0 0.00081177367226350117 -0.0041676890934487431 0 0.00060619035187634701 -0.0041342170720406217 0 0.00055615443270376399 -0.0040985991952254145 0 0.00051151619694049185 -0.0040856218645597964 0 0.00055615443270376399 -0.0040985991952254145 0 0.00064786523081947764 -0.0041018737361420195 0 0.00053711651594563531 -0.0040816727551143501 0 0.00060619035187634701 -0.0041342170720406217 0 0.00055615443270376399 -0.0040985991952254145 0 0.00064786523081947764 -0.0041018737361420195 0 0.0010688340546430304 -0.0042053618322341014 0 0.00081177367226350117 -0.0041676890934487431 0 0.00064566423521296293 -0.004226401479794863 0 0.00095588756826639075 -0.0042230321431019876 0 0.00036179999145337724 -0.0044446841981433134 0 0.00060619035187634701 -0.0041342170720406217 0 0.00081177367226350117 -0.0041676890934487431 0 0.000627648767936623 -0.0041813685447824643 0 0.00053456777659427837 -0.0046665396317416589 0 2.3189474514907311e-05 -0.0049131342997455552 0 -7.2528923126771415e-05 -0.0048044350893010441 0 0.00081177367226350117 -0.0041676890934487431 0 0.000627648767936623 -0.0041813685447824643 0 0.00064566423521296293 -0.004226401479794863 0 0.00050479692987425503 -0.0043629132626762795 0 0.000627648767936623 -0.0041813685447824643 0 0.00064566423521296293 -0.004226401479794863 0 0.00042388917215665118 -0.0040054114859404246 0 0.000627648767936623 -0.0041813685447824643 0 0.00054309871538145069 -0.0041158874288430257 0 0.00042388917215665118 -0.0040054114859404246 0 0.00054309871538145069 -0.0041158874288430257 0 0.00051151619694049185 -0.0040856218645597964 0 0.00054198730763617528 -0.004057880946673911 0 0.00056597339402239728 -0.0041835906229725928 0 0.00060619035187634701 -0.0041342170720406217 0 0.00054309871538145069 -0.0041158874288430257 0 0.00051151619694049185 -0.0040856218645597964 0 0.00060619035187634701 -0.0041342170720406217 0 0.000627648767936623 -0.0041813685447824643 0 0.00054309871538145069 -0.0041158874288430257 0 0.00042623828353131356 -0.0039627958674618323 0 0.00042388917215665118 -0.0040054114859404246 0 0.00051151619694049185 -0.0040856218645597964 0 0.00042623828353131356 -0.0039627958674618323 0 0.00051151619694049185 -0.0040856218645597964 0 0.0004941278102689932 -0.0040633813974269364 0 0.00042637731174959015 -0.0039262358902421813 0 0.00042623828353131356 -0.0039627958674618323 0 0.0004941278102689932 -0.0040633813974269364 0 0.00055615443270376399 -0.0040985991952254145 0 0.00051151619694049185 -0.0040856218645597964 0 0.0004941278102689932 -0.0040633813974269364 0 0.00042637731174959015 -0.0039262358902421813 0 0.00052491041996631396 -0.0039786822521835231 0 0.00048612301328477636 -0.0040428345056949489 0 0.00042637731174959015 -0.0039262358902421813 0 0.0004941278102689932 -0.0040633813974269364 0 0.00048612301328477636 -0.0040428345056949489 0 0.00052862943664127074 -0.0040531916247892059 0 0.00048612301328477636 -0.0040428345056949489 0 0.00050128116299925625 -0.004064819666823271 0 0.00048612301328477636 -0.0040428345056949489 0 0.00053711651594563531 -0.0040816727551143501 0 0.00050128116299925625 -0.004064819666823271 0 0.00049817774530090751 -0.0043159684522772728 0 0.00033999440916950469 -0.0042150790652424712 0 0.0004941278102689932 -0.0040633813974269364 0 0.00048612301328477636 -0.0040428345056949489 0 0.00053711651594563531 -0.0040816727551143501 0 0.00055615443270376399 -0.0040985991952254145 0 0.0004941278102689932 -0.0040633813974269364 0 0.00053711651594563531 -0.0040816727551143501 0 0.00033999440916950469 -0.0042150790652424712 0 0.00059024856339644541 -0.0040530438652742742 0 0.00053711651594563531 -0.0040816727551143501 0 0.00050128116299925625 -0.004064819666823271 0 0.00059314774249325224 -0.0040423369366651618 0 0.00064786523081947764 -0.0041018737361420195 0 0.00053711651594563531 -0.0040816727551143501 0 0.00059314774249325224 -0.0040423369366651618 0 -1.153145468667122e-05 -0.0041877645890166307 0 0.00027228930009039567 -0.0043355746906492418 0 0.00021024794254894132 -0.0038962220773164666 0 0.00027228930009039567 -0.0043355746906492418 0 0.00021024794254894132 -0.0038962220773164666 0 0.00059314774249325224 -0.0040423369366651618 0 0.00021024794254894132 -0.0038962220773164666 0 0.00059314774249325224 -0.0040423369366651618 0 0.0005729627984023425 -0.0036910513528929118 0 0.00059314774249325224 -0.0040423369366651618 0 0.00087822543609981257 -0.004052816677261613 0 0.00097254250578575807 -0.0037766039612326299 0 0.00059314774249325224 -0.0040423369366651618 0 0.00097254250578575807 -0.0037766039612326299 0 0.0005729627984023425 -0.0036910513528929118 0 0.00064786523081947764 -0.0041018737361420195 0 0.00059314774249325224 -0.0040423369366651618 0 0.00087822543609981257 -0.004052816677261613 0 0.0010688340546430304 -0.0042053618322341014 0 0.00081177367226350117 -0.0041676890934487431 0 0.00087822543609981257 -0.004052816677261613 0 0.001192709305901971 -0.0039569485416032051 0 0.0010688340546430304 -0.0042053618322341014 0 0.00087822543609981257 -0.004052816677261613 0 0.00064786523081947764 -0.0041018737361420195 0 0.00081177367226350117 -0.0041676890934487431 0 0.00087822543609981257 -0.004052816677261613 0 0.001192709305901971 -0.0039569485416032051 0 0.00087822543609981257 -0.004052816677261613 0 0.00097254250578575807 -0.0037766039612326299 0 0.00097254250578575807 -0.0037766039612326299 0 0.00091246059319717012 -0.0034286706475622998 0 0.0014002881779818894 -0.0033116029553242415 0 0.00091246059319717012 -0.0034286706475622998 0 0.0012608164253824412 -0.0031457759788352606 0 0.0014002881779818894 -0.0033116029553242415 0 0.00097254250578575807 -0.0037766039612326299 0 0.00091246059319717012 -0.0034286706475622998 0 0.0005729627984023425 -0.0036910513528929118 0 0.00021024794254894132 -0.0038962220773164666 0 0.0005729627984023425 -0.0036910513528929118 0 0.00016142439404987405 -0.0035336078144331392 0 0.0005729627984023425 -0.0036910513528929118 0 0.00016142439404987405 -0.0035336078144331392 0 0.00050653257087457815 -0.0033377582473056023 0 0.00091246059319717012 -0.0034286706475622998 0 0.0005729627984023425 -0.0036910513528929118 0 0.00050653257087457815 -0.0033377582473056023 0 0.00016142439404987405 -0.0035336078144331392 0 0.00050653257087457815 -0.0033377582473056023 0 5.8006409513274392e-05 -0.0032163809403165647 0 0.00050653257087457815 -0.0033377582473056023 0 0.00035744377354715454 -0.0030245816407663928 0 5.8006409513274392e-05 -0.0032163809403165647 0 0.00035744377354715454 -0.0030245816407663928 0 5.8006409513274392e-05 -0.0032163809403165647 0 6.6144555591691573e-05 -0.0029084710098314583 0 0.00050653257087457815 -0.0033377582473056023 0 0.00035744377354715454 -0.0030245816407663928 0 0.00086347805683581859 -0.0031009081997028652 0 0.00086347805683581859 -0.0031009081997028652 0 0.0012608164253824412 -0.0031457759788352606 0 0.0015104556662286664 -0.003044124319641052 0 0.00091246059319717012 -0.0034286706475622998 0 0.00086347805683581859 -0.0031009081997028652 0 0.0012608164253824412 -0.0031457759788352606 0 0.00091246059319717012 -0.0034286706475622998 0 0.00050653257087457815 -0.0033377582473056023 0 0.00086347805683581859 -0.0031009081997028652 0 -0.0010179681690041091 -0.0035935308903634112 0 -0.00078979460436838782 -0.003684538547286256 0 -0.00092085412704769607 -0.0038115260950918207 0 -0.0090004045952126171 -0.0061325188620905725 0 -0.0087314352520053776 -0.0055686907328082241 0 -0.016358087170069053 -0.006592942052479657 0 -0.016873819909135595 -0.0065410929259062042 0 -0.017062929188398031 -0.0072551232791566497 0 -0.00078979460436838782 -0.003684538547286256 0 -0.00061531971204705448 -0.0038874465234940573 0 -0.00041694431227373826 -0.0036882937937461279 0 -0.00078979460436838782 -0.003684538547286256 0 -0.00092085412704769607 -0.0038115260950918207 0 -0.00061531971204705448 -0.0038874465234940573 0 -0.00078979460436838782 -0.003684538547286256 0 -0.00041694431227373826 -0.0036882937937461279 0 -0.00045106654834896456 -0.0034557812018663628 0 -0.00018939931884085509 -0.0034673873933364313 0 -0.00041694431227373826 -0.0036882937937461279 0 -0.00011884177151183449 -0.0036798838998574838 0 -0.00018939931884085509 -0.0034673873933364313 0 -0.00041694431227373826 -0.0036882937937461279 0 -0.00045106654834896456 -0.0034557812018663628 0 -0.00027308686244412482 -0.0039408217866260644 0 -0.00061531971204705448 -0.0038874465234940573 0 -0.00041694431227373826 -0.0036882937937461279 0 -0.00027308686244412482 -0.0039408217866260644 0 -0.00041694431227373826 -0.0036882937937461279 0 -0.00011884177151183449 -0.0036798838998574838 0 0.00021024794254894132 -0.0038962220773164666 0 0.00016142439404987405 -0.0035336078144331392 0 -0.00011884177151183449 -0.0036798838998574838 0 -0.00027308686244412482 -0.0039408217866260644 0 0.00021024794254894132 -0.0038962220773164666 0 -0.00011884177151183449 -0.0036798838998574838 0 0.00016142439404987405 -0.0035336078144331392 0 -0.00018939931884085509 -0.0034673873933364313 0 -0.00011884177151183449 -0.0036798838998574838 0 0.00016142439404987405 -0.0035336078144331392 0 -0.00018939931884085509 -0.0034673873933364313 0 5.8006409513274392e-05 -0.0032163809403165647 0 5.8006409513274392e-05 -0.0032163809403165647 0 -0.00015235286723159079 -0.0030548479327397937 0 6.6144555591691573e-05 -0.0029084710098314583 0 -0.00015235286723159079 -0.0030548479327397937 0 -0.00030992470237434569 -0.0032271209442559954 0 -0.00044391399423375705 -0.0029295336142382104 0 5.8006409513274392e-05 -0.0032163809403165647 0 -0.00015235286723159079 -0.0030548479327397937 0 -0.00030992470237434569 -0.0032271209442559954 0 -0.00018939931884085509 -0.0034673873933364313 0 5.8006409513274392e-05 -0.0032163809403165647 0 -0.00030992470237434569 -0.0032271209442559954 0 -0.00018939931884085509 -0.0034673873933364313 0 -0.00030992470237434569 -0.0032271209442559954 0 -0.00045106654834896456 -0.0034557812018663628 0 -0.00077956758269073887 -0.0036770207203559837 0 -0.00068710358919765204 -0.0033933335070479255 0 -0.00078979460436838782 -0.003684538547286256 0 -0.00057551788209942801 -0.0032315047889612133 0 -0.00045106654834896456 -0.0034557812018663628 0 -0.00030992470237434569 -0.0032271209442559954 0 -0.00057551788209942801 -0.0032315047889612133 0 -0.00045106654834896456 -0.0034557812018663628 0 -0.00030992470237434569 -0.0032271209442559954 0 -0.00057551788209942801 -0.0032315047889612133 0 -0.00044391399423375705 -0.0029295336142382104 0 -0.00068710358919765204 -0.0033933335070479255 0 -0.00055463493472649654 -0.0030706538021669514 0 -0.00080147237564107848 -0.0035344678398517614 0 -0.00092163499788465312 -0.0033808476779604809 0 -0.00065772581754143696 -0.0032381766884406141 0 -0.0010179681690041091 -0.0035935308903634112 0 -0.00080147237564107848 -0.0035344678398517614 0 -0.00092163499788465312 -0.0033808476779604809 0 -0.0012031745602371819 -0.0033155279966309128 0 -0.0010179681690041091 -0.0035935308903634112 0 -0.00092163499788465312 -0.0033808476779604809 0 -0.0010179681690041091 -0.0035935308903634112 0 -0.00078979460436838782 -0.003684538547286256 0 -0.00080147237564107848 -0.0035344678398517614 0 -0.00092163499788465312 -0.0033808476779604809 0 -0.00094957800101014083 -0.0030320712646157619 0 -0.00065772581754143696 -0.0032381766884406141 0 -0.0012031745602371819 -0.0033155279966309128 0 -0.00092163499788465312 -0.0033808476779604809 0 -0.00094957800101014083 -0.0030320712646157619 0 -0.00055463493472649654 -0.0030706538021669514 0 -0.00047306687231863677 -0.002737251944414256 0 -0.00044391399423375705 -0.0029295336142382104 0 -0.00021481059238196438 -0.0028905618320102444 0 -0.00046768682897358485 -0.0027240258044219385 0 -0.00094957800101014083 -0.0030320712646157619 0 -0.00065772581754143696 -0.0032381766884406141 0 -0.00046768682897358485 -0.0027240258044219385 0 -0.00021481059238196438 -0.0028905618320102444 0 3.3844597572714994e-06 -0.0027244917708528272 0 -0.00046768682897358485 -0.0027240258044219385 0 -0.00015235286723159079 -0.0030548479327397937 0 -0.00044391399423375705 -0.0029295336142382104 0 -0.00021481059238196438 -0.0028905618320102444 0 -0.00015235286723159079 -0.0030548479327397937 0 -0.00021481059238196438 -0.0028905618320102444 0 6.6144555591691573e-05 -0.0029084710098314583 0 -0.00021481059238196438 -0.0028905618320102444 0 6.6144555591691573e-05 -0.0029084710098314583 0 3.3844597572714994e-06 -0.0027244917708528272 0 6.6144555591691573e-05 -0.0029084710098314583 0 3.3844597572714994e-06 -0.0027244917708528272 0 0.00029103428127139682 -0.0027581203953226446 0 3.3844597572714994e-06 -0.0027244917708528272 0 0.00016101372457905778 -0.0025870121186353174 0 0.00020941344271340726 -0.0025959958690753653 0 4.195013069556234e-05 -0.0028713480491872859 0 -5.7891349448281491e-06 -0.0021494949163716674 0 0.00016101372457905778 -0.0025870121186353174 0 0.00020090026137962124 -0.0026142296498208816 0 0.00020941344271340726 -0.0025959958690753653 0 0.00020090026137962124 -0.0026142296498208816 0 0.00020941344271340726 -0.0025959958690753653 0 0.00019307770497702816 -0.002584018245565727 0 0.00020090026137962124 -0.0026142296498208816 0 0.00025106999156277257 -0.0027059799537850291 0 0.00019307770497702816 -0.002584018245565727 0 0.00016101372457905778 -0.0025870121186353174 0 0.00020090026137962124 -0.0026142296498208816 0 0.00027135709503538078 -0.0026986571690647693 0 -5.7891349448281491e-06 -0.0021494949163716674 0 -0.0014576829769357453 -0.0051008631001802206 0 0.00020090026137962124 -0.0026142296498208816 0 0.00027135709503538078 -0.0026986571690647693 0 0.00025106999156277257 -0.0027059799537850291 0 -0.0014576829769357453 -0.0051008631001802206 0 -0.0010579206932359668 -0.0049419991532579661 0 -0.00010038301535276182 -0.0025376376934072875 0 -0.00016211534459801682 -0.0022724384398745447 0 -0.00038903405026876616 -0.0024551423889501876 0 -0.0014576829769357453 -0.0051008631001802206 0 -0.00065519999422525255 -0.0063601231412143897 0 -0.00016211534459801682 -0.0022724384398745447 0 -0.00038903405026876616 -0.0024551423889501876 0 -0.00069801771013882892 -0.0022873390458082519 0 -0.00010038301535276182 -0.0025376376934072875 0 -0.00038903405026876616 -0.0024551423889501876 0 -0.00046768682897358485 -0.0027240258044219385 0 3.3844597572714994e-06 -0.0027244917708528272 0 -0.00010038301535276182 -0.0025376376934072875 0 -0.00046768682897358485 -0.0027240258044219385 0 -0.00038903405026876616 -0.0024551423889501876 0 -0.00046768682897358485 -0.0027240258044219385 0 -0.00069801771013882892 -0.0022873390458082519 0 -0.00046768682897358485 -0.0027240258044219385 0 -0.00069801771013882892 -0.0022873390458082519 0 -0.0010085777754270373 -0.0025609048516075398 0 -0.00089341477931501869 -0.0079137820691124999 0 -0.00065519999422525255 -0.0063601231412143897 0 -0.0013091581690000077 -0.0023589643226696491 0 -0.00069801771013882892 -0.0022873390458082519 0 -0.0010085777754270373 -0.0025609048516075398 0 -0.00094957800101014083 -0.0030320712646157619 0 -0.00046768682897358485 -0.0027240258044219385 0 -0.0010085777754270373 -0.0025609048516075398 0 0.0031414533784401063 -0.0042775397088704601 0 0.0045827694962081982 -0.0057056168655107405 0 0.0032577910547515756 -0.0057815536026418358 0 0.0020282157440901353 -0.0034918504574697902 0 0.0024978586774200336 -0.0041710645178046086 0 0.0031414533784401063 -0.0042775397088704601 0 0.0021689274732574894 -0.0048618074462058354 0 0.0032577910547515756 -0.0057815536026418358 0 0.0020282157440901353 -0.0034918504574697902 0 0.001553116209868204 -0.0030741038897056038 0 0.0031414533784401063 -0.0042775397088704601 0 0.0021689274732574894 -0.0048618074462058354 0 0.0015104556662286664 -0.003044124319641052 0 0.00086347805683581859 -0.0031009081997028652 0 0.0009173168987288684 -0.0026867001408775616 0 0.0015104556662286664 -0.003044124319641052 0 0.00086347805683581859 -0.0031009081997028652 0 0.0009173168987288684 -0.0026867001408775616 0 0.00057353429556212848 -0.0028075343001947783 0 0.00035744377354715454 -0.0030245816407663928 0 0.00086347805683581859 -0.0031009081997028652 0 0.00057353429556212848 -0.0028075343001947783 0 0.00035744377354715454 -0.0030245816407663928 0 6.6144555591691573e-05 -0.0029084710098314583 0 0.00029103428127139682 -0.0027581203953226446 0 0.00035744377354715454 -0.0030245816407663928 0 0.00057353429556212848 -0.0028075343001947783 0 0.00029103428127139682 -0.0027581203953226446 0 3.3844597572714994e-06 -0.0027244917708528272 0 0.00029103428127139682 -0.0027581203953226446 0 0.00020941344271340726 -0.0025959958690753653 0 0.00029103428127139682 -0.0027581203953226446 0 0.0004774689247289393 -0.00255061669901479 0 0.00020941344271340726 -0.0025959958690753653 0 0.0009173168987288684 -0.0026867001408775616 0 0.00057353429556212848 -0.0028075343001947783 0 0.0004774689247289393 -0.00255061669901479 0 0.00057353429556212848 -0.0028075343001947783 0 0.00029103428127139682 -0.0027581203953226446 0 0.0004774689247289393 -0.00255061669901479 0 0.0045827694962081982 -0.0057056168655107405 0 0.0045981554155673666 -0.0074520382396112451 0 0.0039302653718095212 -0.0064719741557969588 0 0.0004774689247289393 -0.00255061669901479 0 0.00020941344271340726 -0.0025959958690753653 0 0.00019307770497702816 -0.002584018245565727 0 0.0024978586774200336 -0.0041710645178046086 0 0.0035439036126476793 -0.0046626966049244144 0 0.0050503761064437502 -0.0089045554081776251 0 0.0062487349993946934 -0.0073239322042712518 0 0.0045981554155673666 -0.0074520382396112451 0 0.0045827694962081982 -0.0057056168655107405 0 0.0062487349993946934 -0.0073239322042712518 0 0.0045981554155673666 -0.0074520382396112451 0 0.0045981554155673666 -0.0074520382396112451 0 0.0032964172218541083 -0.006927862160566919 0 0.0039302653718095212 -0.0064719741557969588 0 0.0032182648869933782 -0.0078017401378559391 0 0.0045981554155673666 -0.0074520382396112451 0 0.0032964172218541083 -0.006927862160566919 0 0.0032182648869933782 -0.0078017401378559391 0 0.0032964172218541083 -0.006927862160566919 0 0.0024355575147119528 -0.0074342260915725615 0 0.0032964172218541083 -0.006927862160566919 0 0.0039302653718095212 -0.0064719741557969588 0 0.0032577910547515756 -0.0057815536026418358 0 0.0045827694962081982 -0.0057056168655107405 0 0.0039302653718095212 -0.0064719741557969588 0 0.0032577910547515756 -0.0057815536026418358 0 0.0032964172218541083 -0.006927862160566919 0 0.0032577910547515756 -0.0057815536026418358 0 0.0023336764050426516 -0.0063262088513070707 0 0.0021689274732574894 -0.0048618074462058354 0 0.0023336764050426516 -0.0063262088513070707 0 0.0012300293269414805 -0.0056609342038787883 0 0.0021689274732574894 -0.0048618074462058354 0 0.0032577910547515756 -0.0057815536026418358 0 0.0023336764050426516 -0.0063262088513070707 0 0.0023336764050426516 -0.0063262088513070707 0 0.0024355575147119528 -0.0074342260915725615 0 0.0015254771919423421 -0.0070119450122567307 0 0.0032964172218541083 -0.006927862160566919 0 0.0023336764050426516 -0.0063262088513070707 0 0.0024355575147119528 -0.0074342260915725615 0 0.001841616572706591 -0.0078754289510375719 0 0.0024355575147119528 -0.0074342260915725615 0 0.0015254771919423421 -0.0070119450122567307 0 0.0015254771919423421 -0.0070119450122567307 0 0.0007219276292666553 -0.0067436548951935599 0 0.0012300293269414805 -0.0056609342038787883 0 0.0011459377815403104 -0.0079161478492488606 0 0.00090362385077531228 -0.0073330857142530695 0 0.0015254771919423421 -0.0070119450122567307 0 0.001841616572706591 -0.0078754289510375719 0 0.0011459377815403104 -0.0079161478492488606 0 0.0015254771919423421 -0.0070119450122567307 0 0.00090362385077531228 -0.0073330857142530695 0 0.0015254771919423421 -0.0070119450122567307 0 0.0007219276292666553 -0.0067436548951935599 0 0.00027677954828227055 -0.007405649868302399 0 -7.6129969014396951e-05 -0.0067855191012921928 0 -0.00059382808871625528 -0.0074794852454872314 0 0.00027677954828227055 -0.007405649868302399 0 0.0007219276292666553 -0.0067436548951935599 0 -7.6129969014396951e-05 -0.0067855191012921928 0 0.00066197819087520434 -0.0078780457666018013 0 0.00090362385077531228 -0.0073330857142530695 0 0.00027677954828227055 -0.007405649868302399 0 0.00090362385077531228 -0.0073330857142530695 0 0.00027677954828227055 -0.007405649868302399 0 0.0007219276292666553 -0.0067436548951935599 0 0.0007219276292666553 -0.0067436548951935599 0 -7.6129969014396951e-05 -0.0067855191012921928 0 0.00036728067559203749 -0.0057929019153872101 0 0.00036728067559203749 -0.0057929019153872101 0 0.00064629686728090495 -0.0044961050715119936 0 -0.00031171920511352573 -0.0052365921423550401 0 0.00036728067559203749 -0.0057929019153872101 0 0.0012300293269414805 -0.0056609342038787883 0 0.00064629686728090495 -0.0044961050715119936 0 0.0007219276292666553 -0.0067436548951935599 0 0.00036728067559203749 -0.0057929019153872101 0 0.0012300293269414805 -0.0056609342038787883 0 0.0023336764050426516 -0.0063262088513070707 0 0.0015254771919423421 -0.0070119450122567307 0 0.0012300293269414805 -0.0056609342038787883 0 0.0012300293269414805 -0.0056609342038787883 0 0.0013097234865046016 -0.0042452346515974744 0 0.00064629686728090495 -0.0044961050715119936 0 0.0021689274732574894 -0.0048618074462058354 0 0.0012300293269414805 -0.0056609342038787883 0 0.0013097234865046016 -0.0042452346515974744 0 0.0013097234865046016 -0.0042452346515974744 0 0.00064629686728090495 -0.0044961050715119936 0 0.00099608471470676117 -0.0034335307811170532 0 0.00064629686728090495 -0.0044961050715119936 0 0.00099608471470676117 -0.0034335307811170532 0 0.00037028849142729499 -0.003579451165427963 0 0.0021689274732574894 -0.0048618074462058354 0 0.0013097234865046016 -0.0042452346515974744 0 0.0015104556662286664 -0.003044124319641052 0 0.0013097234865046016 -0.0042452346515974744 0 0.00099608471470676117 -0.0034335307811170532 0 0.0015104556662286664 -0.003044124319641052 0 0.0012369156402362641 -0.0032522439531890777 0 0.0023706575438796084 -0.0031520184872019133 0 0.00093347092742464212 -0.0040032317189805256 0 0.0012369156402362641 -0.0032522439531890777 0 0.00037028849142729499 -0.003579451165427963 0 0.00093347092742464212 -0.0040032317189805256 0 0.00099608471470676117 -0.0034335307811170532 0 0.00037028849142729499 -0.003579451165427963 0 0.00093347092742464212 -0.0040032317189805256 0 0.0012369156402362641 -0.0032522439531890777 0 0.00037028849142729499 -0.003579451165427963 0 0.0012446300766070753 -0.0021024024394714355 0 0.00031727783632359819 -0.003442228371260376 0 -0.00015130673855506582 -0.0035450766730717996 0 0.00037028849142729499 -0.003579451165427963 0 -0.0013324383391725458 -0.0046722431413744646 0 -0.00031171920511352573 -0.0052365921423550401 0 0.00064629686728090495 -0.0044961050715119936 0 0.00037028849142729499 -0.003579451165427963 0 -0.00031171920511352573 -0.0052365921423550401 0 0.0012446300766070753 -0.0021024024394714355 0 0.0026623842730642963 -0.0014991854089396422 0 0.0023706575438796084 -0.0031520184872019133 0 0.0012369156402362641 -0.0032522439531890777 0 0.0012446300766070753 -0.0021024024394714355 0 0.0023706575438796084 -0.0031520184872019133 0 -0.0012640729502726487 -0.0054640317623841795 0 -0.00098439439753855891 -0.0062387364184196764 0 -0.0023728749203833026 -0.0056870991763012229 0 0.0012446300766070753 -0.0021024024394714355 0 0.0026623842730642963 -0.0014991854089396422 0 0.002497311292970178 -0.00084590644948261151 0 -0.00015130673855506582 -0.0035450766730717996 0 0.0025823331376188681 -0.0042148582524755892 0 -0.0013324383391725458 -0.0046722431413744646 0 -0.0012640729502726487 -0.0054640317623841795 0 -0.0023728749203833026 -0.0056870991763012229 0 -7.6129969014396951e-05 -0.0067855191012921928 0 0.00036728067559203749 -0.0057929019153872101 0 -0.00098439439753855891 -0.0062387364184196764 0 0.00036728067559203749 -0.0057929019153872101 0 -0.00031171920511352573 -0.0052365921423550401 0 -0.00098439439753855891 -0.0062387364184196764 0 -0.0012640729502726487 -0.0054640317623841795 0 -0.00031171920511352573 -0.0052365921423550401 0 -0.00098439439753855891 -0.0062387364184196764 0 -0.0013324383391725458 -0.0046722431413744646 0 -0.0012640729502726487 -0.0054640317623841795 0 -0.00031171920511352573 -0.0052365921423550401 0 -7.6129969014396951e-05 -0.0067855191012921928 0 -0.00098439439753855891 -0.0062387364184196764 0 -0.00059382808871625528 -0.0074794852454872314 0 -0.0019272832507364701 -0.0077924536182988509 0 -0.00098439439753855891 -0.0062387364184196764 0 -0.00059382808871625528 -0.0074794852454872314 0 -0.0019272832507364701 -0.0077924536182988509 0 -0.00098439439753855891 -0.0062387364184196764 0 -0.0023728749203833026 -0.0056870991763012229 0 0.0019536978120966195 -0.0069424928871852105 0 0.0025823331376188681 -0.0042148582524755892 0 0.0046242907236047808 -0.002639913411699891 0 0.0025823331376188681 -0.0042148582524755892 0 0.0054056541458734966 -0.0070151375422240142 0 0.0050436305032507513 -0.0068077234834568769 0 0.0051950067498440803 -0.0061806055415880015 0 0.0050436305032507513 -0.0068077234834568769 0 0.0046543061079492238 -0.0067619742988014892 0 0.0051950067498440803 -0.0061806055415880015 0 0.0046174243866356829 0.00083509722377621113 0 0.0043801672142880187 -0.00080386737866274417 0 0.0064510093663534291 0.00011614396134464772 0 0.0043801672142880187 -0.00080386737866274417 0 0.0026623842730642963 -0.0014991854089396422 0 0.0025396658720258148 -0.00087297960113615557 0 0.0046174243866356829 0.00083509722377621113 0 0.0043801672142880187 -0.00080386737866274417 0 0.0025396658720258148 -0.00087297960113615557 0 0.0022677068637517086 -0.00181309938172981 0 0.0025823331376188681 -0.0042148582524755892 0 0.0083354691087525121 -0.00014284942316068909 0 0.0088273015663878074 -0.00037481859988412828 0 0.0072050519944648426 0.0019235784095245686 0 0.008530290425233138 -0.00048206122753728886 0 0.0064510093663534291 0.00011614396134464772 0 0.0072050519944648426 0.0019235784095245686 0 0.0046174243866356829 0.00083509722377621113 0 0.0064510093663534291 0.00011614396134464772 0 0.0043801672142880187 -0.00080386737866274417 0 0.0064510093663534291 0.00011614396134464772 0 0.0064278903704399551 -0.0014164325899919227 0 0.008530290425233138 -0.00048206122753728886 0 0.0064510093663534291 0.00011614396134464772 0 0.0064278903704399551 -0.0014164325899919227 0 0.008530290425233138 -0.00048206122753728886 0 0.0064278903704399551 -0.0014164325899919227 0 0.0078973867682271531 -0.0016881375416426514 0 0.0083503019318200734 -0.00198857359959172 0 0.0078973867682271531 -0.0016881375416426514 0 0.0066320322813387227 -0.0033797593174284689 0 0.0064278903704399551 -0.0014164325899919227 0 0.0078973867682271531 -0.0016881375416426514 0 0.0066320322813387227 -0.0033797593174284689 0 0.0064278903704399551 -0.0014164325899919227 0 0.0066320322813387227 -0.0033797593174284689 0 0.0044072555778414237 -0.002411567004090421 0 0.0083503019318200734 -0.00198857359959172 0 0.0069630573807398944 -0.0013049029786426595 0 0.0078192688720599927 -0.0020016065914683317 0 0.0081887158040465906 -0.0020234880522602356 0 0.006740756625525905 -0.002351952346803873 0 0.0026623842730642963 -0.0014991854089396422 0 0.0044072555778414237 -0.002411567004090421 0 0.0023706575438796084 -0.0031520184872019133 0 0.0043801672142880187 -0.00080386737866274417 0 0.0026623842730642963 -0.0014991854089396422 0 0.0044072555778414237 -0.002411567004090421 0 0.0043801672142880187 -0.00080386737866274417 0 0.0064278903704399551 -0.0014164325899919227 0 0.0044072555778414237 -0.002411567004090421 0 0.0066320322813387227 -0.0033797593174284689 0 0.0044072555778414237 -0.002411567004090421 0 0.0036983657439204542 -0.004246590245134638 0 0.006740756625525905 -0.002351952346803873 0 0.00449941502550694 -0.0027136981971982057 0 0.0036983657439204542 -0.004246590245134638 0 0.0023706575438796084 -0.0031520184872019133 0 0.00093347092742464212 -0.0040032317189805256 0 0.0044072555778414237 -0.002411567004090421 0 0.0036983657439204542 -0.004246590245134638 0 0.0023706575438796084 -0.0031520184872019133 0 0.0053200205114891999 -0.0012449942820814222 0 0.0033675387140429196 -0.0015440952592532496 0 0.0042672688442390028 -0.0023602975637828935 0 0.0053200205114891999 -0.0012449942820814222 0 0.0055861345475875269 -0.0028247172813000193 0 0.0042672688442390028 -0.0023602975637828935 0 0.0053200205114891999 -0.0012449942820814222 0 0.0070195217302813275 -0.0022507303463191416 0 0.0055861345475875269 -0.0028247172813000193 0 0.00449941502550694 -0.0027136981971982057 0 0.0022477444128562642 -0.0027840251265753798 0 0.0069630573807398944 -0.0013049029786426595 0 0.0078192688720599927 -0.0020016065914683317 0 0.0070195217302813275 -0.0022507303463191416 0 0.0079256505114944104 -0.0023848572039595083 0 0.0078192688720599927 -0.0020016065914683317 0 0.0070195217302813275 -0.0022507303463191416 0 0.0069630573807398944 -0.0013049029786426595 0 0.0053200205114891999 -0.0012449942820814222 0 0.0070195217302813275 -0.0022507303463191416 0 0.0079256505114944104 -0.0023848572039595083 0 0.0070195217302813275 -0.0022507303463191416 0 0.0076378444646265304 -0.0027212502594116633 0 0.0070195217302813275 -0.0022507303463191416 0 0.0076378444646265304 -0.0027212502594116633 0 0.0070065939568855354 -0.0030352570586771187 0 0.0080765818386850582 -0.0030607737073531176 0 0.0076378444646265304 -0.0027212502594116633 0 0.0070065939568855354 -0.0030352570586771187 0 0.0070065939568855354 -0.0030352570586771187 0 0.0055861345475875269 -0.0028247172813000193 0 0.0061451852137354903 -0.0035747806878476747 0 0.0070195217302813275 -0.0022507303463191416 0 0.0070065939568855354 -0.0030352570586771187 0 0.0055861345475875269 -0.0028247172813000193 0 0.0073280883396095852 -0.0037145515862685398 0 0.0070065939568855354 -0.0030352570586771187 0 0.0061451852137354903 -0.0035747806878476747 0 0.0078948830643574535 -0.0034348209809270092 0 0.0073280883396095852 -0.0037145515862685398 0 0.0070065939568855354 -0.0030352570586771187 0 0.0078948830643574535 -0.0034348209809270092 0 0.0080765818386850582 -0.0030607737073531176 0 0.0070065939568855354 -0.0030352570586771187 0 0.0055861345475875269 -0.0028247172813000193 0 0.0039905488614178338 -0.0032385280135030837 0 0.0042672688442390028 -0.0023602975637828935 0 0.0055861345475875269 -0.0028247172813000193 0 0.0049300479016119994 -0.0035302172017783367 0 0.0039905488614178338 -0.0032385280135030837 0 0.0055861345475875269 -0.0028247172813000193 0 0.0061451852137354903 -0.0035747806878476747 0 0.0049300479016119994 -0.0035302172017783367 0 0.0034428549640087439 -0.0038549937546730581 0 0.0039586190287072337 -0.0031991638379694821 0 0.0042325094222806434 -0.0037009777645062325 0 0.0049300479016119994 -0.0035302172017783367 0 0.0039905488614178338 -0.0032385280135030837 0 0.0039905488614178338 -0.0032385280135030837 0 0.0042672688442390028 -0.0023602975637828935 0 0.0025659103413572023 -0.0029167545706707209 0 0.0039905488614178338 -0.0032385280135030837 0 0.0021464507487352481 -0.0035983218561891576 0 0.0025659103413572023 -0.0029167545706707209 0 0.0026346604855461788 -0.0041148616190011342 0 0.0039905488614178338 -0.0032385280135030837 0 0.0021464507487352481 -0.0035983218561891576 0 0.0021464507487352481 -0.0035983218561891576 0 0.0014340754743954747 -0.0037370534941278816 0 0.0014002881779818894 -0.0033116029553242415 0 0.0016821991671239257 -0.0039669090369307859 0 0.0021464507487352481 -0.0035983218561891576 0 0.0014340754743954747 -0.0037370534941278816 0 0.00097254250578575807 -0.0037766039612326299 0 0.0014340754743954747 -0.0037370534941278816 0 0.0014002881779818894 -0.0033116029553242415 0 0.0021464507487352481 -0.0035983218561891576 0 0.0014002881779818894 -0.0033116029553242415 0 0.0025659103413572023 -0.0029167545706707209 0 0.0014002881779818894 -0.0033116029553242415 0 0.0014427422400232052 -0.0027959583864692384 0 0.0025659103413572023 -0.0029167545706707209 0 0.0012608164253824412 -0.0031457759788352606 0 0.0014002881779818894 -0.0033116029553242415 0 0.0014427422400232052 -0.0027959583864692384 0 0.00099608471470676117 -0.0034335307811170532 0 0.0015104556662286664 -0.003044124319641052 0 0.0014427422400232052 -0.0027959583864692384 0 0.0012608164253824412 -0.0031457759788352606 0 0.0015104556662286664 -0.003044124319641052 0 0.0014427422400232052 -0.0027959583864692384 0 0.00099608471470676117 -0.0034335307811170532 0 0.0014427422400232052 -0.0027959583864692384 0 0.00093347092742464212 -0.0040032317189805256 0 0.0015429817989743068 -0.0027852663941667693 0 0.0022477444128562642 -0.0027840251265753798 0 0.0033675387140429196 -0.0015440952592532496 0 0.0042672688442390028 -0.0023602975637828935 0 0.0025659103413572023 -0.0029167545706707209 0 0.0014427422400232052 -0.0027959583864692384 0 0.0033675387140429196 -0.0015440952592532496 0 0.0025659103413572023 -0.0029167545706707209 0 
</DataArray>
</PointData>
<CellData Scalars="region_id,cross_section_updated," Vectors="" Tensors="stress,">
<DataArray type="Float64" Name="region_id" format="ascii">
5 5 5 5 5 5 5 6 5 5 5 5 5 5 5 5 5 5 5 5 6 5 5 5 6 5 5 5 5 5 5 5 5 5 5 5 5 5 5 5 5 5 5 5 5 5 5 5 5 5 5 5 5 5 5 5 5 5 6 5 5 6 5 5 5 5 5 5 5 5 6 5 5 5 5 6 5 5 5 6 5 5 5 5 5 5 5 5 5 5 5 5 5 5 6 5 6 5 5 5 5 5 5 5 5 5 5 5 5 6 5 5 5 5 6 6 5 5 5 5 5 5 5 5 5 5 5 5 5 5 5 5 5 6 5 5 5 6 5 5 5 5 5 5 6 5 5 6 5 5 5 5 6 5 5 5 5 5 6 5 6 5 5 5 5 5 5 5 5 5 5 5 5 5 5 5 5 5 5 5 5 5 6 5 5 5 5 5 5 5 5 5 5 5 5 5 5 5 5 5 5 5 5 5 5 5 5 5 5 5 6 5 5 5 5 6 5 5 5 5 5 5 6 5 6 5 5 5 5 5 5 5 5 5 5 5 5 5 5 5 5 5 5 5 5 5 5 5 5 5 5 5 5 5 5 5 5 5 5 5 5 5 5 5 5 5 5 5 5 5 5 5 5 6 5 6 5 5 5 5 5 5 5 5 6 5 5 5 5 5 5 5 5 5 5 5 5 5 5 5 5 5 5 5 5 5 5 5 5 5 5 5 5 5 5 5 5 5 5 5 6 5 5 6 5 5 5 5 5 5 5 6 5 5 5 5 5 5 5 5 5 6 6 5 5 5 6 5 5 5 5 5 5 5 5 5 5 5 5 5 5 5 5 5 5 5 5 5 5 5 5 5 5 6 5 6 5 5 5 5 5 6 5 5 5 5 6 5 5 5 5 5 5 5 6 5 6 5 5 5 5 6 5 5 6 5 5 5 5 5 5 5 6 6 5 5 6 5 5 5 6 5 5 5 5 6 5 5 5 5 6 5 6 5 6 5 6 5 5 5 5 6 5 6 5 5 5 5 6 6 5 5 6 5 5 5 5 5 5 5 6 5 5 5 5 6 5 5 5 5 6 5 5 5 5 5 5 5 5 5 6 5 6 5 5 5 5 5 5 5 5 5 5 5 5 5 5 5 5 5 5 6 5 5 5 6 5 5 5 5 5 5 6 5 5 5 5 5 5 6 5 5 5 6 5 5 6 5 5 5 5 5 5 5 5 5 5 5 6 5 5 5 5 5 5 5 5 5 5 5 5 5 6 6 5 5 5 5 6 5 5 5 5 5 5 5 5 5 5 5 5 5 5 5 5 5 5 5 5 5 5 5 5 5 5 5 5 5 5 5 5 5 5 5 5 6 5 5 5 5 6 5 5 5 5 5 5 5 5 5 5 5 5 5 5 5 5 5 5 5 5 5 5 5 5 5 5 5 5 5 5 5 5 5 5 5 5 5 5 5 5 5 5 5 5 5 5 5 5 5 5 5 5 5 5 5 5 5 5 5 5 5 5 5 5 5 5 5 5 5 5 5 5 5 6 5 5 5 5 6 5 6 5 5 5 5 5 5 5 5 5 5 5 5 5 5 5 5 5 5 5 5 5 5 5 5 5 5 5 5 5 5 5 5 5 5 5 5 5 5 6 5 5 5 5 6 5 5 5 5 5 5 5 5 5 5 5 5 6 5 6 6 5 5 5 5 5 5 6 5 6 5 5 5 5 5 5 5 5 5 5 6 5 5 5 5 5 5 5 6 5 5 5 5 5 5 5 5 5 5 5 5 5 5 6 5 5 5 5 6 5 5 5 6 5 5 5 5 5 5 5 5 5 6 5 5 5 5 5 5 5 5 5 5 5 5 5 5 5 5 5 5 5 5 5 5 5 6 5 5 5 5 5 5 5 5 5 5 5 5 5 5 5 5 5 5 5 5 5 5 5 5 6 5 5 5 5 5 5 5 5 5 6 5 5 6 5 5 5 5 5 5 5 5 5 6 5 5 6 5 5 5 5 5 5 6 5 5 5 5 5 5 5 5 6 6 5 5 5 5 5 5 5 5 5 5 6 5 5 5 5 5 6 5 5 5 5 5 5 5 6 5 5 5 5 5 5 6 5 5 6 6 5 6 6 5 5 6 5 5 6 6 5 5 5 6 5 5 5 5 5 6 5 5 5 5 5 6 5 5 5 6 6 5 5 5 5 5 5 5 5 5 6 5 5 6 5 5 5 5 5 5 5 5 5 5 5 5 5 6 6 5 5 5 5 6 6 5 5 6 6 5 5 5 5 5 5 5 5 5 5 5 5 6 5 5 6 5 5 5 6 5 5 6 5 5 5 5 5 5 6 6 6 5 5 5 5 5 5 5 6 5 5 5 5 5 5 5 5 5 5 5 5 5 5 5 5 5 5 5 5 5 5 5 5 5 5 5 5 5 5 5 5 5 5 6 5 5 5 5 6 5 5 6 6 5 5 5 6 6 5 5 5 5 5 5 5 5 5 5 6 5 5 5 5 5 5 5 6 5 5 5 5 5 5 5 6 5 5 5 6 5 6 5 5 6 5 5 5 6 6 5 5 5 5 5 5 5 5 5 5 5 5 5 5 5 5 5 5 5 5 5 5 5 5 5 5 5 5 6 5 5 5 5 6 5 5 5 5 5 5 5 5 5 5 6 5 5 5 5 5 5 5 5 5 5 5 5 5 5 6 5 5 5 5 5 5 5 5 5 6 5 5 5 5 6 5 5 5 6 5 5 5 6 5 5 5 5 5 5 5 5 5 5 5 5 5 5 5 5 5 5 5 5 5 5 5 5 6 5 5 5 5 6 5 5 5 5 5 6 5 5 5 5 5 5 6 5 5 5 6 5 5 5 6 5 6 6 5 5 5 5 5 5 5 5 5 5 5 5 5 5 5 5 5 5 5 6 5 5 5 6 5 5 5 5 5 5 5 5 5 5 5 5 5 6 6 5 5 5 5 5 5 6 5 6 6 5 5 5 6 5 5 6 6 5 5 5 5 5 6 5 5 5 5 5 5 5 6 5 5 5 5 5 6 5 5 5 5 5 5 6 5 5 5 6 5 5 5 5 5 6 6 5 5 5 5 5 6 5 6 5 5 5 5 6 5 5 5 5 5 5 5 5 5 5 5 5 5 5 5 5 5 5 5 5 5 5 5 5 5 5 5 5 5 5 5 5 6 5 6 6 5 5 5 5 5 5 5 5 6 6 5 5 5 5 6 6 5 5 6 5 5 6 5 5 6 5 5 5 6 5 5 5 6 5 5 5 5 5 6 6 5 5 5 5 5 5 5 5 5 5 6 5 6 5 5 5 5 5 6 5 5 5 6 5 6 5 5 5 5 5 5 6 5 6 5 5 5 6 6 6 6 6 5 5 5 5 5 6 5 5 5 5 5 5 5 5 5 5 6 5 5 5 5 5 6 6 5 5 5 5 6 5 5 5 5 5 5 5 5 5 5 6 5 6 5 5 5 5 5 5 5 5 5 6 6 5 6 5 5 5 5 5 5 5 5 5 6 5 5 5 6 5 5 5 5 5 5 5 6 5 5 5 5 5 5 5 5 5 5 5 5 5 5 5 5 5 5 5 6 5 5 5 5 5 5 5 5 5 6 5 5 5 5 5 5 5 5 6 5 5 5 6 5 5 5 5 5 5 5 5 5 5 5 5 5 5 5 5 5 5 5 5 5 5 5 6 5 5 5 5 5 5 5 5 5 5 5 5 6 5 5 6 6 5 6 5 5 6 5 6 5 5 5 6 5 6 6 5 5 5 6 5 5 5 5 6 5 6 5 5 6 5 5 5 5 5 5 5 5 5 5 5 5 6 6 5 5 5 5 5 5 5 5 5 5 5 5 5 6 5 5 5 5 6 5 5 5 5 5 5 5 5 5 5 5 5 5 5 5 6 5 5 5 6 5 5 5 5 5 5 5 5 5 5 5 5 5 5 5 5 5 5 5 5 5 5 5 5 6 5 5 5 5 5 5 5 6 5 5 5 5 5 5 5 5 5 5 6 5 5 5 5 5 5 5 5 5 5 5 6 5 5 5 5 5 5 5 5 5 5 5 5 5 6 5 5 5 5 5 5 5 5 5 5 5 5 5 5 5 5 5 5 5 5 5 5 5 5 5 5 5 5 5 5 5 5 5 5 5 5 5 6 5 5 5 6 5 5 5 5 5 5 6 5 5 5 5 5 5 5 5 5 5 5 5 5 5 5 5 5 5 6 5 5 6 5 5 5 5 5 5 5 5 5 5 5 5 5 6 5 5 6 5 5 5 5 5 5 5 5 5 5 5 5 5 5 5 5 5 5 5 5 5 5 5 5 5 6 6 5 5 5 5 5 5 5 5 5 5 5 5 5 5 5 5 5 5 5 5 5 5 5 5 5 5 5 5 5 6 5 6 5 5 5 6 5 6 5 5 5 5 5 5 5 5 5 5 5 5 5 5 5 5 5 5 5 5 5 5 5 5 5 5 5 5 5 5 5 5 5 5 5 5 5 5 5 6 5 5 5 5 5 5 5 5 5 5 5 5 5 5 5 5 5 5 5 5 5 5 5 5 5 6 5 5 5 5 5 5 6 5 6 6 5 5 6 5 5 5 5 5 5 5 5 5 6 5 5 5 5 5 5 5 5 5 5 5 5 5 5 5 5 5 5 5 5 6 5 5 5 5 5 5 5 5 6 5 5 5 5 6 5 5 6 5 5 5 6 5 5 5 5 5 5 6 5 5 6 5 5 5 5 5 5 5 5 6 5 5 5 5 5 5 5 5 5 5 5 5 5 5 5 5 5 5 5 5 5 5 5 5 5 5 6 5 5 5 5 5 5 5 5 5 5 5 5 5 5 5 5 5 5 5 5 5 5 5 6 5 5 5 5 5 5 5 5 5 5 6 5 5 6 5 5 5 5 5 5 5 5 5 5 5 5 5 5 5 5 5 5 5 5 5 5 5 5 5 5 5 5 5 5 5 6 5 5 5 5 5 5 6 5 6 5 5 6 5 5 5 5 5 5 5 5 5 5 5 5 5 5 5 5 5 5 6 5 6 6 5 5 5 5 5 6 5 5 5 5 5 5 5 6 5 5 6 5 5 5 5 5 5 5 6 5 5 5 5 5 5 5 5 6 5 5 5 6 6 5 5 5 6 5 5 6 5 6 5 5 5 5 6 6 5 5 5 5 5 5 5 5 6 5 6 6 5 5 5 5 5 5 5 5 5 5 5 6 5 5 5 5 5 5 5 5 6 5 5 5 6 5 5 5 5 6 6 5 5 6 5 5 5 6 5 5 5 5 6 5 6 5 6 6 5 5 6 5 5 5 5 5 6 5 5 5 5 5 6 5 6 5 5 5 5 5 5 6 5 6 5 5 5 5 5 5 5 6 5 5 5 5 5 6 5 5 5 6 6 6 5 6 5 5 5 6 6 5 6 5 5 5 5 5 5 5 5 5 5 5 5 5 5 6 5 5 5 6 6 5 5 5 5 5 5 5 5 6 5 5 5 6 5 5 6 5 5 5 6 6 5 5 5 5 5 5 6 5 5 5 5 6 5 5 5 6 5 5 5 5 6 5 5 5 5 5 5 5 5 5 5 5 6 5 5 6 5 5 6 5 6 5 5 5 5 5 5 5 5 5 6 5 5 5 5 5 5 5 5 5 5 6 5 5 5 5 5 5 5 5 5 5 5 5 6 5 5 5 5 5 5 5 5 5 5 5 5 5 5 5 5 5 5 5 5 5 5 5 5 5 5 5 5 5 5 6 5 5 6 5 6 5 5 5 5 5 5 6 5 5 5 5 5 6 5 5 6 5 5 5 6 5 5 5 5 5 5 5 5 5 5 5 5 5 5 5 5 6 5 5 5 6 5 6 6 5 5 5 5 6 5 5 5 5 5 6 5 5 5 5 5 5 5 5 5 5 5 6 5 5 5 5 5 5 5 5 5 5 5 6 5 5 5 5 6 5 5 5 5 5 5 5 5 5 5 5 5 5 5 5 5 5 5 5 5 5 5 6 5 5 5 5 5 5 5 5 5 5 5 5 5 5 5 5 5 5 6 5 5 5 6 5 5 5 5 5 5 5 5 5 5 5 5 5 5 6 5 6 5 6 5 5 5 5 5 5 5 6 5 5 5 6 5 5 5 5 5 5 5 5 5 5 5 5 5 5 5 5 5 6 5 5 5 6 5 5 6 6 5 5 5 5 6 5 5 5 5 5 5 5 5 5 5 5 5 6 5 5 5 5 5 5 5 5 5 5 6 5 6 5 5 5 6 5 6 5 5 5 6 5 5 6 5 5 5 5 6 5 5 5 5 6 5 5 5 6 6 5 6 5 6 5 5 6 5 5 5 5 5 5 5 5 5 5 6 6 5 5 5 5 5 6 5 6 5 5 6 5 5 5 6 5 6 6 5 6 5 5 6 6 5 5 6 5 5 6 5 5 5 5 5 5 5 5 6 5 5 5 5 5 6 5 5 5 5 5 5 5 5 6 6 5 5 5 6 6 5 6 5 5 5 6 5 6 5 5 5 5 6 5 6 6 5 5 5 5 5 5 5 5 6 5 5 5 5 5 5 5 5 5 6 5 5 5 5 5 5 5 5 6 5 6 5 5 5 5 6 5 5 5 5 5 5 6 5 5 5 5 5 6 5 6 5 5 5 5 5 5 5 5 5 5 6 5 5 5 5 5 5 6 5 5 5 5 5 5 5 5 5 5 5 6 5 5 5 5 5 6 6 5 5 6 5 5 5 6 5 6 5 5 5 5 5 5 5 5 5 5 5 6 6 5 5 5 5 6 5 5 5 5 6 5 5 6 5 5 5 5 5 5 5 5 5 5 5 5 5 5 5 5 6 5 5 5 5 5 6 5 5 6 5 5 5 6 5 5 5 6 5 5 5 5 5 5 5 5 5 5 5 5 5 6 5 5 5 5 6 5 5 5 5 5 5 5 5 5 6 5 5 5 6 5 5 5 5 5 6 5 5 5 5 5 5 5 5 5 5 5 5 5 5 5 5 5 5 5 5 5 5 5 5 6 5 5 5 5 5 5 5 6 5 5 5 5 5 6 5 5 5 5 5 5 5 5 5 6 5 5 6 5 5 5 5 5 5 5 5 5 5 5 6 5 5 5 5 5 5 5 5 5 6 5 5 5 5 5 5 5 6 5 5 5 5 5 5 5 5 5 5 5 5 5 5 6 5 5 5 5 5 5 5 5 5 5 6 5 5 5 5 5 5 5 5 5 5 5 5 5 5 5 5 5 5 5 5 5 5 5 6 5 5 5 5 5 5 5 5 5 5 5 5 5 5 5 5 6 5 6 5 5 5 5 6 5 5 5 5 5 5 5 5 5 5 5 5 5 5 5 5 5 5 5 5 5 5 5 5 5 5 5 5 5 5 5 5 5 6 5 5 5 5 5 5 5 5 5 5 6 5 5 5 5 5 5 5 5 5 6 5 5 5 5 5 6 5 5 5 5 6 5 5 5 5 5 5 5 5 5 6 5 5 5 5 5 5 5 5 6 5 5 5 5 5 5 5 5 5 5 5 5 5 5 5 5 5 5 5 6 5 5 6 5 5 6 5 5 5 5 5 5 5 6 5 5 5 6 5 5 5 5 5 5 5 5 5 5 6 5 5 5 5 5 6 5 6 5 5 5 5 5 5 5 6 5 6 5 5 5 5 5 5 5 5 5 5 5 5 5 6 5 5 5 5 5 5 6 5 5 6 5 5 6 5 5 5 5 5 5 5 5 5 5 5 5 5 6 5 5 5 5 5 5 5 5 5 5 6 5 6 5 5 5 5 5 5 5 5 5 5 5 5 5 6 5 6 5 5 6 5 5 5 5 5 5 6 6 5 5 5 6 5 5 5 5 5 5 5 6 5 5 5 5 5 5 5 5 5 5 5 5 5 5 5 5 5 5 5 5 5 5 5 5 5 6 5 5 5 6 5 5 5 5 5 5 5 5 5 5 5 5 5 5 5 5 5 6 5 5 5 5 5 5 5 5 5 6 5 5 5 5 5 5 5 5 5 5 5 5 6 5 5 5 5 5 5 5 5 5 5 5 6 5 5 5 5 5 5 5 5 5 5 5 5 5 5 5 6 5 5 5 5 5 5 5 6 5 5 5 5 5 5 5 5 5 5 5 5 5 5 5 5 5 5 5 5 6 5 5 5 5 5 5 6 5 5 5 5 5 5 5 5 5 5 5 5 6 5 5 5 5 5 5 5 6 5 6 6 5 5 5 5 5 5 5 5 5 5 5 5 5 5 5 5 6 5 5 5 5 5 5 5 5 5 5 6 5 5 6 5 5 5 5 5 5 5 5 5 5 5 5 5 5 5 5 5 5 6 5 5 5 5 5 5 5 5 5 5 5 5 5 5 5 5 5 5 5 5 5 5 5 6 5 5 5 5 5 5 6 5 5 6 5 5 5 5 5 5 6 5 6 6 5 6 5 5 5 5 6 6 5 6 6 5 5 6 6 6 5 5 6 5 5 5 5 5 5 5 5 5 5 5 5 5 5 6 5 5 5 6 5 5 5 6 6 5 6 5 5 5 5 5 5 6 5 5 6 5 5 5 5 6 6 5 5 5 5 5 5 5 5 5 5 5 5 5 5 5 5 5 5 5 5 5 5 6 5 5 6 5 5 5 5 5 5 5 6 5 5 5 5 6 5 5 5 5 5 6 5 6 5 5 5 5 5 6 5 5 6 5 6 5 5 5 5 5 5 6 5 6 5 5 5 5 5 5 5 5 5 5 5 5 5 6 5 6 5 5 5 5 5 5 5 5 5 5 5 5 5 5 6 6 5 5 5 5 5 5 5 6 5 5 5 5 6 5 5 5 6 5 6 5 5 5 5 5 5 6 5 6 5 6 5 6 5 6 6 6 5 5 6 5 5 5 5 5 5 6 5 5 5 6 5 5 5 6 5 5 5 5 5 5 6 5 5 6 5 5 5 5 5 6 5 6 5 5 6 5 5 5 5 5 5 5 5 5 5 5 5 5 5 5 5 6 5 5 5 5 5 5 5 5 5 5 5 5 5 5 5 5 5 5 5 5 5 5 5 5 5 5 5 5 5 5 5 5 5 5 5 5 5 5 5 6 5 5 5 5 5 5 5 5 6 6 6 6 6 5 6 5 5 5 6 5 5 5 5 6 5 6 5 5 6 5 6 5 6 5 5 5 6 5 5 5 5 6 5 5 5 6 5 5 5 5 5 5 5 5 5 6 5 5 5 5 5 6 5 5 5 5 5 6 5 5 5 5 5 5 5 5 5 5 5 5 5 5 5 5 6 5 5 5 5 5 5 5 6 6 5 5 6 5 5 5 6 6 5 5 6 5 5 6 5 5 5 5 5 5 5 5 5 5 5 5 5 5 6 6 6 5 5 5 6 5 6 5 5 5 5 5 5 6 5 5 5 6 5 5 5 6 6 5 5 6 5 5 6 5 5 6 6 5 5 6 5 5 5 5 6 6 5 6 5 6 5 5 5 5 5 5 5 5 5 5 5 5 5 5 5 5 5 5 5 5 5 5 5 5 6 5 5 5 5 5 5 5 5 5 5 5 5 5 5 5 5 5 5 5 5 5 6 5 5 5 5 5 5 5 5 6 5 5 5 5 5 5 5 5 5 5 5 5 6 5 5 5 6 5 5 5 5 6 5 5 5 6 5 5 5 5 5 5 5 5 5 5 5 5 6 5 5 5 5 5 5 5 5 5 5 6 5 5 5 5 5 5 5 5 5 5 5 6 5 5 5 6 5 5 6 5 5 5 5 5 5 5 5 5 5 5 5 5 5 6 5 6 5 5 5 5 5 5 5 5 5 5 5 5 5 5 5 5 5 5 5 5 5 6 5 5 6 5 5 5 5 5 5 5 5 5 5 5 5 5 5 5 5 5 5 5 5 5 5 6 5 5 5 5 5 5 5 5 5 5 5 6 5 5 5 5 5 5 6 5 5 6 5 5 5 6 5 6 5 5 5 5 5 6 6 5 6 5 6 5 5 6 6 5 6 5 5 5 5 5 5 5 6 5 5 6 5 5 6 6 5 5 5 5 5 6 5 5 6 6 5 5 5 5 5 5 6 5 5 5 5 5 6 5 5 5 5 5 6 5 5 6 5 5 5 5 6 5 5 5 5 5 5 5 5 5 5 5 5 5 5 5 5 5 5 6 5 5 6 5 5 5 5 5 5 5 5 5 5 5 6 5 5 5 5 5 5 5 6 5 6 5 5 5 5 6 5 5 5 5 5 5 5 5 5 5 5 5 5 6 5 5 5 5 5 5 6 5 5 5 5 5 5 5 5 5 5 5 5 5 5 5 5 5 5 5 5 5 5 6 5 5 5 5 5 5 6 5 5 5 5 5 5 6 5 5 5 5 6 5 5 5 6 5 5 6 5 5 5 5 6 5 5 5 5 5 6 5 6 5 5 5 6 6 6 5 5 5 5 5 5 5 5 5 5 5 5 5 5 5 5 5 5 5 5 5 5 5 5 5 5 5 5 5 5 5 5 5 5 5 5 5 5 5 5 5 5 5 5 5 5 5 5 5 5 5 5 5 5 5 5 5 5 5 5 5 5 5 5 5 5 5 5 5 5 5 5 5 5 6 5 5 5 5 5 5 5 5 5 5 5 5 5 5 5 5 5 5 5 5 6 5 5 5 5 5 5 5 5 5 6 5 5 6 5 5 5 5 5 5 5 6 5 5 5 5 5 5 5 5 5 6 5 5 5 5 5 5 5 5 5 5 5 5 5 6 5 5 5 6 5 5 5 5 5 5 5 5 5 5 6 5 5 5 5 5 5 5 5 5 5 5 6 5 5 5 5 6 5 5 5 5 5 6 5 5 5 6 5 5 5 5 5 5 5 5 5 5 5 5 5 5 5 5 5 5 5 5 5 6 5 5 5 6 5 5 6 5 5 5 6 5 5 5 5 5 5 5 5 5 5 6 5 6 5 5 6 5 5 5 6 5 5 5 6 6 5 5 6 5 5 5 5 5 5 5 5 5 5 5 5 5 5 5 5 5 5 5 5 6 6 5 5 5 5 5 5 5 5 5 5 5 5 5 5 5 6 5 5 5 5 5 6 5 5 5 5 5 6 5 5 5 5 5 5 5 6 5 5 5 6 5 5 5 5 5 5 5 6 5 5 5 5 5 5 5 5 5 5 5 5 5 5 5 5 5 5 5 5 5 5 5 5 5 5 5 5 6 5 5 6 6 5 5 5 5 5 5 5 5 6 5 5 5 5 5 5 5 5 5 5 5 5 5 6 5 5 6 5 5 5 5 5 5 5 5 5 5 5 5 5 5 5 5 5 5 5 5 5 5 6 5 5 5 5 5 5 6 5 5 5 5 5 5 5 5 5 5 5 5 5 5 5 5 5 5 5 5 5 5 5 5 5 5 5 5 5 5 6 5 5 6 5 5 5 5 5 5 5 6 5 5 5 5 5 5 6 5 6 5 5 5 5 5 5 5 5 6 5 5 5 6 5 5 5 5 6 5 5 5 5 5 5 6 6 6 5 5 5 5 5 5 6 5 5 5 5 5 5 5 5 5 5 5 5 5 5 5 5 5 5 5 5 5 5 5 5 5 5 5 5 5 5 5 5 5 5 5 5 5 5 5 5 5 5 5 5 5 5 5 5 5 5 5 5 5 5 5 5 5 5 5 5 5 5 5 5 5 5 5 5 5 5 5 5 5 5 5 5 5 5 5 5 5 5 5 5 5 5 5 5 5 5 5 5 5 5 5 5 5 5 5 5 5 5 5 5 5 5 5 5 5 5 5 5 5 5 5 5 5 5 5 5 5 5 5 5 5 5 6 5 5 5 6 5 5 6 6 5 5 5 5 5 5 5 6 5 5 5 5 6 5 6 5 5 5 5 5 5 5 6 5 5 5 6 5 5 5 5 6 5 5 6 5 6 5 6 5 6 5 5 5 5 5 5 5 5 5 5 5 5 5 5 5 5 5 5 5 5 5 5 5 5 6 6 5 5 6 5 5 6 5 5 5 5 5 5 5 6 6 5 5 5 5 5 5 5 5 5 5 5 5 5 5 5 6 5 6 5 5 5 5 5 5 5 6 6 5 5 5 5 5 5 5 5 5 5 5 6 5 6 5 5 5 6 6 5 5 6 5 5 5 5 5 5 5 5 5 5 5 5 5 5 5 5 5 5 5 5 5 5 6 5 5 6 5 5 5 5 5 5 5 6 5 5 5 6 5 5 5 5 5 6 5 6 5 5 5 5 5 5 5 5 5 5 6 5 6 5 5 5 5 5 5 5 6 5 5 6 5 5 5 5 5 5 5 6 5 6 5 5 6 5 6 5 5 5 5 6 5 6 5 5 5 5 5 5 6 5 6 5 6 5 5 6 5 5 5 5 5 6 5 6 5 5 5 5 6 5 6 5 5 5 5 6 5 5 5 5 5 5 5 5 5 5 5 5 5 5 5 5 5 5 5 5 5 5 6 5 5 5 5 5 5 5 5 5 5 6 5 6 5 5 5 6 5 5 5 5 5 5 5 5 5 5 6 5 6 6 5 5 5 6 5 5 6 5 5 5 5 6 6 6 5 5 5 6 5 5 5 5 5 5 5 5 5 5 5 5 5 5 5 5 6 5 5 5 5 5 5 5 6 5 5 5 5 5 5 5 5 5 5 5 5 5 6 5 5 5 5 5 6 5 5 5 5 6 5 5 5 5 5 5 5 5 5 5 5 5 5 5 5 5 5 5 5 5 5 5 5 5 5 5 5 5 5 5 5 5 5 5 5 5 5 5 5 5 5 5 5 5 5 5 5 5 5 5 5 5 5 5 5 5 5 5 5 6 5 6 6 5 5 6 5 6 5 5 5 5 5 5 6 5 5 5 5 5 5 5 5 5 5 5 5 5 5 5 5 5 5 5 5 5 6 5 5 5 5 5 5 6 5 5 5 5 5 5 5 5 5 5 5 6 5 5 5 5 5 5 5 5 5 5 5 5 5 5 5 5 5 5 5 5 5 5 5 5 5 5 5 5 5 5 5 5 5 5 6 6 5 6 5 6 5 5 5 5 5 5 5 5 6 5 5 6 5 5 6 5 5 5 5 5 5 5 5 5 5 5 5 5 6 5 6 5 5 5 6 5 6 6 6 5 5 5 6 6 5 5 5 5 5 5 5 6 5 5 5 5 6 6 5 6 5 6 5 5 5 5 5 6 6 6 5 5 5 6 5 6 6 5 6 6 5 5 5 5 5 6 5 5 6 5 5 6 6 5 5 5 5 5 6 5 5 5 5 5 6 5 5 5 5 6 5 5 5 5 6 5 5 5 5 5 6 5 5 5 6 5 5 5 5 6 5 5 6 5 6 5 6 5 6 5 5 5 5 5 5 6 5 5 5 5 5 5 5 5 6 5 5 5 6 6 5 5 5 5 5 6 5 5 5 5 5 5 6 5 5 5 5 5 5 5 5 5 5 5 5 5 5 5 5 5 5 5 5 6 5 5 5 5 5 5 5 5 5 5 5 5 5 5 5 5 5 5 5 5 5 6 5 5 5 6 5 5 5 6 5 5 5 5 5 5 5 5 6 5 5 5 5 5 5 6 5 6 5 5 6 5 5 5 6 5 5 5 6 5 5 5 5 5 6 5 5 5 6 5 5 5 5 5 5 5 5 5 5 5 5 6 5 5 5 5 6 5 5 5 5 5 5 5 5 5 5 5 6 5 5 6 5 5 5 6 5 6 5 5 5 5 5 5 5 6 5 5 5 5 5 5 5 5 5 5 5 5 5 5 5 5 5 5 5 5 5 6 5 5 5 5 6 5 5 5 6 5 5 5 5 5 5 6 5 5 5 6 5 5 5 5 5 5 5 5 5 5 5 5 6 5 5 6 6 5 5 5 6 5 5 6 5 5 5 5 6 5 5 5 5 5 6 6 5 5 5 6 5 5 5 5 5 6 5 5 5 5 5 5 5 5 5 5 5 5 5 5 5 5 5 5 5 5 5 5 5 5 5 5 5 5 5 5 5 6 5 5 5 5 5 5 5 5 5 5 5 6 5 5 5 5 5 5 5 6 5 5 5 5 5 5 6 5 5 5 5 6 5 5 5 6 5 5 5 6 5 5 5 6 5 6 5 5 5 6 6 5 6 6 5 6 5 6 5 5 5 6 5 5 5 5 5 5 5 5 5 5 6 6 5 5 5 5 5 5 6 5 6 5 5 5 6 6 5 5 5 5 5 5 6 6 6 5 5 5 5 5 5 5 5 5 5 5 5 5 5 5 5 5 5 5 5 5 6 5 5 5 5 5 5 6 6 5 5 5 5 5 5 5 5 5 5 5 5 5 5 5 5 5 5 5 6 6 5 5 5 5 6 6 5 6 6 5 5 6 5 5 6 6 6 5 5 5 5 5 5 5 5 5 6 5 5 5 5 6 5 5 6 5 5 5 5 5 6 5 5 5 6 5 5 5 5 5 5 5 5 5 5 5 5 5 6 5 5 5 5 6 5 5 5 6 5 5 5 5 5 5 5 5 5 5 5 5 6 5 6 5 5 6 5 6 5 5 5 5 5 6 5 5 5 5 5 5 5 5 5 5 5 5 5 5 5 5 5 5 5 5 5 5 5 5 5 5 5 6 5 5 5 6 5 5 5 5 5 5 5 5 6 5 5 6 5 5 5 6 5 5 5 5 5 5 5 5 5 5 5 5 5 5 5 5 5 5 5 5 5 6 5 5 6 6 5 6 5 5 6 5 5 6 5 5 5 5 5 5 5 6 5 5 5 5 5 5 5 5 5 5 6 6 5 5 5 5 5 5 5 5 5 5 5 5 5 5 5 5 5 5 5 5 5 5 5 5 5 6 5 5 5 5 5 5 5 5 5 5 6 5 5 5 5 5 5 5 5 5 5 5 5 5 5 6 6 5 5 5 5 5 5 5 5 5 5 5 5 5 5 5 5 5 5 5 5 5 5 6 6 5 5 6 6 5 5 5 5 5 5 5 5 5 5 5 6 5 5 5 5 5 5 5 5 5 6 5 5 5 5 5 5 6 5 6 5 5 5 5 6 5 6 6 5 6 6 5 5 5 5 5 5 5 5 5 5 5 5 5 5 5 5 5 6 5 5 6 5 6 5 5 5 5 5 6 5 6 5 6 5 5 6 5 6 5 5 5 5 5 5 5 5 5 6 5 5 5 5 5 5 5 5 5 5 5 5 5 5 5 5 5 5 5 5 5 6 5 5 5 5 5 5 5 5 6 5 5 5 5 5 5 5 5 6 5 5 5 5 5 5 5 5 5 5 5 6 5 5 5 5 5 6 5 5 5 5 5 5 5 6 6 5 5 5 5 5 5 5 5 5 6 5 5 5 5 5 5 5 5 5 5 6 5 5 5 5 5 5 5 5 5 5 5 6 5 5 5 5 6 5 6 6 5 5 5 5 5 5 6 5 5 5 5 6 5 5 5 5 5 5 5 5 5 6 5 6 5 5 5 5 5 5 6 5 5 6 6 5 5 6 5 6 5 6 5 5 5 5 5 6 5 5 6 5 5 5 5 5 5 6 5 5 5 6 5 6 5 5 6 5 5 5 5 5 6 5 5 5 5 5 5 5 5 5 5 5 6 6 5 5 5 5 5 5 6 5 5 5 5 5 5 5 5 5 5 5 5 5 5 5 6 5 5 6 5 5 5 5 5 5 5 5 5 5 5 5 5 5 5 5 5 5 5 5 5 5 5 5 5 5 5 5 5 5 5 5 5 5 5 5 5 5 5 5 5 5 6 5 5 5 5 5 5 5 5 5 5 5 5 5 5 5 5 5 5 5 5 5 5 5 5 6 5 5 5 5 6 5 5 5 6 5 5 5 5 5 5 5 5 5 5 5 5 5 5 5 5 5 5 5 5 5 5 5 5 5 5 5 5 5 5 5 5 5 5 5 6 5 5 5 5 5 5 5 5 6 5 5 5 5 6 5 5 5 5 5 5 5 5 5 5 5 5 5 5 5 5 5 5 5 5 5 6 5 5 5 5 6 5 5 5 5 5 5 5 5 5 5 5 5 5 5 5 6 5 6 5 5 5 5 5 5 5 5 6 5 5 5 5 5 6 5 5 5 5 5 5 5 5 5 5 5 5 5 6 5 5 6 5 5 5 6 5 5 5 5 5 5 5 6 5 5 5 5 5 5 5 5 5 5 5 5 5 5 5 5 5 5 5 5 5 5 5 5 5 5 6 5 5 5 6 5 5 5 5 5 5 5 5 5 5 5 5 5 5 5 5 5 5 5 5 5 5 5 5 5 5 5 5 5 5 5 5 5 6 5 5 5 5 5 5 5 5 5 5 5 5 5 6 5 5 5 5 5 5 5 5 5 5 6 5 5 5 5 6 5 5 5 5 5 6 5 5 5 5 5 5 5 5 5 5 5 5 5 5 5 5 5 6 5 5 5 5 5 5 5 5 5 5 5 5 5 5 5 5 5 5 5 6 5 5 5 5 5 5 5 5 6 5 5 5 5 5 6 5 5 5 5 5 5 6 5 5 5 5 5 5 5 5 5 5 5 5 5 5 5 6 6 5 5 5 5 6 5 5 5 5 6 5 5 5 5 5 5 5 5 5 5 6 5 5 6 5 6 6 5 5 5 5 6 6 5 5 5 5 5 5 5 6 5 5 5 5 6 5 5 6 5 6 6 5 5 5 6 5 5 5 6 5 5 5 5 5 5 5 5 5 5 5 5 5 6 5 6 6 5 5 5 6 5 6 5 5 6 6 5 5 5 6 6 5 5 5 5 5 5 6 5 6 5 5 5 6 5 6 5 5 5 6 5 6 5 5 5 6 5 5 6 5 5 5 6 5 5 6 5 5 5 5 5 5 5 6 6 5 5 5 5 6 5 5 5 5 5 6 5 6 5 5 5 6 6 5 5 5 5 5 5 5 5 5 6 5 5 5 5 5 6 5 5 5 5 6 5 5 5 6 5 5 5 5 6 5 5 5 5 6 5 5 5 5 5 5 5 5 5 5 5 5 5 5 5 5 5 5 5 5 6 5 5 6 5 5 6 5 6 5 5 6 6 5 5 5 5 5 5 5 5 5 6 5 5 5 5 5 5 5 5 5 5 5 5 5 5 5 5 5 5 5 5 6 5 5 5 5 5 5 5 5 5 5 5 5 5 5 5 5 6 5 5 5 5 5 5 5 5 5 6 5 5 5 5 5 5 5 5 5 5 5 5 5 5 5 5 5 6 5 5 6 5 6 5 5 5 5 5 5 5 5 5 6 5 5 5 5 5 5 5 5 6 5 5 5 5 5 5 5 5 5 5 5 5 5 5 5 5 5 5 6 5 6 5 5 5 5 6 5 5 5 5 6 5 5 5 5 5 5 5 5 5 5 5 5 5 5 5 5 6 5 5 6 6 5 5 5 5 5 5 5 6 6 5 5 5 5 6 5 5 5 5 5 5 5 5 5 5 6 5 5 5 5 5 5 5 5 6 5 5 5 5 5 5 5 5 5 6 5 5 6 5 5 6 5 5 5 5 5 5 6 5 6 5 5 5 5 6 5 5 5 6 5 5 5 5 5 6 5 5 5 5 5 5 5 5 5 6 5 5 6 5 5 5 5 5 5 5 5 5 5 5 5 5 5 5 5 5 5 5 5 6 5 5 5 5 5 5 5 5 5 5 5 6 5 5 5 5 5 5 5 5 5 6 5 5 5 5 5 5 5 5 5 5 5 5 5 5 5 5 5 5 6 5 5 5 6 6 5 5 5 5 6 6 5 5 6 5 5 5 5 5 5 6 5 5 5 5 5 5 5 5 5 5 5 5 5 5 5 5 5 5 5 5 6 5 5 5 5 5 5 5 5 5 5 6 5 6 5 5 5 5 5 5 6 5 5 5 5 5 6 5 5 5 6 5 5 5 5 6 5 5 5 6 5 5 5 5 5 5 5 5 5 5 5 5 6 5 5 5 5 5 5 6 6 5 5 5 5 5 5 5 6 5 6 5 5 6 5 5 5 5 5 5 5 5 5 5 5 5 5 5 5 5 5 5 5 6 5 5 5 5 5 5 6 5 5 5 5 5 5 5 5 5 5 5 6 5 5 5 5 6 5 5 5 6 5 5 5 5 6 5 5 6 6 5 5 5 5 5 6 5 5 5 5 5 6 6 6 5 5 5 5 5 6 6 5 6 6 5 6 5 5 5 5 5 5 5 5 5 5 5 6 5 5 5 5 6 5 5 5 6 5 6 5 6 6 5 5 5 6 5 6 6 6 5 5 5 6 5 6 5 6 5 5 5 6 5 5 5 5 5 5 5 5 5 5 5 5 5 5 5 5 5 5 5 5 5 5 5 5 5 5 5 5 6 5 5 5 5 5 5 6 5 5 5 5 5 5 5 5 5 5 5 5 5 5 5 5 5 5 5 5 5 5 5 5 5 5 5 5 5 5 5 5 5 5 5 5 5 5 5 5 5 5 5 5 5 5 5 5 5 5 6 5 5 5 5 5 5 5 5 5 5 5 5 5 5 5 5 5 5 5 5 5 5 5 5 6 6 5 5 5 5 5 5 5 5 5 5 5 5 5 5 5 5 5 5 5 5 5 5 5 6 5 5 5 5 5 5 5 5 5 5 5 5 5 5 5 5 6 6 5 5 5 5 5 6 6 6 5 5 5 6 6 5 5 5 5 5 5 5 5 5 5 5 5 5 5 5 5 6 5 6 5 5 6 5 5 5 5 5 5 5 5 5 5 5 5 5 5 5 5 5 5 5 5 5 5 5 5 5 5 5 5 5 5 5 5 5 5 5 6 5 5 5 5 5 5 5 5 5 5 5 5 5 5 5 6 5 5 5 5 5 5 5 5 5 5 5 5 5 5 6 5 5 5 5 5 5 5 5 5 5 5 5 5 5 5 5 5 5 5 5 5 5 5 5 5 5 5 5 5 5 5 6 5 5 5 5 5 5 6 5 5 5 5 5 5 5 5 6 5 6 5 5 5 5 5 5 5 5 6 5 5 5 5 5 5 5 5 5 5 5 5 5 5 5 5 5 5 5 5 5 5 5 5 5 5 5 5 5 5 6 5 5 5 5 5 5 5 5 5 5 5 5 5 6 6 5 5 6 6 5 5 5 5 5 6 5 5 5 5 5 5 6 5 5 5 5 5 6 5 6 5 6 5 5 6 5 5 5 5 5 5 5 6 5 6 5 5 6 5 5 5 5 6 5 5 5 6 5 5 5 5 5 6 5 6 5 5 6 5 5 5 6 5 6 5 5 5 5 5 5 5 6 5 5 6 6 5 6 6 5 5 5 6 5 6 6 6 5 5 5 5 5 6 5 5 5 5 5 5 6 5 5 5 6 5 6 5 5 5 5 5 5 5 5 5 5 5 5 5 5 5 5 5 6 5 5 6 5 5 5 5 5 5 5 5 5 6 5 5 5 5 5 5 5 5 6 5 5 5 6 5 6 5 5 6 5 5 5 5 6 5 5 5 5 5 5 5 6 5 6 5 5 5 5 5 5 5 6 5 5 5 6 5 6 5 5 6 6 5 5 5 5 5 6 5 5 5 5 5 5 5 5 5 5 5 5 5 5 5 5 5 5 6 6 5 5 5 5 5 5 6 5 5 6 6 5 5 6 5 6 5 5 6 5 5 5 6 5 5 6 5 5 5 5 6 5 5 5 5 5 5 6 5 5 5 5 6 6 5 6 6 5 5 5 5 5 5 5 5 5 5 5 5 5 5 5 5 5 5 5 5 5 5 5 5 5 5 5 5 5 5 6 5 5 6 5 5 5 5 5 5 5 5 5 5 6 5 5 5 5 5 5 5 5 6 5 5 5 5 5 5 5 6 5 5 5 6 5 5 5 6 5 6 5 5 5 5 5 5 6 5 6 5 5 5 6 5 5 5 5 5 5 5 5 5 5 5 5 5 5 5 5 5 5 6 6 6 5 6 5 5 5 5 5 5 6 5 6 5 5 5 5 6 5 5 6 6 5 5 5 5 5 6 5 6 5 5 5 6 5 5 6 6 5 5 5 5 6 5 5 6 5 5 5 6 5 5 5 6 5 6 5 5 5 5 5 5 5 5 6 5 5 5 5 5 5 5 5 6 5 5 5 5 6 5 6 5 5 6 5 5 6 5 5 5 5 6 5 5 5 5 5 5 5 5 5 5 5 5 5 5 5 5 5 5 5 5 5 5 6 5 5 5 5 5 5 5 5 5 5 5 5 5 5 5 5 5 5 5 5 5 5 5 5 5 5 5 5 5 5 5 5 6 5 6 6 5 5 5 5 5 5 5 6 5 5 5 5 5 5 6 5 5 5 6 5 5 5 5 5 5 5 5 5 5 5 6 5 5 6 5 5 5 5 6 5 5 6 5 5 5 5 5 5 5 6 5 5 5 5 5 5 5 5 5 5 5 6 5 5 5 5 5 5 5 5 5 5 5 5 5 6 5 5 5 6 5 5 5 5 5 5 5 5 5 5 5 5 5 5 5 5 5 5 5 5 5 5 5 5 5 5 5 5 5 5 5 5 5 5 5 6 5 5 5 5 5 6 5 5 6 5 5 5 6 6 5 5 5 5 5 5 6 5 5 5 5 5 5 5 5 5 5 5 5 5 5 5 5 5 5 5 5 5 5 5 5 6 5 5 5 5 5 5 6 5 5 6 5 5 5 5 5 5 6 5 6 5 5 5 6 5 5 6 5 5 5 5 6 5 5 5 6 5 5 6 6 5 5 6 5 5 6 6 5 6 5 5 5 6 6 6 5 5 5 6 5 5 5 6 5 5 5 5 6 5 5 5 5 5 5 5 5 5 5 5 5 5 5 6 5 6 5 5 5 5 5 6 5 5 5 5 5 5 5 6 6 5 5 5 5 5 5 5 6 5 6 6 6 5 5 5 5 5 5 5 6 5 5 6 5 6 5 6 5 5 6 5 5 5 5 5 5 5 5 5 5 5 5 5 5 5 6 5 5 5 5 5 5 5 5 5 5 5 6 5 5 5 5 6 5 5 5 5 5 5 5 5 5 5 6 5 5 6 5 5 6 5 5 5 5 6 5 5 5 6 6 5 5 5 5 5 5 6 5 5 5 5 5 5 5 5 5 5 5 5 5 5 5 6 5 5 5 6 5 5 5 5 5 5 5 6 5 5 5 5 6 6 5 5 5 5 5 5 5 5 5 5 5 5 5 5 6 5 5 5 6 5 5 5 5 5 6 5 6 5 5 5 5 5 5 5 5 6 6 5 6 6 5 5 5 5 5 6 6 6 5 6 5 6 5 5 6 5 5 5 5 5 5 5 5 5 5 5 5 5 5 5 5 5 5 5 5 6 5 5 5 5 5 5 5 5 5 5 5 5 5 5 6 5 5 5 5 5 5 5 5 5 5 5 5 5 5 5 5 6 5 5 5 5 6 5 5 5 5 5 5 5 6 5 6 5 5 6 5 5 5 5 6 5 6 5 5 6 5 5 5 5 5 5 5 5 5 5 5 5 5 5 6 5 5 5 5 5 5 5 5 5 5 5 5 5 6 5 5 5 6 5 6 5 5 6 5 5 5 6 5 5 5 5 5 5 5 5 5 5 5 5 5 5 5 5 6 5 5 5 5 6 5 5 6 5 5 5 5 5 5 5 6 5 5 5 5 5 5 5 5 5 5 5 5 5 5 5 5 5 5 5 5 5 5 6 5 5 5 6 5 5 5 5 5 5 5 5 5 5 5 5 5 5 5 5 6 5 5 5 5 5 5 5 5 5 5 5 5 5 6 5 5 5 5 5 5 5 5 5 5 5 6 5 5 5 5 5 5 5 6 5 5 5 5 6 6 5 5 5 5 5 5 5 5 5 5 5 5 5 5 5 5 5 5 5 5 5 5 5 6 5 5 5 5 5 5 5 6 5 6 5 5 5 6 5 5 5 5 5 6 5 5 5 6 5 5 5 6 5 5 5 5 5 5 5 5 5 6 5 5 5 5 5 5 5 5 5 5 5 5 5 5 5 5 6 5 5 5 5 6 5 5 5 6 5 6 6 5 5 5 5 5 5 5 5 5 5 5 5 5 5 5 5 5 5 5 5 5 5 5 5 5 6 5 5 5 6 5 6 5 6 5 5 6 5 5 5 6 5 5 5 5 5 5 5 6 5 5 6 6 6 5 5 6 5 5 5 5 6 6 5 6 5 5 5 5 5 6 5 5 5 5 5 6 5 5 5 6 5 5 5 5 5 5 5 5 5 5 6 5 5 5 5 6 6 5 5 5 5 6 5 6 5 6 5 5 5 5 5 5 5 5 5 5 5 5 5 5 5 5 6 5 5 5 5 5 5 5 5 6 5 5 5 6 5 5 5 5 5 6 5 5 6 5 5 5 5 5 6 5 5 6 5 5 6 6 6 5 6 5 5 5 6 5 5 5 5 5 5 5 5 5 5 5 5 6 5 6 5 5 5 5 5 5 5 5 5 5 5 5 5 5 5 5 5 6 5 5 5 5 5 5 6 5 5 6 5 5 5 5 5 5 5 5 5 6 6 5 5 5 5 5 5 6 5 5 6 5 5 5 5 5 5 5 5 5 5 5 5 5 5 5 5 6 5 6 5 5 5 5 5 5 5 5 5 5 6 5 5 5 5 5 6 5 5 5 5 5 5 5 5 5 5 5 5 5 5 5 5 6 5 5 5 5 5 5 5 5 5 6 5 5 5 5 5 5 5 6 5 6 5 5 5 5 5 6 5 6 5 5 6 5 5 5 5 5 5 5 5 5 5 5 6 5 5 5 5 6 5 5 5 5 5 5 5 5 5 5 5 5 6 5 5 6 5 5 5 5 5 5 5 5 5 5 6 5 6 5 5 5 5 5 6 5 5 5 5 5 5 5 5 5 5 6 6 5 5 5 5 5 6 5 5 5 6 5 5 5 5 5 5 6 5 5 5 5 5 5 5 5 6 5 5 5 5 5 5 5 5 5 5 5 5 5 5 5 6 5 5 5 5 5 6 5 5 5 5 6 5 5 5 6 5 5 6 5 5 5 5 5 5 5 5 5 5 5 5 5 5 5 5 5 5 5 5 5 5 5 6 5 5 5 5 5 5 5 6 5 5 5 5 5 5 5 5 5 5 5 5 5 5 5 5 5 5 5 5 5 5 5 5 5 5 5 5 5 5 5 5 5 5 5 5 5 6 5 5 5 5 5 5 5 5 6 5 5 5 5 5 5 5 5 5 5 5 5 5 5 6 5 5 6 5 6 6 6 5 5 5 5 6 5 5 5 5 5 5 5 5 5 5 5 5 5 5 5 5 5 5 5 5 5 5 5 5 5 5 5 5 5 5 5 5 5 5 5 5 5 5 5 5 5 5 5 6 5 5 6 5 5 5 5 5 6 5 5 5 5 6 6 5 6 5 5 5 6 5 5 5 5 5 5 5 5 5 5 5 5 5 5 5 5 5 5 5 5 5 5 5 5 5 5 5 5 5 5 6 5 5 5 5 5 5 6 5 5 5 6 5 5 5 5 5 5 5 5 5 5 5 5 5 6 5 5 5 5 5 5 5 5 5 5 5 5 5 5 5 5 5 5 5 5 5 5 5 5 5 6 6 5 5 5 6 5 6 5 5 5 6 5 5 5 6 6 5 5 6 5 5 5 5 5 5 5 5 5 5 5 6 5 5 5 5 5 5 5 5 6 5 5 5 5 5 5 5 5 5 5 5 5 5 6 6 5 5 5 5 5 5 5 6 5 5 5 5 6 5 5 5 5 5 5 5 5 5 5 5 6 5 6 6 6 5 5 5 6 5 5 5 5 6 5 5 5 5 5 5 5 5 5 5 5 5 5 5 5 5 5 5 5 5 5 5 5 5 5 5 5 5 6 5 5 5 5 5 5 6 5 6 6 5 5 5 5 5 5 5 6 5 5 5 5 5 5 5 5 5 5 5 5 5 5 5 5 5 5 5 5 5 5 5 5 5 5 5 5 5 5 5 5 5 5 5 5 5 5 5 5 5 5 5 5 5 5 5 5 5 5 5 5 5 5 5 5 5 5 5 5 5 5 5 5 5 5 5 5 5 5 5 5 5 5 5 5 5 5 5 5 5 5 5 5 5 5 5 5 5 5 5 5 5 5 5 5 5 5 5 5 5 5 5 5 5 5 5 5 5 5 5 5 5 5 5 5 5 5 5 5 5 5 6 6 5 6 6 5 5 6 5 5 6 5 5 5 5 5 5 5 5 5 5 5 5 5 5 6 6 5 6 6 5 5 5 5 5 5 5 5 5 5 6 5 5 5 5 5 5 6 5 5 5 5 5 5 5 5 5 5 6 5 5 6 5 5 5 5 5 5 5 5 5 5 5 5 5 5 5 5 5 5 5 5 5 5 5 5 5 5 6 5 5 5 5 5 5 5 5 5 5 5 5 5 5 5 5 5 6 5 5 5 6 5 5 5 5 5 5 6 5 5 5 5 5 5 5 5 6 5 5 5 5 6 5 6 5 6 5 5 5 5 5 6 5 5 5 6 5 6 5 5 5 5 5 5 5 5 5 5 5 5 6 5 5 5 5 5 5 5 5 5 5 5 5 5 5 5 5 5 5 5 5 5 5 5 5 5 5 5 5 5 5 5 5 5 5 5 5 6 5 5 5 5 5 5 6 5 5 5 5 5 5 5 5 6 6 5 5 5 5 5 6 6 5 5 5 5 5 5 5 5 5 6 5 5 5 5 6 5 5 5 5 5 6 5 5 5 5 5 5 5 5 5 5 5 5 5 5 6 5 5 5 5 5 5 5 5 5 5 5 5 5 6 5 5 
</DataArray>
<DataArray type="Float64" Name="stress" NumberOfComponents="9" format="ascii">
693.6740872365117 -3154.6762538747753 0 -3154.6762538747753 767.22563428850117 0 0 0 0 1502.3122622025112 -2576.5718596088227 0 -2576.5718596088227 -0.73529348617589263 0 0 0 0 422.46768409217475 -3109.4541885234939 0 -3109.4541885234939 988.38895396042062 0 0 0 0 2039.9723898882585 -1673.8916419131001 0 -1673.8916419131001 1404.0959764541185 0 0 0 0 2062.798278057413 -1594.2365503030705 0 -1594.2365503030705 1.621664067482925 0 0 0 0 2693.2293222901717 -2281.5765203956507 0 -2281.5765203956507 613.99340747781389 0 0 0 0 820.89342502711361 -2916.4546048237025 0 -2916.4546048237025 2152.3481592249009 0 0 0 0 6.1018925481616009 -12.849562147943516 0 -12.849562147943516 23.371049991708617 0 0 0 0 4473.436444029343 -2500.0441814633632 0 -2500.0441814633632 244.07784764140524 0 0 0 0 -1450.1499577491631 -1351.753045963691 0 -1351.753045963691 3022.4077853854251 0 0 0 0 -135.13380017561576 -467.98248985418104 0 -467.98248985418104 -89.071875089459354 0 0 0 0 1138.4310343070174 -2916.2535956644715 0 -2916.2535956644715 2374.7771221381845 0 0 0 0 1223.898889190059 -2638.5686732328541 0 -2638.5686732328541 996.79459070557641 0 0 0 0 708.41575677352375 -2970.4974949073112 0 -2970.4974949073112 1139.5873939769317 0 0 0 0 1532.1348335928924 -2383.1885667884908 0 -2383.1885667884908 -47.759348679319373 0 0 0 0 -37.486665504533448 -1924.118607209195 0 -1924.118607209195 226.83957242816905 0 0 0 0 1199.786288940908 -381.61715543387982 0 -381.61715543387982 -441.18597721221886 0 0 0 0 308.52458790091623 -1332.5420465500356 0 -1332.5420465500356 -24.081004329240386 0 0 0 0 -660.30498925663414 -850.60355549809174 0 -850.60355549809174 -290.13746879863174 0 0 0 0 131.38422884810279 -1446.2397415477717 0 -1446.2397415477717 -40.006518505433633 0 0 0 0 11.855234500648208 -30.934991819819956 0 -30.934991819819956 57.744367241400653 0 0 0 0 -1087.0555839394692 -344.81568161242831 0 -344.81568161242831 449.57577385434706 0 0 0 0 -2112.3564695464156 -1175.7977650870307 0 -1175.7977650870307 37.603155959543074 0 0 0 0 -697.113530304101 -33.350449372643197 0 -33.350449372643197 538.58139250279055 0 0 0 0 11.015806145520727 -33.637674423935053 0 -33.637674423935053 72.554256467257346 0 0 0 0 -1802.6224920542882 -806.14808640275442 0 -806.14808640275442 2.8337260707048699 0 0 0 0 333.64206015456875 -1756.1535355869346 0 -1756.1535355869346 -284.13316119075171 0 0 0 0 -834.02651755294573 -1455.036850349672 0 -1455.036850349672 -89.497208611443057 0 0 0 0 -1647.9337560183194 -1080.5546337546984 0 -1080.5546337546984 -6.5756965158943785 0 0 0 0 -679.99085384022328 -1167.838013884575 0 -1167.838013884575 -176.44259569692076 0 0 0 0 -942.00086087654927 -1074.3358302888282 0 -1074.3358302888282 -284.70643241099606 0 0 0 0 -1773.4534046739282 -1040.6431241677274 0 -1040.6431241677274 98.302839073694486 0 0 0 0 -2813.3112966113913 -1020.704667916998 0 -1020.704667916998 59.180869901785627 0 0 0 0 -1644.2193572671072 -980.74390090439078 0 -980.74390090439078 -415.06925286004844 0 0 0 0 -1782.7049361994868 -934.50994889509457 0 -934.50994889509457 -219.9128263067978 0 0 0 0 -2456.6543459071108 -535.00073123376933 0 -535.00073123376933 -201.79239462372425 0 0 0 0 421.19844509465111 -2530.1229100640794 0 -2530.1229100640794 671.17719847714761 0 0 0 0 -14.487100244135945 -1770.6009514638936 0 -1770.6009514638936 -1.9895375165942824 0 0 0 0 23.356001859094249 -1742.941265383568 0 -1742.941265383568 -32.096918732699123 0 0 0 0 -819.8500958107179 -1049.3899130885402 0 -1049.3899130885402 144.41165560515219 0 0 0 0 -1048.0150980822164 -1372.9952468202273 0 -1372.9952468202273 448.86389574874192 0 0 0 0 530.08170853911724 -2383.5032183111252 0 -2383.5032183111252 507.76698008592939 0 0 0 0 -0.53289006306476949 -2616.7374878389683 0 -2616.7374878389683 1187.0457197717296 0 0 0 0 542.62442908878438 -2325.8088172265325 0 -2325.8088172265325 741.9059656765894 0 0 0 0 1167.9339951670481 -2963.391495706639 0 -2963.391495706639 1297.9174604504515 0 0 0 0 431.73291843577317 -2474.6121982630084 0 -2474.6121982630084 841.27449581443216 0 0 0 0 1323.7370383044909 -2015.5416638689858 0 -2015.5416638689858 1459.9312144012583 0 0 0 0 659.44702223351487 -2775.2236239903996 0 -2775.2236239903996 588.4479251455341 0 0 0 0 -234.7160383186274 -258.89718293915939 0 -258.89718293915939 -768.22823376927408 0 0 0 0 114.16360291331875 -441.55034566275572 0 -441.55034566275572 -1106.7566813004305 0 0 0 0 95.084020932474232 -140.97643218737358 0 -140.97643218737358 -490.67182369974034 0 0 0 0 79.192466708009306 -531.83551630617876 0 -531.83551630617876 -545.06248436737224 0 0 0 0 -83.843174485926284 -678.42036296662991 0 -678.42036296662991 148.06632031949994 0 0 0 0 81.116066664206301 -676.02135553798325 0 -676.02135553798325 -894.59100664351718 0 0 0 0 -22.242139739770209 -884.41788648465626 0 -884.41788648465626 -111.41013400022348 0 0 0 0 -174.29370065192052 -1205.7951501915186 0 -1205.7951501915186 0.51261882871040143 0 0 0 0 -626.57396276208965 -944.07355146668488 0 -944.07355146668488 29.304441961154225 0 0 0 0 561.72382674818073 -672.22026527576236 0 -672.22026527576236 43.988646092315321 0 0 0 0 -1.499885325010311 -5.714517142319778 0 -5.714517142319778 -8.817623570661226 0 0 0 0 597.34034258416068 -418.29877122749895 0 -418.29877122749895 243.21786283887923 0 0 0 0 -667.46108154786498 -338.35374280839369 0 -338.35374280839369 508.05372600897681 0 0 0 0 -0.057011580621107782 -2.4336403671476035 0 -2.4336403671476035 -4.1525520544956862 0 0 0 0 25.487495393157587 -212.24045687078615 0 -212.24045687078615 377.80730925058742 0 0 0 0 385.40917350541713 -473.61577617005605 0 -473.61577617005605 238.43595221331634 0 0 0 0 64.881289487835602 -357.54681727402931 0 -357.54681727402931 243.1469040354059 0 0 0 0 655.1216088841029 73.107570834705257 0 73.107570834705257 -388.76464115882118 0 0 0 0 403.01443196294713 -206.88612892845413 0 -206.88612892845413 -766.01911318950442 0 0 0 0 283.35072670317459 -351.97399891107852 0 -351.97399891107852 -651.43862303219794 0 0 0 0 523.48590678731125 -515.46744774550461 0 -515.46744774550461 -892.02183948186575 0 0 0 0 -602.04410716200073 -770.55904785529128 0 -770.55904785529128 -651.78333627711982 0 0 0 0 0.46138507460537426 -2.5116113016061661 0 -2.5116113016061661 -6.4267088501150624 0 0 0 0 838.66287565249877 -432.37298888374789 0 -432.37298888374789 -888.49348433499108 0 0 0 0 -278.19957276893547 -952.60088473463838 0 -952.60088473463838 -756.60131844352873 0 0 0 0 234.13499172439333 -785.03538155496062 0 -785.03538155496062 -1038.033510039706 0 0 0 0 506.57133251297637 -654.53195874321318 0 -654.53195874321318 0.93859188034184626 0 0 0 0 10.417965384080915 -6.4626495302397302 0 -6.4626495302397302 -4.6995206122924742 0 0 0 0 33.353612756967777 42.208134244494431 0 42.208134244494431 -560.09574163873549 0 0 0 0 -587.57623221074027 -677.85222252850508 0 -677.85222252850508 -927.62676091726462 0 0 0 0 117.12000592780532 -536.37730512089911 0 -536.37730512089911 -778.12599968486393 0 0 0 0 30.760315770957163 -31.053149447182875 0 -31.053149447182875 19.820619233099308 0 0 0 0 842.35540978962672 256.97830773456371 0 256.97830773456371 -328.23852361866739 0 0 0 0 -215.50344051376669 -413.22390899081802 0 -413.22390899081802 886.41353871264437 0 0 0 0 52.447886653761998 -1437.6626952194179 0 -1437.6626952194179 997.70584720939223 0 0 0 0 -19.65889838350995 -638.27875197753747 0 -638.27875197753747 372.79466896805388 0 0 0 0 -729.15928301691019 -174.17065096478473 0 -174.17065096478473 379.50483923443244 0 0 0 0 -829.66234266143874 -1009.0058126464064 0 -1009.0058126464064 206.02541309845401 0 0 0 0 691.68671933886799 -976.26646675891243 0 -976.26646675891243 262.6973949743151 0 0 0 0 -306.06623928956469 -727.40143214028285 0 -727.40143214028285 561.96484944260737 0 0 0 0 1595.2183632394517 -1539.7245957166342 0 -1539.7245957166342 271.09067006923578 0 0 0 0 1589.2233810232829 -1163.6524317704534 0 -1163.6524317704534 1229.6973187633193 0 0 0 0 681.59193080945761 -1389.0430859263345 0 -1389.0430859263345 2025.5542617774627 0 0 0 0 -485.95741420076229 -1042.5959093476849 0 -1042.5959093476849 2045.646853365316 0 0 0 0 2439.6722112225762 -830.37169238657953 0 -830.37169238657953 -955.98799878450518 0 0 0 0 1611.378211397925 1104.5522400248228 0 1104.5522400248228 591.98311698915495 0 0 0 0 13.403844845559547 -8.7105065545657183 0 -8.7105065545657183 7.95049426233345 0 0 0 0 -540.97152089799783 -857.28735265737851 0 -857.28735265737851 -50.924219754946535 0 0 0 0 0.13808479145691432 -4.0292713120810504 0 -4.0292713120810504 -14.614090648219303 0 0 0 0 -1135.5972451378475 -238.48447760475392 0 -238.48447760475392 162.70160338495043 0 0 0 0 653.79070811613019 -130.29527102995689 0 -130.29527102995689 -180.54359779047081 0 0 0 0 606.29910583105811 -474.16779382714594 0 -474.16779382714594 -443.44755913085828 0 0 0 0 35.394909196213121 -284.59220112388721 0 -284.59220112388721 -77.773686054133577 0 0 0 0 616.91434250114253 -243.60685712841223 0 -243.60685712841223 -284.62173988539143 0 0 0 0 378.92061212897534 -305.9649975726461 0 -305.9649975726461 -14.026564653147943 0 0 0 0 293.22680550804944 -358.12280621506216 0 -358.12280621506216 -147.69664932095475 0 0 0 0 360.73904342894093 -261.06272178277868 0 -261.06272178277868 -70.780320911668241 0 0 0 0 115.82638599870552 -254.12424701092823 0 -254.12424701092823 21.22085301351035 0 0 0 0 110.60817121196305 -279.23430182981247 0 -279.23430182981247 -97.469071284875099 0 0 0 0 785.97542986334884 -577.20501926276484 0 -577.20501926276484 -456.27342153270001 0 0 0 0 36.057222651694474 -80.905981980089791 0 -80.905981980089791 -305.66110441205092 0 0 0 0 0.0096764961990136733 -8.9504952566974225 0 -8.9504952566974225 -38.71544778482172 0 0 0 0 36.909550687436422 -185.84110474643239 0 -185.84110474643239 48.175947079638718 0 0 0 0 184.14976486634987 -112.41222293183091 0 -112.41222293183091 -16.495372028803104 0 0 0 0 297.78787418412685 -413.61590810991765 0 -413.61590810991765 -241.702779183659 0 0 0 0 935.01111720356857 -277.13634916214141 0 -277.13634916214141 -85.893963719223393 0 0 0 0 5.9555062117910511 -16.022817229474299 0 -16.022817229474299 -52.018077091974192 0 0 0 0 4.7640429249174048 -31.342620452348555 0 -31.342620452348555 69.249284273965259 0 0 0 0 629.0962734312634 -160.17704399698414 0 -160.17704399698414 -20.620528598083183 0 0 0 0 819.12470249697799 -159.19282061042031 0 -159.19282061042031 -108.99856023713073 0 0 0 0 438.20902101975662 -362.08886255896505 0 -362.08886255896505 64.622329425488715 0 0 0 0 679.9744251440643 -384.55057503411808 0 -384.55057503411808 -79.432576487975894 0 0 0 0 757.60527605403331 -285.10893986064184 0 -285.10893986064184 -48.364655383214995 0 0 0 0 432.60731870363816 -387.72830428370071 0 -387.72830428370071 50.147793365846155 0 0 0 0 410.2394913516473 -345.77262483253435 0 -345.77262483253435 10.705211937325657 0 0 0 0 415.41240019589895 -393.52451252176616 0 -393.52451252176616 141.05894556215208 0 0 0 0 426.62630642992735 -379.36436455939111 0 -379.36436455939111 38.863917119044345 0 0 0 0 451.85004437470343 -268.41908234865696 0 -268.41908234865696 -9.3972997352248058 0 0 0 0 382.13291974578169 -322.82650129134709 0 -322.82650129134709 11.962586242181715 0 0 0 0 269.93907269675401 -216.61523510506959 0 -216.61523510506959 -20.164888161118142 0 0 0 0 380.70097094977973 -347.95475916702708 0 -347.95475916702708 -44.711375393962953 0 0 0 0 449.04725974694884 -330.38421263416967 0 -330.38421263416967 -43.564978038775735 0 0 0 0 397.43586597024114 -314.60358950059162 0 -314.60358950059162 20.908018615395122 0 0 0 0 442.46008675279154 -368.37378069169063 0 -368.37378069169063 59.832701059836836 0 0 0 0 68.094719139015069 -377.10477794121471 0 -377.10477794121471 616.21950200386345 0 0 0 0 -7.8329044524696485 -23.496987326828702 0 -23.496987326828702 -9.0440533534975884 0 0 0 0 858.13871659635333 -403.57744504969742 0 -403.57744504969742 128.23970779731462 0 0 0 0 463.88755686068907 -270.84536848728021 0 -270.84536848728021 150.10542440926656 0 0 0 0 535.6294288738427 -148.03253254477022 0 -148.03253254477022 16.646093498060509 0 0 0 0 6.9462128621873376 -7.7177258200172503 0 -7.7177258200172503 -5.6292300417422325 0 0 0 0 934.53260089407559 -517.63009646833598 0 -517.63009646833598 86.21383210454951 0 0 0 0 895.27603878684749 -1137.8542418062243 0 -1137.8542418062243 777.74914000441277 0 0 0 0 418.25615936144459 -628.83460780651876 0 -628.83460780651876 449.97636562975822 0 0 0 0 377.21217436850566 -109.22303022793494 0 -109.22303022793494 136.87993126088259 0 0 0 0 456.84621036243334 -596.7568752879306 0 -596.7568752879306 476.54791196445876 0 0 0 0 12.425463708093957 -35.80741131657669 0 -35.80741131657669 3.1410513381124474 0 0 0 0 5.5825182570670222 -23.050475336539307 0 -23.050475336539307 -8.3586044606055765 0 0 0 0 612.01604257899089 -136.5666758559928 0 -136.5666758559928 -65.412849380343687 0 0 0 0 633.77902748131601 -163.78639593690605 0 -163.78639593690605 -56.56763883021631 0 0 0 0 -7.2072437780654184 -29.57737426052941 0 -29.57737426052941 8.1789911960216841 0 0 0 0 696.26359696803411 39.024318115105416 0 39.024318115105416 118.40787633231957 0 0 0 0 636.42258684633998 -107.66514043187635 0 -107.66514043187635 -209.91433655045694 0 0 0 0 794.35290698687822 318.88431576141375 0 318.88431576141375 47.714398002601229 0 0 0 0 -159.48403291619616 4.7492594095165259 0 4.7492594095165259 55.437934370862422 0 0 0 0 16.16587955720226 -29.174489659559889 0 -29.174489659559889 17.909651493281331 0 0 0 0 -884.17003291388392 -487.7253051133448 0 -487.7253051133448 13.695119887590408 0 0 0 0 29.200478551043489 -301.78716023848392 0 -301.78716023848392 -449.1733921540208 0 0 0 0 26.663015534002625 -589.27101343456161 0 -589.27101343456161 -479.52791961684125 0 0 0 0 189.98646972934512 -125.37194971957797 0 -125.37194971957797 -641.94709553506254 0 0 0 0 105.13370724974084 -217.00165158139498 0 -217.00165158139498 -525.99347926516202 0 0 0 0 28.850336408169085 -31.460574012363168 0 -31.460574012363168 -21.759024475460535 0 0 0 0 1107.7822724682846 -834.29707267874255 0 -834.29707267874255 573.93503316221904 0 0 0 0 8.9623826189202873 -5.3896325271805168 0 -5.3896325271805168 -13.63175873624877 0 0 0 0 -121.17604733110056 -203.07890902876534 0 -203.07890902876534 996.60929067383404 0 0 0 0 626.628574757764 -1140.8796391809701 0 -1140.8796391809701 1158.7206948422681 0 0 0 0 6.4912128603991732 -892.24309817364065 0 -892.24309817364065 1908.3071514799667 0 0 0 0 780.45626502876985 -1043.1849039323715 0 -1043.1849039323715 876.59751525920183 0 0 0 0 1031.9537901690055 -1441.1306533906391 0 -1441.1306533906391 1037.4095503577701 0 0 0 0 1104.2150171312387 -1305.6522000790501 0 -1305.6522000790501 934.57757507012866 0 0 0 0 1203.4792896971521 -1515.1572400228724 0 -1515.1572400228724 1271.7601419877465 0 0 0 0 1082.7276722834649 -1279.9940616137319 0 -1279.9940616137319 1592.6872316102235 0 0 0 0 1092.4221214832942 -1130.4396933854714 0 -1130.4396933854714 1357.6486955375149 0 0 0 0 1106.7279515064729 -1219.7830962987209 0 -1219.7830962987209 1047.5614667448972 0 0 0 0 991.95686087264039 -1323.5863215646532 0 -1323.5863215646532 1710.7380414329418 0 0 0 0 1483.2076959270125 -1719.951974213458 0 -1719.951974213458 1497.7120924409828 0 0 0 0 1277.8698319568757 -1466.5469334171612 0 -1466.5469334171612 1214.6644536880194 0 0 0 0 2602.6045571394134 -2376.307159124477 0 -2376.307159124477 1185.1737028465941 0 0 0 0 1463.5061181568071 -1743.2107609035966 0 -1743.2107609035966 2000.2877561673668 0 0 0 0 1420.5868560969247 -1696.5585199806956 0 -1696.5585199806956 1869.8706033055059 0 0 0 0 1837.260882388895 -1496.5096490391661 0 -1496.5096490391661 1764.4893115676095 0 0 0 0 1580.3972999093385 -1416.4463960904686 0 -1416.4463960904686 1872.6029377908135 0 0 0 0 1099.9286547861884 -1658.857371581571 0 -1658.857371581571 2168.393063515352 0 0 0 0 305.81520117663604 -884.51042726034939 0 -884.51042726034939 1791.8881477362447 0 0 0 0 146.30983307434735 221.56272347368622 0 221.56272347368622 -1483.8764731381671 0 0 0 0 28.687111385517596 -22.187388932057019 0 -22.187388932057019 -19.93869030417315 0 0 0 0 1673.5104763859199 -1049.784190806171 0 -1049.784190806171 734.71873098109063 0 0 0 0 2538.4133843496529 -325.67974082695582 0 -325.67974082695582 943.97272543227155 0 0 0 0 1818.4536704467682 -971.75053704153834 0 -971.75053704153834 452.25396581721725 0 0 0 0 1662.5549245418588 -1417.636752026232 0 -1417.636752026232 477.68796561153431 0 0 0 0 1892.1687301563288 -1586.3089832095011 0 -1586.3089832095011 399.46288623683358 0 0 0 0 1698.1758224249643 -1835.8448872893787 0 -1835.8448872893787 1109.7004805187753 0 0 0 0 1786.218757347764 -1389.8690991556068 0 -1389.8690991556068 307.70336122000117 0 0 0 0 1747.1139772760325 -1404.440174429943 0 -1404.440174429943 761.08188902263646 0 0 0 0 1423.0554225481028 -1243.5154425430919 0 -1243.5154425430919 791.35426772996288 0 0 0 0 1390.7438694982557 -1495.06922059524 0 -1495.06922059524 738.1403487059215 0 0 0 0 1402.9702869033263 -1441.266636151483 0 -1441.266636151483 892.85382292798022 0 0 0 0 1155.0303468330312 -1368.3919644155758 0 -1368.3919644155758 941.0708213695907 0 0 0 0 1364.4070772539853 -1251.5400051589677 0 -1251.5400051589677 972.79619507804273 0 0 0 0 1705.9774093231754 -991.77010985194647 0 -991.77010985194647 826.59416804841567 0 0 0 0 1069.5410691889265 -1014.7838700668872 0 -1014.7838700668872 1229.0183054261724 0 0 0 0 1309.4657901516039 -873.1701081181418 0 -873.1701081181418 1202.2283636391003 0 0 0 0 897.97105213378381 -1038.2449105693813 0 -1038.2449105693813 1193.9923539166266 0 0 0 0 1021.8935276749216 -1538.5122732936825 0 -1538.5122732936825 920.46946847339859 0 0 0 0 1250.6103609457059 -1106.4421438852587 0 -1106.4421438852587 1256.48277599414 0 0 0 0 1590.1606272924364 -2063.1340453128851 0 -2063.1340453128851 1924.1811435478303 0 0 0 0 1040.451598536587 -1042.0963743495922 0 -1042.0963743495922 1198.0135231367967 0 0 0 0 1164.6775896551626 -1192.4249125930255 0 -1192.4249125930255 1244.443415563961 0 0 0 0 1134.5549929015542 -1162.4092554084345 0 -1162.4092554084345 1258.7414864425591 0 0 0 0 1177.1100324679064 -1310.6589319503873 0 -1310.6589319503873 1044.9751447089948 0 0 0 0 896.15274850849892 -1089.9241084587502 0 -1089.9241084587502 890.13614127524488 0 0 0 0 1261.0183474754704 -1251.5337927476503 0 -1251.5337927476503 863.30787293118192 0 0 0 0 1118.1181134877406 -877.60073397603264 0 -877.60073397603264 674.97822896500293 0 0 0 0 -8.3528791768665229 -15.786997443786333 0 -15.786997443786333 4.3720400135375712 0 0 0 0 1177.803996499099 -1346.348183711563 0 -1346.348183711563 1404.1585131376778 0 0 0 0 2161.5557165859937 -1007.0535581219228 0 -1007.0535581219228 476.86631825144286 0 0 0 0 112.92943400201329 -2022.8659363143706 0 -2022.8659363143706 1938.4324852489372 0 0 0 0 -1380.098142727802 610.59272142910049 0 610.59272142910049 353.23133614978815 0 0 0 0 -2.2657310233612975 -6.3560921622844262 0 -6.3560921622844262 4.8647755002243116 0 0 0 0 2994.7793075445588 -2182.9058736196966 0 -2182.9058736196966 1013.3203748679807 0 0 0 0 -235.96276238356222 -154.56240300630452 0 -154.56240300630452 161.5003738872133 0 0 0 0 149.88118329139252 -756.3791283449973 0 -756.3791283449973 281.24862468984793 0 0 0 0 1143.2631620307366 -916.05649237740727 0 -916.05649237740727 -8.0994129145074112 0 0 0 0 778.77843753845809 -352.26038629870527 0 -352.26038629870527 164.07060542916588 0 0 0 0 1054.9974046544066 4.0895850856090874 0 4.0895850856090874 348.81850420980481 0 0 0 0 5.6599197633834137 -14.202835982798689 0 -14.202835982798689 -5.6107421387905561 0 0 0 0 -3981.3632802461061 -815.05730421612134 0 -815.05730421612134 -154.31238830595976 0 0 0 0 2.3416440504696538 -14.915218299063682 0 -14.915218299063682 9.4715130059011017 0 0 0 0 2616.1386567800946 253.89167667710717 0 253.89167667710717 -846.58218440078781 0 0 0 0 -1803.2330630900551 -1447.8957383956438 0 -1447.8957383956438 -960.54313035559608 0 0 0 0 -2281.5023893093676 -201.8501014055164 0 -201.8501014055164 -288.76020941406023 0 0 0 0 -2882.8427524891304 -1666.27787463001 0 -1666.27787463001 1371.777334801096 0 0 0 0 -1401.8742049280845 -1301.5737926907168 0 -1301.5737926907168 669.38217916777648 0 0 0 0 -563.93813227963983 -1854.772355052326 0 -1854.772355052326 886.8514283666882 0 0 0 0 568.00384137582296 -1432.9316556865169 0 -1432.9316556865169 688.91665377620666 0 0 0 0 292.81707108832779 -2654.5846589855792 0 -2654.5846589855792 1073.8417170605317 0 0 0 0 562.04739727331616 -1234.4385110678704 0 -1234.4385110678704 1349.5512371463628 0 0 0 0 422.58282434179273 -1737.8405592333002 0 -1737.8405592333002 622.53014803181395 0 0 0 0 -409.17343809103477 -1856.0296098880353 0 -1856.0296098880353 1001.4750205109449 0 0 0 0 30.315895549720153 -1489.8542479742537 0 -1489.8542479742537 748.62213128317671 0 0 0 0 99.140146581761655 -1861.0757235695128 0 -1861.0757235695128 803.57842451066244 0 0 0 0 -542.25248681324592 -1904.8806359659575 0 -1904.8806359659575 1461.7055726086692 0 0 0 0 315.33435770751385 -1602.8482455886115 0 -1602.8482455886115 1061.9042575855565 0 0 0 0 226.7087985027938 -1548.0432273924143 0 -1548.0432273924143 1183.2648843550123 0 0 0 0 -240.42679097475411 -1558.8918558957503 0 -1558.8918558957503 1188.8942587139754 0 0 0 0 309.72238543450658 -1242.5181359783746 0 -1242.5181359783746 960.11564713558982 0 0 0 0 -640.05641326667683 -900.19909624574211 0 -900.19909624574211 1433.862898340165 0 0 0 0 -296.98524281834398 -1553.1595560033111 0 -1553.1595560033111 1824.2600606556662 0 0 0 0 -85.951852228790813 -677.12773351435499 0 -677.12773351435499 -450.899575987969 0 0 0 0 130.16753321239958 -1178.8590273700611 0 -1178.8590273700611 526.32143706271199 0 0 0 0 176.40363239393628 -1049.0520703269613 0 -1049.0520703269613 448.6129899517764 0 0 0 0 38.588983831345104 -969.49571919666778 0 -969.49571919666778 511.21407231630292 0 0 0 0 114.84664727927156 -1148.1282111349592 0 -1148.1282111349592 926.29331610210647 0 0 0 0 529.6918161350186 -1133.1371323475478 0 -1133.1371323475478 540.38170982820156 0 0 0 0 553.79951993271243 -1234.1059470463952 0 -1234.1059470463952 529.46267124488804 0 0 0 0 618.65885743079707 -1147.5984840805249 0 -1147.5984840805249 -41.59490667792852 0 0 0 0 679.67176669134642 -1346.624253691989 0 -1346.624253691989 493.84998627121968 0 0 0 0 835.2898960387829 -1261.8769440275864 0 -1261.8769440275864 368.57161896798789 0 0 0 0 783.37873319967548 -1335.5369769244116 0 -1335.5369769244116 904.84420374585898 0 0 0 0 789.97397304844344 -1345.0030256663667 0 -1345.0030256663667 712.77740648589679 0 0 0 0 751.40322547859978 -1147.821892304506 0 -1147.821892304506 795.83564329125147 0 0 0 0 742.5592250510108 -1148.32465336926 0 -1148.32465336926 1010.5047909007262 0 0 0 0 395.26545814280325 -1358.2299931510624 0 -1358.2299931510624 1037.8002345997811 0 0 0 0 767.75377931500407 -1222.5368454843374 0 -1222.5368454843374 1019.8718332048447 0 0 0 0 993.20635989820585 -958.55005932189488 0 -958.55005932189488 1197.8712963205326 0 0 0 0 797.76280135622073 -1263.4556086672164 0 -1263.4556086672164 1075.3688983070533 0 0 0 0 1354.4567477590463 -898.44895067450125 0 -898.44895067450125 1240.0473990750179 0 0 0 0 1581.7582438772515 -1332.8218757046125 0 -1332.8218757046125 830.95122015383822 0 0 0 0 944.48995072445541 -1238.0295409888276 0 -1238.0295409888276 1045.4189930019529 0 0 0 0 977.18894652277231 -1064.0619488154407 0 -1064.0619488154407 1444.1910232748123 0 0 0 0 1099.7622354520354 -1218.7644174307825 0 -1218.7644174307825 473.11160120846762 0 0 0 0 776.91886512329802 -1181.9516746835543 0 -1181.9516746835543 488.723823144177 0 0 0 0 1529.1542179354074 -982.99179055562854 0 -982.99179055562854 285.34134034555609 0 0 0 0 1030.9333102370911 -1138.6417808303995 0 -1138.6417808303995 763.01318523910595 0 0 0 0 987.35156626685784 -148.22150614889142 0 -148.22150614889142 58.725184567374527 0 0 0 0 683.8038237640867 -324.73843422868595 0 -324.73843422868595 208.85419900207489 0 0 0 0 6.1238138905537625 -20.040398759917977 0 -20.040398759917977 61.006354604984267 0 0 0 0 -299.30070128244915 123.88858410644752 0 123.88858410644752 1047.5894636024314 0 0 0 0 5.8165079373446673 -10.109621346301793 0 -10.109621346301793 21.719180170822995 0 0 0 0 3308.6225403097123 -952.65833713635584 0 -952.65833713635584 256.32498233984552 0 0 0 0 1737.2780560738138 -1709.5989323787417 0 -1709.5989323787417 1741.6822160937299 0 0 0 0 1360.1180661157241 -826.96781160168939 0 -826.96781160168939 2127.8570319115242 0 0 0 0 1328.7730265440041 -1743.4287438165411 0 -1743.4287438165411 2064.8454721545568 0 0 0 0 2.5402372357239074 -1608.9446489031188 0 -1608.9446489031188 1091.5878656026507 0 0 0 0 -727.53500299975713 -2214.1581073202469 0 -2214.1581073202469 -1042.2725948356892 0 0 0 0 505.03858245685842 -439.03203066139395 0 -439.03203066139395 -796.49660241717174 0 0 0 0 661.74813331483892 -2462.9904510709202 0 -2462.9904510709202 2138.7416503295826 0 0 0 0 8.2221938483128838 -14.06532783847365 0 -14.06532783847365 16.466949948772765 0 0 0 0 1422.4860606921284 -2238.8247860099109 0 -2238.8247860099109 -1869.989888571974 0 0 0 0 -619.53279165244021 -361.83099239874718 0 -361.83099239874718 3168.0447175692534 0 0 0 0 -527.44915442010824 -185.32556459323587 0 -185.32556459323587 -198.34513958649768 0 0 0 0 -357.76917150404961 -1696.6220865656305 0 -1696.6220865656305 1037.8827436612337 0 0 0 0 -333.15056580852251 -2450.5050210617264 0 -2450.5050210617264 3272.9968874614133 0 0 0 0 -660.29701105429558 -1668.6202020431811 0 -1668.6202020431811 1170.5754160899232 0 0 0 0 -484.58910514885065 -1484.7365297966862 0 -1484.7365297966862 481.19763500207046 0 0 0 0 -1198.2080341796045 -615.18564290644281 0 -615.18564290644281 62.02686293500301 0 0 0 0 -1176.5257212210563 -895.81282958860538 0 -895.81282958860538 859.9605610464132 0 0 0 0 -1250.8615117354493 -469.67446377349552 0 -469.67446377349552 45.319704745998024 0 0 0 0 -1285.9246112473484 -745.59057227321318 0 -745.59057227321318 63.719187730297563 0 0 0 0 -1061.130450428318 -875.72119616755663 0 -875.72119616755663 1566.9399619930773 0 0 0 0 -1053.1175951844925 -518.19472959694394 0 -518.19472959694394 252.88037126778363 0 0 0 0 -2422.8067628889112 -1012.8077804833447 0 -1012.8077804833447 -216.44157942236052 0 0 0 0 -2442.7011823183202 -883.22068704127651 0 -883.22068704127651 -43.566999460774241 0 0 0 0 -1801.4316917137912 -834.32218031305092 0 -834.32218031305092 -532.64434033146244 0 0 0 0 -1800.6119362908939 -790.64528268437425 0 -790.64528268437425 71.010683109998354 0 0 0 0 -1344.5801642473816 -747.07952547219611 0 -747.07952547219611 -166.01623605334316 0 0 0 0 -1261.4329743236012 -1033.3948686486328 0 -1033.3948686486328 442.53744582193031 0 0 0 0 -1401.1324043631612 -574.85817316866451 0 -574.85817316866451 192.32038564699906 0 0 0 0 -1438.8779382990615 -459.7361003002552 0 -459.7361003002552 -134.43593157481519 0 0 0 0 -1817.7827409789898 -436.28942853870103 0 -436.28942853870103 201.32767377986602 0 0 0 0 -2130.6967866812629 -562.5144564972652 0 -562.5144564972652 -32.406499016084126 0 0 0 0 -1725.9960556128863 -728.65790765441488 0 -728.65790765441488 -68.03430107384338 0 0 0 0 -1494.8383852779807 -1287.0441968003142 0 -1287.0441968003142 775.01148941501742 0 0 0 0 -2199.1021990140725 -1318.4580777122901 0 -1318.4580777122901 -896.49721887204214 0 0 0 0 -1162.0677652617815 -949.20912095440508 0 -949.20912095440508 464.48253933024534 0 0 0 0 -1263.4508151411865 -1032.7063102786269 0 -1032.7063102786269 396.08148140880803 0 0 0 0 -1515.2105064999269 -547.71473691552455 0 -547.71473691552455 150.76569415394624 0 0 0 0 -1575.63377973366 -658.09108021814973 0 -658.09108021814973 -43.241100979372277 0 0 0 0 -795.03222625868511 -1160.4481889679882 0 -1160.4481889679882 -239.0348810305768 0 0 0 0 -1320.2128211719755 -740.54051092504596 0 -740.54051092504596 -574.65218130644644 0 0 0 0 -467.11028357541909 -1552.929238601042 0 -1552.929238601042 727.61298449155584 0 0 0 0 -781.64785705324903 -1690.3150691019255 0 -1690.3150691019255 725.6760092530676 0 0 0 0 -1050.7443198714464 -469.27212454826076 0 -469.27212454826076 -236.5011331135247 0 0 0 0 16.697857750526737 -32.237643554649907 0 -32.237643554649907 38.063271104394573 0 0 0 0 -1062.9272895212343 -987.76980596889916 0 -987.76980596889916 -349.99393719293494 0 0 0 0 -1109.8864376544079 -728.32090523789157 0 -728.32090523789157 -649.26170333774644 0 0 0 0 13.091642170608452 -32.282257297009494 0 -32.282257297009494 40.852379330276989 0 0 0 0 -1846.5550461054227 -1423.6647317666066 0 -1423.6647317666066 -620.85569617993815 0 0 0 0 -1768.9148082572501 -1984.0882122042085 0 -1984.0882122042085 617.57420712120074 0 0 0 0 -1465.1709979105872 -94.248668447751697 0 -94.248668447751697 2184.9754342463639 0 0 0 0 -1621.7784862417975 -261.75209314263884 0 -261.75209314263884 4450.5572005058493 0 0 0 0 -1074.9706896136486 -583.87852090744855 0 -583.87852090744855 2729.7403977932408 0 0 0 0 -614.36548358917207 -2145.985868183936 0 -2145.985868183936 776.94409739319235 0 0 0 0 -853.35384345571219 -2582.9264009057551 0 -2582.9264009057551 2848.5993626700656 0 0 0 0 3.3262789243094062 -14.240197095158216 0 -14.240197095158216 20.358271127173253 0 0 0 0 -580.99579193159298 -2734.1859951231163 0 -2734.1859951231163 -1021.9121121422922 0 0 0 0 -195.88818169584556 -2173.8184377848374 0 -2173.8184377848374 2537.9093657636622 0 0 0 0 -488.80416934203822 -428.62871539108528 0 -428.62871539108528 2415.6257977210216 0 0 0 0 -538.18939587825298 -997.84942685815804 0 -997.84942685815804 1041.3105297467046 0 0 0 0 -821.6271282620437 -1430.837370333109 0 -1430.837370333109 311.23917110452021 0 0 0 0 -159.96289451124176 -585.81984251820904 0 -585.81984251820904 -967.1697618306207 0 0 0 0 -1035.3067661100795 -829.88424824112008 0 -829.88424824112008 1051.5339264845211 0 0 0 0 -723.0875431297718 -451.56114419668393 0 -451.56114419668393 2779.4034899804392 0 0 0 0 -653.59882714603737 -559.69790223400923 0 -559.69790223400923 870.91903905152503 0 0 0 0 42.710321520175057 -59.517580474337485 0 -59.517580474337485 47.598406363056938 0 0 0 0 27.369168926566545 -44.809622190294697 0 -44.809622190294697 39.430767532587311 0 0 0 0 0.46232030016108183 -758.06749206523273 0 -758.06749206523273 1321.5429599268373 0 0 0 0 -653.85397908264713 -1403.3943090619759 0 -1403.3943090619759 -835.14694586971746 0 0 0 0 -413.52455005563388 -250.67859643949851 0 -250.67859643949851 445.84370924508039 0 0 0 0 9.5027835633519544 -15.7362938716111 0 -15.7362938716111 17.356199904691394 0 0 0 0 412.01501587983512 -1469.8502728987769 0 -1469.8502728987769 -1413.9002109488956 0 0 0 0 -220.31709105683694 757.40619828139461 0 757.40619828139461 3866.1539983061084 0 0 0 0 -221.42275762674035 -1227.6919324402088 0 -1227.6919324402088 4734.8023788821374 0 0 0 0 -746.0518656473032 1027.7535428412193 0 1027.7535428412193 7100.2271079091734 0 0 0 0 -1020.3668112536689 -511.89061701399351 0 -511.89061701399351 1007.9796612491118 0 0 0 0 236.96211481155478 -1668.3612175218441 0 -1668.3612175218441 1824.9063331586913 0 0 0 0 1212.0127465460391 -254.62399523070417 0 -254.62399523070417 2289.4897638512266 0 0 0 0 444.11727403008626 -1063.4358715936114 0 -1063.4358715936114 1633.8811054628532 0 0 0 0 313.48154354812868 -1409.5470745122038 0 -1409.5470745122038 2499.6260721943981 0 0 0 0 179.63930339936542 -271.65149565902743 0 -271.65149565902743 2312.4451121628517 0 0 0 0 138.21629315287828 -567.69304972626333 0 -567.69304972626333 1376.3402452520677 0 0 0 0 -525.12649757895724 -746.73016341353059 0 -746.73016341353059 962.47241219811258 0 0 0 0 -443.22904400333937 -113.51803237430431 0 -113.51803237430431 1521.5732998899912 0 0 0 0 269.50860085492604 -370.6826086900619 0 -370.6826086900619 466.52512381374436 0 0 0 0 59.944483361832681 -279.05295827708687 0 -279.05295827708687 1560.0357334979617 0 0 0 0 -69.36616852885345 -0.51647082155614044 0 -0.51647082155614044 2576.0947773083644 0 0 0 0 -271.21540033412748 -405.19408434875731 0 -405.19408434875731 1795.9607726080721 0 0 0 0 -412.60931894751411 -423.77271150411616 0 -423.77271150411616 2693.2438373557234 0 0 0 0 -478.06076242696145 0.66355264946832904 0 0.66355264946832904 1476.5151387889091 0 0 0 0 27.593050541268894 -143.15265309810638 0 -143.15265309810638 2668.6661929868592 0 0 0 0 238.63199749144769 -615.53151081097349 0 -615.53151081097349 3555.0314662107558 0 0 0 0 443.71863678062982 339.7733046227122 0 339.7733046227122 3228.4541185592825 0 0 0 0 117.82050420786254 -30.054588111423072 0 -30.054588111423072 -75.315859418166951 0 0 0 0 -170.61421661445638 -120.6191894615913 0 -120.6191894615913 4160.3763130167936 0 0 0 0 99.500043743930291 -1432.6390225467403 0 -1432.6390225467403 3960.4444531757326 0 0 0 0 90.234683017370116 961.8411538358414 0 961.8411538358414 4760.911970502566 0 0 0 0 -2.0044932981643058 -1.4586260898434489 0 -1.4586260898434489 3.7099422228303069 0 0 0 0 -494.90229269002157 -51.96127477344271 0 -51.96127477344271 3485.1796746751133 0 0 0 0 -26.952523468295738 5.4854040017648202 0 5.4854040017648202 10.854212202967958 0 0 0 0 -238.95158333997097 100.50074240110189 0 100.50074240110189 3247.3449524112366 0 0 0 0 0.58344269127701409 -503.53731459798655 0 -503.53731459798655 3308.5849341996291 0 0 0 0 267.4525792971981 -120.76647557549222 0 -120.76647557549222 2359.8861133424816 0 0 0 0 172.48442109895404 -221.16959179874175 0 -221.16959179874175 2734.1472427612825 0 0 0 0 56.069804936123546 -46.077125974668888 0 -46.077125974668888 3241.9918412352199 0 0 0 0 5.6798578540268068 -12.385360139033054 0 -12.385360139033054 12.88948320855487 0 0 0 0 -15.560859005374368 -103.68053443266399 0 -103.68053443266399 3237.7324465532151 0 0 0 0 261.30699938879116 -576.0468797151625 0 -576.0468797151625 3082.5031768284825 0 0 0 0 -65.297234958532499 -89.277459394292237 0 -89.277459394292237 3609.3132785064736 0 0 0 0 -233.45574816813314 -183.04530305571461 0 -183.04530305571461 4183.9315596541928 0 0 0 0 1.7478737767466441 -1.5834317949391732 0 -1.5834317949391732 2.3257897854158518 0 0 0 0 -72.561279893110623 -126.92694087989366 0 -126.92694087989366 -207.2870059442437 0 0 0 0 0.72549899692239705 -235.07571185026609 0 -235.07571185026609 -77.122311537612404 0 0 0 0 -155.58127960083948 -297.61842592403991 0 -297.61842592403991 -102.1472161112797 0 0 0 0 -638.76068711085827 -344.19806396774402 0 -344.19806396774402 23.423936715851596 0 0 0 0 -288.7372138235587 -120.92102270699979 0 -120.92102270699979 39.162604088611261 0 0 0 0 45.166171799850417 -185.09093321323962 0 -185.09093321323962 28.169678729660518 0 0 0 0 -56.671897901782359 -52.606250337122219 0 -52.606250337122219 122.01540120204299 0 0 0 0 12.041302020403236 -37.360535060167607 0 -37.360535060167607 57.341433906139201 0 0 0 0 -71.683413138394826 -58.741681651983527 0 -58.741681651983527 162.10980166028821 0 0 0 0 -5.4230188129216117 -4.2712055526692012 0 -4.2712055526692012 12.290481253620257 0 0 0 0 0.081758268497651443 30.155848873717332 0 30.155848873717332 40.043919474836002 0 0 0 0 45.669254764114157 -84.635692372274207 0 -84.635692372274207 36.061472585304728 0 0 0 0 -42.89416614347283 -63.298843151080291 0 -63.298843151080291 165.70643766780995 0 0 0 0 -2.0083712426276179 -52.35069371962345 0 -52.35069371962345 6.8039755510835676 0 0 0 0 15.746219349887667 -32.751896346364688 0 -32.751896346364688 -0.247600524929112 0 0 0 0 -11.656253195280442 -50.235537457680039 0 -50.235537457680039 17.975954337438452 0 0 0 0 47.688123019688646 -39.377278303068124 0 -39.377278303068124 -42.060943569827941 0 0 0 0 1.9731902331233186 -34.686721603163335 0 -34.686721603163335 28.072989852270148 0 0 0 0 16.083578359452076 -100.40152346142713 0 -100.40152346142713 32.656817128365219 0 0 0 0 -2.3324792549392441 -23.891844425619638 0 -23.891844425619638 -91.702995532668865 0 0 0 0 16.122217193333199 -63.796786102702754 0 -63.796786102702754 -10.695153373699213 0 0 0 0 -18.290974083574838 -124.83661349843715 0 -124.83661349843715 -82.828759205567167 0 0 0 0 -10.555169750776258 -87.773152258776918 0 -87.773152258776918 17.792112686202017 0 0 0 0 -56.301494639512384 -173.02853519453674 0 -173.02853519453674 -210.00178194305772 0 0 0 0 36.810175450627867 -11.886615124274158 0 -11.886615124274158 -77.770323250261754 0 0 0 0 -16.465578111377567 -14.209887025941811 0 -14.209887025941811 -11.166119348705379 0 0 0 0 11.295930897720609 -46.345601966870575 0 -46.345601966870575 -38.564595903420795 0 0 0 0 -287.9899259928643 -146.7810435434676 0 -146.7810435434676 77.815921398621867 0 0 0 0 5.6489066242866102 -30.505323557113115 0 -30.505323557113115 -262.35382545897301 0 0 0 0 5.5610054622524956 -7.9851254392460191 0 -7.9851254392460191 -44.063588047300584 0 0 0 0 -236.7866218022682 -219.42345280981408 0 -219.42345280981408 -174.57820014759227 0 0 0 0 -1446.2775792616885 -316.4172443239222 0 -316.4172443239222 169.22307800161616 0 0 0 0 -596.72326729391352 -1190.6789146415958 0 -1190.6789146415958 -1830.8115167059823 0 0 0 0 -11.042052511598683 -3.5641597565399081 0 -3.5641597565399081 -0.49102541913990905 0 0 0 0 -2.9155468794470245 -648.01959249817355 0 -648.01959249817355 -514.81690813711612 0 0 0 0 -1359.8072330110008 -849.9932962123512 0 -849.9932962123512 -1572.6824590967008 0 0 0 0 -819.1127129176748 -1452.8128691409529 0 -1452.8128691409529 -1238.1914821522078 0 0 0 0 -184.92199232238636 -6.3227808672327228 0 -6.3227808672327228 -88.122590100938396 0 0 0 0 -0.68127759623274642 -20.781968330378632 0 -20.781968330378632 9.8424193607541497 0 0 0 0 45.897120221576188 -95.70475381090364 0 -95.70475381090364 -112.73450984769443 0 0 0 0 -13.063945575166144 -33.318539841378879 0 -33.318539841378879 -27.450364389731476 0 0 0 0 17.703517518937588 -91.190615416549917 0 -91.190615416549917 -38.74599832072272 0 0 0 0 113.66009328918881 -79.310242209064199 0 -79.310242209064199 -111.91545115657755 0 0 0 0 1.9301720505924518 -27.048656622534139 0 -27.048656622534139 -75.475803328316999 0 0 0 0 519.50968510418897 152.4747780637008 0 152.4747780637008 -23.840892423791956 0 0 0 0 -1.3401380958740372 -26.405439811091981 0 -26.405439811091981 -23.168731620556862 0 0 0 0 949.75282028103538 325.67721957846288 0 325.67721957846288 -0.36882591079483973 0 0 0 0 -5.5823631644936427 -9.5702796751243113 0 -9.5702796751243113 -13.887681549073925 0 0 0 0 87.562193785444833 -145.62227494889521 0 -145.62227494889521 56.526760029599245 0 0 0 0 -4.1194483153648775 -17.349516750300893 0 -17.349516750300893 14.844011090342512 0 0 0 0 -83.118262133866665 -113.31772958068723 0 -113.31772958068723 -97.709313763916725 0 0 0 0 -16.959299219568493 -221.46477367957687 0 -221.46477367957687 -138.3581404517854 0 0 0 0 -9.1783217913648514 -42.533245632207922 0 -42.533245632207922 -33.437396078326856 0 0 0 0 42.444849412306212 -120.14750332387121 0 -120.14750332387121 -230.14942751792478 0 0 0 0 6.4631309894570563 -19.12886662755615 0 -19.12886662755615 20.016048013622928 0 0 0 0 -10.403567463617946 -49.947133404504257 0 -49.947133404504257 -39.999969492554555 0 0 0 0 12.414150148424369 -27.543310228427345 0 -27.543310228427345 11.53965168974177 0 0 0 0 47.850056314164249 -54.285873740377042 0 -54.285873740377042 -137.50375382943457 0 0 0 0 -1.8270753312972374 -56.248279041137721 0 -56.248279041137721 -20.705976694724086 0 0 0 0 -11.480427557835355 -45.086769435067254 0 -45.086769435067254 -22.94694401396373 0 0 0 0 2.3487489774852293 -62.084065942819507 0 -62.084065942819507 -40.873743864325661 0 0 0 0 18.149383156931265 -31.206305697189208 0 -31.206305697189208 14.074843336141718 0 0 0 0 -29.30206786734459 -22.584225984824258 0 -22.584225984824258 3.1239293723518102 0 0 0 0 -21.108231281847111 -95.987172216508043 0 -95.987172216508043 16.234989590029727 0 0 0 0 -10.362144521004666 -41.636790194243076 0 -41.636790194243076 -60.800158724443463 0 0 0 0 -14.32608645190794 -33.447212378949118 0 -33.447212378949118 22.190185740361017 0 0 0 0 58.920777576015098 -31.24122175624143 0 -31.24122175624143 69.512531749889604 0 0 0 0 -31.98545088370156 -65.592397260665166 0 -65.592397260665166 58.252975694995257 0 0 0 0 -297.73285074846353 -241.23655702695396 0 -241.23655702695396 167.14682951665236 0 0 0 0 77.020297657960327 -66.117677011337946 0 -66.117677011337946 72.585473115454079 0 0 0 0 -361.38100180425681 -875.5728494695104 0 -875.5728494695104 60.140665822764277 0 0 0 0 762.60398960858583 -598.87932895862468 0 -598.87932895862468 -2264.7630964296695 0 0 0 0 167.36202012481954 64.845534667983884 0 64.845534667983884 139.54742043557053 0 0 0 0 -12.620300363003821 -4.3110697815619972 0 -4.3110697815619972 -2.5769169775118144 0 0 0 0 -33.721167880790745 -49.506810449453951 0 -49.506810449453951 92.61474563991942 0 0 0 0 5.6326233433865127 -55.199719901951539 0 -55.199719901951539 99.217802070721518 0 0 0 0 20.92362737347139 -46.87663269575205 0 -46.87663269575205 -66.357905656623188 0 0 0 0 290.08513571966614 -220.21534168083144 0 -220.21534168083144 -278.15748271190387 0 0 0 0 5.8536897194659172 -29.823038764098527 0 -29.823038764098527 -101.92969155444629 0 0 0 0 -13.555711223419166 -115.80534554314767 0 -115.80534554314767 -534.38557627858972 0 0 0 0 548.76394935157441 -278.32969292903726 0 -278.32969292903726 -2155.0292113861942 0 0 0 0 4810.9397044857615 -2142.9885878822533 0 -2142.9885878822533 1278.4487269261808 0 0 0 0 2264.2575117085944 25.96798746100103 0 25.96798746100103 -304.22196206532681 0 0 0 0 5.7354164682787427 -13.116502672345945 0 -13.116502672345945 -12.355204287720596 0 0 0 0 717.0710493575607 506.33764705963404 0 506.33764705963404 1155.4441304402426 0 0 0 0 438.12887003370997 -1724.4441152317895 0 -1724.4441152317895 -87.421492347333697 0 0 0 0 123.35994019632926 -1205.5498428586507 0 -1205.5498428586507 124.29711649751698 0 0 0 0 2617.7727759312838 -538.56725632888265 0 -538.56725632888265 556.68813678451988 0 0 0 0 161.1366016077809 -1584.5936364652152 0 -1584.5936364652152 2900.5458783097274 0 0 0 0 -545.82900227970094 -164.89595028340409 0 -164.89595028340409 6443.5146460446067 0 0 0 0 2415.1371848026465 -3392.7473572296512 0 -3392.7473572296512 4295.475063230384 0 0 0 0 -960.81634277120156 201.41951102035114 0 201.41951102035114 6773.459982381828 0 0 0 0 1610.0989710795402 -2076.6318861814689 0 -2076.6318861814689 4757.921564662669 0 0 0 0 -9.7084696112920863 -28.416031252974705 0 -28.416031252974705 22.327347275421744 0 0 0 0 -177.61204097476002 -35.809303326777808 0 -35.809303326777808 439.81576671796211 0 0 0 0 -10.532599493551686 2.8808340014570604 0 2.8808340014570604 1.1451905469080148 0 0 0 0 -587.25683680374641 -979.30567363761656 0 -979.30567363761656 2076.0107576392606 0 0 0 0 -1059.973896684889 -1454.3744222346377 0 -1454.3744222346377 3436.4848930433436 0 0 0 0 -546.65224124211818 -225.41998141794829 0 -225.41998141794829 2736.1102586256166 0 0 0 0 -968.52805068227462 -504.90243263336379 0 -504.90243263336379 3484.6708131290184 0 0 0 0 -965.47262575828063 -346.8044068748095 0 -346.8044068748095 2780.8067692699697 0 0 0 0 -119.44146115240437 -423.77547035523457 0 -423.77547035523457 2714.8952767690134 0 0 0 0 -617.6546213443944 -79.740720260162561 0 -79.740720260162561 984.71869966885424 0 0 0 0 -581.61167948404182 -670.83721347657593 0 -670.83721347657593 2419.8327225319881 0 0 0 0 -779.88027947467344 -271.03980209653309 0 -271.03980209653309 2172.6609487124042 0 0 0 0 -866.84693920872814 -69.29040386656925 0 -69.29040386656925 2778.0752964607018 0 0 0 0 -276.83585178112116 -774.28534699627562 0 -774.28534699627562 -545.66802120483044 0 0 0 0 -814.48934238960646 -327.45791232148622 0 -327.45791232148622 1028.4693492981169 0 0 0 0 -376.64845149333996 -29.394999389969598 0 -29.394999389969598 166.65417966105451 0 0 0 0 -657.77482614069595 173.86011562941712 0 173.86011562941712 2579.0672376317088 0 0 0 0 -345.06127544272749 -190.0123626651548 0 -190.0123626651548 2173.8219557995417 0 0 0 0 1651.6538324687403 674.86389640907692 0 674.86389640907692 2343.530009637514 0 0 0 0 -151.36511125831748 550.90071545279352 0 550.90071545279352 763.4484200528459 0 0 0 0 -560.88482497322548 -2000.7393958473476 0 -2000.7393958473476 -1936.9672010539471 0 0 0 0 42.660892841469774 -55.825305582819482 0 -55.825305582819482 43.142681928388839 0 0 0 0 953.51998349288624 -885.67867885658416 0 -885.67867885658416 480.10096840321057 0 0 0 0 -1181.3252511119699 -751.90715131866546 0 -751.90715131866546 -370.76107253698865 0 0 0 0 -628.76365216914564 -239.57526575878364 0 -239.57526575878364 7169.9536800235473 0 0 0 0 17.477096423522227 -24.60383917217197 0 -24.60383917217197 21.842375832331598 0 0 0 0 762.78585178297635 -2740.6671030406696 0 -2740.6671030406696 1879.1483028961666 0 0 0 0 731.69699497132387 -2114.2170332477872 0 -2114.2170332477872 -2667.9121613578136 0 0 0 0 644.18497431234573 -1653.5970466395665 0 -1653.5970466395665 4.7376046033327839 0 0 0 0 645.68164084596128 -1623.1353930774583 0 -1623.1353930774583 615.39281806343934 0 0 0 0 345.77794249578437 -1027.6473634650647 0 -1027.6473634650647 1463.1780261020758 0 0 0 0 -183.72996015504032 -817.9143428180214 0 -817.9143428180214 3127.3637863671465 0 0 0 0 72.864563566677759 -81.410209127714211 0 -81.410209127714211 -28.111683791861676 0 0 0 0 -205.57155030367812 -506.49597547868188 0 -506.49597547868188 1056.5296182039529 0 0 0 0 13.49634015893389 -170.23074684032144 0 -170.23074684032144 -68.4196732183118 0 0 0 0 28.97508475385257 -17.336589650614769 0 -17.336589650614769 -355.41039005819221 0 0 0 0 1.4673250819032546 -104.35389775716794 0 -104.35389775716794 -227.46950247306086 0 0 0 0 128.07131315313745 -118.24941838480481 0 -118.24941838480481 -536.06369452590525 0 0 0 0 -25.373981051052397 -46.570878703643757 0 -46.570878703643757 -427.45293639479132 0 0 0 0 11.140067165055882 -83.325129862193691 0 -83.325129862193691 -27.082684338007546 0 0 0 0 143.30186296375177 4.3726912483671185 0 4.3726912483671185 -777.80486337872662 0 0 0 0 -548.43670637237301 -2471.3195291616121 0 -2471.3195291616121 5829.4897354141794 0 0 0 0 232.10912149721116 -618.30727254349767 0 -618.30727254349767 2320.4566269450679 0 0 0 0 55.340104576401302 -80.167276111186553 0 -80.167276111186553 -27.456781389525524 0 0 0 0 1694.7963650956081 -98.81019507981182 0 -98.81019507981182 1292.0758088345101 0 0 0 0 260.12152454680472 -49.44193105398881 0 -49.44193105398881 -108.56725258313963 0 0 0 0 72.772312792290904 -92.847464265258296 0 -92.847464265258296 -9.6364637502051451 0 0 0 0 41.931848341038858 -137.17726565790872 0 -137.17726565790872 95.65696697619569 0 0 0 0 274.40566084581951 21.126108074895456 0 21.126108074895456 39.242497757688398 0 0 0 0 695.60507888217035 -444.31069167697751 0 -444.31069167697751 176.57115912617883 0 0 0 0 46.081904237900744 -123.58814386877202 0 -123.58814386877202 122.05883452824128 0 0 0 0 424.2408208266861 -422.03055085157393 0 -422.03055085157393 198.47342610642954 0 0 0 0 512.98604041834187 -572.71525525031029 0 -572.71525525031029 200.23711752376221 0 0 0 0 890.18983161032156 -1062.6521074739358 0 -1062.6521074739358 611.76499707594485 0 0 0 0 145.73785525094718 -548.6673380485081 0 -548.6673380485081 419.82095660704908 0 0 0 0 -118.16178210602084 -42.381600486460229 0 -42.381600486460229 121.37600187276985 0 0 0 0 -21.657584059073997 -292.76982490207138 0 -292.76982490207138 612.6375296787628 0 0 0 0 632.50015201412316 161.15813313637045 0 161.15813313637045 -404.07435384672635 0 0 0 0 78.192572063256137 -82.703688409083952 0 -82.703688409083952 -33.246678341164305 0 0 0 0 166.04924961298821 -722.67372048569359 0 -722.67372048569359 442.50207670108648 0 0 0 0 -140.20599639529246 -388.67414299810844 0 -388.67414299810844 913.38606392085057 0 0 0 0 -137.15932256176575 -313.73593080683281 0 -313.73593080683281 362.02553995501512 0 0 0 0 -83.700494172757317 -167.63364600169984 0 -167.63364600169984 205.2468258485751 0 0 0 0 -93.940355343191186 -221.52542461741905 0 -221.52542461741905 473.46020188275725 0 0 0 0 -29.014975069381762 -421.61250957509037 0 -421.61250957509037 425.01501678135173 0 0 0 0 125.90216039163352 -583.02871108278759 0 -583.02871108278759 43.865838012887252 0 0 0 0 -37.873625408275984 -371.94504987225628 0 -371.94504987225628 221.92549605827662 0 0 0 0 169.44259303671424 -256.74549948736239 0 -256.74549948736239 -117.38735053564415 0 0 0 0 164.99641089595389 -426.93704289597008 0 -426.93704289597008 -91.172377544371557 0 0 0 0 50.932085382053629 -379.71794059695094 0 -379.71794059695094 182.31014294451234 0 0 0 0 75.491466369072441 -357.53356177042951 0 -357.53356177042951 187.62755779909639 0 0 0 0 -49.49661910708528 -88.26448021797205 0 -88.26448021797205 -39.935808771791926 0 0 0 0 -5.6392655455955492 -16.914778234721268 0 -16.914778234721268 22.643591374229928 0 0 0 0 -50.5400340965802 -58.27693655267305 0 -58.27693655267305 -15.757381790023885 0 0 0 0 16.985604016677826 -41.388803890880808 0 -41.388803890880808 -34.123268802559323 0 0 0 0 -97.2645325249905 65.271158761748666 0 65.271158761748666 238.2133114349399 0 0 0 0 -141.18293765833369 10.419606070845475 0 10.419606070845475 603.20251568907406 0 0 0 0 895.88768441378488 -184.17334957797812 0 -184.17334957797812 -56.764430903229368 0 0 0 0 3.8038476758478055 -4.2470301583435344 0 -4.2470301583435344 8.7764001333014505 0 0 0 0 74.045495794249291 -116.38135088411764 0 -116.38135088411764 -61.276486009606742 0 0 0 0 -27.863468337403901 -206.60798749894457 0 -206.60798749894457 -19.03358302685956 0 0 0 0 286.81519969017245 -318.77062987595491 0 -318.77062987595491 -62.617061634638389 0 0 0 0 181.57864599058666 -461.76924502995826 0 -461.76924502995826 51.400024992770341 0 0 0 0 195.70449429626751 -393.43991666202874 0 -393.43991666202874 65.650417927674425 0 0 0 0 504.9697912222473 -681.96453284313975 0 -681.96453284313975 276.01171853230426 0 0 0 0 107.30376363352116 -496.25845195387956 0 -496.25845195387956 241.718214415082 0 0 0 0 4.3370216030161828 -353.08761848881841 0 -353.08761848881841 46.83312250697054 0 0 0 0 113.92659287672723 -476.39254530786411 0 -476.39254530786411 41.042997557859053 0 0 0 0 52.624162198539125 -462.28932623147193 0 -462.28932623147193 90.558148440300101 0 0 0 0 138.0171899402485 -415.46866673548084 0 -415.46866673548084 7.6317150406393921 0 0 0 0 72.104778419219656 -471.81702391081853 0 -471.81702391081853 53.653808750204917 0 0 0 0 49.934179089123063 -389.01852189807141 0 -389.01852189807141 36.815524032750545 0 0 0 0 35.229531133576529 -437.86285240435404 0 -437.86285240435404 90.525105576842179 0 0 0 0 -41.98494079946795 -393.57528955238695 0 -393.57528955238695 197.79323597068105 0 0 0 0 -26.030150011629303 -341.98479230440057 0 -341.98479230440057 74.384345985861728 0 0 0 0 -30.585832505908911 -342.2262209176497 0 -342.2262209176497 77.682685522901011 0 0 0 0 -10.126830134133343 -282.90774802562555 0 -282.90774802562555 25.259293198087107 0 0 0 0 -114.69617117836606 -263.08684323021225 0 -263.08684323021225 67.601161235706968 0 0 0 0 -41.679522061807802 -261.57289523636609 0 -261.57289523636609 11.240439547313144 0 0 0 0 64.82668496761471 -392.47702060889242 0 -392.47702060889242 31.113215679891255 0 0 0 0 105.99415390471404 -308.46773135817875 0 -308.46773135817875 -29.405030946923944 0 0 0 0 31.380277191434288 -250.1704893455626 0 -250.1704893455626 -57.205176974604456 0 0 0 0 -84.436565003212309 -138.77194065575713 0 -138.77194065575713 -60.999343964034779 0 0 0 0 45.734604831406614 -237.0338343634885 0 -237.0338343634885 -69.44053831412748 0 0 0 0 -52.822481671537389 -149.72823736686769 0 -149.72823736686769 -42.384659207658842 0 0 0 0 -140.51485786083504 -126.63241977587677 0 -126.63241977587677 8.8424375536378648 0 0 0 0 -102.96705367114919 -90.776150909870921 0 -90.776150909870921 -90.776859865072765 0 0 0 0 -70.490358648996335 -169.07237352191805 0 -169.07237352191805 -43.994856547479685 0 0 0 0 -17.809417911965284 -209.96522897493605 0 -209.96522897493605 -12.312298409000505 0 0 0 0 -130.64083461495466 -188.9327477376919 0 -188.9327477376919 34.190806277299998 0 0 0 0 -107.48430789189297 -206.15701803711454 0 -206.15701803711454 46.352319199417252 0 0 0 0 -151.16046752568218 -123.08354717907969 0 -123.08354717907969 71.325555293038633 0 0 0 0 -240.67971051856875 -155.07483710365705 0 -155.07483710365705 95.287837305319044 0 0 0 0 -126.65304555007424 -148.44145033682105 0 -148.44145033682105 24.559541716538661 0 0 0 0 -221.03597404485481 -173.36590369774672 0 -173.36590369774672 53.042823188570765 0 0 0 0 18.760908134846076 -72.754464041262693 0 -72.754464041262693 4.2745253351157615 0 0 0 0 -153.25684353137535 -197.97153583114306 0 -197.97153583114306 53.508100606293738 0 0 0 0 -160.72620945768722 -192.5685835604545 0 -192.5685835604545 -69.052723634684298 0 0 0 0 -171.18529138682061 -80.778038005413691 0 -80.778038005413691 -21.954062007127504 0 0 0 0 -392.38166367507074 -255.078498814677 0 -255.078498814677 -104.45832407752641 0 0 0 0 13.950649075992033 -2.9298487133200126 0 -2.9298487133200126 -2.8284999823836614 0 0 0 0 180.53514574027213 -221.79391924097217 0 -221.79391924097217 -341.65637115844493 0 0 0 0 112.5542321090943 -357.1814533032466 0 -357.1814533032466 -134.39851596102017 0 0 0 0 340.87754838907858 -384.25515291860575 0 -384.25515291860575 -227.2997752019819 0 0 0 0 334.79088016253081 -146.98218030992757 0 -146.98218030992757 -421.58943567072919 0 0 0 0 215.35979318575119 -254.00415270701069 0 -254.00415270701069 -205.44499126565279 0 0 0 0 70.376544340819237 -16.559771190359243 0 -16.559771190359243 -426.26576157696712 0 0 0 0 202.61936302654431 -260.16239764812963 0 -260.16239764812963 -418.12978535736693 0 0 0 0 90.18683359665738 -267.00369160773698 0 -267.00369160773698 -283.04489696646397 0 0 0 0 147.75853522404213 -399.10077727644239 0 -399.10077727644239 -141.04606481617884 0 0 0 0 44.71868247812381 -282.64525228125785 0 -282.64525228125785 -126.11521738325609 0 0 0 0 101.63643180177314 -361.27368658387968 0 -361.27368658387968 -31.987183792440192 0 0 0 0 92.695124476784258 -461.49316476192507 0 -461.49316476192507 28.943830950669508 0 0 0 0 62.942796467410517 -404.38299990295855 0 -404.38299990295855 -55.555280675111135 0 0 0 0 104.63265549452626 -392.15059834701242 0 -392.15059834701242 -113.68496383354432 0 0 0 0 190.07692403805049 -499.34065245627517 0 -499.34065245627517 7.8283685003443679 0 0 0 0 218.92899797676364 -406.60995766819906 0 -406.60995766819906 -156.28610232736355 0 0 0 0 184.81195203766401 -540.85262055523162 0 -540.85262055523162 101.89553760389936 0 0 0 0 118.18132657918613 -479.01282301252286 0 -479.01282301252286 51.487976947235438 0 0 0 0 107.05686828495163 -513.31881642905591 0 -513.31881642905591 93.381895198737766 0 0 0 0 74.536973760303226 -463.98230230948138 0 -463.98230230948138 30.538170067768078 0 0 0 0 36.200455994272488 -460.44473998458307 0 -460.44473998458307 134.46810694810847 0 0 0 0 40.962993500274024 -457.3053386832562 0 -457.3053386832562 112.71755879389821 0 0 0 0 183.04497639840883 -522.87045135985011 0 -522.87045135985011 185.74002978955104 0 0 0 0 107.75030416877416 -555.8851732904368 0 -555.8851732904368 499.50571648159166 0 0 0 0 65.926904510110035 -522.50664232075178 0 -522.50664232075178 263.85821577970637 0 0 0 0 89.823051863815635 -471.40592474917503 0 -471.40592474917503 241.11270058310447 0 0 0 0 402.75640320315142 -555.53882456959309 0 -555.53882456959309 316.96192048495686 0 0 0 0 394.5134870862239 -616.7844701770382 0 -616.7844701770382 225.77304248654673 0 0 0 0 199.97652494703652 -428.67921879154346 0 -428.67921879154346 -71.044376980778907 0 0 0 0 429.78774824521679 -533.07543077336049 0 -533.07543077336049 -38.039364799184114 0 0 0 0 353.00429622064257 -411.10196380240131 0 -411.10196380240131 -47.672052820937097 0 0 0 0 376.31184472086898 -118.92184747742431 0 -118.92184747742431 -163.45514573329274 0 0 0 0 527.20518514569267 -362.00082401487271 0 -362.00082401487271 -172.31960419091502 0 0 0 0 548.69268121822461 -216.32106593159745 0 -216.32106593159745 -108.47332058796019 0 0 0 0 697.23780247001559 -189.49242655554917 0 -189.49242655554917 -134.10320468173268 0 0 0 0 1453.0472090525145 -510.30158535939881 0 -510.30158535939881 1.2125948201037318 0 0 0 0 806.58249815015006 -628.12320019866092 0 -628.12320019866092 49.19451699696674 0 0 0 0 867.96929799782083 -920.64742769386703 0 -920.64742769386703 603.45560664669756 0 0 0 0 920.94132661204458 -288.78259200454465 0 -288.78259200454465 372.38772325821992 0 0 0 0 1086.7431980230813 -925.25710432865276 0 -925.25710432865276 374.38757666538731 0 0 0 0 223.20140282179636 -502.19169587810211 0 -502.19169587810211 358.54291769097108 0 0 0 0 277.90951466088882 -355.6553761057769 0 -355.6553761057769 420.33083589706439 0 0 0 0 298.18556279953918 -460.98493336745287 0 -460.98493336745287 897.46187043884674 0 0 0 0 -39.180214959342266 -410.10499636905843 0 -410.10499636905843 419.66924046690292 0 0 0 0 -15.172674396715593 -302.14507956686975 0 -302.14507956686975 293.48923345498042 0 0 0 0 -60.111254215502413 -336.05413822664923 0 -336.05413822664923 162.70505931364096 0 0 0 0 -22.545614687158377 -391.16019893139401 0 -391.16019893139401 235.66665573667706 0 0 0 0 -130.42956652271096 -287.74593429660672 0 -287.74593429660672 316.68268116707804 0 0 0 0 -114.69582711761541 -249.18564081665318 0 -249.18564081665318 162.50666547231958 0 0 0 0 -35.330899047738058 -317.78283762865794 0 -317.78283762865794 293.39650831045765 0 0 0 0 -206.4990624190541 -222.00148822201299 0 -222.00148822201299 333.77998953417591 0 0 0 0 -143.36122058815818 -142.84033940256677 0 -142.84033940256677 162.2137489254219 0 0 0 0 -92.804592076936387 -250.02462184554861 0 -250.02462184554861 427.69833226480625 0 0 0 0 49.321465707587777 -472.73819168162663 0 -472.73819168162663 448.16980578557195 0 0 0 0 -66.004549077257252 -212.36733229085758 0 -212.36733229085758 217.75528848026443 0 0 0 0 -275.70058653419255 -134.08501708128006 0 -134.08501708128006 120.84053712794321 0 0 0 0 -198.84222185832914 -99.292734300463962 0 -99.292734300463962 201.19431444821385 0 0 0 0 -292.60472368976571 -15.076231123932843 0 -15.076231123932843 133.6978898619418 0 0 0 0 -284.82673591939965 -250.12424990211912 0 -250.12424990211912 231.13363843143725 0 0 0 0 -294.85429927083896 -39.130883965573958 0 -39.130883965573958 110.92347667776539 0 0 0 0 -572.17327280381141 57.34188214470214 0 57.34188214470214 92.257122739505576 0 0 0 0 -449.45828043606525 -300.50507806823066 0 -300.50507806823066 -13.980588924066979 0 0 0 0 -425.27838047183468 -218.36542180479046 0 -218.36542180479046 -103.73739668719736 0 0 0 0 -120.30878669667436 -350.01148714244437 0 -350.01148714244437 -111.8714495243421 0 0 0 0 -105.12012667277304 -252.70728330766383 0 -252.70728330766383 -403.06519446793391 0 0 0 0 -333.11919984707492 -433.79224288605383 0 -433.79224288605383 -138.82238226694199 0 0 0 0 7.0557495919201756 -249.29067753369054 0 -249.29067753369054 -164.15454028897466 0 0 0 0 172.80760003913019 -560.81180236422551 0 -560.81180236422551 27.193599719085796 0 0 0 0 337.29292983988125 -738.64542644413154 0 -738.64542644413154 -53.534372721946056 0 0 0 0 476.11173249480998 -376.69006109314728 0 -376.69006109314728 120.12308620638396 0 0 0 0 573.58106378443335 -768.17437904666929 0 -768.17437904666929 100.86504975344906 0 0 0 0 -117.4517833985301 -272.96151912703499 0 -272.96151912703499 179.35310704555741 0 0 0 0 260.69931719452143 -396.74050090107175 0 -396.74050090107175 175.85045291762799 0 0 0 0 9.0330049459612241 -7.5785989184257687 0 -7.5785989184257687 -10.401463104862238 0 0 0 0 -711.72182367183268 -193.60424703213084 0 -193.60424703213084 -47.147998639304205 0 0 0 0 142.86432653865631 -130.46632232124648 0 -130.46632232124648 90.86816066022584 0 0 0 0 -193.59821810743597 -131.92799673231275 0 -131.92799673231275 5.124430750591273 0 0 0 0 -96.321019901981344 -34.986295311963659 0 -34.986295311963659 0.24886046209212509 0 0 0 0 -11.886863747166814 -6.292683029324877 0 -6.292683029324877 -2.0926507734236282 0 0 0 0 -407.68225415455527 -70.367828451317109 0 -70.367828451317109 -12.419150506638289 0 0 0 0 21.907042758698765 -78.73882940320874 0 -78.73882940320874 -12.23050927632886 0 0 0 0 -205.18888539093314 -236.04430579812379 0 -236.04430579812379 52.591746490590594 0 0 0 0 -152.66627591010183 -208.15518049379352 0 -208.15518049379352 3.778967357455258 0 0 0 0 -240.91791954567452 -235.3460288053293 0 -235.3460288053293 -3.4725475599589117 0 0 0 0 -123.43879324797308 -168.29030915772455 0 -168.29030915772455 -126.7025007030461 0 0 0 0 -251.06349023796065 -269.63076265983636 0 -269.63076265983636 -117.43270459783162 0 0 0 0 -212.98332336224848 -169.01104452030086 0 -169.01104452030086 -174.3415137112961 0 0 0 0 -467.09874205508095 -464.14737026287457 0 -464.14737026287457 -446.80632054657144 0 0 0 0 -195.33135967486305 -209.76224646931132 0 -209.76224646931132 -148.54612640715277 0 0 0 0 -101.4517492557643 -71.710462432462009 0 -71.710462432462009 -100.99447191641593 0 0 0 0 -124.16676552715944 -168.52422617439879 0 -168.52422617439879 12.687230442681539 0 0 0 0 -151.05009485354594 -243.3994722029519 0 -243.3994722029519 66.475913685357227 0 0 0 0 -86.917998473596526 -251.89761243411704 0 -251.89761243411704 39.876844287600761 0 0 0 0 -113.44776111928513 -189.63525591921825 0 -189.63525591921825 -13.752563647421994 0 0 0 0 -111.78734458398776 -215.15193278073434 0 -215.15193278073434 126.66450217552847 0 0 0 0 -91.119248059374513 -255.60124570973676 0 -255.60124570973676 80.461945107166684 0 0 0 0 -91.277522841497557 -295.85032856341059 0 -295.85032856341059 130.12811412398696 0 0 0 0 -86.976443635518081 -311.41237324310896 0 -311.41237324310896 221.72539014997346 0 0 0 0 -137.88746928653563 -194.05411217556866 0 -194.05411217556866 222.50246037860052 0 0 0 0 -136.10976456516073 -141.89876929050115 0 -141.89876929050115 44.766503090442711 0 0 0 0 -101.67248368239962 -78.545297451762053 0 -78.545297451762053 93.452205454927935 0 0 0 0 -173.5799894448628 -14.016171733330225 0 -14.016171733330225 37.394690168426678 0 0 0 0 -124.81215995803359 41.888144612556971 0 41.888144612556971 62.02643422073379 0 0 0 0 -304.92334289486735 110.16602748571961 0 110.16602748571961 71.990931767279108 0 0 0 0 -350.8558370918181 -31.982012364308503 0 -31.982012364308503 -44.962396031969547 0 0 0 0 -406.18505573793664 118.0368379702486 0 118.0368379702486 121.52322629044011 0 0 0 0 -73.989556071959669 175.92571286747807 0 175.92571286747807 36.212894750602572 0 0 0 0 -36.902094661396404 4.1495640186462879 0 4.1495640186462879 23.160690044904186 0 0 0 0 -42.577924216471729 22.301952513900233 0 22.301952513900233 -3.5279365767155468 0 0 0 0 30.598386767233023 48.389023104769876 0 48.389023104769876 -14.952198405077525 0 0 0 0 -45.527790649197414 -1.9607794526427824 0 -1.9607794526427824 -41.404823996686901 0 0 0 0 -91.170677889487706 53.401458677926712 0 53.401458677926712 -14.799796837989788 0 0 0 0 -75.559796396177262 -15.875581632987632 0 -15.875581632987632 -28.911413368046851 0 0 0 0 -15.575885810249019 -55.176318644794264 0 -55.176318644794264 3.6897966570984977 0 0 0 0 -73.471284137638577 71.788723033908809 0 71.788723033908809 -4.4214310943643795 0 0 0 0 -43.757883579353802 -47.275259175971769 0 -47.275259175971769 -290.31655695495283 0 0 0 0 59.301783432951197 -84.521451624463225 0 -84.521451624463225 -1028.0592347402526 0 0 0 0 29.012382388391416 -215.05631265066313 0 -215.05631265066313 30.972454219086444 0 0 0 0 -212.68967824072752 -171.37307135127776 0 -171.37307135127776 634.77772059595372 0 0 0 0 -59.748732261831719 -47.876677786396712 0 -47.876677786396712 -40.821087253141464 0 0 0 0 38.25566956968396 -136.84331660605676 0 -136.84331660605676 44.40266229825238 0 0 0 0 31.27402334017097 -210.28388425921094 0 -210.28388425921094 -41.08138514680013 0 0 0 0 -13.771992308116751 -189.92064831910238 0 -189.92064831910238 0.85838913035786391 0 0 0 0 -13.251273265836062 -185.45208154955026 0 -185.45208154955026 -52.062217439895903 0 0 0 0 -29.765995632377383 -67.340102079401248 0 -67.340102079401248 -35.862836604366379 0 0 0 0 184.00480475031827 -1002.6711269149982 0 -1002.6711269149982 -931.38140836696221 0 0 0 0 -113.95803035733115 -244.6663773683249 0 -244.6663773683249 5.4000292490543984 0 0 0 0 -19.330089706796571 -190.7616326821576 0 -190.7616326821576 -0.84445638925717503 0 0 0 0 34.12727200606605 1030.4275665850964 0 1030.4275665850964 -142.12708746969656 0 0 0 0 137.54289401495771 -111.71286537140509 0 -111.71286537140509 -42.208911737720484 0 0 0 0 55.362933332464308 -134.64399229055834 0 -134.64399229055834 -35.318213681571251 0 0 0 0 43.460458946756262 -125.70250103700005 0 -125.70250103700005 -28.722044821657619 0 0 0 0 31.227318713456043 -165.38770960113106 0 -165.38770960113106 -52.233020054034569 0 0 0 0 76.451508181809913 -115.16194637494073 0 -115.16194637494073 -19.184800440573781 0 0 0 0 70.968553421400429 -88.813510944344387 0 -88.813510944344387 -12.598392513439649 0 0 0 0 -62.660148077702615 -44.396296694643752 0 -44.396296694643752 -46.490441751006983 0 0 0 0 101.68380406424694 -82.908643547766815 0 -82.908643547766815 -21.611554457763759 0 0 0 0 -9.7915376199619715 -14.236312489831391 0 -14.236312489831391 2.8441540145781836 0 0 0 0 -78.548072581572342 -89.40707107434082 0 -89.40707107434082 25.819338987019208 0 0 0 0 -48.517781569145598 -44.682826686627038 0 -44.682826686627038 -34.115309706664718 0 0 0 0 -14.658830400710457 -13.904137166700764 0 -13.904137166700764 -3.627665985247571 0 0 0 0 -363.55594412359642 275.40325482811659 0 275.40325482811659 37.308155382390396 0 0 0 0 529.59413649938142 228.13126472871204 0 228.13126472871204 -192.46083023625215 0 0 0 0 -417.73891928738703 -95.712467677013649 0 -95.712467677013649 -433.24882606596111 0 0 0 0 -108.59989137945377 -75.160151108943637 0 -75.160151108943637 218.16480241314639 0 0 0 0 441.19395386426186 835.4571513619743 0 835.4571513619743 -2122.9126548043478 0 0 0 0 991.45233706064755 -989.94322946241755 0 -989.94322946241755 -453.0645522783542 0 0 0 0 -29.583296820560946 -32.170442404071736 0 -32.170442404071736 -28.504738878480865 0 0 0 0 -41.35461428394774 201.82416874039882 0 201.82416874039882 -80.779578137853605 0 0 0 0 -16.236105171143436 -12.369156354441628 0 -12.369156354441628 -9.4533169877949046 0 0 0 0 46.604040376347257 119.61495644385013 0 119.61495644385013 -362.93228212470785 0 0 0 0 -476.12588586735183 -595.89991900615462 0 -595.89991900615462 -457.24327988952791 0 0 0 0 -69.025544885801537 -433.17766041081643 0 -433.17766041081643 -1530.0666752491406 0 0 0 0 -841.97125709435204 -1547.940640384169 0 -1547.940640384169 -1499.0206496521259 0 0 0 0 -323.62782489760139 -954.17424350430156 0 -954.17424350430156 -836.84159820564946 0 0 0 0 -936.10391751967836 -659.91541436246166 0 -659.91541436246166 153.76462103997417 0 0 0 0 -1314.9656735294848 -1135.4410243068924 0 -1135.4410243068924 171.04371080249257 0 0 0 0 -836.11077309487155 -573.10145243434863 0 -573.10145243434863 227.31498591031959 0 0 0 0 -554.80677125755756 -527.06309795995207 0 -527.06309795995207 -258.95476279799959 0 0 0 0 -827.80441839416744 -594.59712523723897 0 -594.59712523723897 -129.85244760713226 0 0 0 0 2.8427892663794836 -4.8640639360661453 0 -4.8640639360661453 2.743838963762574 0 0 0 0 324.26829778913634 -61.226030853514715 0 -61.226030853514715 -29.889361873539201 0 0 0 0 106.26421558458242 -75.878030197533235 0 -75.878030197533235 -11.127493294219221 0 0 0 0 180.11786343925633 -138.24514033474748 0 -138.24514033474748 -24.263492981523086 0 0 0 0 187.67508395410096 -216.57363075539092 0 -216.57363075539092 81.142476488392731 0 0 0 0 62.899216113029979 -129.47070016337034 0 -129.47070016337034 31.561221683913118 0 0 0 0 67.012385230525979 -174.9642877071368 0 -174.9642877071368 14.979361865020564 0 0 0 0 -104.91710613158648 -114.27380182311208 0 -114.27380182311208 -143.87818191792007 0 0 0 0 21.462230471891303 -3.7224322110963737 0 -3.7224322110963737 0.0061425292547090393 0 0 0 0 -171.53997677119332 -93.983304098384679 0 -93.983304098384679 -36.631889010815939 0 0 0 0 -327.73763863297063 -113.29864313520011 0 -113.29864313520011 -136.91394398831289 0 0 0 0 2.1177887584199198 -443.7781793532713 0 -443.7781793532713 -532.61400926836541 0 0 0 0 221.03850948256149 -280.7868617844224 0 -280.7868617844224 -953.21599480103009 0 0 0 0 -59.102526388451224 -236.39118588230758 0 -236.39118588230758 -574.89457651333032 0 0 0 0 -344.07039618489216 -511.57950265369436 0 -511.57950265369436 -596.6464246113801 0 0 0 0 -29.592217262194026 -202.72514393642291 0 -202.72514393642291 -959.89539052493092 0 0 0 0 -1067.7272234785778 67.770470364216635 0 67.770470364216635 43.835446591668187 0 0 0 0 -858.81530605038279 -597.47401740781879 0 -597.47401740781879 -327.67154944823778 0 0 0 0 -341.4976004362652 -453.03643114371107 0 -453.03643114371107 -842.68272086354591 0 0 0 0 -362.97169271268649 -402.11290377417754 0 -402.11290377417754 -836.53738991149498 0 0 0 0 -3263.036650103284 82.642211404569935 0 82.642211404569935 -283.39481813625389 0 0 0 0 -1213.7587278145074 -1890.6204577469971 0 -1890.6204577469971 -2535.7975765938245 0 0 0 0 83.624735191697255 -561.98680837713891 0 -561.98680837713891 -3142.3333459883074 0 0 0 0 -0.31452618925982279 -9.5530330060153972 0 -9.5530330060153972 -9.0247591645246672 0 0 0 0 -944.17212587177346 -1142.664500861885 0 -1142.664500861885 -1692.3915188167866 0 0 0 0 145.1378312575398 215.1215659678337 0 215.1215659678337 -1921.1327862168666 0 0 0 0 -1130.0564153728774 1458.8710374902935 0 1458.8710374902935 2597.6494279724493 0 0 0 0 -4177.4471737231943 -1937.9015888342146 0 -1937.9015888342146 1440.4418203069363 0 0 0 0 26.778746959909313 -5.2749729817245168 0 -5.2749729817245168 -4.854724786323577 0 0 0 0 -78.667899216117803 11.423788037965096 0 11.423788037965096 -1080.0612036626071 0 0 0 0 -122.36048106092494 -428.05121941423204 0 -428.05121941423204 -1232.3041864492589 0 0 0 0 60.508237929883762 -69.459337209957539 0 -69.459337209957539 -54.662710167285923 0 0 0 0 -33.691836380839732 -29.618435735483331 0 -29.618435735483331 -19.006869827819891 0 0 0 0 -254.15702541539576 -2287.9635073053955 0 -2287.9635073053955 -4432.9159792882583 0 0 0 0 -599.67063530482119 -2077.2877994996479 0 -2077.2877994996479 -0.092748049214605999 0 0 0 0 -1686.3318397822441 -1662.386754636128 0 -1662.386754636128 -574.48674240907349 0 0 0 0 -2006.2148999305646 -657.06630529460472 0 -657.06630529460472 1126.0054437487861 0 0 0 0 -956.53210643911734 -427.51956361761108 0 -427.51956361761108 330.94586020551606 0 0 0 0 -925.2995380473003 -152.92264828764928 0 -152.92264828764928 630.86674184731146 0 0 0 0 1369.3998688933352 -442.50370102817101 0 -442.50370102817101 162.03452831094842 0 0 0 0 -287.56019541349087 559.74016810875855 0 559.74016810875855 1173.3718636389251 0 0 0 0 -9.6398716860712739 -158.18681543737785 0 -158.18681543737785 36.450970212566745 0 0 0 0 -25.537382215086353 -25.684315161056261 0 -25.684315161056261 -22.974111052719707 0 0 0 0 24.333071811946866 -3.8003024292837608 0 -3.8003024292837608 -89.537953823649332 0 0 0 0 -433.40782899112673 -127.76206268029227 0 -127.76206268029227 -15.643588577846913 0 0 0 0 -22.942160658465582 -5.509349254880135 0 -5.509349254880135 -95.109391704194422 0 0 0 0 -648.00120628252989 177.59019777041937 0 177.59019777041937 115.64267165997626 0 0 0 0 -819.69556222390383 -409.57808535076447 0 -409.57808535076447 8.246924831389066 0 0 0 0 -843.06798977419385 -766.20125620868998 0 -766.20125620868998 -205.57363957596613 0 0 0 0 -514.49346156994579 -518.74329745262594 0 -518.74329745262594 -30.978612005293144 0 0 0 0 -458.15127151025808 -927.5540411698322 0 -927.5540411698322 423.05581330399036 0 0 0 0 -143.09877096729178 -808.95726545693742 0 -808.95726545693742 148.18046632694768 0 0 0 0 -237.0215979894565 -895.42902720211077 0 -895.42902720211077 112.5279007709205 0 0 0 0 295.81400348825264 -1138.5984803478846 0 -1138.5984803478846 83.98998887975813 0 0 0 0 -306.77604434716341 -253.37080917208641 0 -253.37080917208641 -1.6664868660687659 0 0 0 0 -439.11303944486281 -395.40181330043424 0 -395.40181330043424 -34.961978815244038 0 0 0 0 -162.92012302286457 -164.1333050832186 0 -164.1333050832186 -309.3483151141736 0 0 0 0 558.52033135449165 -425.17106607227834 0 -425.17106607227834 -548.57196977788226 0 0 0 0 315.62840284503181 -547.19390426400514 0 -547.19390426400514 -28.881937315932248 0 0 0 0 84.312557869132434 -898.24161205796327 0 -898.24161205796327 -186.08156071210215 0 0 0 0 545.41184593710932 -1071.0986188270908 0 -1071.0986188270908 -285.90119166494878 0 0 0 0 1290.650511718879 -1315.9992586337175 0 -1315.9992586337175 -226.40227175833934 0 0 0 0 1337.3266582054393 -839.61329798373663 0 -839.61329798373663 -67.454890803210219 0 0 0 0 247.98522177780978 -1492.0739330381521 0 -1492.0739330381521 421.10323896176669 0 0 0 0 1343.832960460888 -890.74738765715063 0 -890.74738765715063 -259.92685800099935 0 0 0 0 564.18254753973451 -833.53572228947996 0 -833.53572228947996 229.27160492740904 0 0 0 0 8.7401285249244438 -2.7525096097288451 0 -2.7525096097288451 -0.0068004807058708039 0 0 0 0 224.62924567869049 -1061.6861338794115 0 -1061.6861338794115 -474.80334667626744 0 0 0 0 34.24409093549184 -1131.4282915710573 0 -1131.4282915710573 75.833769512501021 0 0 0 0 234.44019647152163 -1266.5733684593542 0 -1266.5733684593542 -200.55088307028564 0 0 0 0 162.63389526473475 -1217.7898173008471 0 -1217.7898173008471 -88.303716112433904 0 0 0 0 195.67341673892224 -1267.0471562469247 0 -1267.0471562469247 -80.58295241021176 0 0 0 0 477.58596338645293 -1437.3920639138219 0 -1437.3920639138219 36.687436647440336 0 0 0 0 604.11590714524482 -616.30200100892534 0 -616.30200100892534 -113.07847008841782 0 0 0 0 -502.57696081416361 -481.16603047673993 0 -481.16603047673993 -129.07150345715945 0 0 0 0 1690.8275627222683 -1005.3722783460662 0 -1005.3722783460662 -112.526892911917 0 0 0 0 201.77273199384217 -964.1636361903229 0 -964.1636361903229 717.80032695744103 0 0 0 0 431.34793443330273 -1505.0223216403729 0 -1505.0223216403729 158.46268655740278 0 0 0 0 -60.593992548121605 -1181.1636717633642 0 -1181.1636717633642 469.25812553752803 0 0 0 0 -27.205988763569621 -1061.2272795613844 0 -1061.2272795613844 193.05524834958123 0 0 0 0 -217.73362562368857 -439.31632745053389 0 -439.31632745053389 -440.54987212065544 0 0 0 0 -240.03359991571051 -570.68996051953081 0 -570.68996051953081 571.6116267074392 0 0 0 0 194.62686717636825 -1190.810071371548 0 -1190.810071371548 127.06596515109413 0 0 0 0 -44.491091282601701 -836.48246137002548 0 -836.48246137002548 751.01214462113057 0 0 0 0 787.25605688072392 -780.63574729746267 0 -780.63574729746267 771.90666293320828 0 0 0 0 830.93279516301118 -872.60512865492137 0 -872.60512865492137 287.88702882096277 0 0 0 0 83.464554526202846 -820.62573531580051 0 -820.62573531580051 838.36023869220492 0 0 0 0 -1052.6828461801197 -671.24963272933996 0 -671.24963272933996 901.51694548976457 0 0 0 0 -985.27090928512916 -1704.5068052774425 0 -1704.5068052774425 320.97044417152392 0 0 0 0 59.22461095250037 -606.13761548953653 0 -606.13761548953653 769.49153668489146 0 0 0 0 -294.53679418965476 -309.69214331661692 0 -309.69214331661692 -395.20285587152102 0 0 0 0 4.801901185798215 -6.2349480060240978 0 -6.2349480060240978 1.1312790114106903 0 0 0 0 -0.18619393026892794 -639.7632107984914 0 -639.7632107984914 427.65027146176294 0 0 0 0 143.35582496316056 -830.12404620216762 0 -830.12404620216762 537.97025381945389 0 0 0 0 -331.31343016203027 -556.68673559150329 0 -556.68673559150329 577.1534312933145 0 0 0 0 -139.33737049623596 -275.93584380417883 0 -275.93584380417883 38.601871741702325 0 0 0 0 -0.021631775118294172 -557.3973943098722 0 -557.3973943098722 -332.70684474474092 0 0 0 0 -235.75202577705932 -405.77372597998783 0 -405.77372597998783 -508.32707184493665 0 0 0 0 -235.42445179884089 -419.63701154367209 0 -419.63701154367209 -412.50234294932397 0 0 0 0 -821.2241160361009 -922.07517477545525 0 -922.07517477545525 -512.88747608691381 0 0 0 0 -217.85325429131626 -508.35803865686739 0 -508.35803865686739 -412.48013886134595 0 0 0 0 10.859498638468523 -12.353418324209144 0 -12.353418324209144 0.85635868841976048 0 0 0 0 -704.27941790582554 -531.66062351770233 0 -531.66062351770233 -358.99550432246042 0 0 0 0 -637.32507523866661 -645.83186789932415 0 -645.83186789932415 -492.53093543060095 0 0 0 0 11.301079940355606 -11.693818366249133 0 -11.693818366249133 -2.5549503799845468 0 0 0 0 -659.93010579197653 -674.5954608142406 0 -674.5954608142406 -486.54015788584184 0 0 0 0 -0.029819440351275261 -403.34384830002 0 -403.34384830002 -532.43914416532152 0 0 0 0 -294.38504158443175 -369.8252314861893 0 -369.8252314861893 -403.13377400573154 0 0 0 0 -458.05527068671654 -591.51382029843171 0 -591.51382029843171 -493.81228101686293 0 0 0 0 -82.865337865951005 -259.29729723087075 0 -259.29729723087075 -353.64497083848073 0 0 0 0 -191.07558482509921 -175.56492896139207 0 -175.56492896139207 -161.54180787842051 0 0 0 0 -0.26760828658734681 -197.3198212688194 0 -197.3198212688194 -337.54312593878421 0 0 0 0 -221.62059920863248 -311.23033438427956 0 -311.23033438427956 -280.80541609910324 0 0 0 0 -1082.5224342252654 -778.28822442336684 0 -778.28822442336684 -319.26151829870287 0 0 0 0 8.3452298011240202 -8.2663734345789237 0 -8.2663734345789237 -5.1766061127881358 0 0 0 0 -1549.0589049620685 -900.89062945618207 0 -900.89062945618207 -348.14893439032676 0 0 0 0 -0.16366319832873363 -63.116164308011307 0 -63.116164308011307 -108.63036237206325 0 0 0 0 3.9656478557461128 -4.538619119139895 0 -4.538619119139895 -5.2896569864984144 0 0 0 0 -640.52019056810968 -691.21620063609225 0 -691.21620063609225 -488.84974543479984 0 0 0 0 -478.31827739996515 -424.7876622698559 0 -424.7876622698559 -288.85517395488205 0 0 0 0 -698.42974800623779 -623.62866198769916 0 -623.62866198769916 -467.32156956395102 0 0 0 0 -1088.8464314693606 -980.79521840671907 0 -980.79521840671907 -586.37585509968267 0 0 0 0 -133.12651165686839 -437.72757480518703 0 -437.72757480518703 -842.3522934009161 0 0 0 0 -200.33594613109017 -265.10516019235547 0 -265.10516019235547 -580.77632208745854 0 0 0 0 8.0887008334987627 -4.3993304444557566 0 -4.3993304444557566 -31.418619955564978 0 0 0 0 139.41160166265763 26.997592471929011 0 26.997592471929011 -70.953385203483776 0 0 0 0 -282.90436412414419 -272.35821605583715 0 -272.35821605583715 -522.61043076979331 0 0 0 0 174.81625897382037 -9.6938130711450867 0 -9.6938130711450867 16.99681558954444 0 0 0 0 62.425732379146211 -20.253347096327161 0 -20.253347096327161 20.727328627768657 0 0 0 0 190.05457666574512 -80.281137764668529 0 -80.281137764668529 -129.15564590066288 0 0 0 0 -176.69859245508269 -260.82219864257695 0 -260.82219864257695 164.42159097290096 0 0 0 0 -348.15929872135166 -89.679489069487772 0 -89.679489069487772 32.113332657730552 0 0 0 0 1085.1709034581145 -834.01682090675695 0 -834.01682090675695 618.00734608380526 0 0 0 0 -0.090630767121719913 -4.7906961348211325 0 -4.7906961348211325 3.25226727672176 0 0 0 0 3.2492818297665167 -5.7394157154105727 0 -5.7394157154105727 -0.79690763664143205 0 0 0 0 409.09006356680766 -576.33187154756524 0 -576.33187154756524 329.98901300353646 0 0 0 0 1014.9278001067141 -704.2204140813792 0 -704.2204140813792 25.038948723953581 0 0 0 0 665.2919545382465 -187.94792265416891 0 -187.94792265416891 -17.639422852025746 0 0 0 0 768.75293521354615 -616.48937773591115 0 -616.48937773591115 218.33272086124043 0 0 0 0 812.42264406912727 -734.07716913375771 0 -734.07716913375771 81.851135148846879 0 0 0 0 667.39189005974913 -586.06275917820449 0 -586.06275917820449 -67.108139194363503 0 0 0 0 650.33017227127675 -754.56393062512495 0 -754.56393062512495 83.289438498588424 0 0 0 0 1156.1724807959399 -1007.9602753338186 0 -1007.9602753338186 -5.7016725021999264 0 0 0 0 1477.8478566515987 -182.46774320630709 0 -182.46774320630709 -46.377051203709925 0 0 0 0 -1672.0125386071304 -1432.8889317963021 0 -1432.8889317963021 -435.8566258860975 0 0 0 0 3.5935792634446813 -4.3850693813317889 0 -4.3850693813317889 -6.7740490153758657 0 0 0 0 2407.3764555506204 -450.89025540225703 0 -450.89025540225703 -328.53069682768819 0 0 0 0 -689.04974414570097 -528.35818231896292 0 -528.35818231896292 -528.92570032446747 0 0 0 0 -740.85050772142131 -615.26049618384877 0 -615.26049618384877 -410.56301843296569 0 0 0 0 -823.75197600064712 -761.80047825027668 0 -761.80047825027668 -590.06194799881996 0 0 0 0 431.64063658607483 -193.29596688173297 0 -193.29596688173297 135.76419890481975 0 0 0 0 7.5007926817482939 -7.7261562850123369 0 -7.7261562850123369 -20.097998763718763 0 0 0 0 -1223.2418403852844 1391.7214979408482 0 1391.7214979408482 538.90650321192516 0 0 0 0 1230.3924506953254 -150.63521219758331 0 -150.63521219758331 -813.71022645476478 0 0 0 0 -873.65337402317436 65.120539208324772 0 65.120539208324772 1490.7166852881928 0 0 0 0 3537.5085671856978 -1148.0790827600904 0 -1148.0790827600904 -287.16630174690363 0 0 0 0 1264.6130080851121 334.32880835940887 0 334.32880835940887 1515.2864416951707 0 0 0 0 3438.9509983004541 -2513.5573438771426 0 -2513.5573438771426 2451.6655790198147 0 0 0 0 3820.1305287680079 -2608.6567156231595 0 -2608.6567156231595 1355.9083529031413 0 0 0 0 3.3791875594043521 -9.7260387561147965 0 -9.7260387561147965 25.234569851370708 0 0 0 0 2755.760112454001 24.833684653694945 0 24.833684653694945 291.51142096657713 0 0 0 0 386.55532743878177 539.58435736894535 0 539.58435736894535 1741.8984161693879 0 0 0 0 -1162.4170953870562 140.18488681822055 0 140.18488681822055 -245.7478247590625 0 0 0 0 -887.4479398168769 -689.49180454820453 0 -689.49180454820453 1026.8807266514341 0 0 0 0 -2034.6062818983028 64.253675494101685 0 64.253675494101685 371.69514412117132 0 0 0 0 -71.531931856462563 0.099559237418702651 0 0.099559237418702651 38.885585105716018 0 0 0 0 -35.298675111480307 -7.8774684060132092 0 -7.8774684060132092 38.185518852206656 0 0 0 0 -370.14426242001355 -40.064821997228137 0 -40.064821997228137 154.7183284544808 0 0 0 0 -23.779337276144361 -185.06599613960407 0 -185.06599613960407 137.27890588346429 0 0 0 0 -96.883739585365674 -48.99888800402033 0 -48.99888800402033 55.02232658127771 0 0 0 0 -56.44334548535894 27.094344711185528 0 27.094344711185528 14.795954094330199 0 0 0 0 27.779075447588184 -38.254880447684627 0 -38.254880447684627 120.51878989221768 0 0 0 0 -90.794014960848543 -13.154646295707529 0 -13.154646295707529 85.311837657613367 0 0 0 0 -34.677580027704749 -21.493637859605421 0 -21.493637859605421 37.691720253043826 0 0 0 0 -97.419905821807333 -28.000433864057413 0 -28.000433864057413 37.938956449448597 0 0 0 0 -64.561572839312475 -120.95318723029141 0 -120.95318723029141 68.66423072355974 0 0 0 0 22.570368259779002 -52.35532614119019 0 -52.35532614119019 67.364021185701034 0 0 0 0 -26.616447838401655 -85.236865504598882 0 -85.236865504598882 99.21306242510218 0 0 0 0 -74.134078152786969 10.364832003739139 0 10.364832003739139 59.244854345475687 0 0 0 0 2.7156204727827973 -14.437016204078601 0 -14.437016204078601 -2.8743213573649626 0 0 0 0 -10.369651670036424 3.1748162632485517 0 3.1748162632485517 20.096574975955548 0 0 0 0 -75.472086713709359 -0.011952340428251773 0 -0.011952340428251773 32.115495258782175 0 0 0 0 -1135.1370410509753 1315.7825400148504 0 1315.7825400148504 -594.21620664391958 0 0 0 0 42.69965154786405 -66.769188743597624 0 -66.769188743597624 39.053818833424884 0 0 0 0 -34.12678671356791 -8.4070522043396494 0 -8.4070522043396494 33.839282307827119 0 0 0 0 -22.850147850291251 8.8601246484395233 0 8.8601246484395233 -7.9149520786995708 0 0 0 0 21.061983932147086 -107.23512539065541 0 -107.23512539065541 -32.067238499359519 0 0 0 0 52.128312949715109 -5.4157947402854916 0 -5.4157947402854916 30.809822343018823 0 0 0 0 378.32209793262882 -181.42806655591448 0 -181.42806655591448 50.373525298749882 0 0 0 0 49.941642723792029 -245.73940431767915 0 -245.73940431767915 340.0202707729477 0 0 0 0 1.4979092758624282 0.89996523926382999 0 0.89996523926382999 6.7162676504326271 0 0 0 0 -22.553847651086471 63.53062866579603 0 63.53062866579603 94.790642623538588 0 0 0 0 -75.960974436415199 32.175988221627449 0 32.175988221627449 206.94872115130056 0 0 0 0 -72.822331666665377 -2.2284654508803214 0 -2.2284654508803214 97.803194458983853 0 0 0 0 -24.764084323468637 23.09379757362467 0 23.09379757362467 59.148590649267135 0 0 0 0 -3.6880087506178825 1782.4239698299207 0 1782.4239698299207 -1176.4693604264794 0 0 0 0 -21.366984098477378 5.0251439390621684 0 5.0251439390621684 24.432584853231248 0 0 0 0 402.59928857194791 -3.1329038365183806 0 -3.1329038365183806 -716.92804982131929 0 0 0 0 413.33151157637042 -693.36697805064296 0 -693.36697805064296 163.4437759379507 0 0 0 0 -44.984152839402668 -59.371083524749338 0 -59.371083524749338 74.92433642323158 0 0 0 0 -18.025960500782421 -3.5531157067427515 0 -3.5531157067427515 29.4646201500085 0 0 0 0 3.0178641384740317 -15.041240445701149 0 -15.041240445701149 5.4689768751317871 0 0 0 0 1019.3099058712069 30.205165371522526 0 30.205165371522526 -4.5286573197881808 0 0 0 0 1132.7921186947115 -661.29585265384412 0 -661.29585265384412 208.337198765621 0 0 0 0 1150.8616724404928 -1417.3955302467002 0 -1417.3955302467002 515.08239992703966 0 0 0 0 732.29331950148662 -1335.5015714309266 0 -1335.5015714309266 981.35077241100589 0 0 0 0 742.63455789059662 -1395.6429416877872 0 -1395.6429416877872 814.29756880699279 0 0 0 0 325.08063684064837 -538.86186892621845 0 -538.86186892621845 1079.7607093037832 0 0 0 0 -1001.604979907559 -456.34625337945909 0 -456.34625337945909 644.51625679762037 0 0 0 0 100.74897077216701 -1048.6354932242093 0 -1048.6354932242093 -36.015215017403534 0 0 0 0 116.02384128984704 -152.17977212728692 0 -152.17977212728692 153.74443987548875 0 0 0 0 -4.8272407302255189 -5.9759267694562013 0 -5.9759267694562013 -9.0897531781225211 0 0 0 0 -1596.8554599006711 331.07198995312865 0 331.07198995312865 16.344188369504991 0 0 0 0 -41.051071828016575 11.118854564578214 0 11.118854564578214 294.87919968549977 0 0 0 0 -16.324187338011889 -19.240951758591589 0 -19.240951758591589 -27.598847852512421 0 0 0 0 369.48601242187033 -320.48079743094968 0 -320.48079743094968 68.228988538874546 0 0 0 0 -408.20369193639272 -156.10044257856225 0 -156.10044257856225 83.158156028352096 0 0 0 0 1242.9240481358765 -2805.800422499995 0 -2805.800422499995 2749.9344412511346 0 0 0 0 799.0939854743865 -1534.6089803456307 0 -1534.6089803456307 877.70988342600322 0 0 0 0 142.37999374588981 -433.10522830987975 0 -433.10522830987975 778.98738467776275 0 0 0 0 258.6584215612711 -426.50201594330429 0 -426.50201594330429 420.30791151573067 0 0 0 0 -108.62146919500447 -557.69528132098822 0 -557.69528132098822 1786.0763411706575 0 0 0 0 106.08987730045192 16.905688422048115 0 16.905688422048115 439.49256091264169 0 0 0 0 -435.86228035888053 -373.71950122658745 0 -373.71950122658745 2327.4513383175099 0 0 0 0 -94.337698868856023 259.8000936813296 0 259.8000936813296 541.93890316113539 0 0 0 0 -109.49782750065606 -384.8215030342617 0 -384.8215030342617 -172.28408884826422 0 0 0 0 283.0133882346272 -178.77539025372243 0 -178.77539025372243 -251.42995213442919 0 0 0 0 111.68529467587541 -79.774883054553356 0 -79.774883054553356 13.731797968241153 0 0 0 0 29.956529867539974 -37.002873051228562 0 -37.002873051228562 41.01477576140573 0 0 0 0 51.221532036633377 -42.724826887727488 0 -42.724826887727488 30.093767990772875 0 0 0 0 67.974265560294953 -44.961445814220497 0 -44.961445814220497 -100.67668774213234 0 0 0 0 206.65926082869191 -136.81192598552298 0 -136.81192598552298 -86.448782798353932 0 0 0 0 119.06106526399526 -113.34690044130548 0 -113.34690044130548 -122.51073694358638 0 0 0 0 16.441623229728634 -141.50675717325203 0 -141.50675717325203 -121.41994668786356 0 0 0 0 -9.9631143377895555 -67.287046975915246 0 -67.287046975915246 55.951770856749278 0 0 0 0 -20.269237675945391 -45.099548457813256 0 -45.099548457813256 -37.419320183830052 0 0 0 0 22.688172115870429 -52.924716039037094 0 -52.924716039037094 -94.470112943439744 0 0 0 0 -33.771117272934134 -74.285282187945995 0 -74.285282187945995 5.8774794188066153 0 0 0 0 41.675808017946075 -84.409274617555511 0 -84.409274617555511 39.466751048785824 0 0 0 0 29.233837349481746 -97.1945723047005 0 -97.1945723047005 50.55385827837398 0 0 0 0 -84.127361664875934 -99.033436668370996 0 -99.033436668370996 -63.632157748092141 0 0 0 0 -230.42723521623702 -237.1650298339664 0 -237.1650298339664 125.77408985637248 0 0 0 0 223.15457680271447 26.544581155131709 0 26.544581155131709 127.70936910650926 0 0 0 0 85.450692454334785 -282.75036081040525 0 -282.75036081040525 135.35612514645982 0 0 0 0 -77.105861086613004 -551.4973155405969 0 -551.4973155405969 -182.88450205455592 0 0 0 0 -626.31294942847853 120.35301209416139 0 120.35301209416139 77.298565742392384 0 0 0 0 -200.69729596621619 -104.73074629764233 0 -104.73074629764233 72.949588996327975 0 0 0 0 -191.35913179936324 -104.31062033274429 0 -104.31062033274429 -22.135708814756072 0 0 0 0 -173.56321342331648 -125.5802407391493 0 -125.5802407391493 -29.621900904909126 0 0 0 0 30.228158686113602 -336.22033721041953 0 -336.22033721041953 51.563885202085658 0 0 0 0 -391.30867046210551 -215.15750914447563 0 -215.15750914447563 45.102031506612548 0 0 0 0 -173.34938970369694 -126.83054098564389 0 -126.83054098564389 -156.99882381824864 0 0 0 0 5.2781395787920218 -1.900078465437943 0 -1.900078465437943 2.0990575343100062 0 0 0 0 -112.67304182467706 208.01284533943544 0 208.01284533943544 507.28312825939793 0 0 0 0 155.24870611736696 -316.37677192491174 0 -316.37677192491174 -215.64340420558437 0 0 0 0 -1.3400563256905684 -19.513764468920101 0 -19.513764468920101 5.2677703471704262 0 0 0 0 133.62887670923374 -0.88554415001271991 0 -0.88554415001271991 93.210590068440069 0 0 0 0 53.674882400006027 -364.48588502070197 0 -364.48588502070197 -125.13607988735384 0 0 0 0 -352.2713273040863 -221.30453100024533 0 -221.30453100024533 287.16716127748077 0 0 0 0 45.882105105130826 -70.356938953830024 0 -70.356938953830024 45.895444241840636 0 0 0 0 -5.0809387737899669 -412.38576209739767 0 -412.38576209739767 473.47494651259478 0 0 0 0 78.583256239657203 -99.349268690739336 0 -99.349268690739336 -249.82429795205462 0 0 0 0 -15.952457293583009 -14.965911173233323 0 -14.965911173233323 -14.408438915654699 0 0 0 0 -43.731591130162997 -551.55681643549906 0 -551.55681643549906 -393.26195053740958 0 0 0 0 -107.03295564320433 -86.4121100525972 0 -86.4121100525972 80.80232198507656 0 0 0 0 -128.96981018126735 -49.978147761483797 0 -49.978147761483797 308.44782179434696 0 0 0 0 -156.83606464394688 10.058554189876304 0 10.058554189876304 163.78978915092739 0 0 0 0 -43.556357184421358 -115.2942165586428 0 -115.2942165586428 23.323419508145889 0 0 0 0 -79.204041581422644 -120.57436504878387 0 -120.57436504878387 48.792289092649298 0 0 0 0 -37.50044107101138 -84.657184497050508 0 -84.657184497050508 47.23706624683475 0 0 0 0 8.8433715274837112 -57.354668231013342 0 -57.354668231013342 73.424574619407878 0 0 0 0 -3.9099735669063023 -66.495876200785716 0 -66.495876200785716 84.34907128537084 0 0 0 0 -123.19443549303651 -363.31179867256105 0 -363.31179867256105 -150.59659441345138 0 0 0 0 -159.8376551626734 -311.51505580880985 0 -311.51505580880985 -149.04333002515477 0 0 0 0 -65.715435215890466 -113.04900075263868 0 -113.04900075263868 23.57129768806044 0 0 0 0 -80.011263824208982 -308.44135662504368 0 -308.44135662504368 -126.2304439824984 0 0 0 0 -319.65994090348249 -2.8671484989379223 0 -2.8671484989379223 68.672992007132279 0 0 0 0 -149.49606653762976 -330.62140416312741 0 -330.62140416312741 -141.92409851627963 0 0 0 0 -124.4003884419694 -243.92774689230691 0 -243.92774689230691 -171.84276431760736 0 0 0 0 -40.102930332109125 -57.295896442228099 0 -57.295896442228099 -48.779299772209953 0 0 0 0 -52.366953241268675 -362.06764881474919 0 -362.06764881474919 -132.73195633402156 0 0 0 0 29.488580612888654 -260.58193475514054 0 -260.58193475514054 -216.35732231151997 0 0 0 0 -325.69401868218847 -653.07279297702541 0 -653.07279297702541 248.52189920275168 0 0 0 0 500.68303816256366 -845.24309096405909 0 -845.24309096405909 -250.55989177049378 0 0 0 0 329.88496452843719 -317.69292834873363 0 -317.69292834873363 98.933126236948738 0 0 0 0 3.7078925896530563 -444.87810804408582 0 -444.87810804408582 143.61610892560202 0 0 0 0 1099.7081397801335 -912.16045664747776 0 -912.16045664747776 661.42270221375156 0 0 0 0 1189.5038376946532 -724.74233283538956 0 -724.74233283538956 -191.59814153492698 0 0 0 0 1255.1910302694805 -947.53017153091969 0 -947.53017153091969 12.757849253469431 0 0 0 0 707.95243358846369 -531.10748966933761 0 -531.10748966933761 225.49444334246982 0 0 0 0 1582.9270259276436 -1178.0022240196349 0 -1178.0022240196349 234.47055197166628 0 0 0 0 2009.0601295333049 -1104.7840585285862 0 -1104.7840585285862 -60.891649613970458 0 0 0 0 2197.6409395306282 -1280.0171854545533 0 -1280.0171854545533 -76.408248783685849 0 0 0 0 1406.2215663176421 -801.03302263269143 0 -801.03302263269143 1.5152732129427022 0 0 0 0 1880.8625190054809 -1104.2652123196494 0 -1104.2652123196494 -86.992431050761297 0 0 0 0 1459.2173597358069 -688.72082624958603 0 -688.72082624958603 -152.18177484352054 0 0 0 0 2206.2927454222881 -1132.3877238599634 0 -1132.3877238599634 -153.41068910555987 0 0 0 0 1864.124635724349 -1126.4839847643671 0 -1126.4839847643671 -30.787418883548526 0 0 0 0 686.42939233743891 -612.90738586378211 0 -612.90738586378211 132.32625713418747 0 0 0 0 792.70226534943504 -385.23325454901533 0 -385.23325454901533 -166.26370252155539 0 0 0 0 1503.7364113218737 -973.72225112951855 0 -973.72225112951855 46.136536555877683 0 0 0 0 1131.634088053198 -319.89846124960059 0 -319.89846124960059 -229.09256045844631 0 0 0 0 77.483109091638653 -280.09190232047149 0 -280.09190232047149 91.716268046315236 0 0 0 0 616.68218090615665 -381.72534766801982 0 -381.72534766801982 -7.1211361488385592 0 0 0 0 -292.89591175512396 -375.335605230277 0 -375.335605230277 358.4972582704977 0 0 0 0 2787.4052409017568 -274.08712084563376 0 -274.08712084563376 -381.03311433468116 0 0 0 0 1877.5601449639435 -747.45076527553829 0 -747.45076527553829 143.39020880539829 0 0 0 0 2437.2469250820191 -1762.5603716414153 0 -1762.5603716414153 258.110289645791 0 0 0 0 2550.0115847193201 -1176.0852996748708 0 -1176.0852996748708 -148.23438123994129 0 0 0 0 2381.6332146263576 -1367.1300964833099 0 -1367.1300964833099 -651.74184810613951 0 0 0 0 5369.9829633746785 -1753.5875215772248 0 -1753.5875215772248 -601.85480755371827 0 0 0 0 1928.9548916895374 -2875.2140405860846 0 -2875.2140405860846 2307.5949638103266 0 0 0 0 1463.7900571769078 -2728.8771075165132 0 -2728.8771075165132 180.18797798799642 0 0 0 0 -32.839298504020007 89.079269198395195 0 89.079269198395195 818.08544551327941 0 0 0 0 32.47592581635665 -8.9193703550892636 0 -8.9193703550892636 -0.47851463176651521 0 0 0 0 555.97806084324429 559.94358786731573 0 559.94358786731573 -50.937869558918464 0 0 0 0 3701.1172727472049 780.96274399349204 0 780.96274399349204 -105.92979794064013 0 0 0 0 -140.04363008476139 -48.784807351546306 0 -48.784807351546306 83.288833431448438 0 0 0 0 -116.33757904486993 -14.383608415035269 0 -14.383608415035269 54.793546964491725 0 0 0 0 -19.968539370699006 -13.89330635189739 0 -13.89330635189739 57.468856038757309 0 0 0 0 146.06747240994628 -109.4596540731909 0 -109.4596540731909 52.969534645162639 0 0 0 0 -352.01926883019678 -30.051285360100337 0 -30.051285360100337 -246.61694905989862 0 0 0 0 -0.25434355073007353 -8.6230528428053148 0 -8.6230528428053148 8.7476038140216019 0 0 0 0 -5.3764598130211567 -9.7561302043084268 0 -9.7561302043084268 0.19457678525772337 0 0 0 0 -760.09975204879265 -81.173410284296551 0 -81.173410284296551 -532.86381525151228 0 0 0 0 -1905.0462384284747 -1569.9235194730136 0 -1569.9235194730136 860.28547786111085 0 0 0 0 -337.36777787920437 -201.97510770588997 0 -201.97510770588997 1213.2600929248147 0 0 0 0 4.5463513505286297 -17.554116362073415 0 -17.554116362073415 37.688435580812111 0 0 0 0 8.6528748883450319 -8.6521439103733115 0 -8.6521439103733115 -0.9737309162647847 0 0 0 0 -173.64466491415533 -98.627573286513325 0 -98.627573286513325 1349.9986714967054 0 0 0 0 1690.9526226829585 -1280.9076004545004 0 -1280.9076004545004 999.8769880803593 0 0 0 0 -294.61072952871109 142.92565152639872 0 142.92565152639872 1.6608663505394361 0 0 0 0 -184.22265859166691 -31.131793875148105 0 -31.131793875148105 56.358085088853841 0 0 0 0 -131.57644237532804 16.103532077756427 0 16.103532077756427 41.647776507143135 0 0 0 0 -204.82445265992283 55.929995502671773 0 55.929995502671773 95.6049392689456 0 0 0 0 189.65189952369838 168.21155969274605 0 168.21155969274605 77.574035144088157 0 0 0 0 -130.59370732234947 -39.462123565420825 0 -39.462123565420825 66.979733276559273 0 0 0 0 -588.5168517023485 -215.86229684482169 0 -215.86229684482169 126.81578124496593 0 0 0 0 3043.7615809141462 -1205.6445781877437 0 -1205.6445781877437 -317.78561868897395 0 0 0 0 3.8208467813341267 -11.383412808265833 0 -11.383412808265833 13.441532957015951 0 0 0 0 2393.7631249394362 -1287.7487275226122 0 -1287.7487275226122 -156.71649984806572 0 0 0 0 2544.8088603048327 -963.80224845582416 0 -963.80224845582416 -272.52654980869238 0 0 0 0 2678.7038855347955 -1549.0673798207254 0 -1549.0673798207254 50.09585766291184 0 0 0 0 2217.3031598743614 -1194.9567366588335 0 -1194.9567366588335 -57.343195792316692 0 0 0 0 2014.519143494912 -1213.6753813223404 0 -1213.6753813223404 636.18358345322213 0 0 0 0 -232.689192715432 245.05150822735504 0 245.05150822735504 545.82256521009731 0 0 0 0 -779.88840272120433 -346.63652825745635 0 -346.63652825745635 822.83871808638639 0 0 0 0 45.250554496396987 -32.809565234923554 0 -32.809565234923554 24.208213578985642 0 0 0 0 -157.6874848909938 -231.28300775364733 0 -231.28300775364733 -203.14787152501958 0 0 0 0 -953.66310449369848 -1034.8197290072844 0 -1034.8197290072844 -199.86116814594425 0 0 0 0 -293.010546454414 -100.70488970976839 0 -100.70488970976839 -121.73976993085125 0 0 0 0 -333.74440427030459 -317.40167793370074 0 -317.40167793370074 -338.51530705531968 0 0 0 0 -367.71281724198889 -142.52435182217005 0 -142.52435182217005 3.1799609944428084 0 0 0 0 -258.24729341179057 -318.13480933817573 0 -318.13480933817573 -233.81559448753649 0 0 0 0 -441.06594569090521 -359.51078647375698 0 -359.51078647375698 -107.54538772605156 0 0 0 0 30.663648072836821 -61.34572771042842 0 -61.34572771042842 35.453127452448065 0 0 0 0 -251.62813632201141 -272.34717110098973 0 -272.34717110098973 -161.99382118689027 0 0 0 0 -174.61994785693491 -284.72916309199991 0 -284.72916309199991 -231.51814724615139 0 0 0 0 -24.629581607598084 -71.721321125052782 0 -71.721321125052782 -25.600060987490565 0 0 0 0 5.658535555629979 -36.272553142044231 0 -36.272553142044231 -3.0242940254790831 0 0 0 0 -253.95052915973486 -287.87873293450366 0 -287.87873293450366 -211.11162722834706 0 0 0 0 -5.9797446792024687 -39.317458956441371 0 -39.317458956441371 -29.581880061718628 0 0 0 0 -27.048928940694168 -74.324314295666227 0 -74.324314295666227 -11.420718605504703 0 0 0 0 45.264378553642018 -49.77930743554171 0 -49.77930743554171 14.088183294498776 0 0 0 0 -11.473685234518229 -10.734279979317595 0 -10.734279979317595 -3.5233426064497149 0 0 0 0 161.36601142311702 -51.197146101517319 0 -51.197146101517319 2.6082462218996625 0 0 0 0 -599.54326578413384 -525.42331931623175 0 -525.42331931623175 -391.00452406952672 0 0 0 0 -278.03425737708062 -274.04914663750606 0 -274.04914663750606 -216.81344168195801 0 0 0 0 -54.235785640642462 -62.779011637688406 0 -62.779011637688406 -19.85201525566789 0 0 0 0 -13.784612671118168 -13.731958492843489 0 -13.731958492843489 2.9982298193277224 0 0 0 0 -195.48669666110072 -163.22903275838507 0 -163.22903275838507 -81.477910996276478 0 0 0 0 -249.11551896514356 -128.5456076631599 0 -128.5456076631599 -7.0455156247262494 0 0 0 0 -693.89201168529689 -405.60126823838073 0 -405.60126823838073 -396.88778548154733 0 0 0 0 323.81841064507898 -47.859309483297693 0 -47.859309483297693 -157.33269297642437 0 0 0 0 272.60348640796292 -247.7769084889735 0 -247.7769084889735 -329.50776715613574 0 0 0 0 695.2592282967089 -288.48488146700402 0 -288.48488146700402 -602.06847114662469 0 0 0 0 179.45936088028247 -282.76949934398181 0 -282.76949934398181 -365.68513173846782 0 0 0 0 199.05917818337912 -299.04625615255281 0 -299.04625615255281 -364.01275918180067 0 0 0 0 -43.512475515537517 -12.102251921052357 0 -12.102251921052357 -7.5307422060395766 0 0 0 0 -88.56224489815213 -83.308576124282808 0 -83.308576124282808 -65.203791269346766 0 0 0 0 -19.858252725149214 -34.574840506455985 0 -34.574840506455985 -49.928212597676975 0 0 0 0 -109.74551783120842 -42.196408852772038 0 -42.196408852772038 -17.630505897312105 0 0 0 0 -103.70024255143289 -53.633685612047884 0 -53.633685612047884 3.7120715834462317 0 0 0 0 -126.96495074804625 -50.929670663497745 0 -50.929670663497745 5.2522172395802045 0 0 0 0 -109.28097698052807 -11.773130916569471 0 -11.773130916569471 1.1346864170882327 0 0 0 0 -48.416233115945943 -30.685997035066976 0 -30.685997035066976 -15.90770486722522 0 0 0 0 -224.64606956396528 -107.07952059976697 0 -107.07952059976697 -16.784233086915265 0 0 0 0 -192.58989372174619 -65.97519711081577 0 -65.97519711081577 35.781557570298901 0 0 0 0 -159.21797346769017 -103.05836218031163 0 -103.05836218031163 -22.708511341272242 0 0 0 0 -253.11606014313293 -81.099046615417137 0 -81.099046615417137 54.60686902642783 0 0 0 0 -244.03421836498455 -65.948619217120722 0 -65.948619217120722 41.176988159375469 0 0 0 0 -256.93315782758509 -98.928976502050318 0 -98.928976502050318 130.43311094333149 0 0 0 0 -204.65482110284211 -140.28320977696649 0 -140.28320977696649 41.58534161960597 0 0 0 0 -209.33948396248525 -108.80186856010528 0 -108.80186856010528 -16.67760380148502 0 0 0 0 -235.40400253139524 -114.95783344549181 0 -114.95783344549181 65.793299812116402 0 0 0 0 -125.08960020049562 -67.943437311353591 0 -67.943437311353591 136.44478298360582 0 0 0 0 -200.489492320914 -164.97121300471372 0 -164.97121300471372 155.86052094206661 0 0 0 0 -105.16178454376302 -154.7990573859185 0 -154.7990573859185 84.191269024217036 0 0 0 0 -118.53380597726439 -41.234917621459267 0 -41.234917621459267 30.125014845491954 0 0 0 0 -174.75706134933353 -31.467787707762909 0 -31.467787707762909 39.717339199423805 0 0 0 0 -319.88625036249323 -130.13602574346805 0 -130.13602574346805 83.152105193126772 0 0 0 0 -106.17001460719621 -264.15707717826444 0 -264.15707717826444 -94.000887618939714 0 0 0 0 -246.17651922502569 -90.684820156820365 0 -90.684820156820365 -21.172212611634677 0 0 0 0 -115.07176078046324 -56.472624694181988 0 -56.472624694181988 29.529463271146909 0 0 0 0 -42.003452347256825 -213.91914659844861 0 -213.91914659844861 -6.4722785215092813 0 0 0 0 33.863179381551163 -148.11589906090876 0 -148.11589906090876 -18.395710874641736 0 0 0 0 -1.9681394224899122 -173.07857242003593 0 -173.07857242003593 117.99119415532573 0 0 0 0 36.295173188009358 -192.19078103914387 0 -192.19078103914387 92.634111154831771 0 0 0 0 -37.925451681017876 -127.34874389187144 0 -127.34874389187144 118.94139288002202 0 0 0 0 12.355015905355685 -218.67242419651734 0 -218.67242419651734 182.34278585125617 0 0 0 0 -97.759172534257232 -173.12792620028813 0 -173.12792620028813 -42.852610096083481 0 0 0 0 -18.21683527316236 -266.38261733804734 0 -266.38261733804734 59.68256393311367 0 0 0 0 42.902343864232535 -77.525226931403722 0 -77.525226931403722 86.010495902462935 0 0 0 0 -107.60562604158622 -173.60219995995226 0 -173.60219995995226 101.71330515372915 0 0 0 0 66.724276886991916 -78.902218378607671 0 -78.902218378607671 20.8923910358779 0 0 0 0 -427.063907470103 -122.74892644700776 0 -122.74892644700776 -113.41675992765454 0 0 0 0 -261.12329559713544 -358.2517916649258 0 -358.2517916649258 -10.285964437522807 0 0 0 0 28.49034074980591 -191.10046484810277 0 -191.10046484810277 -121.09196980960223 0 0 0 0 53.736333732324965 -111.72576700703178 0 -111.72576700703178 19.119447144516016 0 0 0 0 -40.868614969658665 -157.42040115577811 0 -157.42040115577811 34.90554246905549 0 0 0 0 -13.292948120181791 -154.40315993763795 0 -154.40315993763795 -177.83044352990419 0 0 0 0 -261.20304212692645 -118.48759102944632 0 -118.48759102944632 -141.50186263831984 0 0 0 0 164.2094098658963 -181.91416264361305 0 -181.91416264361305 -190.28216716774841 0 0 0 0 101.22093450938155 -215.27017533701724 0 -215.27017533701724 -143.55600155779666 0 0 0 0 22.737471870135778 -326.14673912307944 0 -326.14673912307944 -386.1343112483064 0 0 0 0 29.713117068647989 -291.42046391996701 0 -291.42046391996701 -253.63662955715881 0 0 0 0 167.91459277382819 -247.3403987650272 0 -247.3403987650272 -384.67090731936946 0 0 0 0 201.99392670137604 -264.56062831491943 0 -264.56062831491943 -385.96514300408671 0 0 0 0 -49.234075766522437 -26.263284769845995 0 -26.263284769845995 4.6325817649176315 0 0 0 0 12.601644368272105 -7.5786463491091496 0 -7.5786463491091496 2.9388750452830781 0 0 0 0 -71.112485357945843 -214.71012967436855 0 -214.71012967436855 -500.76363841861939 0 0 0 0 124.19187390714796 -312.90768969917644 0 -312.90768969917644 -531.36656145666893 0 0 0 0 89.234034018911188 -317.75587549220836 0 -317.75587549220836 -446.22316415326168 0 0 0 0 -3.5485938567508128 -194.71564265512552 0 -194.71564265512552 -533.99751376882159 0 0 0 0 -116.32713024844998 -168.18469770301181 0 -168.18469770301181 -489.87197353189003 0 0 0 0 -107.81733224790878 -601.16653586471466 0 -601.16653586471466 -164.54940873132364 0 0 0 0 -924.66138055588817 -648.05081608172259 0 -648.05081608172259 -134.53546531487973 0 0 0 0 -70.25940692347649 -316.52234101486556 0 -316.52234101486556 263.23093830095604 0 0 0 0 -124.27654844216886 -52.131139888670532 0 -52.131139888670532 -835.00076380172186 0 0 0 0 0.86553758817410653 -4.8641007110808516 0 -4.8641007110808516 -0.12372824534802795 0 0 0 0 -342.58938300807495 -617.62117079958853 0 -617.62117079958853 309.33971199360531 0 0 0 0 -157.21447935025208 -410.17559896152125 0 -410.17559896152125 458.30576435816329 0 0 0 0 -192.63131344061185 -935.45751302294093 0 -935.45751302294093 -1392.1611725260664 0 0 0 0 -199.30876622762298 -339.7201220436873 0 -339.7201220436873 -66.364825663319948 0 0 0 0 88.601422522718821 -77.374129238859723 0 -77.374129238859723 30.409872808957701 0 0 0 0 -69.704588002648961 -169.08231406771995 0 -169.08231406771995 -77.722373266459726 0 0 0 0 -217.61940475970914 -297.72562652039596 0 -297.72562652039596 -64.718642306991114 0 0 0 0 -81.346462300702115 -269.39264853063787 0 -269.39264853063787 -122.06784462341011 0 0 0 0 94.299358979189975 -84.300047861978868 0 -84.300047861978868 40.538344596230317 0 0 0 0 6.9029610221623443 -193.85409150517364 0 -193.85409150517364 -53.841639570064217 0 0 0 0 -45.158214829702047 -158.18785978266214 0 -158.18785978266214 -62.059875526463372 0 0 0 0 27.001068830417353 -127.19035259063435 0 -127.19035259063435 -39.697425116278282 0 0 0 0 76.462496598544391 -102.12254981733113 0 -102.12254981733113 46.280735209978189 0 0 0 0 -130.36300474425661 -295.88387548831543 0 -295.88387548831543 -36.845646240433325 0 0 0 0 -218.90816364077727 -330.1162524042561 0 -330.1162524042561 47.156630746274459 0 0 0 0 -76.565497955398314 -247.70337315163715 0 -247.70337315163715 -88.558419710307135 0 0 0 0 -68.394500602036715 -230.04483255867581 0 -230.04483255867581 -55.080192251346375 0 0 0 0 -84.756949938862817 -241.38695205367549 0 -241.38695205367549 -23.983103183591084 0 0 0 0 -121.80319680317916 -191.56511990941772 0 -191.56511990941772 -69.133662823047416 0 0 0 0 -123.79260879824869 -550.15729042588282 0 -550.15729042588282 -12.943856111714922 0 0 0 0 -131.53232412441139 -368.45829274705829 0 -368.45829274705829 -206.65360437131767 0 0 0 0 -349.28586079232628 -100.63296589154061 0 -100.63296589154061 128.7415003331862 0 0 0 0 -242.4633355766673 -52.056396539428533 0 -52.056396539428533 -26.510155035859498 0 0 0 0 -231.5895098406836 -137.10348236210302 0 -137.10348236210302 139.01682780054944 0 0 0 0 -102.39944463585562 -60.115076362071704 0 -60.115076362071704 86.080243898726621 0 0 0 0 -73.431955468124215 -299.25003485887919 0 -299.25003485887919 249.86935728771186 0 0 0 0 -198.34424456932175 -157.06658140594118 0 -157.06658140594118 202.6082771150468 0 0 0 0 35.350448547877022 -259.20238328736559 0 -259.20238328736559 48.549723128655387 0 0 0 0 -139.72361141086367 -370.43345161516527 0 -370.43345161516527 263.00920719265559 0 0 0 0 -335.93062421979266 -672.98731535065053 0 -672.98731535065053 332.3008064570713 0 0 0 0 -70.097385294822743 -320.76034010364128 0 -320.76034010364128 291.74107919585026 0 0 0 0 -102.69280741589318 -532.12945298255545 0 -532.12945298255545 731.08548158190024 0 0 0 0 994.57669606912532 -369.20008982110448 0 -369.20008982110448 125.71114699678583 0 0 0 0 -48.883670900089783 -363.92117010769471 0 -363.92117010769471 372.49789502729982 0 0 0 0 321.18179917194357 -79.645296799257267 0 -79.645296799257267 575.47107267066895 0 0 0 0 250.93624372628619 -425.22357139029191 0 -425.22357139029191 275.27395004802747 0 0 0 0 62.25283626478631 -180.93961494518589 0 -180.93961494518589 262.71918238426588 0 0 0 0 -13.976423752431714 -7.9726467705954178 0 -7.9726467705954178 1.8330917022904032 0 0 0 0 -29.02021729480839 -56.406066482792085 0 -56.406066482792085 5.9469846149229113 0 0 0 0 362.63007598392232 -497.47088087204054 0 -497.47088087204054 334.2097664424582 0 0 0 0 415.00339518304099 -310.96094881219688 0 -310.96094881219688 308.46766836176175 0 0 0 0 567.20659284474095 -613.08993962398745 0 -613.08993962398745 907.67401377655915 0 0 0 0 -3.0329471538585722 -1.709277978667064 0 -1.709277978667064 2.1957495910691236 0 0 0 0 201.02029525063335 -317.98868675003177 0 -317.98868675003177 441.51527803505451 0 0 0 0 286.72034905471446 -284.35840170725987 0 -284.35840170725987 128.9084693340692 0 0 0 0 280.03460409685249 -202.55778585310009 0 -202.55778585310009 48.591021176416689 0 0 0 0 296.87583662545148 -61.08291169308859 0 -61.08291169308859 3.1794371068999681 0 0 0 0 413.09531294864792 -151.23718950383318 0 -151.23718950383318 67.50451045374939 0 0 0 0 -1.1307033204323531 -3.893418288069789 0 -3.893418288069789 -1.8823807917067725 0 0 0 0 -766.47387308076941 -100.68684528568701 0 -100.68684528568701 143.97916191502736 0 0 0 0 -470.3572075692 59.404477803415148 0 59.404477803415148 -10.112124991188466 0 0 0 0 -212.65920382180411 -148.8941853155211 0 -148.8941853155211 19.741918469286247 0 0 0 0 -439.40550692694887 -269.90066000416209 0 -269.90066000416209 30.853783681011919 0 0 0 0 80.087946434978221 -93.01943922414921 0 -93.01943922414921 10.63946347125966 0 0 0 0 -175.15729874417229 -114.02091608463252 0 -114.02091608463252 26.153498038098405 0 0 0 0 14.983118949460859 -7.3611436502051717 0 -7.3611436502051717 -0.79574964693084027 0 0 0 0 -184.84441088892345 -95.499145410422898 0 -95.499145410422898 -2.4757628769511939 0 0 0 0 -107.68753238680802 -82.774278031736685 0 -82.774278031736685 -109.05666891419787 0 0 0 0 -411.99207957922317 -174.1809759624457 0 -174.1809759624457 9.8532101413802593 0 0 0 0 13.70824981096608 -75.866291014835014 0 -75.866291014835014 4.1282137396428311 0 0 0 0 -108.33844891979606 -94.284638043700397 0 -94.284638043700397 21.272312493832942 0 0 0 0 -18.702039167183102 -90.477063698590428 0 -90.477063698590428 -6.663312740962283 0 0 0 0 51.790904102832428 -90.842011261481275 0 -90.842011261481275 -70.015108722308469 0 0 0 0 14.022032706853963 -73.917340784952387 0 -73.917340784952387 6.293151499509932 0 0 0 0 -11.302412647142773 -89.323250021749118 0 -89.323250021749118 -10.045658334081963 0 0 0 0 1.5470205548798077 -103.69908793661885 0 -103.69908793661885 5.871749164952881 0 0 0 0 -18.222003763238177 -1.8951780920690524 0 -1.8951780920690524 2.4599706365482064 0 0 0 0 -148.63109147426439 -118.08455914281967 0 -118.08455914281967 -146.26359420839799 0 0 0 0 -450.56352750390488 40.445248415243896 0 40.445248415243896 75.220304082100483 0 0 0 0 -420.46024739677523 -208.0917657052878 0 -208.0917657052878 77.578479201252776 0 0 0 0 -26.751821525866035 -81.103784318240855 0 -81.103784318240855 8.4147951964805543 0 0 0 0 6.9758470877495711 -240.96400769596494 0 -240.96400769596494 -51.363360440536781 0 0 0 0 -64.228893066487217 -98.535038414342125 0 -98.535038414342125 44.209930189354964 0 0 0 0 -124.9059195572861 -109.17949241093851 0 -109.17949241093851 84.856559004099836 0 0 0 0 -125.62303979298304 -117.94926236944957 0 -117.94926236944957 115.54902046837014 0 0 0 0 3.4184440369572258 -142.87391635413314 0 -142.87391635413314 86.035361149730306 0 0 0 0 -262.07503058248767 -143.99400816086199 0 -143.99400816086199 136.13432032533274 0 0 0 0 -276.49122976069339 -43.659215143228721 0 -43.659215143228721 114.44755799495942 0 0 0 0 -295.78043692065785 -56.331710086708199 0 -56.331710086708199 106.95982788339461 0 0 0 0 -143.72078955082907 33.704268353866155 0 33.704268353866155 14.363727704915618 0 0 0 0 -175.03360706519743 -25.603410449670264 0 -25.603410449670264 64.557076708454588 0 0 0 0 -286.62169139330945 -2.7819281190313632 0 -2.7819281190313632 62.644875709424923 0 0 0 0 -34.959448743647954 -2.8778929405916642 0 -2.8778929405916642 -9.846430469000552 0 0 0 0 -140.22798371972021 -17.99029703690212 0 -17.99029703690212 3.5120344245660817 0 0 0 0 -168.22576430742629 -42.321296711229479 0 -42.321296711229479 14.035503580633303 0 0 0 0 444.96115337524316 -395.1360507348295 0 -395.1360507348295 271.17921659271724 0 0 0 0 -11.711615932411291 -6.5357583811037472 0 -6.5357583811037472 0.20889522596958088 0 0 0 0 -213.92030816403349 -3.0137205569744765 0 -3.0137205569744765 18.168510173806908 0 0 0 0 -233.33371205042931 40.992579235945868 0 40.992579235945868 -80.873812721188187 0 0 0 0 403.66802176337478 -638.90931839027974 0 -638.90931839027974 283.10455162908693 0 0 0 0 -5.2274493488340852 -2.8194866402088437 0 -2.8194866402088437 0.35499943389648791 0 0 0 0 227.35492834249453 -70.187227627008724 0 -70.187227627008724 188.54485567562551 0 0 0 0 245.77029716264315 -231.19426495184348 0 -231.19426495184348 373.02222990484006 0 0 0 0 109.16541384469383 -184.3802741318741 0 -184.3802741318741 147.09817986559801 0 0 0 0 -497.65297719316368 -476.87782612027968 0 -476.87782612027968 310.40761044309511 0 0 0 0 230.07680717489711 -261.51536887406382 0 -261.51536887406382 -205.18280946736195 0 0 0 0 -652.050832266832 -338.69893871913882 0 -338.69893871913882 189.3275490858025 0 0 0 0 80.3133656308637 29.628897181037246 0 29.628897181037246 35.366199651567513 0 0 0 0 -87.632238710357342 -17.127744482257185 0 -17.127744482257185 98.301890586200898 0 0 0 0 -83.092859162177774 49.869322445038051 0 49.869322445038051 -191.96504415703021 0 0 0 0 -45.110678820266912 -299.20927524079889 0 -299.20927524079889 -295.36092779153932 0 0 0 0 -835.80710687237297 16.231943029243666 0 16.231943029243666 27.869155576716366 0 0 0 0 -1103.471615148268 159.85142246249961 0 159.85142246249961 117.32937262341875 0 0 0 0 190.2744797438645 -187.35324293534177 0 -187.35324293534177 -35.747019098781493 0 0 0 0 -0.24952443743736552 -1.3629439202182496 0 -1.3629439202182496 -0.89984286526895829 0 0 0 0 29.138818800003371 -47.492917144054978 0 -47.492917144054978 59.559919786338511 0 0 0 0 23.203902813602326 -79.279678601530577 0 -79.279678601530577 73.280549773686289 0 0 0 0 61.510672906755644 -63.103201959998842 0 -63.103201959998842 54.114536794279957 0 0 0 0 -35.591228789146044 -51.785953627946583 0 -51.785953627946583 55.682940502358178 0 0 0 0 -84.98376770469531 -187.10178217426255 0 -187.10178217426255 114.48931687122604 0 0 0 0 -14.082894390325237 -23.090371262846929 0 -23.090371262846929 59.477050896333822 0 0 0 0 -52.67729154476001 -223.93639152953324 0 -223.93639152953324 -84.122695708858373 0 0 0 0 8.6507744009241065 -13.64616501108253 0 -13.64616501108253 5.6068947429206375 0 0 0 0 322.27405486855423 160.26704720638372 0 160.26704720638372 143.34323376850807 0 0 0 0 -9.8744793923265988 4.9721831620961225 0 4.9721831620961225 8.7848897391023257 0 0 0 0 -17.094075706519369 -23.520288198010228 0 -23.520288198010228 55.194479627902211 0 0 0 0 -220.65520396811644 7.4974447641670849 0 7.4974447641670849 170.59131065744441 0 0 0 0 59.352737532037281 60.775036941385679 0 60.775036941385679 100.18921902709917 0 0 0 0 73.934671968170733 84.754125623174332 0 84.754125623174332 122.93355743110442 0 0 0 0 -17.362896511562013 -39.784850756347893 0 -39.784850756347893 60.655313037183909 0 0 0 0 32.119331632118701 -68.221529368475331 0 -68.221529368475331 133.12148256289947 0 0 0 0 4.2902202014483919 -162.8703186692926 0 -162.8703186692926 239.28652104196772 0 0 0 0 -5.2810127779197273 -13.720034284534918 0 -13.720034284534918 20.450161296402193 0 0 0 0 -7.2571886635805427 -90.517132942898229 0 -90.517132942898229 65.276466680073554 0 0 0 0 10.921979095204733 -66.07924566433212 0 -66.07924566433212 90.176073987905966 0 0 0 0 -53.08514558234674 3.4385994085432685 0 3.4385994085432685 54.347422100916447 0 0 0 0 -43.259309174536611 -19.464100314689858 0 -19.464100314689858 106.90184743004056 0 0 0 0 23.864364325454517 -406.7696437732111 0 -406.7696437732111 188.29833952732787 0 0 0 0 -383.55464796708839 37.541383284902622 0 37.541383284902622 53.565076018247055 0 0 0 0 -2.2109128824247648 -1.0682035531508873 0 -1.0682035531508873 -2.9076443134609313 0 0 0 0 111.27000933383533 67.422641440161897 0 67.422641440161897 76.510374408415373 0 0 0 0 -70.08228513571521 -252.82229224731873 0 -252.82229224731873 27.260248829519696 0 0 0 0 -449.95752249672205 -356.83338379772727 0 -356.83338379772727 15.85525686726578 0 0 0 0 43.684117182439877 -131.1824518101721 0 -131.1824518101721 40.308007316074509 0 0 0 0 -31.42459213789698 -75.680137786468549 0 -75.680137786468549 96.946026372111646 0 0 0 0 -262.044197913885 -78.073554985738156 0 -78.073554985738156 102.0159046783574 0 0 0 0 -75.900735237188201 -120.71313656938855 0 -120.71313656938855 52.689129800617593 0 0 0 0 -9.2307927477449141 -54.832094587347818 0 -54.832094587347818 53.634265184376225 0 0 0 0 -44.397938180300116 -158.46459468613466 0 -158.46459468613466 40.343619400747116 0 0 0 0 -11.941692005460936 -82.084677544116857 0 -82.084677544116857 37.593106657153839 0 0 0 0 -35.061885846385849 -46.618819515286305 0 -46.618819515286305 96.705022994512547 0 0 0 0 -38.814553181280644 -81.816173517781863 0 -81.816173517781863 50.264406298792892 0 0 0 0 -32.045311760826735 -87.24780067719621 0 -87.24780067719621 24.26792574584033 0 0 0 0 -16.251292961839425 -61.010477004647818 0 -61.010477004647818 49.020973441225351 0 0 0 0 -43.815712986766812 -99.269434267756878 0 -99.269434267756878 7.8266196918848436 0 0 0 0 -35.860254276924024 -86.184273867271713 0 -86.184273867271713 9.4108332524338039 0 0 0 0 -35.256472341319181 -98.505639687088774 0 -98.505639687088774 7.888362736106501 0 0 0 0 -60.15432652724121 -80.436333291017945 0 -80.436333291017945 10.605481668157154 0 0 0 0 -9.5786404461905477 -86.808284749008635 0 -86.808284749008635 -4.2804534714223337 0 0 0 0 69.242901637873729 -167.59635571191802 0 -167.59635571191802 -49.610651451237572 0 0 0 0 -17.583621825977566 -79.304819644845807 0 -79.304819644845807 -10.774724170081591 0 0 0 0 -201.27447346041845 -115.89977720797742 0 -115.89977720797742 -31.88153388273895 0 0 0 0 -145.25060751743149 -38.457323630493192 0 -38.457323630493192 21.491857063281714 0 0 0 0 -364.10779673877551 -20.276235288591124 0 -20.276235288591124 34.72882489148742 0 0 0 0 -0.32576048105482869 -4.2039506431832692 0 -4.2039506431832692 -8.2288390676623138 0 0 0 0 -319.70999252901311 20.252904214651608 0 20.252904214651608 -79.775945923816835 0 0 0 0 87.747079094686342 -176.79413179573498 0 -176.79413179573498 -8.9666916881815268 0 0 0 0 259.07257821497114 -96.177314915605166 0 -96.177314915605166 -21.590613565568674 0 0 0 0 35.390318884816224 -122.75370249900789 0 -122.75370249900789 -46.373222197767973 0 0 0 0 9.4663767311903939 -91.252543689927279 0 -91.252543689927279 3.9307455495090835 0 0 0 0 -8.636554311551178 -19.878815256335656 0 -19.878815256335656 -12.113764029904353 0 0 0 0 -12.451941651386932 -60.491711408802729 0 -60.491711408802729 55.663227609701607 0 0 0 0 -135.86410453574717 -54.034852323728956 0 -54.034852323728956 28.044623622941799 0 0 0 0 -138.60897617472438 -67.827377272393278 0 -67.827377272393278 -23.661664146852672 0 0 0 0 -168.80715850161778 -67.394397262869916 0 -67.394397262869916 29.846179073665553 0 0 0 0 -137.14957950409735 -58.941161913904125 0 -58.941161913904125 18.656486669184233 0 0 0 0 -44.248771613038116 -147.66907094926228 0 -147.66907094926228 10.998240148301647 0 0 0 0 -45.613531178258341 -76.355154953311924 0 -76.355154953311924 0.1133111715618611 0 0 0 0 -107.14532010095354 -85.529185935316491 0 -85.529185935316491 21.018731500616127 0 0 0 0 -46.077262793648288 -51.820767322867411 0 -51.820767322867411 -5.9413489805265414 0 0 0 0 -34.796491242741467 -141.70665995952004 0 -141.70665995952004 218.88712673524424 0 0 0 0 46.469466968614142 -140.30141387253752 0 -140.30141387253752 34.948357218093406 0 0 0 0 24.990676448149316 -78.948371948287786 0 -78.948371948287786 9.8436085942885256 0 0 0 0 32.925014992964861 -109.31671621685655 0 -109.31671621685655 2.1605109375122993 0 0 0 0 -49.072550613482747 -70.722502028383957 0 -70.722502028383957 -8.4826741176312623 0 0 0 0 81.9018927643192 -364.26309126676642 0 -364.26309126676642 193.69086300493291 0 0 0 0 -132.27199014433427 -74.230345068179304 0 -74.230345068179304 455.06807906019094 0 0 0 0 225.32348859100603 -367.64479357835808 0 -367.64479357835808 189.76588808941597 0 0 0 0 331.16045042220503 -389.41399556421675 0 -389.41399556421675 383.43234535164083 0 0 0 0 184.78372387966374 -254.5442896554523 0 -254.5442896554523 259.1655774099836 0 0 0 0 247.76765573686862 -190.84506927456869 0 -190.84506927456869 244.24947078470723 0 0 0 0 150.74386531779601 -233.15947042707739 0 -233.15947042707739 201.552761621846 0 0 0 0 137.31063653627643 -257.90618892737257 0 -257.90618892737257 204.6038783602562 0 0 0 0 180.6977045838139 -258.30264582631935 0 -258.30264582631935 187.45617143509298 0 0 0 0 128.44976638298249 -286.05862339322266 0 -286.05862339322266 172.92563905137649 0 0 0 0 107.53386664277787 -230.46414711683883 0 -230.46414711683883 201.8763205549476 0 0 0 0 71.206736563617596 -254.69254787905811 0 -254.69254787905811 185.9209692195509 0 0 0 0 81.796630318858661 -273.88617161035654 0 -273.88617161035654 170.04240213632875 0 0 0 0 106.39702343422687 -273.92724698068196 0 -273.92724698068196 152.76040166729217 0 0 0 0 102.50960543221299 -330.24196605535326 0 -330.24196605535326 177.38742823411303 0 0 0 0 163.88030366507883 -354.1813741556216 0 -354.1813741556216 177.37452156130166 0 0 0 0 71.440698142338078 -336.38041552944924 0 -336.38041552944924 181.8642632406918 0 0 0 0 0.095978816360002384 -251.00179122289046 0 -251.00179122289046 270.44775241114257 0 0 0 0 18.665360736486036 -324.68836604736862 0 -324.68836604736862 239.52151879852318 0 0 0 0 -11.554418401443399 -217.18542557042747 0 -217.18542557042747 177.59371654609276 0 0 0 0 -25.087229470507737 -109.50763782681724 0 -109.50763782681724 126.82393857803982 0 0 0 0 74.503276942064986 -292.72322253040329 0 -292.72322253040329 189.9185221187654 0 0 0 0 35.557635731180198 -320.53482103491842 0 -320.53482103491842 176.40871166895522 0 0 0 0 69.435647942707874 -175.9746919358804 0 -175.9746919358804 46.721706744145195 0 0 0 0 15.397637757763732 -170.95738831513154 0 -170.95738831513154 105.54507119455957 0 0 0 0 40.30525720269361 -241.96086080078749 0 -241.96086080078749 144.85241147682245 0 0 0 0 72.175418869999703 -239.58757982160023 0 -239.58757982160023 132.72199016301965 0 0 0 0 20.896387638087617 -213.72484095259188 0 -213.72484095259188 165.58002936381672 0 0 0 0 73.213479906073189 -209.13588424183808 0 -209.13588424183808 98.320026605942985 0 0 0 0 42.480279769457411 -233.15879488563223 0 -233.15879488563223 140.96333055842842 0 0 0 0 61.156247174425516 -98.693939154141844 0 -98.693939154141844 42.930934426913154 0 0 0 0 47.18058682634728 -254.3209370473196 0 -254.3209370473196 96.822572990276967 0 0 0 0 -53.369988088698221 -112.646311220673 0 -112.646311220673 24.696489446239411 0 0 0 0 75.731930389010813 -234.78261119725357 0 -234.78261119725357 50.839936049917014 0 0 0 0 -51.7030159783653 -68.950280077544136 0 -68.950280077544136 41.180874065606773 0 0 0 0 -49.57344616261787 -25.089252503135455 0 -25.089252503135455 56.213816575027337 0 0 0 0 -11.391698376872228 -55.86853404168869 0 -55.86853404168869 30.28133605362018 0 0 0 0 -12.01016038236412 -47.878048040005524 0 -47.878048040005524 47.692382600529527 0 0 0 0 125.5705262991105 -232.57449715645453 0 -232.57449715645453 232.59203136937867 0 0 0 0 50.515158628084464 -183.90302749756665 0 -183.90302749756665 190.99695672467351 0 0 0 0 119.00064538506558 -214.17820335359283 0 -214.17820335359283 199.61805756184185 0 0 0 0 92.596803818625631 -233.67681476853613 0 -233.67681476853613 140.49841584320529 0 0 0 0 91.532085167054902 -202.45831556136727 0 -202.45831556136727 224.62393098093162 0 0 0 0 82.40743187488988 -220.13769172597313 0 -220.13769172597313 278.63449628704984 0 0 0 0 15.651221521491451 -21.19374521919481 0 -21.19374521919481 19.719965884764008 0 0 0 0 -70.021294432097136 -90.015029330833201 0 -90.015029330833201 119.42268395576879 0 0 0 0 -174.40672245054157 -43.335235606406059 0 -43.335235606406059 90.051561789052357 0 0 0 0 -136.52035299892304 -87.997050807226515 0 -87.997050807226515 35.204958844260545 0 0 0 0 -125.4742540949519 -44.045078201321303 0 -44.045078201321303 84.792817497567739 0 0 0 0 -105.9944630129321 -66.600289733447426 0 -66.600289733447426 46.609904796870978 0 0 0 0 -68.783937566693552 -23.338211277921637 0 -23.338211277921637 31.451045506751726 0 0 0 0 -24.923017898262589 -55.598984207234494 0 -55.598984207234494 40.079473460660864 0 0 0 0 -123.48140956307907 -56.746518216947152 0 -56.746518216947152 59.158644998533418 0 0 0 0 -29.183937493263784 -96.909282100390101 0 -96.909282100390101 61.247269781008072 0 0 0 0 -16.187310773961471 -69.271998330724372 0 -69.271998330724372 8.1796808343342775 0 0 0 0 -17.383901769644581 -114.54462968064399 0 -114.54462968064399 37.167564780509565 0 0 0 0 -90.832283568448929 -109.18269047547619 0 -109.18269047547619 2.6077338349059573 0 0 0 0 -15.712571629547629 -26.427550965961217 0 -26.427550965961217 18.745251315494329 0 0 0 0 -424.62328046252696 -373.59175934530231 0 -373.59175934530231 229.13662808494701 0 0 0 0 275.84403260925592 -393.19034612143787 0 -393.19034612143787 22.183413547289092 0 0 0 0 13.547700379332312 -38.442656039875772 0 -38.442656039875772 21.121734937986105 0 0 0 0 -312.76043869703426 -137.82438606818323 0 -137.82438606818323 124.33628099090129 0 0 0 0 361.8369876397046 -142.76701876556035 0 -142.76701876556035 62.982888708647806 0 0 0 0 -157.66283210844267 -190.48398468271625 0 -190.48398468271625 160.5014245522616 0 0 0 0 -12.75618396380068 -96.120117638835865 0 -96.120117638835865 -7.0115025071832733 0 0 0 0 -155.51511485643277 -186.09430426764447 0 -186.09430426764447 73.920220165353385 0 0 0 0 34.745816400041804 -187.44025477865216 0 -187.44025477865216 75.574167721293634 0 0 0 0 122.14435169324861 -234.40298031681232 0 -234.40298031681232 252.69358892558375 0 0 0 0 118.82176084519898 -138.98254749742736 0 -138.98254749742736 -43.278324242111772 0 0 0 0 106.15081143112911 -230.6516861045875 0 -230.6516861045875 261.87300361181769 0 0 0 0 43.804136501799803 -238.76047442647541 0 -238.76047442647541 49.516390973680245 0 0 0 0 248.90742583486644 -241.83360128443564 0 -241.83360128443564 28.011869084162754 0 0 0 0 68.909858219987655 -212.64558082127041 0 -212.64558082127041 13.023295149956539 0 0 0 0 -36.577003919715935 -243.48115855491778 0 -243.48115855491778 74.160097240986943 0 0 0 0 25.130018410438034 -49.104507801738706 0 -49.104507801738706 74.477824203345222 0 0 0 0 46.395244165587087 -72.514512362664448 0 -72.514512362664448 -41.26558808100188 0 0 0 0 -33.688757555337361 -113.66561198103955 0 -113.66561198103955 -12.863284713646863 0 0 0 0 -16.909632639009942 -93.394242987713369 0 -93.394242987713369 11.198703306128664 0 0 0 0 -34.540152223532459 -105.26267971493962 0 -105.26267971493962 14.890086226645508 0 0 0 0 -45.227100604686711 -102.53943336795055 0 -102.53943336795055 33.188035693850907 0 0 0 0 -38.341322872609453 -106.38055439901291 0 -106.38055439901291 11.684197929746006 0 0 0 0 -59.106537759096682 -96.438334698137623 0 -96.438334698137623 51.032899588955843 0 0 0 0 -26.05493471376758 -70.420837414243579 0 -70.420837414243579 9.7125567939947359 0 0 0 0 -45.476184494953486 -91.102593307350617 0 -91.102593307350617 1.40421697815691 0 0 0 0 -55.839502771426851 -115.4301176519225 0 -115.4301176519225 -22.020208290901792 0 0 0 0 -48.010722580460424 -82.794620252800087 0 -82.794620252800087 -74.642470369610237 0 0 0 0 -67.442556245974387 -98.644696820728669 0 -98.644696820728669 -26.021252887793977 0 0 0 0 83.036448588609346 -317.36596285153792 0 -317.36596285153792 -202.99156764939835 0 0 0 0 -44.609906758614557 -88.616518165806937 0 -88.616518165806937 -29.520198382098023 0 0 0 0 202.87847116944613 91.553656193151255 0 91.553656193151255 -445.03729888129601 0 0 0 0 -93.63442903464238 -144.08355055364154 0 -144.08355055364154 -72.226304602620075 0 0 0 0 -43.009466360999795 -90.558451393515497 0 -90.558451393515497 -12.466380983467388 0 0 0 0 -31.430362611747114 -92.315990045721264 0 -92.315990045721264 -71.409414715277308 0 0 0 0 -11.890828131130547 -94.36777809601881 0 -94.36777809601881 -41.135435584466904 0 0 0 0 -25.493315833919667 -83.306140030365853 0 -83.306140030365853 -27.381136896720662 0 0 0 0 -23.739805987424916 -0.88091194388834992 0 -0.88091194388834992 -207.38342795177959 0 0 0 0 40.3179722249115 -107.63801160517687 0 -107.63801160517687 -15.158044569088815 0 0 0 0 -98.262399256287608 -87.687308516295161 0 -87.687308516295161 -147.52270254472387 0 0 0 0 -4.9933447536188282 -88.900934193844293 0 -88.900934193844293 -29.800570297022247 0 0 0 0 -93.129695100142271 -105.50780982614378 0 -105.50780982614378 -159.00019112527661 0 0 0 0 62.881479996584936 -50.332387853071161 0 -50.332387853071161 -102.58374635293842 0 0 0 0 146.60229838153464 43.549614583200309 0 43.549614583200309 -226.31396575301187 0 0 0 0 37.955599507753504 -99.004124023675104 0 -99.004124023675104 7.3232317934307503 0 0 0 0 52.140638953467715 -124.64884654680282 0 -124.64884654680282 -15.490177378134831 0 0 0 0 -25.768317619316804 -100.82945701869539 0 -100.82945701869539 -1.8401078141105245 0 0 0 0 37.430570067994267 -90.725857440957043 0 -90.725857440957043 -9.8830931478623825 0 0 0 0 -73.137423572314106 -82.230256970949995 0 -82.230256970949995 -31.536632758608903 0 0 0 0 -3.1480979067231778 -10.418030387320648 0 -10.418030387320648 -11.242320455840542 0 0 0 0 -128.64499013898001 -125.43083858663158 0 -125.43083858663158 -50.631251720613363 0 0 0 0 -22.119196920875478 -45.109198579785456 0 -45.109198579785456 -32.23499192688373 0 0 0 0 -24.399848068184781 -91.455201603290334 0 -91.455201603290334 -58.249822506462806 0 0 0 0 -0.58540973199706059 -90.158218994940398 0 -90.158218994940398 -39.472486996364751 0 0 0 0 62.10086922973278 -75.287011895590695 0 -75.287011895590695 -53.236365838893107 0 0 0 0 -3.3576958401331325 -75.838803085376711 0 -75.838803085376711 -44.314905367645764 0 0 0 0 17.986718357909673 -69.02831754429107 0 -69.02831754429107 -48.982615025854471 0 0 0 0 -11.66014088820463 -108.49072733538029 0 -108.49072733538029 -22.608778346144476 0 0 0 0 -17.814306512180085 -19.21984724994212 0 -19.21984724994212 0.37761091181423012 0 0 0 0 -39.519037377739856 -70.264764356495135 0 -70.264764356495135 -25.874150534394545 0 0 0 0 -21.286779581338919 -60.577613248573471 0 -60.577613248573471 -67.023787932099367 0 0 0 0 -58.021008370331629 -108.54537618714676 0 -108.54537618714676 -6.3438140427861072 0 0 0 0 -161.09360465955717 28.613465992202691 0 28.613465992202691 -24.745217084448086 0 0 0 0 -30.770110157095061 -108.29686785210833 0 -108.29686785210833 -117.32441457040841 0 0 0 0 -1.4699012137934915 -199.93444040356553 0 -199.93444040356553 184.15833656800305 0 0 0 0 1.8038064514259755 -1.2754526562112076 0 -1.2754526562112076 3.4295488549640254 0 0 0 0 -61.360846423370845 53.571467686175311 0 53.571467686175311 -73.137617040811165 0 0 0 0 -121.70480132843454 -41.367694451382704 0 -41.367694451382704 195.0918950913474 0 0 0 0 80.139934088861963 -595.12497818240809 0 -595.12497818240809 183.75350238614192 0 0 0 0 -117.38998232223844 -53.78546595019634 0 -53.78546595019634 68.103419786923041 0 0 0 0 -146.31505988190111 -48.686302752361371 0 -48.686302752361371 26.227375736205431 0 0 0 0 -163.26343881448952 -107.45932378287762 0 -107.45932378287762 102.08854154425899 0 0 0 0 55.123701347451288 -64.458184555014668 0 -64.458184555014668 -169.50442163581465 0 0 0 0 34.581234702315896 -80.740218083046784 0 -80.740218083046784 -68.637380494197714 0 0 0 0 274.16428607292301 -95.450365618351498 0 -95.450365618351498 -74.345488020291668 0 0 0 0 -17.068017186145696 -109.49411824974615 0 -109.49411824974615 4.953546264936449 0 0 0 0 -44.807457969135442 -58.221113134197651 0 -58.221113134197651 -13.029097857282125 0 0 0 0 55.3332287936272 -239.03238070674252 0 -239.03238070674252 -108.31622994070494 0 0 0 0 28.537567305200355 -99.423514831916691 0 -99.423514831916691 3.3343675588730548 0 0 0 0 -27.308691520302091 -90.513535793788833 0 -90.513535793788833 18.995517565504997 0 0 0 0 -31.051472534494678 -92.795082094813552 0 -92.795082094813552 17.96691347201704 0 0 0 0 170.25973786086388 -98.343861692179416 0 -98.343861692179416 -4.2512097342550987 0 0 0 0 11.196956299881121 -16.05537051990396 0 -16.05537051990396 0.27714920987384062 0 0 0 0 -46.0505602336588 -53.63306560851403 0 -53.63306560851403 8.0517678909206722 0 0 0 0 43.311929419131957 -117.34427638269699 0 -117.34427638269699 90.722982852203131 0 0 0 0 69.016950652190189 -23.486205574441556 0 -23.486205574441556 70.361073576671515 0 0 0 0 -46.316591790001553 -62.95136549610379 0 -62.95136549610379 84.79120963463356 0 0 0 0 35.215183458841125 34.373007018606586 0 34.373007018606586 -54.583930701453937 0 0 0 0 -2.5730935889548174 -0.57345033492013897 0 -0.57345033492013897 -2.4959412566189201 0 0 0 0 -169.08235483703538 -196.78731861016422 0 -196.78731861016422 20.573359748632356 0 0 0 0 -135.69972723731644 -94.898256771928573 0 -94.898256771928573 84.277396667588619 0 0 0 0 27.00720164427328 -106.83294863445917 0 -106.83294863445917 -28.976259960421885 0 0 0 0 -12.657004464660076 -189.07004827627316 0 -189.07004827627316 -179.68697338152697 0 0 0 0 -59.737811588686881 -114.27007628142928 0 -114.27007628142928 28.837231286641327 0 0 0 0 -52.692621904688394 -99.345575643859775 0 -99.345575643859775 46.549446817640273 0 0 0 0 -52.879113709185958 -96.114007766529539 0 -96.114007766529539 40.423456523298228 0 0 0 0 -15.73138000844574 -64.273925185527332 0 -64.273925185527332 33.54550060465408 0 0 0 0 -48.162653338839448 -86.908116121860076 0 -86.908116121860076 50.655240307012718 0 0 0 0 -30.413272798074019 -94.677687192412122 0 -94.677687192412122 26.363135850755498 0 0 0 0 -3.7464791833215751 -49.880536070481256 0 -49.880536070481256 38.016648056045454 0 0 0 0 -25.682999706777935 -84.914288266779749 0 -84.914288266779749 11.188028815464349 0 0 0 0 11.185824682929727 -45.063644694919553 0 -45.063644694919553 38.809525512397641 0 0 0 0 -21.209351924020439 -58.299353806643921 0 -58.299353806643921 42.384322164420155 0 0 0 0 -21.349466553152524 -417.98421374833561 0 -417.98421374833561 90.793358744631405 0 0 0 0 339.90868235336939 262.38745628499692 0 262.38745628499692 -85.623107631123275 0 0 0 0 -140.28324099990459 75.044836752498668 0 75.044836752498668 20.425321181754043 0 0 0 0 -68.13009717802197 100.93335772155478 0 100.93335772155478 430.68019623489545 0 0 0 0 -37.259324291604571 12.925885953194665 0 12.925885953194665 3.7183743883433635 0 0 0 0 37.957674021864023 -79.173764404042231 0 -79.173764404042231 87.109808524612163 0 0 0 0 23.571407254408768 -76.222562216204096 0 -76.222562216204096 90.909941528512718 0 0 0 0 105.16393931714265 -67.29329311174115 0 -67.29329311174115 -295.3161800158523 0 0 0 0 7.7426768759238342 -52.231930876782044 0 -52.231930876782044 52.955717995099498 0 0 0 0 -24.19925701306903 -81.366139526326492 0 -81.366139526326492 36.152292154090787 0 0 0 0 0.85140837258950341 -78.324075451913814 0 -78.324075451913814 81.348613044829108 0 0 0 0 -37.608348402201372 -46.972604598804566 0 -46.972604598804566 80.871642050921949 0 0 0 0 16.694907489189063 -38.525525304241455 0 -38.525525304241455 51.691510005613964 0 0 0 0 620.78317698832689 -816.97326696681193 0 -816.97326696681193 310.4166362540368 0 0 0 0 465.41113186209077 -692.38744775885152 0 -692.38744775885152 666.21941338399847 0 0 0 0 61.636924658308999 -852.87793266633707 0 -852.87793266633707 689.82335476496792 0 0 0 0 103.01473059314731 -768.38565205895156 0 -768.38565205895156 650.66204088172526 0 0 0 0 907.60169636683349 -1005.1127883091358 0 -1005.1127883091358 336.49402610763354 0 0 0 0 205.60244833892648 -1167.1162323139588 0 -1167.1162323139588 757.38260942827765 0 0 0 0 1315.0322632205625 -1216.9313102864398 0 -1216.9313102864398 368.4188559513168 0 0 0 0 -25.575647664557039 -86.086778135922941 0 -86.086778135922941 22.371355547846179 0 0 0 0 -43.105538058685454 -46.20234794734661 0 -46.20234794734661 -26.385120427289891 0 0 0 0 -0.97427099456671007 -95.386895331874484 0 -95.386895331874484 6.3360676406373386 0 0 0 0 -26.195002164121775 -88.828432882990455 0 -88.828432882990455 22.900331585115055 0 0 0 0 -1.2071945492224927 -107.73998958621024 0 -107.73998958621024 20.488387461780803 0 0 0 0 -50.545164536840772 -44.030030659541751 0 -44.030030659541751 -37.61091408275496 0 0 0 0 -13.310441002031439 -87.889073190597628 0 -87.889073190597628 20.199582141081919 0 0 0 0 -1.5896537071504326 -86.35141649399884 0 -86.35141649399884 -17.573864926860551 0 0 0 0 -16.538582607568799 -119.34807385315798 0 -119.34807385315798 -31.248045585482032 0 0 0 0 -2.9354035773348244 -93.183736013670568 0 -93.183736013670568 6.4676848816823167 0 0 0 0 23.776298456867835 -84.406752717393829 0 -84.406752717393829 -73.912210043570667 0 0 0 0 31.825083372452241 -62.054417518429545 0 -62.054417518429545 -17.283162771573245 0 0 0 0 -30.239287109862062 -59.645107570151595 0 -59.645107570151595 54.182383590920836 0 0 0 0 -57.33913963383192 -48.545809955916411 0 -48.545809955916411 -36.757668606502335 0 0 0 0 1.7498624148436193 -108.60431230282848 0 -108.60431230282848 47.495259536077356 0 0 0 0 359.0047080454824 -744.17286462869015 0 -744.17286462869015 674.93133706213848 0 0 0 0 16.53884498245543 -345.28893757663354 0 -345.28893757663354 157.15939723709016 0 0 0 0 -564.32967447827946 -167.98224475164352 0 -167.98224475164352 145.1656535553484 0 0 0 0 -175.41401806031399 57.414717447702969 0 57.414717447702969 -38.722986042914272 0 0 0 0 31.791657509655579 -57.188699191901833 0 -57.188699191901833 -72.711809817935318 0 0 0 0 35.345007019125546 -48.854915191732289 0 -48.854915191732289 -54.59211174333177 0 0 0 0 -240.15879330936878 -390.5162868436928 0 -390.5162868436928 -224.03574676353674 0 0 0 0 -125.9188346748715 198.21281422101674 0 198.21281422101674 -485.60314131918858 0 0 0 0 66.783690041694854 -28.171562603092752 0 -28.171562603092752 -38.214622300751216 0 0 0 0 -66.740876250450611 -32.305857550811197 0 -32.305857550811197 -18.395921396753693 0 0 0 0 62.864294998793412 -70.458073327761667 0 -70.458073327761667 -52.32669794453227 0 0 0 0 -4.4535535061285998 -23.490227582296029 0 -23.490227582296029 -54.468398719414836 0 0 0 0 96.069691378531388 -117.70760978145336 0 -117.70760978145336 -156.58608785834076 0 0 0 0 107.06386263090781 -171.43255562608829 0 -171.43255562608829 42.487917823236785 0 0 0 0 166.91658677007683 -134.3439853744494 0 -134.3439853744494 27.514597651737859 0 0 0 0 73.2695060349198 -60.996156754918047 0 -60.996156754918047 -44.099391898547765 0 0 0 0 384.80168353864156 -91.691601182663362 0 -91.691601182663362 -56.371898426164989 0 0 0 0 -512.80350967098036 -214.56481301158419 0 -214.56481301158419 145.05223873532668 0 0 0 0 -0.24646287897962227 1.9310008434519546 0 1.9310008434519546 -1.1426751889851801 0 0 0 0 50.890442127120821 -162.35692355944593 0 -162.35692355944593 93.669427275774069 0 0 0 0 237.36927611319277 -244.50672873938311 0 -244.50672873938311 15.980149543080188 0 0 0 0 140.98884038297388 92.248923906863638 0 92.248923906863638 -43.80446906479483 0 0 0 0 144.21760340326216 -36.211605169653922 0 -36.211605169653922 15.861470684772939 0 0 0 0 60.696718613469329 -275.51775886465475 0 -275.51775886465475 -59.597624697915307 0 0 0 0 54.620377499794927 -211.26151507126633 0 -211.26151507126633 128.2224735833297 0 0 0 0 52.206800704970419 -188.18746180151356 0 -188.18746180151356 30.806823951114211 0 0 0 0 9.3252773400108708 -116.95921942197674 0 -116.95921942197674 -75.123226733856427 0 0 0 0 -74.536869937195604 -79.276062814388752 0 -79.276062814388752 49.198785766871879 0 0 0 0 -0.33916336082149634 -17.66696015031269 0 -17.66696015031269 -29.368295329198631 0 0 0 0 30.747178452674611 -53.521338149364965 0 -53.521338149364965 -45.380873068155779 0 0 0 0 -14.441382783553195 -42.443970901993453 0 -42.443970901993453 -28.021268200609484 0 0 0 0 17.092777500654442 -27.592728945553972 0 -27.592728945553972 -80.789459695923142 0 0 0 0 5.0289882573688374 -73.094954113468702 0 -73.094954113468702 8.5537325929617509 0 0 0 0 -297.59201527355845 -164.51483024374102 0 -164.51483024374102 254.49189503327943 0 0 0 0 147.60623568024812 -103.60866906499359 0 -103.60866906499359 -11.823175853693101 0 0 0 0 75.091552655851501 -351.30949116749616 0 -351.30949116749616 139.00710286010144 0 0 0 0 171.47015051563449 -215.17637667739473 0 -215.17637667739473 -123.1375663874569 0 0 0 0 -0.0304606314380651 -2.2231163409700088 0 -2.2231163409700088 2.5058246520138425 0 0 0 0 -59.899104271135343 -155.83846583584636 0 -155.83846583584636 330.29885263575125 0 0 0 0 -15.890079764140637 -277.15186161647034 0 -277.15186161647034 168.05246831129625 0 0 0 0 -307.69094594627222 -204.43802400705681 0 -204.43802400705681 323.82691500653164 0 0 0 0 -32.761387682927918 -89.421263653079663 0 -89.421263653079663 -30.139376587502454 0 0 0 0 52.730985538706136 -143.02491505152648 0 -143.02491505152648 -42.729861703868664 0 0 0 0 -77.450042836750981 -164.48465984987342 0 -164.48465984987342 57.788052097173932 0 0 0 0 -59.52305468186114 -80.087253427613177 0 -80.087253427613177 -70.997304650407386 0 0 0 0 170.55697956518543 -125.72717791722607 0 -125.72717791722607 -251.16828947197064 0 0 0 0 90.783063444423078 -29.336456910958077 0 -29.336456910958077 1.466978582291631 0 0 0 0 47.191429688067728 -246.80204014964693 0 -246.80204014964693 -157.04597475506307 0 0 0 0 98.011831758330118 -297.40242853956443 0 -297.40242853956443 -215.63873305675224 0 0 0 0 43.427058256628698 -253.20538185809346 0 -253.20538185809346 -167.83278779135435 0 0 0 0 -1044.8778214489903 608.00325608070125 0 608.00325608070125 -100.11670298940953 0 0 0 0 -179.82251670646292 -370.46722731560294 0 -370.46722731560294 -133.29280517666484 0 0 0 0 18.963261309379959 -418.63891136273742 0 -418.63891136273742 -371.66408582634904 0 0 0 0 12.605352535279962 -181.20342121689464 0 -181.20342121689464 -129.97916999520385 0 0 0 0 -35.056445347041517 -259.71578026168572 0 -259.71578026168572 -49.780554227516404 0 0 0 0 -16.831263378426229 -339.41770210878167 0 -339.41770210878167 -192.60251083916228 0 0 0 0 4.2256810527778725 -322.48245371200755 0 -322.48245371200755 -179.89205822447548 0 0 0 0 -15.860512252108947 -280.23179649823942 0 -280.23179649823942 -145.11203246589866 0 0 0 0 113.45157660440054 -262.38840501922823 0 -262.38840501922823 -233.19125369581889 0 0 0 0 26.649738400244132 -359.72269461538235 0 -359.72269461538235 -339.06848684318538 0 0 0 0 255.38850516163257 -195.51897783079039 0 -195.51897783079039 -411.50569422703848 0 0 0 0 253.30824820156613 8.2416802668740274 0 8.2416802668740274 -178.98738230537856 0 0 0 0 113.46938585634484 -75.637919556527777 0 -75.637919556527777 -229.21427415459766 0 0 0 0 80.180575834081537 -159.65564547057147 0 -159.65564547057147 -136.35933042867691 0 0 0 0 -824.45693116124403 -10.368380324594909 0 -10.368380324594909 -19.837384900662983 0 0 0 0 -2.5054689775786585 -4.1008301156166453 0 -4.1008301156166453 -8.6748401443848593 0 0 0 0 -720.19450157376014 -582.32636556698708 0 -582.32636556698708 -203.01723665119061 0 0 0 0 -83.750354304789653 -316.43650871964928 0 -316.43650871964928 -109.95388928308967 0 0 0 0 -86.430153426575998 -337.03992262708925 0 -337.03992262708925 -190.81717332568951 0 0 0 0 -125.63029958046172 -0.89950545498868451 0 -0.89950545498868451 -20.546984539905679 0 0 0 0 -159.97535378370685 -48.275826135090028 0 -48.275826135090028 56.41546081652632 0 0 0 0 -308.37937863830393 -248.20588627668621 0 -248.20588627668621 -42.530219669555663 0 0 0 0 -219.48158619212154 4.4479960219468921 0 4.4479960219468921 47.596577799165971 0 0 0 0 -91.093878974534164 -37.468733242700182 0 -37.468733242700182 46.453140556026483 0 0 0 0 -55.803944734127981 -123.91658060547343 0 -123.91658060547343 28.166809830341663 0 0 0 0 -75.241286019281688 -187.10842530729133 0 -187.10842530729133 -55.853543255798286 0 0 0 0 -45.89768111491685 -120.04410453529272 0 -120.04410453529272 18.367809538831352 0 0 0 0 -32.384205114585939 -87.922023701234139 0 -87.922023701234139 -134.9207998569691 0 0 0 0 -40.529755301550594 -89.498834484068823 0 -89.498834484068823 -17.682420147977538 0 0 0 0 -52.281992368873034 -88.200240929276333 0 -88.200240929276333 141.12723733171151 0 0 0 0 -25.776278797205123 -64.275154392642435 0 -64.275154392642435 -37.918503800137842 0 0 0 0 -22.044843665338238 -43.390919253104499 0 -43.390919253104499 1.0601794578806576 0 0 0 0 -18.282558894496642 -43.278511791067459 0 -43.278511791067459 16.094819227778345 0 0 0 0 -5.2018197300039901 -68.137683768029092 0 -68.137683768029092 -31.003327142145281 0 0 0 0 -4.9872026216071124 -48.534727391243379 0 -48.534727391243379 -25.879293583278951 0 0 0 0 -22.462056648626458 -66.064075022230099 0 -66.064075022230099 -19.264465793399722 0 0 0 0 -5.2264048499491764 -47.643579992683954 0 -47.643579992683954 -1.4200131073303055 0 0 0 0 7.3018018911535307 -24.66696777865242 0 -24.66696777865242 -50.75766218081111 0 0 0 0 36.111559972856412 -79.963318170928687 0 -79.963318170928687 -45.711374558333773 0 0 0 0 -20.074298716005455 -43.022933961017593 0 -43.022933961017593 -25.825937629067766 0 0 0 0 0.8513113834651449 -62.717955515327048 0 -62.717955515327048 -26.206381190539105 0 0 0 0 45.474297622889935 -63.2718600424123 0 -63.2718600424123 -23.035020912539039 0 0 0 0 53.238220602921501 -54.759017027739901 0 -54.759017027739901 -44.237875841063214 0 0 0 0 13.430550845750886 -34.0703328679691 0 -34.0703328679691 -18.894883878438435 0 0 0 0 209.20048926914023 -32.8319128016592 0 -32.8319128016592 -41.943312765477458 0 0 0 0 -4.2285563477431012 -6.8925369937070116 0 -6.8925369937070116 -8.6996991228506602 0 0 0 0 -5.2658198421106066 -9.9311130218043218 0 -9.9311130218043218 -3.1716807967432032 0 0 0 0 -24.89681205404122 -24.523744849473587 0 -24.523744849473587 25.054064340758487 0 0 0 0 29.371459078705811 -28.494360136450268 0 -28.494360136450268 -55.799998502421658 0 0 0 0 12.406058084678079 -60.941131723680883 0 -60.941131723680883 -75.526193230762146 0 0 0 0 -15.316312865747197 -30.166373729029644 0 -30.166373729029644 22.791050991054249 0 0 0 0 -137.34222103176725 -105.94204838347628 0 -105.94204838347628 -51.133559730442357 0 0 0 0 -36.929437739898276 -31.412834566410311 0 -31.412834566410311 -63.438088589231484 0 0 0 0 54.099068139525656 -123.99928186954281 0 -123.99928186954281 -54.69173345877789 0 0 0 0 -137.09744627252076 -129.95370083148737 0 -129.95370083148737 -72.962063495855546 0 0 0 0 30.526455563943017 -38.962859798305793 0 -38.962859798305793 7.3785760151822046 0 0 0 0 -155.01815422382788 -136.70240185034345 0 -136.70240185034345 -66.715017357550096 0 0 0 0 31.581571033346421 5.1346842896532507 0 5.1346842896532507 -19.462238447358914 0 0 0 0 54.893726907481323 -132.37660476019664 0 -132.37660476019664 95.555521343281725 0 0 0 0 -4.7508586554467911 -45.580477735042223 0 -45.580477735042223 -29.492111373456282 0 0 0 0 34.01460736768221 -28.098101147214031 0 -28.098101147214031 13.038825110006258 0 0 0 0 -89.331408331956482 -122.24887524912629 0 -122.24887524912629 30.139188791246852 0 0 0 0 -96.175278915208764 -85.562838235870004 0 -85.562838235870004 -42.456676041139872 0 0 0 0 -189.43088161793639 -211.61481127025763 0 -211.61481127025763 10.22452592899208 0 0 0 0 -33.732635885637137 -21.587309083006403 0 -21.587309083006403 17.370669573472696 0 0 0 0 -0.99676921375794336 -54.711790542132803 0 -54.711790542132803 -16.901695464439399 0 0 0 0 95.362316994025605 -2.2323317641566973 0 -2.2323317641566973 62.527653066816129 0 0 0 0 -2.1634945354471711 -55.800655153230764 0 -55.800655153230764 53.751944603398442 0 0 0 0 13.2176214654246 -29.881786993184505 0 -29.881786993184505 9.3364116617376567 0 0 0 0 62.478217383781157 -2.8450222960964311 0 -2.8450222960964311 20.710063288490346 0 0 0 0 -11.59013748219877 -53.060676669338136 0 -53.060676669338136 12.50199771305779 0 0 0 0 10.805618897880777 -25.284311808412895 0 -25.284311808412895 4.8754953470051987 0 0 0 0 -51.343199921204359 -61.49616132815936 0 -61.49616132815936 16.299711251122062 0 0 0 0 -24.558725118518637 -20.299610168826234 0 -20.299610168826234 -7.5337210036463773 0 0 0 0 -7.6067136839294136 -15.191285135185041 0 -15.191285135185041 -18.436159187361 0 0 0 0 1.6256758314848412 2.5005822229577461 0 2.5005822229577461 49.371794520819094 0 0 0 0 71.154580697827669 -136.78272582927912 0 -136.78272582927912 130.48716490220977 0 0 0 0 -41.963247659290573 -68.920702357107075 0 -68.920702357107075 6.7878282331657829 0 0 0 0 69.30395684490577 -126.5340609770501 0 -126.5340609770501 119.54651869149529 0 0 0 0 135.79306875233942 -95.375188969104784 0 -95.375188969104784 52.893700899352552 0 0 0 0 0.93128266067287768 44.301090230153932 0 44.301090230153932 27.259752082580235 0 0 0 0 50.248328396488432 -38.268006426857028 0 -38.268006426857028 43.780593225266784 0 0 0 0 45.190819234761875 -39.693505046408973 0 -39.693505046408973 67.471534618183796 0 0 0 0 -9.1987576504379831 -71.661711135377118 0 -71.661711135377118 181.09030350994726 0 0 0 0 -36.825995552204404 -2.0091012482662336 0 -2.0091012482662336 107.02570134132111 0 0 0 0 191.0886524677635 -283.83314556520418 0 -283.83314556520418 -162.05566521489527 0 0 0 0 -666.90098151046845 -757.22659820825174 0 -757.22659820825174 -299.37840957439039 0 0 0 0 64.388679241128557 -49.920250717514136 0 -49.920250717514136 -137.49461328708276 0 0 0 0 -3.7521780411596239 -6.6056372574959994 0 -6.6056372574959994 -5.7553352015592054 0 0 0 0 243.14843081992149 -591.54778484797862 0 -591.54778484797862 -169.70152979878912 0 0 0 0 -386.4998958500164 -46.338149643259385 0 -46.338149643259385 145.15185601015401 0 0 0 0 100.18821293269866 -57.205707541259471 0 -57.205707541259471 668.90393313590903 0 0 0 0 265.49887715321529 -541.39644038793631 0 -541.39644038793631 656.55407313758496 0 0 0 0 -17.141493387203724 -12.634691173415575 0 -12.634691173415575 -8.3992134913877123 0 0 0 0 64.007051890596586 -61.449688937153383 0 -61.449688937153383 28.775989416157245 0 0 0 0 209.94528862340667 -296.23946662242088 0 -296.23946662242088 380.15231322665932 0 0 0 0 130.78554379815978 -513.61380627359176 0 -513.61380627359176 644.09944303194061 0 0 0 0 251.87356799496774 -546.19641272562876 0 -546.19641272562876 419.40333093836671 0 0 0 0 166.06685632125391 -416.40991661407679 0 -416.40991661407679 500.54757532893564 0 0 0 0 213.97216521711016 -365.71601851053128 0 -365.71601851053128 152.5917773299152 0 0 0 0 185.17210521023617 -533.55105062590064 0 -533.55105062590064 103.31489078358572 0 0 0 0 -13.125939730867685 -487.92979699881835 0 -487.92979699881835 95.850199888867792 0 0 0 0 162.87543620810902 -449.35720873095852 0 -449.35720873095852 -49.089531157267629 0 0 0 0 135.78466789888625 -490.70528214030492 0 -490.70528214030492 69.059370706523623 0 0 0 0 -764.93005717156598 -283.71857484604061 0 -283.71857484604061 752.68634618408396 0 0 0 0 -380.83212424472731 -862.41841770763858 0 -862.41841770763858 71.280558551756258 0 0 0 0 24.692233310101528 -603.10200987324242 0 -603.10200987324242 236.87596351079992 0 0 0 0 -334.73264079794899 -441.05966977218486 0 -441.05966977218486 166.07527533206667 0 0 0 0 3.9543162219742953 234.69146005567745 0 234.69146005567745 941.98451014627426 0 0 0 0 38.583802447619732 -27.802230015749387 0 -27.802230015749387 17.555642209682887 0 0 0 0 58.505116123688822 -81.495684341574815 0 -81.495684341574815 191.7598256156798 0 0 0 0 -3.618348909158783 210.60436009071418 0 210.60436009071418 2115.9936168247514 0 0 0 0 808.39288562798629 -786.25162487936177 0 -786.25162487936177 470.90172335119132 0 0 0 0 13.020412340850749 -9.1864212367634934 0 -9.1864212367634934 6.9743728086610588 0 0 0 0 872.75273796398596 -87.683321813805378 0 -87.683321813805378 -554.4681575445793 0 0 0 0 1038.6565670051286 -884.41707950780983 0 -884.41707950780983 233.29386136218091 0 0 0 0 -50.263372070789501 -168.66083708590304 0 -168.66083708590304 1174.701468258525 0 0 0 0 804.88939926270177 519.40335487232733 0 519.40335487232733 -24.356717392322025 0 0 0 0 446.28462255129125 -99.800264915946173 0 -99.800264915946173 -330.7894405213774 0 0 0 0 1253.4747290133641 22.412272452032994 0 22.412272452032994 -321.64130150506389 0 0 0 0 77.114614282430921 334.84967148789292 0 334.84967148789292 -44.80480572268425 0 0 0 0 501.35142465028639 207.29375568137038 0 207.29375568137038 -180.61975487513701 0 0 0 0 174.59761393721055 76.493141254480179 0 76.493141254480179 -229.77331995667191 0 0 0 0 376.80513439903757 -79.485346851177383 0 -79.485346851177383 -317.22031810726912 0 0 0 0 178.86117114654053 -603.26119361744531 0 -603.26119361744531 -779.13106148892257 0 0 0 0 -616.28812241470223 -949.0542152545022 0 -949.0542152545022 130.39328640955364 0 0 0 0 115.13536142638713 -41.914250301273569 0 -41.914250301273569 -322.89451356673089 0 0 0 0 356.48039387628523 -520.78483046452311 0 -520.78483046452311 397.65219066663121 0 0 0 0 -105.58883655241516 16.511796329978097 0 16.511796329978097 802.02760157327066 0 0 0 0 96.48279629501485 -19.445417199127405 0 -19.445417199127405 -96.156845663106651 0 0 0 0 50.695449189280225 202.46976288821497 0 202.46976288821497 322.68194583372679 0 0 0 0 -146.00075920083327 -44.439421232033055 0 -44.439421232033055 130.63203603788861 0 0 0 0 -321.44638932080852 -215.87699879009051 0 -215.87699879009051 138.71890293156321 0 0 0 0 -42.068995026391349 -51.428065004693053 0 -51.428065004693053 66.354725229219184 0 0 0 0 -39.377453476100527 -14.314366820736723 0 -14.314366820736723 557.5269353716576 0 0 0 0 -179.21825196884311 164.35112336532256 0 164.35112336532256 349.39138136310066 0 0 0 0 58.107286922961066 -361.81206537838443 0 -361.81206537838443 192.64532992683235 0 0 0 0 82.147171212236572 -80.102203276321234 0 -80.102203276321234 158.70777329079647 0 0 0 0 2.1097970375642561 7.7428890669581847 0 7.7428890669581847 2.9623840099743006 0 0 0 0 824.12302959595399 -650.07895519954036 0 -650.07895519954036 558.19166695533204 0 0 0 0 -171.37231155771588 197.61298328807607 0 197.61298328807607 38.493542206881102 0 0 0 0 -301.73795875228825 -47.497089826181764 0 -47.497089826181764 973.05614439997589 0 0 0 0 -903.13678027891001 -490.16453352306416 0 -490.16453352306416 -41.374561736316537 0 0 0 0 -107.33554955072213 -37.078071816524243 0 -37.078071816524243 167.10050668386975 0 0 0 0 -346.04976819944568 95.717900342908251 0 95.717900342908251 154.73134384903824 0 0 0 0 -350.06325626018952 -174.32547280661674 0 -174.32547280661674 -257.84972966791975 0 0 0 0 2.182734245166543 -10.804460980367843 0 -10.804460980367843 24.619358412839517 0 0 0 0 -813.41446157862811 -700.84298814031354 0 -700.84298814031354 63.982415239053807 0 0 0 0 103.10838565322047 -281.96947184493183 0 -281.96947184493183 184.32395641538824 0 0 0 0 630.48165680325837 -543.15021811497718 0 -543.15021811497718 -153.96947843805538 0 0 0 0 409.54156511250767 -752.51646428737149 0 -752.51646428737149 27.874806727770192 0 0 0 0 2.1422745659656357 -592.74423983031011 0 -592.74423983031011 23.384773246914847 0 0 0 0 331.91666693897423 -416.25675186050648 0 -416.25675186050648 -338.20498992796638 0 0 0 0 612.38894116855954 -607.36383071727323 0 -607.36383071727323 -339.85019026194641 0 0 0 0 623.31198845653762 -746.9140944689243 0 -746.9140944689243 -124.50296533491928 0 0 0 0 -128.53911809722922 -219.95588135666367 0 -219.95588135666367 -186.33778685063589 0 0 0 0 -943.31894870717952 -323.32385434592288 0 -323.32385434592288 1040.3790541752387 0 0 0 0 0.18587886592331415 -3.8883257897142087 0 -3.8883257897142087 11.998817974071756 0 0 0 0 -925.63277853504405 78.772890741034644 0 78.772890741034644 225.43087223629249 0 0 0 0 -58.613827976885659 -874.10372289941006 0 -874.10372289941006 1216.8982093891682 0 0 0 0 488.48282064965679 36.17079015391937 0 36.17079015391937 -49.57727571047144 0 0 0 0 -11.946424409215979 151.88264841978889 0 151.88264841978889 735.32826637603284 0 0 0 0 835.2344650318264 -829.54158817451753 0 -829.54158817451753 -108.74961831404653 0 0 0 0 268.19918287345354 -850.67901905074177 0 -850.67901905074177 818.68669028683507 0 0 0 0 121.50369681948359 -485.42844841810438 0 -485.42844841810438 140.09865990350954 0 0 0 0 -16.440496206058015 -192.72580580724025 0 -192.72580580724025 32.898188572595245 0 0 0 0 -70.810361336363712 -178.91146543053765 0 -178.91146543053765 170.47347606627591 0 0 0 0 -95.38463751261861 55.015428811631864 0 55.015428811631864 24.336235241542454 0 0 0 0 266.28509707922785 -261.57713373276056 0 -261.57713373276056 -15.977112207248865 0 0 0 0 30.262916475685799 -25.906151781997849 0 -25.906151781997849 5.7676000861929992 0 0 0 0 -19.28276652927525 -97.650340345760924 0 -97.650340345760924 -73.169486369399237 0 0 0 0 284.02309789401625 -289.45548993792909 0 -289.45548993792909 -125.16113725681862 0 0 0 0 452.72348812607106 -121.68555531747779 0 -121.68555531747779 -136.20482360708411 0 0 0 0 661.01891629229067 -679.15128731516597 0 -679.15128731516597 -5.5840860582975438 0 0 0 0 476.55838348146062 -503.67549265761045 0 -503.67549265761045 -158.22115119243972 0 0 0 0 900.62948247595341 -540.336743505497 0 -540.336743505497 -155.67574398579018 0 0 0 0 946.31458367576124 -540.0563674367877 0 -540.0563674367877 -175.25912328384584 0 0 0 0 795.56602293912874 -772.69426990579814 0 -772.69426990579814 159.05258288059849 0 0 0 0 905.67231530895515 -619.37109199198312 0 -619.37109199198312 102.02285369494348 0 0 0 0 884.83439953415655 -652.06313101996784 0 -652.06313101996784 505.13505860870646 0 0 0 0 1361.4508410939889 -891.63390361490019 0 -891.63390361490019 96.69355750491377 0 0 0 0 -127.06551101038804 -436.59074068569862 0 -436.59074068569862 1565.602693244291 0 0 0 0 1538.2734637655431 220.07820041014202 0 220.07820041014202 -277.489910631557 0 0 0 0 -7.424924212427527 -8.2465968864717283 0 -8.2465968864717283 7.4606688544879489 0 0 0 0 2178.8138764678442 -41.800083418813301 0 -41.800083418813301 -171.60921958672407 0 0 0 0 21.148834614126827 -285.17117860933649 0 -285.17117860933649 17.480464170686901 0 0 0 0 151.57123306934955 39.95271174897789 0 39.95271174897789 -89.240137788292486 0 0 0 0 902.45207693294583 -53.478825857138588 0 -53.478825857138588 -158.12210583279375 0 0 0 0 266.21118032892264 -555.14054492557625 0 -555.14054492557625 828.0793930232976 0 0 0 0 -156.15087659758865 -80.87571199744707 0 -80.87571199744707 1367.8407585739624 0 0 0 0 855.6099279864502 -1281.8594826609187 0 -1281.8594826609187 1633.2472158857272 0 0 0 0 537.24805679533165 -657.21382634366455 0 -657.21382634366455 848.43730751617113 0 0 0 0 1970.8311507403359 -1475.0826648169696 0 -1475.0826648169696 1108.8676079981087 0 0 0 0 556.56925250191853 -92.365064859230188 0 -92.365064859230188 1533.4621728028433 0 0 0 0 555.83506056792658 -63.750484294112539 0 -63.750484294112539 475.53134206664981 0 0 0 0 1817.131329521937 -277.16555373282245 0 -277.16555373282245 439.57833683516947 0 0 0 0 572.50711936041625 -138.67134566360619 0 -138.67134566360619 425.27345810129918 0 0 0 0 575.25674318874371 -216.17801688797772 0 -216.17801688797772 119.32087245662115 0 0 0 0 945.57428739830721 -468.66168057196774 0 -468.66168057196774 238.63382796033693 0 0 0 0 440.65396187792066 -367.77670636331823 0 -367.77670636331823 45.373374881004565 0 0 0 0 332.24347641720669 -305.47192546753649 0 -305.47192546753649 196.18369078730757 0 0 0 0 209.16314961605531 -286.2845995209791 0 -286.2845995209791 -136.28285407598742 0 0 0 0 203.67022592050398 -207.88200641348067 0 -207.88200641348067 -35.879561055582599 0 0 0 0 183.93341965835862 -79.626414911748725 0 -79.626414911748725 -109.48481218891902 0 0 0 0 300.67142536917891 -121.27208752436127 0 -121.27208752436127 -279.2485775474488 0 0 0 0 544.21163076191806 -27.455578610264638 0 -27.455578610264638 -28.891056118358392 0 0 0 0 210.70933216614503 -158.02050198680081 0 -158.02050198680081 -62.758967953330284 0 0 0 0 -118.87716242555325 56.962244620568526 0 56.962244620568526 122.15887249379011 0 0 0 0 288.12334462894614 -13.282076790792416 0 -13.282076790792416 -93.101578531044652 0 0 0 0 196.91919208438048 -58.662681656649511 0 -58.662681656649511 -266.74087285294081 0 0 0 0 16.443838191393297 -105.74776757087966 0 -105.74776757087966 -124.4500607604532 0 0 0 0 12.046988110852908 -80.600202421957874 0 -80.600202421957874 31.268320463117561 0 0 0 0 -97.069615265987522 -315.12246641380625 0 -315.12246641380625 -373.28650337649742 0 0 0 0 -404.95252982855891 -130.64934441234072 0 -130.64934441234072 67.925600845803274 0 0 0 0 -472.55440308157267 -63.904863545983972 0 -63.904863545983972 270.84841430189408 0 0 0 0 29.782874960568734 -35.864832101680804 0 -35.864832101680804 86.463576701604325 0 0 0 0 257.54822424722079 178.30714756103771 0 178.30714756103771 230.66141354829597 0 0 0 0 -201.27223882010367 -477.59457424397624 0 -477.59457424397624 357.32644785728189 0 0 0 0 28.839211796122981 0.94745023467839928 0 0.94745023467839928 62.158683633955661 0 0 0 0 128.58185169284116 -222.09717434934282 0 -222.09717434934282 496.29271868654178 0 0 0 0 339.4280028153662 -686.45390668651089 0 -686.45390668651089 863.5180582953617 0 0 0 0 1.694634759697351 -9.929257357011565 0 -9.929257357011565 23.524390639362196 0 0 0 0 -1138.8165214738583 -429.73702863553262 0 -429.73702863553262 193.45946830788307 0 0 0 0 -800.4823111558544 -476.18165255179883 0 -476.18165255179883 123.32279224283411 0 0 0 0 -29.159011130868748 -470.15253597674746 0 -470.15253597674746 -112.49437781503002 0 0 0 0 -0.10321167977635071 -3.1989203968257236 0 -3.1989203968257236 10.707510572085653 0 0 0 0 627.17383602351401 -711.8970280895428 0 -711.8970280895428 -272.60051401716191 0 0 0 0 -827.19116040242807 -35.803854637488257 0 -35.803854637488257 265.16956659619609 0 0 0 0 -370.39408423232453 -248.7542511984775 0 -248.7542511984775 -112.54360342843574 0 0 0 0 -398.7071153754016 -278.5893764682221 0 -278.5893764682221 400.20714138585754 0 0 0 0 -85.191016308512189 -636.00790194794172 0 -636.00790194794172 242.77668622843339 0 0 0 0 552.90276136871398 -607.28223143039213 0 -607.28223143039213 -983.41118278379145 0 0 0 0 12.574777346413441 -7.7908338390287497 0 -7.7908338390287497 -9.51986984148391 0 0 0 0 -81.659248456169735 -248.13152321951202 0 -248.13152321951202 265.30563505378268 0 0 0 0 609.22457431821022 480.55913675965712 0 480.55913675965712 -3045.0019230031903 0 0 0 0 1727.7223816321566 -1420.0959570562409 0 -1420.0959570562409 -88.080154053768638 0 0 0 0 1560.8398534659464 -1524.4424940578683 0 -1524.4424940578683 654.65638120775111 0 0 0 0 616.94871542137116 -797.50052192546718 0 -797.50052192546718 303.12149224812674 0 0 0 0 443.01473318679928 -1003.7526793671132 0 -1003.7526793671132 -154.65004902560759 0 0 0 0 461.21231998485018 -1136.3032850795062 0 -1136.3032850795062 302.53734053252265 0 0 0 0 -21.142328453914615 -324.20744038689145 0 -324.20744038689145 447.26631355669815 0 0 0 0 326.29803579234067 -539.4669092197546 0 -539.4669092197546 865.01742979999108 0 0 0 0 1855.1351785113147 -1961.1808739780026 0 -1961.1808739780026 2529.6266674248363 0 0 0 0 2779.3612867430566 -3513.9524187719799 0 -3513.9524187719799 3197.303881141881 0 0 0 0 2053.0312944698308 -2016.5362419998055 0 -2016.5362419998055 1997.778273259144 0 0 0 0 1597.8090180656754 -1583.5524308182339 0 -1583.5524308182339 2001.3860377980745 0 0 0 0 2202.6985693046008 -1965.1006613860081 0 -1965.1006613860081 2014.3372422981392 0 0 0 0 2525.5051408262675 -3347.1688774994263 0 -3347.1688774994263 3555.1549418710056 0 0 0 0 1925.5520886423274 -1812.9983122348167 0 -1812.9983122348167 1948.5515040153987 0 0 0 0 2024.2555360201986 -2016.9606822246096 0 -2016.9606822246096 2299.2925983608293 0 0 0 0 1647.9298399861545 -2093.9908477855352 0 -2093.9908477855352 2556.7908793314127 0 0 0 0 27.450642344083661 -19.798736431693698 0 -19.798736431693698 -28.080758485273464 0 0 0 0 43.609069569087296 372.48762302644172 0 372.48762302644172 -1484.7264313352789 0 0 0 0 130.62317118718238 -135.8182843049608 0 -135.8182843049608 -533.94458226663119 0 0 0 0 30.130663786289347 -29.599902391062756 0 -29.599902391062756 -43.17087250246891 0 0 0 0 1167.085257100272 -1515.8064402370971 0 -1515.8064402370971 1698.7942801073514 0 0 0 0 1167.7828460791898 -1620.6213332624138 0 -1620.6213332624138 2094.8182472437184 0 0 0 0 1845.2976469348905 -1617.9040071884956 0 -1617.9040071884956 1284.2378519241029 0 0 0 0 1562.7536016990343 -1902.7563579047637 0 -1902.7563579047637 1436.173526694507 0 0 0 0 1573.3516103372021 -1844.1881813050422 0 -1844.1881813050422 696.03041987292818 0 0 0 0 1392.5459725165383 -1841.8942724009939 0 -1841.8942724009939 1262.2935624583333 0 0 0 0 1245.6788597890918 -1485.9062999513044 0 -1485.9062999513044 711.62416846319684 0 0 0 0 1286.8263456637505 -1346.7297373965266 0 -1346.7297373965266 629.19189483702939 0 0 0 0 1132.8040523983509 -1087.5336279127223 0 -1087.5336279127223 999.59530095703667 0 0 0 0 1344.9545801771237 -1256.5348048775049 0 -1256.5348048775049 289.35079450477497 0 0 0 0 874.32436322556168 -1108.675065266114 0 -1108.675065266114 514.07140567562601 0 0 0 0 1187.451817517609 -1023.1122182212057 0 -1023.1122182212057 404.4467005210463 0 0 0 0 276.38393324780918 -827.14993034805229 0 -827.14993034805229 1318.7272658169823 0 0 0 0 27.621357329079515 -42.682405965631631 0 -42.682405965631631 -41.130520284658019 0 0 0 0 1046.3728393638812 -985.70557669180562 0 -985.70557669180562 853.33839992425055 0 0 0 0 41.543288244705764 -51.489489952320582 0 -51.489489952320582 -242.69896786739992 0 0 0 0 4.7465035855691298 0.045217253110280353 0 0.045217253110280353 -15.310046957296095 0 0 0 0 884.38139387590491 -1008.87286892681 0 -1008.87286892681 985.31140140147181 0 0 0 0 914.17709657892556 -1242.606778342335 0 -1242.606778342335 1447.739155134479 0 0 0 0 71.708817272796296 112.93468467894854 0 112.93468467894854 -660.44143824171624 0 0 0 0 -2.9632222929030831 56.342138379677635 0 56.342138379677635 -360.62988776150451 0 0 0 0 30.730048943325528 -95.68620137203834 0 -95.68620137203834 -339.34909866453927 0 0 0 0 89.71688425692264 -92.847811984789587 0 -92.847811984789587 -438.45103129350173 0 0 0 0 151.60574130037276 -61.214838648753357 0 -61.214838648753357 -337.92209727666523 0 0 0 0 88.323841393274051 -77.109411443228964 0 -77.109411443228964 -269.87361170745862 0 0 0 0 45.294717933349602 -14.88099660462467 0 -14.88099660462467 -256.57554431524477 0 0 0 0 68.632367881662503 -25.315099295272375 0 -25.315099295272375 -325.9432127486798 0 0 0 0 105.96593004395254 -72.150987335306127 0 -72.150987335306127 -270.27221007008666 0 0 0 0 82.648087935980584 -103.32320966510451 0 -103.32320966510451 -311.69686253643886 0 0 0 0 134.24277745084692 -149.9330174667848 0 -149.9330174667848 -279.57518983904447 0 0 0 0 175.71689478201006 -132.36882992326719 0 -132.36882992326719 -303.49305531207938 0 0 0 0 85.084371961434954 -297.50757733722639 0 -297.50757733722639 -381.70649265692919 0 0 0 0 149.90748118831834 -149.9889435090372 0 -149.9889435090372 -302.3524462661444 0 0 0 0 83.104533737561724 -156.08762561633193 0 -156.08762561633193 -240.52548187877983 0 0 0 0 -26.878720122171217 -166.76943935591407 0 -166.76943935591407 -265.59822398188408 0 0 0 0 117.18453779915399 -165.17338061074588 0 -165.17338061074588 -309.16509381801006 0 0 0 0 2.2687695494732907 -222.58199906623668 0 -222.58199906623668 -255.58778954406444 0 0 0 0 21.501150977439465 -102.17733533081991 0 -102.17733533081991 -90.910100559412967 0 0 0 0 -13.366254358177684 -146.64981034223456 0 -146.64981034223456 -109.66895028168801 0 0 0 0 31.031843121490965 -70.838956285275344 0 -70.838956285275344 -270.19344109953522 0 0 0 0 44.507064911107591 -99.241362902997935 0 -99.241362902997935 -210.60010767283529 0 0 0 0 -93.563876910295221 -126.22642980306409 0 -126.22642980306409 -7.7355393803736661 0 0 0 0 19.048194469776917 -54.229872617913784 0 -54.229872617913784 31.265463639339075 0 0 0 0 1.5052878837967398 -7.3059453885746279 0 -7.3059453885746279 13.340530257978628 0 0 0 0 207.04611785108864 -764.56389299016155 0 -764.56389299016155 371.30627683523926 0 0 0 0 -5.6250755435503379 -58.766675990867952 0 -58.766675990867952 25.84379115558113 0 0 0 0 215.45680512115359 -209.99994610004069 0 -209.99994610004069 -12.476145763852401 0 0 0 0 895.27290292964608 -972.55166812677635 0 -972.55166812677635 288.51646777024871 0 0 0 0 767.94546129824448 -742.57839969013548 0 -742.57839969013548 162.0042341791559 0 0 0 0 476.90519479798968 -396.20808905472222 0 -396.20808905472222 182.98145502441912 0 0 0 0 -110.38485146156745 -29.33904333621831 0 -29.33904333621831 111.68867169501027 0 0 0 0 179.4859322470511 -15.707224498793948 0 -15.707224498793948 -31.139692600729177 0 0 0 0 81.919170248096634 -106.3438833670989 0 -106.3438833670989 1.0603932228259509 0 0 0 0 45.97934756100949 -38.508299156208523 0 -38.508299156208523 -49.018710027041379 0 0 0 0 163.35947411874076 -132.41573501500534 0 -132.41573501500534 -137.5098050270899 0 0 0 0 878.97269135496754 -213.92574976640026 0 -213.92574976640026 -187.3632229565701 0 0 0 0 805.83819610079809 -403.93587246166135 0 -403.93587246166135 102.51589065240114 0 0 0 0 799.2255394168169 -249.52877586105024 0 -249.52877586105024 -196.97531105321468 0 0 0 0 278.47328432934592 172.83489113725955 0 172.83489113725955 -286.85860979356221 0 0 0 0 617.37881692295923 -327.21680056364858 0 -327.21680056364858 125.42074821187998 0 0 0 0 605.7497283617995 -399.41911265937233 0 -399.41911265937233 -42.870080655120546 0 0 0 0 1169.7069201003178 -910.12070038160891 0 -910.12070038160891 71.37425937113585 0 0 0 0 1464.3530672969137 -1139.5576098184538 0 -1139.5576098184538 199.19487453118199 0 0 0 0 1451.9140564922927 -1178.5645859698416 0 -1178.5645859698416 105.63214836677071 0 0 0 0 1203.7278686681821 -748.94130378506816 0 -748.94130378506816 20.990059199219104 0 0 0 0 1162.0737507965459 -754.56942570635874 0 -754.56942570635874 145.73597179730132 0 0 0 0 2249.116112787673 -376.39168619917473 0 -376.39168619917473 -202.9787400153873 0 0 0 0 1982.2786596581645 -1219.2081779225773 0 -1219.2081779225773 320.70421265022014 0 0 0 0 1811.633405808243 -1432.1735257149833 0 -1432.1735257149833 245.93406605132623 0 0 0 0 1826.648110197013 -976.12596663463046 0 -976.12596663463046 -14.15157436572008 0 0 0 0 1946.9537465783269 -1454.3197126979921 0 -1454.3197126979921 435.00602193488157 0 0 0 0 2119.1040122524573 -920.51078407830209 0 -920.51078407830209 623.23174457604182 0 0 0 0 -247.76097842852897 -58.079669885926705 0 -58.079669885926705 17.726967331283959 0 0 0 0 20.409537628597128 -58.184036127706527 0 -58.184036127706527 -9.8706366185127195 0 0 0 0 248.08547311603616 -218.67701269371901 0 -218.67701269371901 372.73690062538662 0 0 0 0 12.633797485446451 -17.853822066626748 0 -17.853822066626748 -7.669564078660926 0 0 0 0 939.90089125074519 797.95309879075648 0 797.95309879075648 -123.4822182180651 0 0 0 0 301.34269390959344 210.89221115930923 0 210.89221115930923 -444.78025382722262 0 0 0 0 3510.4422307036239 -1105.873226215881 0 -1105.873226215881 268.34285555410315 0 0 0 0 -10.159420745128379 -8.385165257856837 0 -8.385165257856837 4.8696164525030667 0 0 0 0 -401.37096735159503 -509.33469648068785 0 -509.33469648068785 704.89632647135295 0 0 0 0 -82.843499068906283 -35.329225452357434 0 -35.329225452357434 1.0543217204278221 0 0 0 0 3217.0482536245981 -1101.6414316159353 0 -1101.6414316159353 369.95794184372789 0 0 0 0 687.32187622177298 -1248.0222190074492 0 -1248.0222190074492 1139.3658936466018 0 0 0 0 2489.8815500924866 -729.79553267208394 0 -729.79553267208394 -0.96028138166002464 0 0 0 0 2429.2562554437945 -984.23679159321728 0 -984.23679159321728 233.92543394188397 0 0 0 0 2402.9928845880422 -1020.0291450717632 0 -1020.0291450717632 781.43708543491084 0 0 0 0 3120.2936008494726 -1352.1437082657649 0 -1352.1437082657649 497.24786769345519 0 0 0 0 3193.6916143084154 -979.35029657050654 0 -979.35029657050654 498.95410907609039 0 0 0 0 2195.9543725179883 -1173.2600642064881 0 -1173.2600642064881 574.48837690307118 0 0 0 0 2207.6598891536196 -1204.2795179710374 0 -1204.2795179710374 587.42833586888446 0 0 0 0 1898.8033482558676 -1425.0502632085845 0 -1425.0502632085845 190.13956062881334 0 0 0 0 1892.6211120571752 -1331.9950368859281 0 -1331.9950368859281 633.38776842474181 0 0 0 0 2164.4845694602773 -1232.9821026566715 0 -1232.9821026566715 0.7328004440641962 0 0 0 0 1940.5748545197785 -1203.9532878927312 0 -1203.9532878927312 340.49342489607807 0 0 0 0 1854.1341391614551 -1405.3456202158504 0 -1405.3456202158504 -0.037006842481787317 0 0 0 0 1773.1218632105092 -1613.4759778765938 0 -1613.4759778765938 -60.82114541179908 0 0 0 0 1658.4801329001639 -1619.5778578040336 0 -1619.5778578040336 353.59994471169193 0 0 0 0 1785.9414184919374 -1530.874772043564 0 -1530.874772043564 410.1543845685228 0 0 0 0 1701.5302724891662 -1362.7638471662067 0 -1362.7638471662067 404.11391688617005 0 0 0 0 1790.0737947542293 -1484.9701851228165 0 -1484.9701851228165 265.26980856593582 0 0 0 0 1519.5643561019169 -1464.262235112823 0 -1464.262235112823 293.41258702416962 0 0 0 0 1606.1926499106376 -1372.4681000379496 0 -1372.4681000379496 193.05981706289458 0 0 0 0 1186.4870279075235 -1220.4584730123133 0 -1220.4584730123133 337.13666142855072 0 0 0 0 1338.942509702134 -1321.6505189924223 0 -1321.6505189924223 572.76477298809914 0 0 0 0 1566.0410547451247 -1528.1696918658417 0 -1528.1696918658417 363.06725921019097 0 0 0 0 1597.298464501433 -1734.9919516293521 0 -1734.9919516293521 621.1225379746611 0 0 0 0 1520.0112603694215 -1584.1631414331496 0 -1584.1631414331496 344.78460424547302 0 0 0 0 1626.2632261817816 -1716.4284681596146 0 -1716.4284681596146 494.18424647976644 0 0 0 0 2022.6157272103665 -2017.6009745326155 0 -2017.6009745326155 282.5723775797087 0 0 0 0 1611.3999935690681 -1744.5015371515146 0 -1744.5015371515146 365.23138969024876 0 0 0 0 1805.1237109147478 -1803.8998426907383 0 -1803.8998426907383 -190.92063305430929 0 0 0 0 1736.6880092326828 -1809.9124078496825 0 -1809.9124078496825 375.47225504298694 0 0 0 0 1657.3321851099645 -1402.5161535719926 0 -1402.5161535719926 202.70833161866904 0 0 0 0 1332.7499629505619 -1422.4378227090019 0 -1422.4378227090019 -0.28727978440292645 0 0 0 0 1617.7384015780617 -1224.7984516449078 0 -1224.7984516449078 -195.01186245982535 0 0 0 0 1043.0203172208821 -910.95622141829335 0 -910.95622141829335 -337.72518544257036 0 0 0 0 457.05803905960784 -936.59567862751283 0 -936.59567862751283 -187.91450757125131 0 0 0 0 442.00279789688648 -1259.2075346807396 0 -1259.2075346807396 -0.033410822128644213 0 0 0 0 416.83736639856943 -1138.3075894502181 0 -1138.3075894502181 -289.21991242811418 0 0 0 0 2058.8570006331793 -1485.8205697012672 0 -1485.8205697012672 -1220.7002979537356 0 0 0 0 13.151187925405821 -9.5418967435438162 0 -9.5418967435438162 -7.0181301521195962 0 0 0 0 868.62869962616605 202.66189514689177 0 202.66189514689177 -3509.9832656303042 0 0 0 0 393.65216615565851 -267.86414245541164 0 -267.86414245541164 -51.001614208726096 0 0 0 0 -11.008381448700675 -165.61523568277335 0 -165.61523568277335 286.6516472125104 0 0 0 0 33.534742901526897 -320.91864567891025 0 -320.91864567891025 274.73803020473861 0 0 0 0 828.06504933014367 -712.07720123894251 0 -712.07720123894251 289.04973928000618 0 0 0 0 213.89874655860763 -184.71970305417199 0 -184.71970305417199 660.82375704186416 0 0 0 0 202.64432473553552 228.08123694896494 0 228.08123694896494 -644.65572955181415 0 0 0 0 774.37170524916473 -58.212145105753734 0 -58.212145105753734 -512.22450745702372 0 0 0 0 560.72194044404796 -93.285848384144629 0 -93.285848384144629 -240.83690100256354 0 0 0 0 229.94718931627813 -120.70452670158556 0 -120.70452670158556 -219.48707137560996 0 0 0 0 602.19553233583588 -282.06539902799886 0 -282.06539902799886 -228.90270616213093 0 0 0 0 378.88257285558302 -239.12971095741523 0 -239.12971095741523 -59.644924521409848 0 0 0 0 576.434225589991 -246.8908648282486 0 -246.8908648282486 -249.08186512856628 0 0 0 0 242.46296815418737 -199.15716981963487 0 -199.15716981963487 -156.28791432907747 0 0 0 0 431.26960441246456 -222.9285103316106 0 -222.9285103316106 -153.54243721587409 0 0 0 0 505.61131087290573 -281.96829265831184 0 -281.96829265831184 -197.37505864616833 0 0 0 0 449.99340859421727 -352.97610921401792 0 -352.97610921401792 -213.59356983262114 0 0 0 0 -35.154048289653701 -99.689141150112846 0 -99.689141150112846 -237.08165249263402 0 0 0 0 497.02841689348423 -112.13274969743907 0 -112.13274969743907 -304.01363286640844 0 0 0 0 57.576842395988024 -168.3624266521656 0 -168.3624266521656 -80.446023261116352 0 0 0 0 111.22723687167317 -279.35039529567621 0 -279.35039529567621 -180.38137728102447 0 0 0 0 86.750779818303471 -377.43128027923922 0 -377.43128027923922 -558.83869633809081 0 0 0 0 -57.501715911236374 -376.44749784809392 0 -376.44749784809392 -359.27275098526297 0 0 0 0 -103.84445938274877 -166.78655333600909 0 -166.78655333600909 -236.16496924515377 0 0 0 0 10.438261830113333 -270.8113785300884 0 -270.8113785300884 241.64278222930443 0 0 0 0 66.820055508297528 -42.56542078114181 0 -42.56542078114181 25.844382798657506 0 0 0 0 -44.175828357588443 -172.72766983779138 0 -172.72766983779138 -183.42581395809248 0 0 0 0 -255.545645384198 -495.93225255241123 0 -495.93225255241123 -423.68693055061703 0 0 0 0 142.41276576162636 -229.78987712625531 0 -229.78987712625531 -363.69620274515182 0 0 0 0 -142.31609123020462 -392.37816317290708 0 -392.37816317290708 -43.453422677117487 0 0 0 0 12.33040458281539 -307.90417202006392 0 -307.90417202006392 -299.63222102203872 0 0 0 0 -60.106541854334274 -255.21704047610001 0 -255.21704047610001 -154.10034501907649 0 0 0 0 87.589302556527556 -65.183365804311308 0 -65.183365804311308 26.546427478203015 0 0 0 0 148.53324865241302 -105.55180776245106 0 -105.55180776245106 -189.00733251920974 0 0 0 0 17.452654593641277 -14.156395998196174 0 -14.156395998196174 -10.370940647003465 0 0 0 0 -4.2380047873526081 -55.182830062481756 0 -55.182830062481756 45.941583208310433 0 0 0 0 -47.865453867114411 -233.87833047880849 0 -233.87833047880849 -254.71135293525003 0 0 0 0 -94.849052321045434 -201.60881755762966 0 -201.60881755762966 -68.490014873561449 0 0 0 0 42.92100648857793 -64.69188073102228 0 -64.69188073102228 -17.709790861954559 0 0 0 0 -28.988300000317395 -79.846517601879896 0 -79.846517601879896 -70.914473320037359 0 0 0 0 -143.04678418799494 -327.25582938083608 0 -327.25582938083608 -76.940231856453465 0 0 0 0 -15.634104069143916 -195.79282500229601 0 -195.79282500229601 -133.70142132651381 0 0 0 0 109.59219052604044 -199.95682971597125 0 -199.95682971597125 -145.20801831863355 0 0 0 0 -40.751788970784546 -162.65642063626001 0 -162.65642063626001 12.08541514587705 0 0 0 0 -88.743199832065827 -242.60234124837007 0 -242.60234124837007 -47.282320518497727 0 0 0 0 -26.91948738565435 -117.47194126107934 0 -117.47194126107934 142.45389701843669 0 0 0 0 -24.463638413502053 -203.66698563357932 0 -203.66698563357932 136.92109434356553 0 0 0 0 -486.16599915622737 -152.2161574595375 0 -152.2161574595375 125.01329941533913 0 0 0 0 27.902519569000525 -56.308741354945461 0 -56.308741354945461 -7.0941933658691596 0 0 0 0 68.210203555412463 -324.11332489843153 0 -324.11332489843153 -150.30747347918805 0 0 0 0 -427.71231018857367 -8.0832574729283806 0 -8.0832574729283806 259.55525970809686 0 0 0 0 -2.8357157574619123 -228.61977513418969 0 -228.61977513418969 46.431005414844549 0 0 0 0 -92.418227494899043 -213.98118685770896 0 -213.98118685770896 44.106734182540094 0 0 0 0 -55.626077234309946 -286.90719663749042 0 -286.90719663749042 -113.7311316305786 0 0 0 0 -68.729625720709834 -181.02867753567989 0 -181.02867753567989 29.532999605318764 0 0 0 0 -95.647292223038335 -207.04012936773506 0 -207.04012936773506 43.986453441302729 0 0 0 0 -103.15379081197202 -171.61317962320754 0 -171.61317962320754 152.7647916933056 0 0 0 0 -98.852787959484317 -161.08561356384598 0 -161.08561356384598 154.64031684925976 0 0 0 0 -103.42168416795312 -145.81015042291256 0 -145.81015042291256 188.60775092758195 0 0 0 0 -112.4844298522263 -211.8416243853535 0 -211.8416243853535 204.23034399017342 0 0 0 0 -67.248549236456711 -210.06770801102903 0 -210.06770801102903 302.32998525402218 0 0 0 0 -114.38921391837846 -57.351855649947538 0 -57.351855649947538 293.70577090170991 0 0 0 0 -116.03074690509172 -154.64223292778479 0 -154.64223292778479 196.27012709039263 0 0 0 0 -102.38039222759642 -92.253661225731776 0 -92.253661225731776 196.45187293499993 0 0 0 0 -74.916597759998979 -19.545192216137366 0 -19.545192216137366 80.976042095353932 0 0 0 0 -89.272054745199199 -75.193665446722662 0 -75.193665446722662 78.452737690895447 0 0 0 0 -99.840077289528949 -73.220851036610838 0 -73.220851036610838 142.40887322029448 0 0 0 0 -103.4091305898022 17.016874572465895 0 17.016874572465895 142.34560645081982 0 0 0 0 -199.8287129864452 -32.476812585511652 0 -32.476812585511652 3.0625336506927852 0 0 0 0 1.687729909403064 -0.60295580962263529 0 -0.60295580962263529 3.0736595408516223 0 0 0 0 -216.08674713849342 -7.2305667929613264 0 -7.2305667929613264 -4.8620993782751611 0 0 0 0 -260.47084871088725 -152.4636419364615 0 -152.4636419364615 -93.158126982554677 0 0 0 0 -51.717817457946175 -118.96211025861703 0 -118.96211025861703 129.40653810823278 0 0 0 0 92.559072575298202 -146.30242190757781 0 -146.30242190757781 56.936738863500068 0 0 0 0 -29.486324625010671 -54.632802726671798 0 -54.632802726671798 -11.453958270139992 0 0 0 0 -72.756195454596195 -149.10194797118311 0 -149.10194797118311 118.95782757728011 0 0 0 0 -153.01133608294037 -33.59003475735517 0 -33.59003475735517 -19.143040204900899 0 0 0 0 -112.88127228435866 -31.463005703437375 0 -31.463005703437375 39.680902613523358 0 0 0 0 -20.405054624652056 -6.423338618992851 0 -6.423338618992851 8.4589593500592173 0 0 0 0 -190.41907782821261 -79.684797093221277 0 -79.684797093221277 2.4520083019451704 0 0 0 0 1041.6421826786864 -551.76651349653548 0 -551.76651349653548 340.86341729783453 0 0 0 0 -93.306785814042087 -7.1889111473647063 0 -7.1889111473647063 12.547359516855067 0 0 0 0 -67.643682180722919 -16.864927282978897 0 -16.864927282978897 -0.92420706773555139 0 0 0 0 -72.301508742876663 -15.254058675617443 0 -15.254058675617443 -1.114890217608604 0 0 0 0 -58.854877194859 -11.793403188843513 0 -11.793403188843513 -1.1802208148510545 0 0 0 0 -86.163924565064008 -22.381951864765142 0 -22.381951864765142 0.0077959815971553326 0 0 0 0 -14.446509481764652 -1.5343966280316952 0 -1.5343966280316952 1.9692282347219816 0 0 0 0 -111.13381079260034 -21.048149077436392 0 -21.048149077436392 14.596693726853118 0 0 0 0 -85.616928272635221 -23.4843158768781 0 -23.4843158768781 76.661415904076421 0 0 0 0 -70.051710409358861 1.2677330648730276 0 1.2677330648730276 -2.160618857407826 0 0 0 0 -53.317312345653789 -10.515923314117828 0 -10.515923314117828 -2.2930929902766621 0 0 0 0 -59.09597690490591 -16.013567968824646 0 -16.013567968824646 11.999112789106221 0 0 0 0 -41.458138910045818 -15.388621783436975 0 -15.388621783436975 -0.023367004338069819 0 0 0 0 -37.412048408290502 -8.2030334568480612 0 -8.2030334568480612 8.0195820074150106 0 0 0 0 -22.78142045945151 -8.7887210450862767 0 -8.7887210450862767 0.11508894385769963 0 0 0 0 101.39073356714334 161.74558343328681 0 161.74558343328681 -320.23543300076562 0 0 0 0 -19.11720360641948 0.6261203084141016 0 0.6261203084141016 16.460312004346633 0 0 0 0 -17.564909465300772 -4.8259654516971295 0 -4.8259654516971295 -1.5907760396734858 0 0 0 0 101.90477088949433 -76.613724549642939 0 -76.613724549642939 -142.04710724153847 0 0 0 0 -134.14890136577299 65.696967844840401 0 65.696967844840401 144.16719408595236 0 0 0 0 -34.414573280847435 -7.1929883118898488 0 -7.1929883118898488 -1.6606714486429439 0 0 0 0 -19.179802942691595 117.13567467156827 0 117.13567467156827 -142.95752380164777 0 0 0 0 -99.04760325947791 66.429574696201598 0 66.429574696201598 257.60874395238352 0 0 0 0 32.953845018194215 -49.830533590022242 0 -49.830533590022242 155.20731490903927 0 0 0 0 -6.0333540770928948 50.82527272504376 0 50.82527272504376 488.73061942066124 0 0 0 0 -65.171591990356092 -65.828358922364714 0 -65.828358922364714 459.08901093808527 0 0 0 0 170.49231725303051 -324.46077156982938 0 -324.46077156982938 423.72278644872131 0 0 0 0 216.21641208997039 -253.18807513516367 0 -253.18807513516367 521.29203682659136 0 0 0 0 -55.013250817184371 -100.5555454027417 0 -100.5555454027417 303.93125467219943 0 0 0 0 9.8386115912859715 -0.4224507498782657 0 -0.4224507498782657 0.75187188135006977 0 0 0 0 283.86806340983844 -1075.8845553472202 0 -1075.8845553472202 2228.6758536482812 0 0 0 0 528.86629152793034 -825.45105035429879 0 -825.45105035429879 1198.2716206745827 0 0 0 0 492.68860696034199 -588.31867453543236 0 -588.31867453543236 1107.0918589897628 0 0 0 0 928.04748523306671 -1245.6420285920358 0 -1245.6420285920358 1514.0347637809755 0 0 0 0 1219.7906812475969 -725.82535309238119 0 -725.82535309238119 765.85725147163612 0 0 0 0 622.56889800292174 -68.157220267079538 0 -68.157220267079538 491.47180563658912 0 0 0 0 600.52735175623184 -187.43515425155056 0 -187.43515425155056 464.08848805120215 0 0 0 0 357.54202028051282 -88.502562669098552 0 -88.502562669098552 208.06070256938983 0 0 0 0 257.36204317891088 -100.33273901167559 0 -100.33273901167559 565.76306588762236 0 0 0 0 451.64024227239202 -496.00521296287479 0 -496.00521296287479 493.33785768632515 0 0 0 0 922.75211229436331 -762.91695083468585 0 -762.91695083468585 791.34258265569224 0 0 0 0 462.96922161635405 -366.67649787478149 0 -366.67649787478149 606.46900260807888 0 0 0 0 458.77597628114518 -739.99371877636838 0 -739.99371877636838 925.63102071860339 0 0 0 0 161.73360346011737 -332.9649913416506 0 -332.9649913416506 260.93225058047392 0 0 0 0 424.42438721763926 -544.28358642421517 0 -544.28358642421517 391.74672253764584 0 0 0 0 240.34180762168336 -224.81287894245179 0 -224.81287894245179 291.93438576863264 0 0 0 0 211.77314951434096 -315.88361123079085 0 -315.88361123079085 225.87492231905344 0 0 0 0 132.74079044435678 -107.7735186086793 0 -107.7735186086793 17.720387797016883 0 0 0 0 12.783695929977966 -256.79115711784107 0 -256.79115711784107 102.48128555985022 0 0 0 0 108.68770708861409 -381.26946866549588 0 -381.26946866549588 228.07445940581965 0 0 0 0 -9.7532969412341117 14.774761323002167 0 14.774761323002167 220.92631519664792 0 0 0 0 265.87563278254493 -2.078192906885306 0 -2.078192906885306 8.3492002862913068 0 0 0 0 -134.04975709433347 40.062962123396574 0 40.062962123396574 21.106460471408354 0 0 0 0 -12.72624255293124 9.5066587370747584 0 9.5066587370747584 -0.36335689327825094 0 0 0 0 -178.02610526214653 -282.51552602548327 0 -282.51552602548327 -243.3893686086958 0 0 0 0 32.835218867263961 -34.904282884272106 0 -34.904282884272106 -224.1562679257986 0 0 0 0 -4.5389287714118183 -2.9964334261105421 0 -2.9964334261105421 -1.3013470733109642 0 0 0 0 -435.87785321541185 -192.07966061730986 0 -192.07966061730986 152.77489574358333 0 0 0 0 96.672254331751645 -229.97379845273463 0 -229.97379845273463 -60.635700549231842 0 0 0 0 -300.75145162473473 -426.55396453252615 0 -426.55396453252615 -0.49026790836069267 0 0 0 0 259.77938425553566 -786.08224786203209 0 -786.08224786203209 -131.05797672313929 0 0 0 0 -394.72924693430417 -778.15043959438844 0 -778.15043959438844 73.496211822959594 0 0 0 0 132.54071866994173 -782.90290835256747 0 -782.90290835256747 97.201102173567051 0 0 0 0 272.11520330656276 -642.59461172611918 0 -642.59461172611918 82.980373045356828 0 0 0 0 483.22415027333955 -676.00072274726699 0 -676.00072274726699 90.028570112859597 0 0 0 0 497.2229721054 -664.45986801484833 0 -664.45986801484833 -78.81988893156813 0 0 0 0 445.4616598711159 -686.23894006163755 0 -686.23894006163755 168.86660527036292 0 0 0 0 413.44692864215949 -693.89321029665007 0 -693.89321029665007 354.31021347508067 0 0 0 0 484.05368520158572 -761.13574371407958 0 -761.13574371407958 164.91856420371914 0 0 0 0 422.59898420111494 -733.61153599471436 0 -733.61153599471436 105.231761802439 0 0 0 0 339.56845936023728 -621.00577868692926 0 -621.00577868692926 405.38428128688247 0 0 0 0 321.51216531389673 -725.28294715096126 0 -725.28294715096126 469.96902973722899 0 0 0 0 272.61878570912859 -586.82490415552456 0 -586.82490415552456 524.47563340020133 0 0 0 0 348.54337536433559 -641.81737594879814 0 -641.81737594879814 472.61106169557024 0 0 0 0 324.43979620655068 -560.94046359938511 0 -560.94046359938511 432.79751121089794 0 0 0 0 226.31384585738533 -646.67884003582003 0 -646.67884003582003 372.65354922556435 0 0 0 0 199.19553360552527 -535.97843965006177 0 -535.97843965006177 255.1352186925069 0 0 0 0 -114.46512694737078 -648.47696952043407 0 -648.47696952043407 222.09347660996718 0 0 0 0 206.30980104364261 -765.85650903906571 0 -765.85650903906571 262.59734599298099 0 0 0 0 1374.5326504756122 -345.91857441887259 0 -345.91857441887259 -83.975087273589452 0 0 0 0 -0.19998237137447816 2.552302274398464 0 2.552302274398464 4.5357366223474855 0 0 0 0 815.09559184391401 -687.6969544969179 0 -687.6969544969179 0.24156495747090367 0 0 0 0 493.47142119178534 -688.32898419066623 0 -688.32898419066623 102.29109096762841 0 0 0 0 510.65893486323694 -708.67183936973743 0 -708.67183936973743 101.17353769469446 0 0 0 0 615.52975571605384 -621.68682578028529 0 -621.68682578028529 168.01620530510263 0 0 0 0 503.12246451538886 -694.55588789570902 0 -694.55588789570902 81.347527398676903 0 0 0 0 326.97021300019605 -668.66597466274106 0 -668.66597466274106 439.27204370645632 0 0 0 0 330.72910005137783 -491.23595134118659 0 -491.23595134118659 109.02632977387839 0 0 0 0 186.01385375671634 -222.91572727208404 0 -222.91572727208404 112.20358358885278 0 0 0 0 535.23606342344283 -165.23314324275998 0 -165.23314324275998 -43.473029296706954 0 0 0 0 170.16657389487045 -90.02250582425404 0 -90.02250582425404 -30.449665666790679 0 0 0 0 12.566584225326402 -36.667572017919781 0 -36.667572017919781 -29.149317721168899 0 0 0 0 23.957646647067122 -47.122567510337831 0 -47.122567510337831 -24.616606816685817 0 0 0 0 172.6505070912126 -194.2535145808215 0 -194.2535145808215 168.56475997829693 0 0 0 0 11.874088256200523 -30.700162479634429 0 -30.700162479634429 -23.457735985500946 0 0 0 0 64.636604663617618 -385.63505026734492 0 -385.63505026734492 428.51862803613767 0 0 0 0 24.707246631362068 -39.004214246175252 0 -39.004214246175252 -71.058542683014821 0 0 0 0 18.352215039927501 -33.027870645688381 0 -33.027870645688381 -55.100835793957231 0 0 0 0 24.477043828687783 -30.255792352261778 0 -30.255792352261778 -58.536799559864448 0 0 0 0 26.408167763773235 -34.428917577301036 0 -34.428917577301036 -53.780061935714912 0 0 0 0 18.255204799173498 -32.459801280008833 0 -32.459801280008833 -50.632398691726848 0 0 0 0 22.389999917229943 -43.858127240877366 0 -43.858127240877366 -55.163782648269262 0 0 0 0 305.3816486880869 -718.97856419638265 0 -718.97856419638265 934.92257822854299 0 0 0 0 327.33186614312945 -683.35274569768808 0 -683.35274569768808 802.76851823576726 0 0 0 0 294.63373667047836 -694.40931605141668 0 -694.40931605141668 919.48320260259788 0 0 0 0 287.27719312576301 -704.90764315021806 0 -704.90764315021806 985.9617446923512 0 0 0 0 312.94089597000402 -685.47041317002731 0 -685.47041317002731 921.89355037303176 0 0 0 0 324.03376715340232 -676.57567510935769 0 -676.57567510935769 944.71015628019813 0 0 0 0 333.14365650226443 -738.61337334872223 0 -738.61337334872223 1068.8929652366205 0 0 0 0 392.47811545489208 -575.04241608959273 0 -575.04241608959273 978.17666009067034 0 0 0 0 459.76496194649189 -677.90487002060399 0 -677.90487002060399 959.77371642925573 0 0 0 0 448.86514187259786 -648.64231827287585 0 -648.64231827287585 689.52734859945485 0 0 0 0 350.41284301668338 -722.64342644749559 0 -722.64342644749559 949.74312499822554 0 0 0 0 366.76217951068111 -676.05610254978819 0 -676.05610254978819 786.27979167125886 0 0 0 0 232.31358849122762 -554.60894122596073 0 -554.60894122596073 619.84309133709758 0 0 0 0 299.6781789511615 -681.08108146414452 0 -681.08108146414452 786.66120853862958 0 0 0 0 380.18771565848238 -545.99287298505078 0 -545.99287298505078 616.54292567042285 0 0 0 0 291.28498999058729 -657.95136730455852 0 -657.95136730455852 605.9424670804292 0 0 0 0 388.83131666627196 -643.60246432488202 0 -643.60246432488202 539.37206254189368 0 0 0 0 346.19113438979002 -629.75727215240477 0 -629.75727215240477 618.09711003029952 0 0 0 0 305.30675627503388 -653.58670310671732 0 -653.58670310671732 806.55583033373114 0 0 0 0 387.80865125178843 -595.93904651304183 0 -595.93904651304183 756.12843503599288 0 0 0 0 493.87444321322164 -728.00677105748036 0 -728.00677105748036 363.500797692177 0 0 0 0 377.22286945863198 -628.30468774819747 0 -628.30468774819747 740.98324348966707 0 0 0 0 597.80702909670981 -473.35360285828938 0 -473.35360285828938 679.06299222336384 0 0 0 0 497.89962124243539 -767.62993145729706 0 -767.62993145729706 478.60757958688191 0 0 0 0 8.185296595850037 -10.820242559810552 0 -10.820242559810552 -3.1968718021789186 0 0 0 0 688.53609944957952 -783.20953598861524 0 -783.20953598861524 879.46157007326838 0 0 0 0 -177.11249263928948 -126.07912166994356 0 -126.07912166994356 967.69420259643812 0 0 0 0 400.91765198618305 -771.43815076813917 0 -771.43815076813917 1029.5903678777468 0 0 0 0 333.54228071161833 -605.96810705152166 0 -605.96810705152166 1038.8527037393651 0 0 0 0 296.31070036227175 -672.41080198276904 0 -672.41080198276904 960.71597098797065 0 0 0 0 310.5939626828067 -670.2142230362806 0 -670.2142230362806 960.34448219952174 0 0 0 0 28.815478339496309 -2.9245946041809248 0 -2.9245946041809248 -9.0461927401882178 0 0 0 0 478.66004902360601 -699.14900141660473 0 -699.14900141660473 845.93006418617733 0 0 0 0 2.5173080822794098 -3.5899021066898626 0 -3.5899021066898626 -11.666616907585279 0 0 0 0 -13.273718592093246 -6.0091187071739114 0 -6.0091187071739114 -75.3856132748042 0 0 0 0 389.92170122823336 -559.73890420087264 0 -559.73890420087264 850.73085284549052 0 0 0 0 19.707085527397034 -13.089092251766786 0 -13.089092251766786 -40.337064937969217 0 0 0 0 374.88420590877649 -185.59301947045606 0 -185.59301947045606 -351.51006362674525 0 0 0 0 289.71440263844579 -451.40111122545204 0 -451.40111122545204 1109.1187867705885 0 0 0 0 291.83466276567242 -669.61617627087981 0 -669.61617627087981 1030.5202466274204 0 0 0 0 297.54699425863146 -656.3100146788056 0 -656.3100146788056 1012.0108747137419 0 0 0 0 234.25266236183143 -404.74219524406362 0 -404.74219524406362 1712.625685943538 0 0 0 0 294.27312447479221 -683.117755317915 0 -683.117755317915 1234.9559311438934 0 0 0 0 326.8663543866478 -611.98191792325815 0 -611.98191792325815 1125.2986257792509 0 0 0 0 305.82274615521374 -377.56482572454843 0 -377.56482572454843 1439.9527475790819 0 0 0 0 288.12011443507004 -630.11945739758085 0 -630.11945739758085 1651.1004894833895 0 0 0 0 -457.3676778002955 -172.36179670187994 0 -172.36179670187994 143.91158513602568 0 0 0 0 73.503521221392475 -96.209304449286719 0 -96.209304449286719 -283.10465200374892 0 0 0 0 232.45056057333568 -120.08302491291397 0 -120.08302491291397 -279.71793544245156 0 0 0 0 128.54951214014363 -185.40946262268699 0 -185.40946262268699 -214.58528573333751 0 0 0 0 47.908713094628183 -127.15920871648996 0 -127.15920871648996 -161.76651613132708 0 0 0 0 34.237680720352046 -183.99035402564004 0 -183.99035402564004 -205.98791751128738 0 0 0 0 -7.9421900869019737 -108.62466414588562 0 -108.62466414588562 -225.68231203413598 0 0 0 0 -171.84086121260952 -197.56834321446877 0 -197.56834321446877 -176.80770895849855 0 0 0 0 76.157862002597085 -107.53466095648946 0 -107.53466095648946 -236.96529754440417 0 0 0 0 5.9003515423492754 3.9439788812402377 0 3.9439788812402377 -45.822860872593424 0 0 0 0 83.235419338493557 -21.496608576278959 0 -21.496608576278959 -92.681840504907086 0 0 0 0 34.952754443349058 -20.245804552164344 0 -20.245804552164344 -5.1759648003994982 0 0 0 0 32.978076693832726 -32.348202550179224 0 -32.348202550179224 -3.0473646756849107 0 0 0 0 76.989869290857953 -81.258627005128801 0 -81.258627005128801 -86.114461422606837 0 0 0 0 90.000959950909873 -23.536237431369955 0 -23.536237431369955 -25.737849561628536 0 0 0 0 144.87822924122702 3.1104310830996837 0 3.1104310830996837 -39.424876772143762 0 0 0 0 37.660680701818592 -26.172388442597367 0 -26.172388442597367 -41.258034802493057 0 0 0 0 -479.63515787043684 -466.27506364686087 0 -466.27506364686087 -3.3694572287786286 0 0 0 0 -0.73001389056379917 2.3396325085517411 0 2.3396325085517411 -24.352742559133901 0 0 0 0 192.45000229229504 -3.4168769220159447 0 -3.4168769220159447 -57.344953025778523 0 0 0 0 262.61814895425141 28.628653238905827 0 28.628653238905827 -13.826291565288557 0 0 0 0 152.17789595248382 -32.910164279262972 0 -32.910164279262972 -40.050854924033047 0 0 0 0 314.03162299087035 -145.85648672830575 0 -145.85648672830575 102.04275286549091 0 0 0 0 430.78522157959469 -31.428335128555773 0 -31.428335128555773 -8.1764966929113143 0 0 0 0 110.3716776408769 -79.735584641166497 0 -79.735584641166497 91.058436932275072 0 0 0 0 -1139.2846688416885 -505.78295232869277 0 -505.78295232869277 -9.4073901277006371 0 0 0 0 -0.69391585498086439 0.9668121726090142 0 0.9668121726090142 -7.0172868470780259 0 0 0 0 -600.56055229855656 136.98945379282304 0 136.98945379282304 94.721554634801578 0 0 0 0 83.330206873636598 -39.389367604198924 0 -39.389367604198924 -309.07266100286506 0 0 0 0 0.37855415527781044 0.57799889957673223 0 0.57799889957673223 3.4083658770966281 0 0 0 0 -138.28125614759392 -265.93815193454066 0 -265.93815193454066 159.14703236336936 0 0 0 0 465.20437116228379 -484.50880582910213 0 -484.50880582910213 33.638360644690692 0 0 0 0 79.234165248560203 -239.13372702507513 0 -239.13372702507513 -9.8718245713389479 0 0 0 0 133.39739277249646 -316.40521294909558 0 -316.40521294909558 -33.876704444628558 0 0 0 0 229.2240116225521 -166.03511623170925 0 -166.03511623170925 -165.97199322372035 0 0 0 0 -69.219883832161031 -101.78710998475435 0 -101.78710998475435 -119.69199446198036 0 0 0 0 4.1171627189924038 -202.85644128808053 0 -202.85644128808053 -21.786355623567943 0 0 0 0 -8.4731899820725403 -10.830931839013161 0 -10.830931839013161 -17.972922730640448 0 0 0 0 380.21303485643875 -120.77372282316719 0 -120.77372282316719 -97.42675703963323 0 0 0 0 86.275270888771047 -269.61945201810886 0 -269.61945201810886 -19.358618418278638 0 0 0 0 -376.11583445259748 -570.62821630559665 0 -570.62821630559665 -357.87437547544687 0 0 0 0 -41.723119544229121 -261.60447192428546 0 -261.60447192428546 -54.659757965691824 0 0 0 0 -40.482680738743511 -134.13258108439186 0 -134.13258108439186 6.3282361818783102 0 0 0 0 -128.49008264135045 -21.083660078802495 0 -21.083660078802495 -434.44868768137712 0 0 0 0 24.466698908054241 -244.48941319282312 0 -244.48941319282312 -113.26125178932853 0 0 0 0 714.47494602732331 -37.639055681098398 0 -37.639055681098398 -202.67695013782213 0 0 0 0 1.8092776584078152 -4.9320785503240074 0 -4.9320785503240074 -12.909372778019616 0 0 0 0 303.18487416274002 112.3816550103038 0 112.3816550103038 -31.51661334518576 0 0 0 0 -324.70515310672636 -112.96829285459171 0 -112.96829285459171 26.45117342848971 0 0 0 0 -145.51675181760947 -56.857487623467023 0 -56.857487623467023 -48.936364375527774 0 0 0 0 3.3775590824883857 -59.372400150971359 0 -59.372400150971359 -15.749878141199559 0 0 0 0 -27.993815548656364 -53.796895829786294 0 -53.796895829786294 -51.067667690887106 0 0 0 0 0.98325843752900255 -88.688571568811312 0 -88.688571568811312 0.5591965471576259 0 0 0 0 104.77526409546968 -52.0276446834132 0 -52.0276446834132 -43.857379487395519 0 0 0 0 -34.603502373907759 -115.84411184924829 0 -115.84411184924829 -24.825924063507046 0 0 0 0 -0.56475319969752036 -47.734376327121424 0 -47.734376327121424 -28.169807978420522 0 0 0 0 -115.95784401409765 -74.406264242923498 0 -74.406264242923498 -38.56216573122947 0 0 0 0 5.3488776782169225 -55.201836529839056 0 -55.201836529839056 -24.217239583333139 0 0 0 0 -28.853057590315672 -46.403568253066268 0 -46.403568253066268 -26.880054263737577 0 0 0 0 0.41410301490395796 -45.867275510732725 0 -45.867275510732725 -27.229689613617666 0 0 0 0 27.203074104746353 -38.883220800981192 0 -38.883220800981192 -28.086219427220271 0 0 0 0 34.253925214793867 -85.14872516025207 0 -85.14872516025207 -58.481086036805209 0 0 0 0 105.78611587228184 -77.818764285563702 0 -77.818764285563702 -63.067644639493665 0 0 0 0 11.46472128327332 -52.973417160785175 0 -52.973417160785175 -73.575482202260901 0 0 0 0 125.65652347764262 -68.663546278068679 0 -68.663546278068679 -134.85182029836142 0 0 0 0 22.389705050849813 -25.223587737255173 0 -25.223587737255173 -6.6181737312214608 0 0 0 0 1.035937995913164 2.3619785615386206 0 2.3619785615386206 -3.5918726453935506 0 0 0 0 90.692914569561253 9.267059242753021 0 9.267059242753021 -98.330900005268632 0 0 0 0 -4.2916580039382097 10.058367670724692 0 10.058367670724692 23.895728296454763 0 0 0 0 -16.515268676279447 -52.268730068006334 0 -52.268730068006334 -27.523942438245285 0 0 0 0 -379.90981727943654 -276.82363613001144 0 -276.82363613001144 -255.73392735658126 0 0 0 0 87.582011349673849 -222.54257021850208 0 -222.54257021850208 -425.30381341593602 0 0 0 0 -95.861068453770713 -81.657990371619235 0 -81.657990371619235 -463.5848054619637 0 0 0 0 -24.071154714765726 199.01619800417393 0 199.01619800417393 157.95040792707005 0 0 0 0 -185.42781343609386 -1.8248039021782461 0 -1.8248039021782461 114.40137040872651 0 0 0 0 -1.731767548977615 -4.2894962161773833 0 -4.2894962161773833 0.79025025124994386 0 0 0 0 25.505435305814899 -20.661628785979701 0 -20.661628785979701 22.3796480758283 0 0 0 0 -11.300714772651821 -19.543819227641151 0 -19.543819227641151 0.74206016128238161 0 0 0 0 -22.74317754082432 -23.89361931608542 0 -23.89361931608542 -21.911179950121664 0 0 0 0 -147.26642850549251 -126.88019920403895 0 -126.88019920403895 138.71252603144967 0 0 0 0 27.966008694646007 -234.33297566398687 0 -234.33297566398687 50.208501641186558 0 0 0 0 50.654385850357357 -55.976030649719178 0 -55.976030649719178 63.172218430510839 0 0 0 0 -488.89230408298863 -146.49300641348236 0 -146.49300641348236 235.78142997980467 0 0 0 0 -472.22349337232299 -192.03923535488866 0 -192.03923535488866 86.389326429285575 0 0 0 0 -432.0122366893047 170.91309598514636 0 170.91309598514636 68.444927096337778 0 0 0 0 62.327231716684764 -77.96387599613081 0 -77.96387599613081 -18.047138869776973 0 0 0 0 -1023.4376056388064 -139.13835784862022 0 -139.13835784862022 244.9927387098578 0 0 0 0 5.0289876493907286 85.392228566186986 0 85.392228566186986 -899.07942572531465 0 0 0 0 -1248.9876194495082 195.81081594411808 0 195.81081594411808 69.815764888423018 0 0 0 0 123.43598259283317 -213.49444959521679 0 -213.49444959521679 -1152.020671815917 0 0 0 0 -9.6212017875543552 -8.0480453112552581 0 -8.0480453112552581 -8.112849012163764 0 0 0 0 -109.70617312152899 -779.57058418737142 0 -779.57058418737142 -1015.9956910877372 0 0 0 0 -873.90845096656631 -1018.8248685045219 0 -1018.8248685045219 54.954964681222918 0 0 0 0 45.11775889366254 -290.7876056455425 0 -290.7876056455425 -411.59672615149611 0 0 0 0 -143.48491448356435 -385.53417554587941 0 -385.53417554587941 -511.97401985707984 0 0 0 0 56.355342624835657 -443.03247352061226 0 -443.03247352061226 -498.31640197979868 0 0 0 0 -354.49807253702602 -321.43221385110519 0 -321.43221385110519 53.152493902660353 0 0 0 0 -299.12603570616193 -163.41053982153244 0 -163.41053982153244 -133.75138508663076 0 0 0 0 -289.427407523086 77.588045497223447 0 77.588045497223447 99.635444116160215 0 0 0 0 -2.0475939528836307 2.0554952751590037 0 2.0554952751590037 17.264213589334886 0 0 0 0 -820.98476680363456 -719.28438786080005 0 -719.28438786080005 736.54951486287609 0 0 0 0 12.178816242805624 -78.798281663766829 0 -78.798281663766829 -78.669487156446849 0 0 0 0 39.525668252807009 -43.468667985398497 0 -43.468667985398497 -52.359293491587778 0 0 0 0 25.10176580890149 -28.947522464817418 0 -28.947522464817418 -47.638969465294508 0 0 0 0 46.678248034106218 -210.35007441874768 0 -210.35007441874768 -537.83318548457464 0 0 0 0 -141.43574073686614 -257.07888356944022 0 -257.07888356944022 -58.60070729022118 0 0 0 0 -389.71443673750582 -370.11430322220258 0 -370.11430322220258 -109.9505364732031 0 0 0 0 -29.671575155411119 -171.57542081797146 0 -171.57542081797146 -170.24130303185666 0 0 0 0 -54.296947185420436 -79.045301164302231 0 -79.045301164302231 -46.424721171362975 0 0 0 0 8.304405929617829 -42.631867949797396 0 -42.631867949797396 -55.240654352847002 0 0 0 0 -159.22557520354894 -279.83700953689913 0 -279.83700953689913 -14.275714443501784 0 0 0 0 -203.03889940582349 -50.297660115093095 0 -50.297660115093095 -1.9288681852049194 0 0 0 0 -6.9352581154319708 -18.320266749191177 0 -18.320266749191177 1.8303319451568427 0 0 0 0 -384.09087457181158 -175.99247948608172 0 -175.99247948608172 138.69146924265078 0 0 0 0 -194.32281093857273 -156.47715178804356 0 -156.47715178804356 -194.26804133824771 0 0 0 0 -64.308180210085993 -4.6499514782481128 0 -4.6499514782481128 -1.0758111078612274 0 0 0 0 -5.2776236356380934 -1.2152901497253765 0 -1.2152901497253765 4.053768806313002 0 0 0 0 -472.09998904349413 -509.16912967273674 0 -509.16912967273674 -411.52746315080731 0 0 0 0 -328.71310556301887 -66.381408890649254 0 -66.381408890649254 -2.1149424924951745 0 0 0 0 -528.41981089409273 -211.92856155783375 0 -211.92856155783375 -30.948303617329657 0 0 0 0 -195.64215830717876 14.65831944852107 0 14.65831944852107 82.66194825992352 0 0 0 0 -5.9204850390537445 0.81203290354085311 0 0.81203290354085311 12.654044064196782 0 0 0 0 14.034766323165968 -145.71151464200375 0 -145.71151464200375 -445.34386336167518 0 0 0 0 -62.96199911015961 -44.499174466592507 0 -44.499174466592507 51.58011529313157 0 0 0 0 -273.45868112144581 -297.4894271460671 0 -297.4894271460671 -92.419090517098084 0 0 0 0 -61.602289094755847 -71.462224895540146 0 -71.462224895540146 -23.886972237669383 0 0 0 0 -13.745234521383637 -8.6865818862208641 0 -8.6865818862208641 -7.0875168163229318 0 0 0 0 -385.0787948342404 -251.90661577459468 0 -251.90661577459468 277.77519960948121 0 0 0 0 -102.69003488240924 -298.67288945941982 0 -298.67288945941982 -337.72258677895297 0 0 0 0 -4.241898689791995 -3.1799074127301878 0 -3.1799074127301878 1.7325051882564537 0 0 0 0 -131.74906941202789 -66.451848574986798 0 -66.451848574986798 -71.718998492928222 0 0 0 0 -258.50041648639672 -254.60046649555443 0 -254.60046649555443 -97.381273960332692 0 0 0 0 -7.9441024743573507 -6.5089376643882133 0 -6.5089376643882133 -0.0062027380845393054 0 0 0 0 -31.453200628096965 -141.2869988851271 0 -141.2869988851271 -282.42021260419278 0 0 0 0 197.54727633921721 -398.03021313805948 0 -398.03021313805948 -125.3714437133749 0 0 0 0 -6.5434457257365466 -4.5508737858246491 0 -4.5508737858246491 -1.675769337503823 0 0 0 0 -8.8459655550759635 -8.1766660840366967 0 -8.1766660840366967 -2.2763833905482898 0 0 0 0 -11.813704870299262 -10.242851378236082 0 -10.242851378236082 -2.209861538693076 0 0 0 0 -7.8407476335414685 -27.46008488262305 0 -27.46008488262305 -56.788065355533035 0 0 0 0 -9.5641919831650739 -9.5862630365118093 0 -9.5862630365118093 -4.6835056687123142 0 0 0 0 -10.677092579353484 -11.735368219437078 0 -11.735368219437078 -5.5164798873884138 0 0 0 0 -7.5978171978020583 -8.6686267340898269 0 -8.6686267340898269 3.5116958402066984 0 0 0 0 -516.25229315701654 240.15116629750264 0 240.15116629750264 -139.99224317312473 0 0 0 0 0.19842961548883409 2.1579660470026454 0 2.1579660470026454 -1.8898732152670163 0 0 0 0 -120.42169286575881 -236.38634615484625 0 -236.38634615484625 -22.166124350813334 0 0 0 0 30.115830621019995 -218.98196480843762 0 -218.98196480843762 -217.72640426451107 0 0 0 0 -72.706974911583529 -164.65551504673931 0 -164.65551504673931 53.334045489216805 0 0 0 0 93.786659621622675 -106.36107944365722 0 -106.36107944365722 -69.804579868155997 0 0 0 0 45.597860276970096 -45.622111543954816 0 -45.622111543954816 -86.543364197248593 0 0 0 0 -9.9829689622129081 -16.057020286199986 0 -16.057020286199986 -52.23630853445502 0 0 0 0 1.1478361929547987 -4.7418238241948245 0 -4.7418238241948245 -12.068831675551252 0 0 0 0 -27.724047543451888 -41.416351561507327 0 -41.416351561507327 32.221738918015035 0 0 0 0 -29.076841581370132 -35.315047435342933 0 -35.315047435342933 -23.768635025860931 0 0 0 0 -13.134725390533276 -12.27273490242078 0 -12.27273490242078 -6.176445716235321 0 0 0 0 -12.590192727308022 -17.233127504528966 0 -17.233127504528966 -12.99076406720269 0 0 0 0 -14.578828126170265 -12.956985519485897 0 -12.956985519485897 -0.0071573972018086351 0 0 0 0 -13.151989899910404 -12.583317275668378 0 -12.583317275668378 -3.0397094103682321 0 0 0 0 -16.112076818390051 -17.557730172251468 0 -17.557730172251468 -4.3662934798776405 0 0 0 0 -13.982922395502101 -19.584899513829441 0 -19.584899513829441 -0.008724675870325882 0 0 0 0 -16.192095815171797 -16.582005622360157 0 -16.582005622360157 -2.7257353841559961 0 0 0 0 -4.056484098438176 -1.8092486022642902 0 -1.8092486022642902 0.079999732672717982 0 0 0 0 -11.853318055862474 -19.096647423280956 0 -19.096647423280956 -10.786845614769845 0 0 0 0 -15.559686397959013 -21.442595355212688 0 -21.442595355212688 -4.794313169833913 0 0 0 0 -21.565989561466267 -22.642024647502694 0 -22.642024647502694 -1.1798043104936369 0 0 0 0 -35.75586955925246 -38.690634688930004 0 -38.690634688930004 -18.149724021786824 0 0 0 0 -3.4912096781336004 -5.0765635554562323 0 -5.0765635554562323 -8.8903143214338343 0 0 0 0 0.68772635491296796 -1.5717242352420158 0 -1.5717242352420158 1.8484239936044844 0 0 0 0 -12.167832198243559 -20.463882724630821 0 -20.463882724630821 -29.679176416248083 0 0 0 0 1.8038995239257929 0.19962330295675201 0 0.19962330295675201 15.019954778457759 0 0 0 0 -5.6761211357224965 -9.2917174983303994 0 -9.2917174983303994 -6.0045977984264027 0 0 0 0 -9.3898747370327413 -17.648100596019958 0 -17.648100596019958 1.3709352070472249 0 0 0 0 -11.979361159944233 -16.595561807836333 0 -16.595561807836333 -0.7613086335517778 0 0 0 0 -9.2970549810194569 -11.874985039236151 0 -11.874985039236151 5.1102311379195839 0 0 0 0 -32.813244284305256 -57.265301863502827 0 -57.265301863502827 -33.942616715838085 0 0 0 0 2.6360481632301003 -14.458481645496022 0 -14.458481645496022 8.3462746800539662 0 0 0 0 -34.879449855423445 -55.707265413067944 0 -55.707265413067944 2.4933923225617036 0 0 0 0 -16.003493885087664 -22.36910805448133 0 -22.36910805448133 -37.417119013742195 0 0 0 0 -10.898619611311005 -20.9964749400242 0 -20.9964749400242 -13.760606027437461 0 0 0 0 -2.0999155238231424 -5.2917779225565198 0 -5.2917779225565198 -11.946089490496774 0 0 0 0 -10.728116009180994 -10.384053612458644 0 -10.384053612458644 -1.4468116811218152 0 0 0 0 -12.86411770209088 -53.099684737615462 0 -53.099684737615462 -91.641760633647209 0 0 0 0 -14.824371673478055 -23.870565408520292 0 -23.870565408520292 -9.3646301510443948 0 0 0 0 -23.610239457644639 -15.304770017275587 0 -15.304770017275587 -11.995368411531672 0 0 0 0 -22.419269728587096 -36.305140549564385 0 -36.305140549564385 24.254536387306871 0 0 0 0 -31.110134443935749 -26.802847161230602 0 -26.802847161230602 58.896674071234884 0 0 0 0 -22.683459954452701 -55.478835173445987 0 -55.478835173445987 25.6479867168091 0 0 0 0 -20.404221332340967 -35.51895178216364 0 -35.51895178216364 -6.2330376570898807 0 0 0 0 -13.117288606659713 -45.41908228077591 0 -45.41908228077591 6.7571569190185983 0 0 0 0 -29.207915750652319 -35.444393012978253 0 -35.444393012978253 10.032401094962552 0 0 0 0 -23.595912932571082 -33.07864276386681 0 -33.07864276386681 -1.8344878097850597 0 0 0 0 -26.193883229469066 -42.450426284573041 0 -42.450426284573041 -11.906902825896395 0 0 0 0 -27.72258254944245 -33.03243677248247 0 -33.03243677248247 8.0022475890582427 0 0 0 0 -27.178013697834103 -35.152163196180481 0 -35.152163196180481 5.7409280449428479 0 0 0 0 -27.379182376164863 -51.099608920002538 0 -51.099608920002538 -3.1159031554561807 0 0 0 0 -31.556791087561578 -36.576336221420206 0 -36.576336221420206 16.430051172683307 0 0 0 0 255.48687747416261 356.63000970558642 0 356.63000970558642 184.25310415162676 0 0 0 0 -10.081426001666586 -14.629684068243108 0 -14.629684068243108 26.951521508236311 0 0 0 0 -37.344217982550617 -499.81134124636446 0 -499.81134124636446 -1077.6543528062757 0 0 0 0 -352.15556303503399 707.2490312530972 0 707.2490312530972 400.51927098357555 0 0 0 0 -34.706615428811347 -36.938719198116814 0 -36.938719198116814 39.735781674011378 0 0 0 0 -17.373678034117177 -19.16155507976373 0 -19.16155507976373 27.035329167431712 0 0 0 0 -46.549407113635723 -34.955642790800027 0 -34.955642790800027 7.4917051070963225 0 0 0 0 -34.881097938523453 -35.35297587516834 0 -35.35297587516834 28.437439302972052 0 0 0 0 -28.293278810640913 -30.325163966903347 0 -30.325163966903347 18.826405595667893 0 0 0 0 -35.003684290655656 -50.146772935477202 0 -50.146772935477202 -101.10264113187441 0 0 0 0 -339.19468028597475 -36.087942335056141 0 -36.087942335056141 10.640458786903764 0 0 0 0 -17.282793240476167 71.23098563401436 0 71.23098563401436 -69.15796657136525 0 0 0 0 -396.60727560932628 -384.47487966106746 0 -384.47487966106746 -314.73625365764019 0 0 0 0 -1223.6298121516372 -836.98158331307536 0 -836.98158331307536 -105.01315365481423 0 0 0 0 -1191.3780254120247 -22.77232114905496 0 -22.77232114905496 77.453026678558672 0 0 0 0 -0.35278153146886382 -1.5149743199563446 0 -1.5149743199563446 -4.4991180668911284 0 0 0 0 20.52886653760288 -25.07508135684111 0 -25.07508135684111 0.021997519143042155 0 0 0 0 15.702324625861365 -30.735842424139264 0 -30.735842424139264 9.903135726119217 0 0 0 0 33.892551102340803 -29.818291645511636 0 -29.818291645511636 -10.236335603432963 0 0 0 0 -2.6671691241026139 -1.1569141087960588 0 -1.1569141087960588 -0.31081437862854955 0 0 0 0 -9.8026576411284623 -23.389663676942291 0 -23.389663676942291 8.6077540255355416 0 0 0 0 37.950788194941197 -119.62371511435958 0 -119.62371511435958 -28.285234589391621 0 0 0 0 -1.6723432111231489 -6.4321617659249171 0 -6.4321617659249171 -6.6802975988125581 0 0 0 0 -6.9192425166402245 23.244411643900094 0 23.244411643900094 30.439704344484198 0 0 0 0 -19.533669437361823 -17.60738282197417 0 -17.60738282197417 -9.2257881500845542 0 0 0 0 -35.37884176557418 -32.339593993063318 0 -32.339593993063318 -4.4186455220333301 0 0 0 0 -5.7934739897524992 -19.814212571918056 0 -19.814212571918056 -3.7176768031845882 0 0 0 0 -4.6037710513367642 -22.145610353275657 0 -22.145610353275657 5.9043498786832913 0 0 0 0 8.8927768820030906 -39.335822641245613 0 -39.335822641245613 -9.6768713984638453 0 0 0 0 -7.4742112933308817 -34.098429226127337 0 -34.098429226127337 -1.9928005688707344 0 0 0 0 8.7845779554845649 -45.69001934993139 0 -45.69001934993139 4.776758013482322 0 0 0 0 8.0204874002847646 -19.826600600033998 0 -19.826600600033998 3.9292931824747939 0 0 0 0 -52.522072841631598 -18.514853584754746 0 -18.514853584754746 -3.6991432841605274 0 0 0 0 -14.252656358592503 -33.100570700087701 0 -33.100570700087701 -0.0077970413034915108 0 0 0 0 -12.87630889997962 -18.121427856925976 0 -18.121427856925976 13.385124614178707 0 0 0 0 -24.607304544595536 -34.690353226702427 0 -34.690353226702427 -1.4519907298890757 0 0 0 0 -50.908626101616392 -27.347773357625556 0 -27.347773357625556 32.381864333103294 0 0 0 0 -10.952383570300299 -42.195945683459286 0 -42.195945683459286 -4.2132284813310434 0 0 0 0 -3.0062565272237407 -22.26722985701781 0 -22.26722985701781 -4.5985725476348307 0 0 0 0 -1.249542237141867 -17.117003855132992 0 -17.117003855132992 17.544807743144588 0 0 0 0 -29.985801396618854 -35.84517381655769 0 -35.84517381655769 12.048282218485838 0 0 0 0 -15.089381592966674 -40.598712228660588 0 -40.598712228660588 -3.5553227496566251 0 0 0 0 -30.33952140880865 -30.64573065280274 0 -30.64573065280274 6.1476387940929271 0 0 0 0 -23.508355709476234 -21.277165292632311 0 -21.277165292632311 0.69126771726527636 0 0 0 0 -23.956341666198568 -35.76920675697329 0 -35.76920675697329 5.6803463038086193 0 0 0 0 -9.2731814225044218 -106.37625375356583 0 -106.37625375356583 7.795456706895493 0 0 0 0 -18.937451775702357 -43.926705060206586 0 -43.926705060206586 7.443510090757627 0 0 0 0 -27.719006169572822 -39.593970360660023 0 -39.593970360660023 13.021980186967994 0 0 0 0 0.28773152545063851 -10.046895689408672 0 -10.046895689408672 1.3273516342194114 0 0 0 0 145.64648716207012 -35.460417438385775 0 -35.460417438385775 -54.889942990033887 0 0 0 0 19.065295539840008 1.5987000258901389 0 1.5987000258901389 88.924799738393631 0 0 0 0 42.097672112766304 -6.5207815108697105 0 -6.5207815108697105 -105.5922958960582 0 0 0 0 -1.7946193840471096 -37.232513422975899 0 -37.232513422975899 18.058212642645231 0 0 0 0 -8.6193051432201173 -30.205066674418049 0 -30.205066674418049 15.799699511480867 0 0 0 0 1.1894043958091061 -42.895147153052676 0 -42.895147153052676 21.283390458935173 0 0 0 0 -10.693584767839639 -28.263666744314833 0 -28.263666744314833 16.583275337630766 0 0 0 0 -17.33314667500963 -29.041067577447393 0 -29.041067577447393 18.160367532167584 0 0 0 0 -19.399303253063408 -38.742374835863302 0 -38.742374835863302 21.326621174346656 0 0 0 0 -15.910728800983634 -29.719656689812837 0 -29.719656689812837 13.750585159868933 0 0 0 0 -13.420682135329116 -16.509089097569813 0 -16.509089097569813 22.858987769279338 0 0 0 0 -17.975333536439635 -15.82949776815807 0 -15.82949776815807 6.2793485603983186 0 0 0 0 68.350979546179587 48.104465005235397 0 48.104465005235397 -28.517885285895318 0 0 0 0 -36.291089816390013 -24.082023966286215 0 -24.082023966286215 17.004079688747879 0 0 0 0 0.0055506451129474499 -9.858023281421211 0 -9.858023281421211 20.128536987077894 0 0 0 0 -32.850097977563564 -30.269072457907896 0 -30.269072457907896 27.258458225755021 0 0 0 0 -11.668561924576352 -15.719931533232739 0 -15.719931533232739 21.319496008916758 0 0 0 0 -1.483734945504267 -3.3594224553606864 0 -3.3594224553606864 0.20169969367583462 0 0 0 0 -27.394991967332317 -35.412070060934639 0 -35.412070060934639 27.935429369939811 0 0 0 0 -5.1533694398127068 -22.700080379232475 0 -22.700080379232475 46.921357599271971 0 0 0 0 -46.380337760601833 -36.879618792845577 0 -36.879618792845577 34.909481222217437 0 0 0 0 -37.692324447540159 -22.214469837839715 0 -22.214469837839715 37.184574627579423 0 0 0 0 -31.293117477413034 -49.7324482248805 0 -49.7324482248805 33.845167695937562 0 0 0 0 -226.45560272579314 -148.32681343663717 0 -148.32681343663717 47.618000516857137 0 0 0 0 11.520780248774827 -71.429214753767155 0 -71.429214753767155 43.112878812185954 0 0 0 0 -119.23303705078433 -8.7807665374930366 0 -8.7807665374930366 50.784188259931398 0 0 0 0 -91.31869410345098 -62.373701199026982 0 -62.373701199026982 202.47266530641355 0 0 0 0 -8.6848758125961467 6.5784265174188477 0 6.5784265174188477 66.411660781333921 0 0 0 0 630.85515713118366 -56.446039213959011 0 -56.446039213959011 -788.66134957536997 0 0 0 0 -42.576709447144594 -35.270597416778998 0 -35.270597416778998 -3.701731691736228 0 0 0 0 -10.83403765084222 -20.421950802388892 0 -20.421950802388892 60.25918798535713 0 0 0 0 -87.367101338692009 55.32970767156803 0 55.32970767156803 -12.605134291370632 0 0 0 0 -129.25548755734872 -137.01837087168224 0 -137.01837087168224 -140.56551636925724 0 0 0 0 1314.5780338220211 43.913667052860546 0 43.913667052860546 -861.75553081418911 0 0 0 0 -13.685535780401551 -56.299167545883392 0 -56.299167545883392 18.91156161238905 0 0 0 0 -13.433093694548006 -53.796719362042495 0 -53.796719362042495 3.5210478914377745 0 0 0 0 -30.960141318297246 -38.975450811223709 0 -38.975450811223709 50.541694278508658 0 0 0 0 -25.409587594942423 -52.643889957806095 0 -52.643889957806095 47.435395865613827 0 0 0 0 1425.3188543301949 2436.9735888957221 0 2436.9735888957221 -5654.4339665435255 0 0 0 0 12.27201576976222 -38.196891087733093 0 -38.196891087733093 12.415356938319746 0 0 0 0 13.856367918922707 -40.987635713904893 0 -40.987635713904893 29.219818426167308 0 0 0 0 411.6151481431516 -1001.1956398492912 0 -1001.1956398492912 969.94123288814444 0 0 0 0 1056.9978600404866 -653.61951868861797 0 -653.61951868861797 -410.91020823251165 0 0 0 0 456.52373263551272 -993.77082069475728 0 -993.77082069475728 4831.5871495348401 0 0 0 0 13.677624516069955 -65.256870021177747 0 -65.256870021177747 -9.8911971559864469 0 0 0 0 -44.43797306776105 -44.471919231596985 0 -44.471919231596985 46.066643005731748 0 0 0 0 -45.303824983653612 -43.496724724289379 0 -43.496724724289379 66.044279094232479 0 0 0 0 -50.05092477031576 -33.446919174006325 0 -33.446919174006325 44.773131102032494 0 0 0 0 -80.256821659946581 -69.157615716976579 0 -69.157615716976579 49.287064874195494 0 0 0 0 -74.564386310878035 -53.004820485140954 0 -53.004820485140954 83.272699292690959 0 0 0 0 1.9946006214886438 -95.03765002641012 0 -95.03765002641012 -37.987740346929058 0 0 0 0 -68.879448506457265 -143.06505376929999 0 -143.06505376929999 -64.448690770397661 0 0 0 0 -17.257697338471189 -117.573518262172 0 -117.573518262172 -59.696620836853981 0 0 0 0 -1.0406817570996054 -10.971509142714865 0 -10.971509142714865 12.707750510999105 0 0 0 0 -167.959193251736 -120.80472666330752 0 -120.80472666330752 36.13102841147338 0 0 0 0 384.69204766993062 -838.95859981706599 0 -838.95859981706599 -300.40212163282558 0 0 0 0 -498.42790220293682 -281.30208571950789 0 -281.30208571950789 19.753009028238012 0 0 0 0 -140.16451700404286 -52.57125724395155 0 -52.57125724395155 156.23641990445321 0 0 0 0 548.60792024167313 266.12778055686067 0 266.12778055686067 65.836434549535625 0 0 0 0 -937.94986392188002 1006.1287579451455 0 1006.1287579451455 721.0516785508953 0 0 0 0 -145.61130745109404 110.30285692645703 0 110.30285692645703 67.152897486783331 0 0 0 0 -34.795580893769511 -10.731572004704503 0 -10.731572004704503 66.04831331785681 0 0 0 0 -26.419304988485237 -23.354690296226181 0 -23.354690296226181 33.129793283907929 0 0 0 0 -117.47529226820188 -13.95491996076089 0 -13.95491996076089 103.79152826714562 0 0 0 0 -106.52962803057744 -24.55593813752057 0 -24.55593813752057 70.745345615810947 0 0 0 0 -7.9558423003654752 -50.216760421903018 0 -50.216760421903018 -15.636268765170826 0 0 0 0 -33.630610118401819 -40.436706190695986 0 -40.436706190695986 38.695193602587096 0 0 0 0 -38.219556789335911 -37.555762365096598 0 -37.555762365096598 37.520862183911959 0 0 0 0 -33.053986645390978 -43.803184840799076 0 -43.803184840799076 44.496703526441706 0 0 0 0 -30.117497975646984 -39.616108992137015 0 -39.616108992137015 17.839850649761502 0 0 0 0 16.383937338454416 -23.14218039408297 0 -23.14218039408297 6.158391732344171 0 0 0 0 -32.418729478347814 -69.663470013516417 0 -69.663470013516417 51.985739840427414 0 0 0 0 -32.699269618933613 -68.576564164053707 0 -68.576564164053707 60.610599996085512 0 0 0 0 92.494092618988361 -24.750466053897981 0 -24.750466053897981 37.006641376472544 0 0 0 0 136.07577929196123 -7.2910079460998531 0 -7.2910079460998531 34.100953179353382 0 0 0 0 383.36682462003955 -116.53053304509376 0 -116.53053304509376 57.622428112954367 0 0 0 0 146.48934375459794 -148.0317582788266 0 -148.0317582788266 110.067284408462 0 0 0 0 50.450045636302093 -132.25863976919209 0 -132.25863976919209 125.40796632284764 0 0 0 0 -34.64000558139378 -76.181413544902171 0 -76.181413544902171 85.179451600939501 0 0 0 0 -110.00693572497403 -27.758401528240938 0 -27.758401528240938 122.5224212082685 0 0 0 0 -10.983039924612967 -57.346185992842948 0 -57.346185992842948 60.828725772240432 0 0 0 0 -46.26132848252746 -30.789347606201773 0 -30.789347606201773 42.577843579143519 0 0 0 0 -64.552884924749378 -46.762052693549776 0 -46.762052693549776 60.551823984918883 0 0 0 0 -89.100608554297651 15.756842270413472 0 15.756842270413472 46.528768246644177 0 0 0 0 6.2129957858538205 -5.3321642301045173 0 -5.3321642301045173 1.7784844817157079 0 0 0 0 -19.0766573092925 -36.829077569754077 0 -36.829077569754077 -1.7709033784049097 0 0 0 0 -8.1009839367325185 -42.065498300136824 0 -42.065498300136824 30.761131767983898 0 0 0 0 -19.441479143338341 -11.435621442933595 0 -11.435621442933595 36.38438723752634 0 0 0 0 10.126045822427841 -59.771053802385723 0 -59.771053802385723 -57.854603968610718 0 0 0 0 2.3696243331792175 -28.164445490787273 0 -28.164445490787273 34.336311944772433 0 0 0 0 -31.897722381145286 -63.480428517512337 0 -63.480428517512337 30.231835132726701 0 0 0 0 3.3039153382123914 -26.585758058052306 0 -26.585758058052306 16.383881714282325 0 0 0 0 28.399930883148045 -32.640937420983391 0 -32.640937420983391 -52.112562470231751 0 0 0 0 28.03835929921479 -23.867064892539929 0 -23.867064892539929 108.80061375864898 0 0 0 0 23.192755217132799 -187.78291961088689 0 -187.78291961088689 180.50323902910168 0 0 0 0 125.87790210170351 -123.33513008352747 0 -123.33513008352747 79.141673720165272 0 0 0 0 -3.5020551712494807 -21.155169253081453 0 -21.155169253081453 30.52799171527198 0 0 0 0 21.548992981726769 -159.51279971930308 0 -159.51279971930308 66.024294106100569 0 0 0 0 -43.656847374117206 -68.18811517289214 0 -68.18811517289214 63.985480272858695 0 0 0 0 -34.243277127527108 -71.845609282514488 0 -71.845609282514488 -13.20812047644813 0 0 0 0 -33.715142237122109 -34.823246803374673 0 -34.823246803374673 -10.977910521556623 0 0 0 0 -32.237831591395661 -88.990423562994692 0 -88.990423562994692 128.48489231224812 0 0 0 0 -4.6184375091782215 -1.7038508795580469 0 -1.7038508795580469 0.043844012556689904 0 0 0 0 52.336741160972451 42.63595387503301 0 42.63595387503301 110.55857701573404 0 0 0 0 -29.71404877891473 -60.886619791126577 0 -60.886619791126577 -30.846936399425203 0 0 0 0 -13.315235732366602 -16.095819395983312 0 -16.095819395983312 26.044599611662179 0 0 0 0 -318.31519205129007 338.44155498642067 0 338.44155498642067 -40.880619777657557 0 0 0 0 -86.010994991549524 -240.6557851802645 0 -240.6557851802645 479.20071484643995 0 0 0 0 428.17730255272181 124.47339141326665 0 124.47339141326665 110.34699124243343 0 0 0 0 20.908325611195124 -32.054014928780049 0 -32.054014928780049 6.9002320389687952 0 0 0 0 -10.835445617820369 -34.19455202408426 0 -34.19455202408426 -31.488065481004469 0 0 0 0 -8.862774586690648 -43.689039308526844 0 -43.689039308526844 -14.37447843409609 0 0 0 0 -217.12509581231279 -187.68675870037623 0 -187.68675870037623 29.772441291890573 0 0 0 0 66.124983878995408 -277.84233786788536 0 -277.84233786788536 -259.48316919863282 0 0 0 0 64.817704321270867 -196.03881454095244 0 -196.03881454095244 25.158534831780344 0 0 0 0 -650.45577049281565 -264.32094684315234 0 -264.32094684315234 219.20559345757283 0 0 0 0 -586.06216819803376 -473.14805545529089 0 -473.14805545529089 -106.83785538285156 0 0 0 0 -754.78636592207476 -353.44742962772943 0 -353.44742962772943 214.13726016369765 0 0 0 0 -826.01983242029382 -284.63065235610702 0 -284.63065235610702 231.20285519665049 0 0 0 0 -802.36118162389175 -402.31162620653959 0 -402.31162620653959 128.1824237445835 0 0 0 0 -1485.0892579142437 -561.20629327136339 0 -561.20629327136339 94.35054565127939 0 0 0 0 380.7579184518072 132.90382341928125 0 132.90382341928125 -276.37858711775334 0 0 0 0 45.169977829471463 -342.29910784468666 0 -342.29910784468666 -567.99381338102103 0 0 0 0 264.40356693655485 -0.88175304859760217 0 -0.88175304859760217 -186.95371193210303 0 0 0 0 179.00258277584362 9.4106595755365561 0 9.4106595755365561 -47.93586145289737 0 0 0 0 166.81688532359476 3.3272662109338853 0 3.3272662109338853 -21.046589961508289 0 0 0 0 -10.993447318354725 -23.486687911755638 0 -23.486687911755638 21.503517255675916 0 0 0 0 -36.12114579599438 -55.875947184322285 0 -55.875947184322285 -9.8963537130548502 0 0 0 0 161.64883437486787 2.8365523230640974 0 2.8365523230640974 30.619546910747886 0 0 0 0 -40.539279611213715 -39.996652026573429 0 -39.996652026573429 9.9988906596699962 0 0 0 0 -28.756443734320186 -40.50133451808 0 -40.50133451808 12.785207953519716 0 0 0 0 5.8116109914844856 -32.077687533514109 0 -32.077687533514109 41.764850498526357 0 0 0 0 -19.338978918186683 -29.383238211800219 0 -29.383238211800219 7.2939819405544881 0 0 0 0 -3.3790569824956123 -8.0097308633735693 0 -8.0097308633735693 10.4915286707311 0 0 0 0 -5.8612276065832702 -30.756150650626296 0 -30.756150650626296 -56.19802499510115 0 0 0 0 1.0230023207041086 -1.5661473602594924 0 -1.5661473602594924 44.120195183491887 0 0 0 0 -207.38667544718191 -105.32236024062877 0 -105.32236024062877 227.53298302937765 0 0 0 0 163.05714962923958 -51.849526410798717 0 -51.849526410798717 25.983750985524239 0 0 0 0 -19.283042923227626 -17.691447604766665 0 -17.691447604766665 -1.56729689106254 0 0 0 0 29.375166000310855 -328.25160230686743 0 -328.25160230686743 111.3889767151577 0 0 0 0 150.31170772193946 -107.08285553234964 0 -107.08285553234964 69.168341163443984 0 0 0 0 159.408133490404 -67.928544994014374 0 -67.928544994014374 -44.552754334014026 0 0 0 0 265.25754379699356 8.8131674226387986 0 8.8131674226387986 -235.11653043135448 0 0 0 0 74.634135868076555 -170.02673572769709 0 -170.02673572769709 64.811071151532815 0 0 0 0 -14.602187798100104 -11.007668062838476 0 -11.007668062838476 -8.4010958531928566 0 0 0 0 -66.114909313422686 45.84480336435081 0 45.84480336435081 25.323571234301198 0 0 0 0 -108.56224173134433 -52.232347678629594 0 -52.232347678629594 109.59564043405408 0 0 0 0 -105.45424727009959 55.280899111043254 0 55.280899111043254 29.369362418030505 0 0 0 0 17.024194902565796 -91.934726140993007 0 -91.934726140993007 68.975364497120609 0 0 0 0 10.54067131919146 -54.839674588518392 0 -54.839674588518392 -54.595676035518409 0 0 0 0 -119.73367562187923 -24.529351251854678 0 -24.529351251854678 8.5056846998049878 0 0 0 0 41.94801457056019 -0.23243697384168627 0 -0.23243697384168627 7.4928450565021194 0 0 0 0 67.803940592057188 -60.445497135417099 0 -60.445497135417099 -40.680148665440356 0 0 0 0 -56.342839211327373 43.906244593177689 0 43.906244593177689 10.172428067031433 0 0 0 0 -731.11401756182022 -647.5180900373598 0 -647.5180900373598 -166.17756134230694 0 0 0 0 78.0044226244936 -134.44245507677624 0 -134.44245507677624 -323.39390625160013 0 0 0 0 -7.1137314315320594 -4.0698741830305991 0 -4.0698741830305991 -1.9873192112979723 0 0 0 0 -1059.8465481882085 -15.900658254453447 0 -15.900658254453447 271.20557119386103 0 0 0 0 -1028.0637495900519 -451.39683108017198 0 -451.39683108017198 219.86425814366044 0 0 0 0 -465.27307249052683 32.083478192602342 0 32.083478192602342 236.21465279004769 0 0 0 0 -927.11642299035339 -146.69280979353334 0 -146.69280979353334 -31.476328139382531 0 0 0 0 -170.19155796892301 -173.26790554738545 0 -173.26790554738545 -107.45445272288634 0 0 0 0 -438.61169130880489 -211.88301541662202 0 -211.88301541662202 -42.33602677185263 0 0 0 0 -29.645040518647875 -86.670479371387046 0 -86.670479371387046 -193.88605994123645 0 0 0 0 -267.71940058109612 -137.59948631680891 0 -137.59948631680891 -272.90712452010848 0 0 0 0 -449.52244857327332 -472.31515440569683 0 -472.31515440569683 -390.33071266395564 0 0 0 0 -530.05234352999832 -572.36294603247006 0 -572.36294603247006 -158.36475722018804 0 0 0 0 -360.86943598946891 -132.36378097572288 0 -132.36378097572288 411.68092909875122 0 0 0 0 -5.1847344929330177 -3.0222900464015936 0 -3.0222900464015936 -1.0607437718220183 0 0 0 0 100.02511587061599 -696.93949150610933 0 -696.93949150610933 -551.77497886195852 0 0 0 0 -71.622107167931972 -659.40861131290876 0 -659.40861131290876 -558.56571686228926 0 0 0 0 90.055914637741807 -735.34810407927944 0 -735.34810407927944 -1022.0900122236926 0 0 0 0 110.95801078827935 -30.589676823299669 0 -30.589676823299669 -1149.7754633882987 0 0 0 0 -7.5932347023495055 -6.8188841243605545 0 -6.8188841243605545 -8.3001073451002583 0 0 0 0 -499.62609511006212 -308.29713687447475 0 -308.29713687447475 -56.167573659557092 0 0 0 0 27.279527110913477 -121.13732829949367 0 -121.13732829949367 -429.94575448241085 0 0 0 0 33.091574321661028 -24.297866016855551 0 -24.297866016855551 -160.24482591347623 0 0 0 0 -166.03478600060771 -159.73338368644909 0 -159.73338368644909 -151.26164193536533 0 0 0 0 -140.59943723052129 37.065927043855481 0 37.065927043855481 -100.35504426739863 0 0 0 0 -1.297173867103993 -17.475513997804228 0 -17.475513997804228 -82.681760432184092 0 0 0 0 -329.55455893467297 -119.11841126440049 0 -119.11841126440049 -100.37503913506953 0 0 0 0 -22.004305645037675 -62.113084169559443 0 -62.113084169559443 -211.30564328283799 0 0 0 0 -443.62543016490235 -467.1738252643263 0 -467.1738252643263 -390.12927271906665 0 0 0 0 852.88717534181342 -386.80148391462171 0 -386.80148391462171 159.31322945575812 0 0 0 0 244.56414026105631 -318.03607321344316 0 -318.03607321344316 505.99309557041124 0 0 0 0 579.11411896719801 -733.05869138998241 0 -733.05869138998241 397.74183342268407 0 0 0 0 710.54480135571157 -913.80106244382296 0 -913.80106244382296 1247.9118135132885 0 0 0 0 365.16366046519033 -280.4798481898506 0 -280.4798481898506 881.37208070693305 0 0 0 0 -48.740177884086734 -70.857183855849144 0 -70.857183855849144 1224.9672225359973 0 0 0 0 -353.47622944055911 62.455778145344084 0 62.455778145344084 828.61465837105061 0 0 0 0 112.71839987486601 -363.58218876225874 0 -363.58218876225874 743.18361984261446 0 0 0 0 -194.31016192583775 87.821525342766108 0 87.821525342766108 504.66133228070248 0 0 0 0 -30.569134529316216 -63.876907487945573 0 -63.876907487945573 119.53459686360293 0 0 0 0 -156.46005565227824 66.988282604343112 0 66.988282604343112 515.55249359166919 0 0 0 0 54.331419292968576 -213.06730990414974 0 -213.06730990414974 292.33083263945446 0 0 0 0 -171.0772911958411 -422.96188302188966 0 -422.96188302188966 570.57456041752084 0 0 0 0 -9.9170319291630165 -4.6019445355863411 0 -4.6019445355863411 -0.82697891105250676 0 0 0 0 32.977883080558513 24.997245282465315 0 24.997245282465315 23.807700530764123 0 0 0 0 -822.22501591225591 -569.21877270726327 0 -569.21877270726327 -134.59893072306295 0 0 0 0 -579.1308244297179 -723.11467564769191 0 -723.11467564769191 -405.62108637334313 0 0 0 0 599.1670579605161 -552.96290047830189 0 -552.96290047830189 -878.65020431672019 0 0 0 0 53.124594601515128 -893.37382003785387 0 -893.37382003785387 -947.8499552243884 0 0 0 0 58.80963704678652 -62.883321830180648 0 -62.883321830180648 -996.38096104972647 0 0 0 0 267.08387865292752 -365.16209677404368 0 -365.16209677404368 -35.212725135126675 0 0 0 0 161.2524008738983 -493.13729715139925 0 -493.13729715139925 32.937872418227016 0 0 0 0 635.37499946769458 -757.25837939833582 0 -757.25837939833582 -901.27002876859478 0 0 0 0 556.25213241317397 -1007.0763648895663 0 -1007.0763648895663 -609.55601438116719 0 0 0 0 577.24994885187789 -851.99278008251258 0 -851.99278008251258 455.67836231178808 0 0 0 0 -17.513354600407183 -518.15751300389093 0 -518.15751300389093 521.02665039434942 0 0 0 0 -21.339037422882939 -564.67558869984259 0 -564.67558869984259 201.03848803848814 0 0 0 0 122.24734049990639 -897.0783056039345 0 -897.0783056039345 -693.09285560148419 0 0 0 0 380.93464243897324 -298.6084285595316 0 -298.6084285595316 150.62986544530031 0 0 0 0 653.75530625971078 -707.54659399437514 0 -707.54659399437514 736.28765365939762 0 0 0 0 210.28980124105146 -646.76705208990461 0 -646.76705208990461 1696.0461875878045 0 0 0 0 97.777782951583504 -300.82208052353963 0 -300.82208052353963 -956.38758859692462 0 0 0 0 5.5611301117339451 -1.3407927827113184 0 -1.3407927827113184 0.14612111887500845 0 0 0 0 31.934360129489505 -266.72536609181407 0 -266.72536609181407 -305.2204445858124 0 0 0 0 -221.99389493674607 -102.13910380596826 0 -102.13910380596826 -99.950252300739521 0 0 0 0 152.17541047565464 -439.78132889432163 0 -439.78132889432163 930.03926068737201 0 0 0 0 17.475528514081589 -2.7831932400041666 0 -2.7831932400041666 0.10471716884263316 0 0 0 0 171.40525245312892 -432.30734032292457 0 -432.30734032292457 918.05597565797507 0 0 0 0 154.62099634743208 -426.29387547482838 0 -426.29387547482838 915.91828043981513 0 0 0 0 285.85125225639604 -534.55925681476492 0 -534.55925681476492 818.23182551762147 0 0 0 0 209.79548632570368 -477.49333940679207 0 -477.49333940679207 845.74424578540493 0 0 0 0 175.96424156423745 -517.36920862147963 0 -517.36920862147963 841.29379284529568 0 0 0 0 143.31959683874447 -506.19214350198308 0 -506.19214350198308 842.49554827471684 0 0 0 0 215.38354288616392 -409.72546136545134 0 -409.72546136545134 789.77463358377645 0 0 0 0 383.10843022347217 -399.90097518526272 0 -399.90097518526272 789.79385493556038 0 0 0 0 206.12105414250618 -342.9095531453695 0 -342.9095531453695 834.2338013659828 0 0 0 0 268.04187698034366 -320.36474215119597 0 -320.36474215119597 779.62037744058034 0 0 0 0 214.31364163690159 -360.93421092593053 0 -360.93421092593053 835.6908256942711 0 0 0 0 178.48583184160611 -349.24381168394348 0 -349.24381168394348 896.8921271748186 0 0 0 0 223.35196315119174 -276.07379399953425 0 -276.07379399953425 584.64100912199501 0 0 0 0 -34.968967824446736 -35.54984134141705 0 -35.54984134141705 92.578784759103655 0 0 0 0 4.8299886676185224 -15.613695150632083 0 -15.613695150632083 -12.251292431455965 0 0 0 0 25.131564984520082 -27.514962374967581 0 -27.514962374967581 -19.749497610744584 0 0 0 0 4.0620849625799309 -12.865438333431008 0 -12.865438333431008 -12.864508397054635 0 0 0 0 15.407991297935951 -8.6935499714236357 0 -8.6935499714236357 11.303717856731964 0 0 0 0 8.7219277983539882 -18.365652503929155 0 -18.365652503929155 -11.132591633776585 0 0 0 0 5.4171630571363494 -16.422114738577875 0 -16.422114738577875 -45.021125133192982 0 0 0 0 3.237225927223335 -6.276191020193437 0 -6.276191020193437 43.48160348712554 0 0 0 0 -62.787792563882249 26.668128907702339 0 26.668128907702339 -1.6742485929717077 0 0 0 0 23.757607323590491 -22.271731425687904 0 -22.271731425687904 15.223409559381253 0 0 0 0 -54.027017516136311 -80.953198576208933 0 -80.953198576208933 -26.485410201086779 0 0 0 0 -34.121782286340022 -39.64877433431684 0 -39.64877433431684 -83.925704262052022 0 0 0 0 12.223874791840444 -127.32111867367712 0 -127.32111867367712 -12.242106243415037 0 0 0 0 -14.544522564674168 -22.238853973105311 0 -22.238853973105311 -18.242568067561706 0 0 0 0 -72.491079946448735 -114.19851886016932 0 -114.19851886016932 -4.717598606046522 0 0 0 0 32.533305588127405 127.00412745466383 0 127.00412745466383 51.494738082132244 0 0 0 0 142.81274572468101 -435.64208668133142 0 -435.64208668133142 928.33648368270224 0 0 0 0 29.991552778983191 -4.5545446876711964 0 -4.5545446876711964 -8.7603954355628986 0 0 0 0 207.05873238614004 -290.19929254786985 0 -290.19929254786985 363.9958687458693 0 0 0 0 126.41463848527928 -89.207425313878048 0 -89.207425313878048 -66.901045129932754 0 0 0 0 182.59673619515524 -360.48039205102395 0 -360.48039205102395 516.50549514997692 0 0 0 0 238.75635775295086 -502.73695597651385 0 -502.73695597651385 421.91162131992678 0 0 0 0 98.775030800174136 -324.94797420512623 0 -324.94797420512623 662.30889616019704 0 0 0 0 162.75957089857548 -545.44207550666761 0 -545.44207550666761 781.62947577957311 0 0 0 0 136.02446020700881 -520.19394893369827 0 -520.19394893369827 925.10769805754535 0 0 0 0 124.24403398162394 -565.97984792552597 0 -565.97984792552597 846.30621088961198 0 0 0 0 146.97874084147043 -551.57949322924833 0 -551.57949322924833 841.50293830009468 0 0 0 0 282.93062421993091 -705.99042061625369 0 -705.99042061625369 821.06488169822114 0 0 0 0 97.740091995918192 -592.19706622454396 0 -592.19706622454396 1096.2483331104377 0 0 0 0 322.57258679601728 -543.76682292844725 0 -543.76682292844725 451.99658160080435 0 0 0 0 582.30109037821239 -1028.8135925626993 0 -1028.8135925626993 1196.5697854323989 0 0 0 0 1052.0850707661193 -430.32113418217705 0 -430.32113418217705 77.887386755013722 0 0 0 0 359.30490817359532 -568.80904772905706 0 -568.80904772905706 396.25987135197647 0 0 0 0 165.02701723253904 -130.27797446679483 0 -130.27797446679483 58.028263754415093 0 0 0 0 209.92854407826871 90.386691025601976 0 90.386691025601976 26.285369975303183 0 0 0 0 4.9039221389071059 -17.695978537055112 0 -17.695978537055112 -7.512827949470676 0 0 0 0 1.8349531440535429 -36.167797149807029 0 -36.167797149807029 -27.180198520552949 0 0 0 0 -1.894404227627092 -13.999427182490763 0 -13.999427182490763 -3.3115390596649377 0 0 0 0 0.89342496101744473 -43.875426214865001 0 -43.875426214865001 -1.6805751425204107 0 0 0 0 -0.3352079963580934 -15.857685449328343 0 -15.857685449328343 -19.087001967176491 0 0 0 0 197.68237078863604 294.78216003793932 0 294.78216003793932 -124.09048714696837 0 0 0 0 -24.386707691399351 -47.421581229362346 0 -47.421581229362346 -28.86479943379527 0 0 0 0 -5.1258257868387318 -29.726383182592386 0 -29.726383182592386 -16.883524058277686 0 0 0 0 0.64857513342155926 -10.112985042972824 0 -10.112985042972824 0.12889517350535584 0 0 0 0 -125.96506521495758 -305.0670141546143 0 -305.0670141546143 1842.8327374075743 0 0 0 0 193.65086737155798 295.14064035732736 0 295.14064035732736 1166.4890129727137 0 0 0 0 -161.19580732099712 113.96257894337759 0 113.96257894337759 -54.052957841806347 0 0 0 0 -256.253007690304 70.443067528898609 0 70.443067528898609 854.32714452204527 0 0 0 0 -5.0205579105718527 -1.6909573238007454 0 -1.6909573238007454 7.911047793956385 0 0 0 0 -283.40658438208629 -92.711520622528042 0 -92.711520622528042 1062.9085011719144 0 0 0 0 -209.51932873432816 -258.43381383818632 0 -258.43381383818632 1224.6609940288472 0 0 0 0 -63.206800677231513 -271.3931714954233 0 -271.3931714954233 998.42206435712069 0 0 0 0 -148.62401758105261 -307.21858329571842 0 -307.21858329571842 805.20679604125689 0 0 0 0 -219.49322097278491 -160.38345644775836 0 -160.38345644775836 741.69612515693007 0 0 0 0 -227.25392407845357 39.428649117631721 0 39.428649117631721 431.279698245482 0 0 0 0 -69.443393449779251 -234.13932283165923 0 -234.13932283165923 579.04009231517557 0 0 0 0 -87.521876879807678 -101.02278185526666 0 -101.02278185526666 346.32700140214365 0 0 0 0 -70.428641178725229 -95.770335232478828 0 -95.770335232478828 347.75066748136305 0 0 0 0 -24.796727450928302 -72.846320586118964 0 -72.846320586118964 196.44535612745676 0 0 0 0 29.538678516066284 -118.23047206496267 0 -118.23047206496267 225.70174900544225 0 0 0 0 -98.770253172900993 -202.36977104042307 0 -202.36977104042307 -101.08814031968359 0 0 0 0 -11.198493602198795 -16.744511730068979 0 -16.744511730068979 18.966438930309096 0 0 0 0 -212.48772159265354 -248.58297466993099 0 -248.58297466993099 -37.312136354041286 0 0 0 0 -216.56587863829918 -145.31826783284487 0 -145.31826783284487 223.17423074763792 0 0 0 0 -21.153673431181232 -101.48547050649358 0 -101.48547050649358 205.72372648540477 0 0 0 0 8.1490315023402218 -86.11145056506939 0 -86.11145056506939 192.5746626868131 0 0 0 0 8.6576199807750527 -196.1303813937775 0 -196.1303813937775 273.97216961275262 0 0 0 0 63.23000455343572 -145.55971199853957 0 -145.55971199853957 113.57610769044186 0 0 0 0 26.744847977608515 -87.727237512024658 0 -87.727237512024658 186.66019085342123 0 0 0 0 -11.02732452948112 -84.437519901781343 0 -84.437519901781343 198.91606290897471 0 0 0 0 -40.005364457145333 -47.96984772884025 0 -47.96984772884025 133.17362441368459 0 0 0 0 -28.265320081269238 5.4348641729047813 0 5.4348641729047813 50.636059899057727 0 0 0 0 -1.620078410678758 -0.9829125633216762 0 -0.9829125633216762 1.9142206153455277 0 0 0 0 -39.853923264337482 -104.3335271759845 0 -104.3335271759845 -340.27852833618817 0 0 0 0 -10.854176018234256 -28.26550686190231 0 -28.26550686190231 3.6588728153001995 0 0 0 0 -6.9220479555151542 -37.003399233522941 0 -37.003399233522941 -35.653770631750376 0 0 0 0 -42.64125863276422 -176.22550480802602 0 -176.22550480802602 -335.99947642476764 0 0 0 0 -23.821555672227987 -51.26750282908688 0 -51.26750282908688 -24.503519680220052 0 0 0 0 -26.136343422860875 -36.771406616599251 0 -36.771406616599251 -6.3886998321141988 0 0 0 0 43.323696666004253 -47.160277956980281 0 -47.160277956980281 -113.33541858619719 0 0 0 0 25.632854728948047 -15.117487617274776 0 -15.117487617274776 -28.999897097283224 0 0 0 0 39.242442135731835 29.76861394608386 0 29.76861394608386 2.8378932660270948 0 0 0 0 -76.521166543243453 -86.950201308900432 0 -86.950201308900432 -23.340848210715194 0 0 0 0 -24.759503316940027 -17.000804305444035 0 -17.000804305444035 -67.506056686819647 0 0 0 0 5.9707971801585984 3.9626875914281641 0 3.9626875914281641 0.46927118328872552 0 0 0 0 77.903358361103528 38.705379499486298 0 38.705379499486298 -39.485896418816992 0 0 0 0 65.348717541499354 27.202458811003453 0 27.202458811003453 -0.00035830864362651482 0 0 0 0 21.58394233215401 -15.943455839401565 0 -15.943455839401565 -20.610621632678601 0 0 0 0 -130.58655920970341 -96.098370992702257 0 -96.098370992702257 -43.675738622732752 0 0 0 0 52.000331613693561 -4.2334615232975921 0 -4.2334615232975921 -14.733225199379376 0 0 0 0 -11.54060752379155 -51.335593512703781 0 -51.335593512703781 -52.345313498943142 0 0 0 0 -13.063381973288415 -41.709348557428712 0 -41.709348557428712 -46.586534924004809 0 0 0 0 -16.990809007392784 -27.643817978224721 0 -27.643817978224721 -26.947321375025922 0 0 0 0 -17.650692026178149 -65.017310216971964 0 -65.017310216971964 -77.643325336000999 0 0 0 0 -94.844102258994099 -64.190700777442544 0 -64.190700777442544 -36.347036685765488 0 0 0 0 -65.062088975319057 -90.720416125084739 0 -90.720416125084739 -81.930994524533162 0 0 0 0 -32.369680688199878 -47.861346880170458 0 -47.861346880170458 -70.589712796660024 0 0 0 0 -8.0558084996310129 -13.196031025672823 0 -13.196031025672823 -4.0201305588922764 0 0 0 0 -19.420781551416439 -51.508275544969365 0 -51.508275544969365 -59.894638887575638 0 0 0 0 -33.675372105826682 -50.338923201787111 0 -50.338923201787111 -59.086569185417829 0 0 0 0 -22.949517195454973 -56.519897829624824 0 -56.519897829624824 -60.312610125838546 0 0 0 0 -6.8962630854454972 -16.055758767129703 0 -16.055758767129703 4.6145584438434639 0 0 0 0 -38.237729946708384 -50.81061328387878 0 -50.81061328387878 -16.90969054712675 0 0 0 0 -107.4428743267199 -79.10352091110326 0 -79.10352091110326 -61.171990388451377 0 0 0 0 -7.3662246399066049 -30.433788636465778 0 -30.433788636465778 -22.749566011293716 0 0 0 0 -12.515181681214017 -50.120191236870596 0 -50.120191236870596 -99.235150802771386 0 0 0 0 -30.977381069625935 -47.712238532007575 0 -47.712238532007575 -3.8662108592036475 0 0 0 0 -37.586033094931736 -78.521312023770406 0 -78.521312023770406 -163.81215398389759 0 0 0 0 4.9172215491853422 -40.780134302847728 0 -40.780134302847728 -74.699184116310789 0 0 0 0 -5.7022991827343219 -6.2363248456127565 0 -6.2363248456127565 -17.458847213928294 0 0 0 0 -51.448232528215158 -42.413789507972979 0 -42.413789507972979 -16.767027173147653 0 0 0 0 12.317713523021666 6.326494296969031 0 6.326494296969031 -36.233115528462804 0 0 0 0 6.7384641346288845 -68.076448150233773 0 -68.076448150233773 24.048696848418331 0 0 0 0 -9.1059166962950258 -26.204494235629681 0 -26.204494235629681 -12.776536385586951 0 0 0 0 4.1163728119427105 -129.27725056209601 0 -129.27725056209601 31.482998446768761 0 0 0 0 -17.309202150907367 -98.627930942515377 0 -98.627930942515377 115.73393353273423 0 0 0 0 -50.853153101033058 -43.974817250728847 0 -43.974817250728847 -57.412570613349089 0 0 0 0 -48.16762789733184 -30.416160793662129 0 -30.416160793662129 -8.9580293702601921 0 0 0 0 -178.48243064749113 -151.46267154666566 0 -151.46267154666566 -54.513359984654016 0 0 0 0 -52.143270425471201 -28.573481067105604 0 -28.573481067105604 2.3272331682674121 0 0 0 0 -12.050700565044835 -6.0409237879363218 0 -6.0409237879363218 -3.3643667107079125 0 0 0 0 -49.280742094065914 -32.844109266073133 0 -32.844109266073133 1.0885795111085059 0 0 0 0 -69.13046978940838 -65.218730592154316 0 -65.218730592154316 12.825702291516791 0 0 0 0 -46.123464689859247 -8.4929050175087468 0 -8.4929050175087468 -7.7843722800753312 0 0 0 0 7.6196571718619452 -96.768063725030515 0 -96.768063725030515 9.7630701338348445 0 0 0 0 -19.313892246711475 -96.134082641656278 0 -96.134082641656278 -1.754769926870722 0 0 0 0 53.542426369404438 -72.331316091949702 0 -72.331316091949702 -5.1482377414504299 0 0 0 0 -12.009960332428456 -14.987824358532663 0 -14.987824358532663 -2.6099820541195129 0 0 0 0 -3.6449785227086977 -92.228705240104318 0 -92.228705240104318 54.201503066335135 0 0 0 0 -34.181320402860145 -48.551952574274807 0 -48.551952574274807 8.9376222850424654 0 0 0 0 -12.549199318724277 -87.942278343602084 0 -87.942278343602084 -225.83376488046633 0 0 0 0 -5.3586760831290121 -85.767330606788164 0 -85.767330606788164 -227.85313893818238 0 0 0 0 9.3341443971918725 -86.980697486532364 0 -86.980697486532364 -43.861175300099603 0 0 0 0 4.8435053804359995 -66.717070931423223 0 -66.717070931423223 -219.56013320276543 0 0 0 0 -40.716084182411578 -85.381614823098062 0 -85.381614823098062 -201.48678990925691 0 0 0 0 -17.677850145904813 -37.559620939042361 0 -37.559620939042361 -67.899273247545352 0 0 0 0 -0.21892843875165369 -20.100097736412252 0 -20.100097736412252 -67.042870084064248 0 0 0 0 -18.05812903360129 -73.518480435799574 0 -73.518480435799574 -205.98232692202873 0 0 0 0 -25.223002916390364 -64.459890210873112 0 -64.459890210873112 -65.437015504752623 0 0 0 0 6.7577512545209686 -31.06557146971678 0 -31.06557146971678 -49.489309571623039 0 0 0 0 -9.8122642095913761 -35.07523062304972 0 -35.07523062304972 -38.162834521848708 0 0 0 0 18.103925044124985 -36.47755408700408 0 -36.47755408700408 -33.59951048047229 0 0 0 0 2.748341215083201 -64.576851831901877 0 -64.576851831901877 -39.838383092632284 0 0 0 0 -4.3870888487508637 -85.749421095722937 0 -85.749421095722937 -74.052499416749924 0 0 0 0 -16.312955642983496 -72.352504101264941 0 -72.352504101264941 -38.476291183695515 0 0 0 0 25.22484379510761 -66.895829586315074 0 -66.895829586315074 -68.561356509477491 0 0 0 0 -73.070696122625577 -91.068709602313902 0 -91.068709602313902 58.928965533814335 0 0 0 0 -20.647560988224541 -113.9007607974163 0 -113.9007607974163 62.304040282444475 0 0 0 0 -16.679139740300915 -86.596649036372568 0 -86.596649036372568 -26.913356383853277 0 0 0 0 1.09652376360566 -87.218738481477885 0 -87.218738481477885 29.164752870558004 0 0 0 0 -1.0438695988202653 -91.700466418227734 0 -91.700466418227734 -247.23558103851974 0 0 0 0 -3.5590293859816455 -5.8456671718659834 0 -5.8456671718659834 -6.4218803122341228 0 0 0 0 -123.2680623494299 -194.90299906366272 0 -194.90299906366272 70.181283475132659 0 0 0 0 638.53914891396607 63.017143165099696 0 63.017143165099696 -1281.0383848403289 0 0 0 0 -91.006684897303671 -26.579273536248365 0 -26.579273536248365 -205.99862880000001 0 0 0 0 44.848108249781035 -33.570753870451881 0 -33.570753870451881 29.804315286310157 0 0 0 0 -3.8260696343821792 -95.712631714372037 0 -95.712631714372037 -38.843681781901978 0 0 0 0 95.008853235200149 -26.608877459715586 0 -26.608877459715586 -46.633268836470961 0 0 0 0 93.812864901252397 -24.775036453429493 0 -24.775036453429493 -45.537731963384431 0 0 0 0 4.7518332193494643 -68.803189024227322 0 -68.803189024227322 -266.47977507250471 0 0 0 0 -14.744772951023544 -15.264722483027555 0 -15.264722483027555 -16.734618576529613 0 0 0 0 91.63963286596794 -42.719873382891819 0 -42.719873382891819 -28.523676414013607 0 0 0 0 -12.325120244464415 21.976574755768524 0 21.976574755768524 -232.03459975189617 0 0 0 0 77.100312790311136 -29.422020013229485 0 -29.422020013229485 -26.450051407286082 0 0 0 0 60.601834492303169 -20.757769627445668 0 -20.757769627445668 -30.952866419560451 0 0 0 0 -123.0457144018892 85.026648165565348 0 85.026648165565348 -17.716738681032439 0 0 0 0 -9.9501012657574641 -0.36773412598398636 0 -0.36773412598398636 -7.862392645695536 0 0 0 0 58.709218300981775 6.790330778581847 0 6.790330778581847 -38.841684630780946 0 0 0 0 89.827550975979193 -15.67300744127715 0 -15.67300744127715 -57.081321247795131 0 0 0 0 89.849709907177385 1.4138634779374115 0 1.4138634779374115 -50.018016235764662 0 0 0 0 96.838178007685201 2.3366055651858915 0 2.3366055651858915 -79.487453143141465 0 0 0 0 90.760706566283261 -42.304537083706236 0 -42.304537083706236 -109.8447388955974 0 0 0 0 129.06050360581207 -8.3552015638761077 0 -8.3552015638761077 -88.700396955042379 0 0 0 0 -15.039008155855299 -44.49981516967091 0 -44.49981516967091 -49.787708476549597 0 0 0 0 -14.922232892673492 -56.623869550501695 0 -56.623869550501695 -62.817662474459212 0 0 0 0 -10.232385132119205 -32.898064881712912 0 -32.898064881712912 -48.594695634789161 0 0 0 0 -18.189353462272258 -31.842341356899041 0 -31.842341356899041 -38.234478011484796 0 0 0 0 -21.285168318365322 -33.177572667598724 0 -33.177572667598724 -53.119117580499733 0 0 0 0 -18.730471891191428 -70.259575606010912 0 -70.259575606010912 -193.83561657270184 0 0 0 0 -43.524644117572279 -14.903819879473303 0 -14.903819879473303 -66.919275024687522 0 0 0 0 -5.2997410741642277 -12.475847964634141 0 -12.475847964634141 -13.478981709814704 0 0 0 0 -7.8216499732759175 -12.18082202015492 0 -12.18082202015492 -27.462092181346236 0 0 0 0 -31.891728816041905 -50.814773038908243 0 -50.814773038908243 -47.158345484480378 0 0 0 0 -37.416067147846448 -41.009317013986788 0 -41.009317013986788 -31.860127964051372 0 0 0 0 -34.220400489694839 -137.36387747892149 0 -137.36387747892149 -55.884116652370722 0 0 0 0 -19.849807222210075 -45.771562243273365 0 -45.771562243273365 -49.795284707040992 0 0 0 0 -17.221883326106763 -36.643481756344045 0 -36.643481756344045 -37.416386525321286 0 0 0 0 -10.232914403922436 -35.423800186196274 0 -35.423800186196274 -27.503133298378799 0 0 0 0 -5.0508713640883798 -36.654509536674595 0 -36.654509536674595 -18.377696397386899 0 0 0 0 -0.72586805164987567 -23.892180886661009 0 -23.892180886661009 -26.296007572820201 0 0 0 0 13.215343867733935 -43.783050956254556 0 -43.783050956254556 -30.552992115990492 0 0 0 0 11.467315275924193 -48.060486280308396 0 -48.060486280308396 -40.606336392153025 0 0 0 0 13.125214151191361 -29.968501446306362 0 -29.968501446306362 -31.909196793742012 0 0 0 0 22.713237901141838 -60.944253851834219 0 -60.944253851834219 -133.47746919799829 0 0 0 0 37.218429665249019 -19.515693516006934 0 -19.515693516006934 -12.460152875416327 0 0 0 0 -324.16767038201624 -282.95060979640766 0 -282.95060979640766 -228.2041677198722 0 0 0 0 4.8501321303857559 2.3533721570110036 0 2.3533721570110036 0.26528122992584713 0 0 0 0 4.8711524612341872 -23.83849571578024 0 -23.83849571578024 -26.200650420108275 0 0 0 0 11.799482112633086 -50.442371521654422 0 -50.442371521654422 -47.344210055336589 0 0 0 0 15.141947622069893 -49.350248420967546 0 -49.350248420967546 -54.595930090203183 0 0 0 0 -12.869495152964191 84.162929015146801 0 84.162929015146801 7.536107535875999 0 0 0 0 81.895844663806201 56.252617421647301 0 56.252617421647301 -82.374708390893829 0 0 0 0 160.39572096831557 130.07731051656447 0 130.07731051656447 -25.723344552738126 0 0 0 0 69.64373832964975 38.350787837909593 0 38.350787837909593 19.361354963039048 0 0 0 0 136.05375031042786 -383.09306137093517 0 -383.09306137093517 -188.0874627429439 0 0 0 0 -795.06902727238048 -160.01414015900809 0 -160.01414015900809 183.8511925257335 0 0 0 0 -9.0985090094636387 -5.5707279682419539 0 -5.5707279682419539 1.9467015044331788 0 0 0 0 -351.78826877604206 -80.493162176702754 0 -80.493162176702754 -25.515961332479492 0 0 0 0 -303.59828650168402 -98.65093772453838 0 -98.65093772453838 -45.473080829018727 0 0 0 0 -362.51994167591329 11.128566349252651 0 11.128566349252651 5.7373163464653771 0 0 0 0 -110.90425292689906 10.266489629662829 0 10.266489629662829 -136.24748928596091 0 0 0 0 -168.94245476632386 49.216440222473466 0 49.216440222473466 -120.34958834122517 0 0 0 0 192.14037411294612 -103.275784139194 0 -103.275784139194 -209.96528105647303 0 0 0 0 -166.87275665043489 -276.09919607249321 0 -276.09919607249321 -81.484770885086618 0 0 0 0 -163.50226545628175 33.146208843492786 0 33.146208843492786 -105.00566837163933 0 0 0 0 -37.653649365761339 158.53565354738384 0 158.53565354738384 -20.02237292351856 0 0 0 0 -1.2252832001519103 3.1151453491565633 0 3.1151453491565633 -1.6783137063191589 0 0 0 0 72.845912943334497 109.83369260667678 0 109.83369260667678 -142.84431154315826 0 0 0 0 -116.06163516232846 86.169663617256447 0 86.169663617256447 -55.62506778097304 0 0 0 0 -118.39671596584049 96.034299869781535 0 96.034299869781535 161.43552493136667 0 0 0 0 -113.92946582465629 32.707681663559924 0 32.707681663559924 -85.809335333287891 0 0 0 0 -421.59241473720886 -67.335882333260088 0 -67.335882333260088 96.972653313394403 0 0 0 0 -146.84199263223309 90.989350127107173 0 90.989350127107173 8.9596932341228239 0 0 0 0 -279.75755468152965 -56.64167310843186 0 -56.64167310843186 -126.60584704761277 0 0 0 0 -464.22340982114474 103.48949666954286 0 103.48949666954286 -111.51073928101687 0 0 0 0 11.78316398978513 -1.4215472570946019 0 -1.4215472570946019 -11.205908923391775 0 0 0 0 -406.74349266367608 -29.214807002637826 0 -29.214807002637826 194.78674063034123 0 0 0 0 -8.8197387225291308 -5.7544105299023673 0 -5.7544105299023673 8.8176779057491217 0 0 0 0 -145.40367071865603 -85.056479323007807 0 -85.056479323007807 -36.004623072833056 0 0 0 0 -139.98527858414673 -320.1579558347803 0 -320.1579558347803 564.08677259319666 0 0 0 0 4.5244888252691453 -63.805513734390843 0 -63.805513734390843 -58.950557562318863 0 0 0 0 10.335411598718565 -53.789015025384288 0 -53.789015025384288 -42.167558085428027 0 0 0 0 -37.732416348957834 -43.394552361053556 0 -43.394552361053556 -42.004180118312888 0 0 0 0 5.6842323380769813 -80.506787833022827 0 -80.506787833022827 -52.285236803712905 0 0 0 0 6.12135531184299 70.47935717591281 0 70.47935717591281 83.432988575892523 0 0 0 0 -161.67054971332982 -81.5832117661339 0 -81.5832117661339 426.90701141110912 0 0 0 0 -286.64988894411181 -31.435165812421474 0 -31.435165812421474 124.73905582967564 0 0 0 0 299.32888239754902 531.34087157777685 0 531.34087157777685 -224.96633262719843 0 0 0 0 -201.57196685389317 -405.79577195081947 0 -405.79577195081947 -710.67746511808946 0 0 0 0 -46.844352425099423 -45.18626834378 0 -45.18626834378 -45.003038220737949 0 0 0 0 110.73210922148974 -705.24836199819401 0 -705.24836199819401 -436.1854339397687 0 0 0 0 -8.2412370878164438 -98.057321619311551 0 -98.057321619311551 9.0927378652995685 0 0 0 0 -42.287874286912484 -49.03167718973782 0 -49.03167718973782 -15.676680051705262 0 0 0 0 -7.7860126393125029 -107.64107790890193 0 -107.64107790890193 -59.766092176228995 0 0 0 0 -15.165700601541175 -48.138618260556541 0 -48.138618260556541 -62.359609716619161 0 0 0 0 14.657017920954239 -41.582623879598358 0 -41.582623879598358 -61.666785695390359 0 0 0 0 -86.265342678576417 -120.27807020918044 0 -120.27807020918044 -85.142235409389286 0 0 0 0 23.001634531774698 -42.911046472532874 0 -42.911046472532874 -37.286334453988047 0 0 0 0 -16.713518727265182 -51.166917612379621 0 -51.166917612379621 -79.050584215568961 0 0 0 0 -230.20561549181002 -35.667449427824977 0 -35.667449427824977 -168.48086606110155 0 0 0 0 310.50099323140603 -140.81031785362575 0 -140.81031785362575 105.77896400372265 0 0 0 0 265.24242524094007 164.3149409653779 0 164.3149409653779 126.74178728569495 0 0 0 0 -203.99803962344595 -17.622654965540278 0 -17.622654965540278 36.592511081929842 0 0 0 0 254.29861792855445 4.7033415321475331 0 4.7033415321475331 -206.71969131662627 0 0 0 0 204.81905328875291 57.52100749926467 0 57.52100749926467 -84.540053330987575 0 0 0 0 250.96618813966052 -73.871210153825814 0 -73.871210153825814 -108.6211345288757 0 0 0 0 -34.387573840125697 -80.92269233022671 0 -80.92269233022671 -54.955325612230808 0 0 0 0 764.279383906578 43.076837143744342 0 43.076837143744342 -232.26697082581813 0 0 0 0 0.39517651195182069 -2.5118934601443073 0 -2.5118934601443073 -4.8951433853483479 0 0 0 0 -643.80000086592918 -134.10913912296746 0 -134.10913912296746 210.72506093655829 0 0 0 0 -47.962490202538902 -256.65427352143161 0 -256.65427352143161 -482.72823709574004 0 0 0 0 627.62245190952672 165.46339018602157 0 165.46339018602157 -94.916790224495344 0 0 0 0 570.16441549726005 -95.698274573471281 0 -95.698274573471281 -157.40718268349883 0 0 0 0 289.38649614167662 -72.494695916699129 0 -72.494695916699129 -115.46792490780354 0 0 0 0 577.35081086825812 -72.479047656772309 0 -72.479047656772309 -229.72217577762785 0 0 0 0 20.847376300222095 -6.4591706890541261 0 -6.4591706890541261 -22.678307159081328 0 0 0 0 -496.819735987272 -394.65108403182967 0 -394.65108403182967 306.99936737873213 0 0 0 0 149.43560165892995 -91.208190819264928 0 -91.208190819264928 -40.546277136469143 0 0 0 0 142.43988147765049 -52.552943540294109 0 -52.552943540294109 -89.14394026863738 0 0 0 0 176.12365117922309 -102.2453474333015 0 -102.2453474333015 -41.174313588126097 0 0 0 0 101.5807462199009 -14.68704383027216 0 -14.68704383027216 -78.665084191106871 0 0 0 0 120.35482289858919 -52.869600044141407 0 -52.869600044141407 -43.197475377618503 0 0 0 0 93.561158826829342 -26.85166897228919 0 -26.85166897228919 -97.108892459145864 0 0 0 0 -41.380379729181186 13.157184400504775 0 13.157184400504775 -65.153810350442654 0 0 0 0 181.65470830406412 27.339594785953523 0 27.339594785953523 -136.35679726361923 0 0 0 0 74.637476681738917 22.989017799362045 0 22.989017799362045 -111.24370982655091 0 0 0 0 -17.230798538570525 28.721397863798302 0 28.721397863798302 -27.950862798912567 0 0 0 0 13.659686293335263 -21.626616198768616 0 -21.626616198768616 -31.949997032871067 0 0 0 0 93.764161647261062 -28.128790632155869 0 -28.128790632155869 -64.550406747403031 0 0 0 0 95.482931104415911 -17.554527168602363 0 -17.554527168602363 -33.316310982510913 0 0 0 0 -46.808439743006602 -61.627483818403562 0 -61.627483818403562 -29.448230564386904 0 0 0 0 -2.4898180462769233 -27.082012696919264 0 -27.082012696919264 -28.64660317383823 0 0 0 0 -44.136132464573166 -56.780163885883667 0 -56.780163885883667 -37.458582227143779 0 0 0 0 -9.4749606143251697 -17.435700131162434 0 -17.435700131162434 -3.9715597501526645 0 0 0 0 -33.145433256916832 -38.656917647523727 0 -38.656917647523727 -34.434892432524578 0 0 0 0 6.468417026422685 -17.458676720169024 0 -17.458676720169024 -58.427994340949226 0 0 0 0 -65.990625861870285 -96.883561297086999 0 -96.883561297086999 -28.469714745340752 0 0 0 0 -11.684742239432563 -7.1417507262832096 0 -7.1417507262832096 5.9294935013271015 0 0 0 0 -76.118741994612719 -15.517089490633225 0 -15.517089490633225 -20.360008036310319 0 0 0 0 8.7847630900487275 -14.419191307546498 0 -14.419191307546498 -40.488601930737786 0 0 0 0 3.7757719904875557 -68.13839880451269 0 -68.13839880451269 -84.698626813813462 0 0 0 0 -11.055890943401383 -5.5558290840497904 0 -5.5558290840497904 -3.342261086858997 0 0 0 0 -76.645437703376956 -61.77375522040893 0 -61.77375522040893 -75.535629135702038 0 0 0 0 -12.597184042692618 -41.90009332509328 0 -41.90009332509328 -44.251613360362171 0 0 0 0 0.32274596197385108 -1209.7045931878238 0 -1209.7045931878238 424.50262515605573 0 0 0 0 68.214194317493821 -993.31797834358804 0 -993.31797834358804 256.70124652533195 0 0 0 0 235.6918020219382 -1418.8509707767189 0 -1418.8509707767189 -6.429345015072613 0 0 0 0 96.717420658867923 -1566.7494151809587 0 -1566.7494151809587 -126.64847247179932 0 0 0 0 492.23136679062736 -1519.4462518352339 0 -1519.4462518352339 2.6989203906268813 0 0 0 0 126.33465736735525 -1722.8349627860043 0 -1722.8349627860043 329.7139226170475 0 0 0 0 -790.57164374325657 -2063.8514495891286 0 -2063.8514495891286 -101.62885533414374 0 0 0 0 542.22299334427225 -1385.2575844959574 0 -1385.2575844959574 -1482.0639599022543 0 0 0 0 688.63890166408964 -905.84752031012613 0 -905.84752031012613 74.267353620418362 0 0 0 0 -225.98201761312521 -1885.4210995461472 0 -1885.4210995461472 1205.2815245610909 0 0 0 0 348.74412564882368 -495.05043440153531 0 -495.05043440153531 -407.14876000165532 0 0 0 0 -20.038829174884938 -19.977933580504143 0 -19.977933580504143 -11.582282768448124 0 0 0 0 -13.146516729390385 -9.591916590035428 0 -9.591916590035428 -3.4817281240875104 0 0 0 0 -1462.3458799940854 -1271.3857295487978 0 -1271.3857295487978 2396.566970359745 0 0 0 0 -1046.2838188959286 88.039120242428908 0 88.039120242428908 1687.3052650802165 0 0 0 0 391.80025646024751 -696.47380844159898 0 -696.47380844159898 963.34002343821339 0 0 0 0 298.35448223842832 -1162.4586434969788 0 -1162.4586434969788 997.96288550186728 0 0 0 0 -7.9519355082446168 -9.7987715444014327 0 -9.7987715444014327 -7.259176089349296 0 0 0 0 0.54794552274688613 -942.14444097969681 0 -942.14444097969681 1441.2779573007938 0 0 0 0 1.2966792583029019 -2406.1410190446695 0 -2406.1410190446695 -1620.5962633884737 0 0 0 0 1599.5302106869785 -1008.118353298727 0 -1008.118353298727 -3110.0004429906476 0 0 0 0 1395.202903127436 -1489.5343411673757 0 -1489.5343411673757 -1926.0692920307483 0 0 0 0 -5.2613235655601045 -10.122241966986174 0 -10.122241966986174 -8.6831592901524459 0 0 0 0 1460.9910077078584 -1915.0468627804669 0 -1915.0468627804669 -2038.2288135176059 0 0 0 0 1348.3495986683411 -411.02032834146667 0 -411.02032834146667 944.91622097417712 0 0 0 0 -4.293939897825453 -10.582434071632285 0 -10.582434071632285 -8.6472438882637448 0 0 0 0 1.8199108813423663 -1686.9273319113054 0 -1686.9273319113054 1323.2786052618867 0 0 0 0 1671.4938461441852 -1564.1010154262985 0 -1564.1010154262985 -1107.3266792565119 0 0 0 0 650.67562201648252 -1828.8448912144413 0 -1828.8448912144413 -2.7254308966948884 0 0 0 0 1194.0256046884861 -304.61745720015006 0 -304.61745720015006 369.4518991488294 0 0 0 0 16.80748570439755 -3663.1431565399107 0 -3663.1431565399107 -1962.7094341892225 0 0 0 0 -1569.5899051675806 -859.43949253712435 0 -859.43949253712435 -514.64148303095135 0 0 0 0 -1482.699027611372 -1351.663200396928 0 -1351.663200396928 89.676034377465839 0 0 0 0 -2699.2401033832357 -1531.05913862335 0 -1531.05913862335 653.98307280103472 0 0 0 0 -1251.6393494651129 -1365.6394016913437 0 -1365.6394016913437 -832.82852849119081 0 0 0 0 -950.55243885624805 -2216.3329651249333 0 -2216.3329651249333 1011.4190869589875 0 0 0 0 -1171.0678077593384 -1342.7756691891946 0 -1342.7756691891946 -869.94667788955849 0 0 0 0 -1570.8496866116457 -20.728835811898534 0 -20.728835811898534 -409.24993972216907 0 0 0 0 -529.09685601700039 -760.90355655730673 0 -760.90355655730673 132.00633545884921 0 0 0 0 -190.77089095015253 -910.38173190877933 0 -910.38173190877933 77.797175804764265 0 0 0 0 -459.21074668075016 -916.26855348803656 0 -916.26855348803656 332.4878744759917 0 0 0 0 -3324.3328211069966 -591.91287964509684 0 -591.91287964509684 62.618755908886669 0 0 0 0 -4.465232406282019 -32.44212408450133 0 -32.44212408450133 1.6978356804878558 0 0 0 0 -5659.5920719694695 -844.22043449864213 0 -844.22043449864213 964.96904652612284 0 0 0 0 -3027.9529133165179 -216.39990203076468 0 -216.39990203076468 -644.80439349277003 0 0 0 0 -161.40380636194459 -1596.5494835922364 0 -1596.5494835922364 0.58415677279845113 0 0 0 0 2274.3653045779793 -563.91412114968261 0 -563.91412114968261 -907.19057182509277 0 0 0 0 -49.653734219740727 61.157113713612489 0 61.157113713612489 271.30126837188755 0 0 0 0 -3.1218279684677874 -12.750653376353995 0 -12.750653376353995 -0.35435032819236767 0 0 0 0 -3630.3096011857124 -1625.0149141849033 0 -1625.0149141849033 -0.39335886211483739 0 0 0 0 35.910384824668654 -40.626229907138622 0 -40.626229907138622 -15.708145338518079 0 0 0 0 -0.5275360054288285 -5.6053139537479524 0 -5.6053139537479524 -9.9984073600065244 0 0 0 0 -2550.452411272614 -890.31338652390696 0 -890.31338652390696 556.57719966751756 0 0 0 0 -89.872661346956193 -397.78436820551588 0 -397.78436820551588 -680.05735080927843 0 0 0 0 -1185.4887946604285 654.21105772981537 0 654.21105772981537 131.63332940205146 0 0 0 0 -10.061200072741087 -9.9647786370604194 0 -9.9647786370604194 2.661373814041788 0 0 0 0 -2670.8716358352031 -498.79096896779447 0 -498.79096896779447 -84.829362531250808 0 0 0 0 -1198.4735648205387 -543.43212128418236 0 -543.43212128418236 215.67191177536733 0 0 0 0 -44.342379533358326 -150.69769099566111 0 -150.69769099566111 -126.20121756521985 0 0 0 0 -9.2800116405218134 -30.692966391832442 0 -30.692966391832442 10.686911745032091 0 0 0 0 388.89909450167033 14.613641428433766 0 14.613641428433766 -1626.8698943072523 0 0 0 0 -253.34869362948666 360.87102209436853 0 360.87102209436853 -248.36453298624838 0 0 0 0 -461.04194746144822 -952.19699165658494 0 -952.19699165658494 -88.149502322688932 0 0 0 0 -1357.0160132164601 -1597.1651700095535 0 -1597.1651700095535 -538.75833564856111 0 0 0 0 -1243.1097676201025 -430.40439142796095 0 -430.40439142796095 257.37557696423755 0 0 0 0 -2471.0998694373557 -180.45741161089245 0 -180.45741161089245 526.94516097288579 0 0 0 0 -597.01884398757829 -385.29971370699059 0 -385.29971370699059 251.05797535459351 0 0 0 0 -998.89030952251051 -1032.7841417091549 0 -1032.7841417091549 301.17989424570987 0 0 0 0 -588.58378092561907 -787.6915416871343 0 -787.6915416871343 417.2449840203335 0 0 0 0 -363.28527483351354 -963.90204485558934 0 -963.90204485558934 391.02832675466198 0 0 0 0 -2554.8219309421256 -642.67949859604414 0 -642.67949859604414 898.48360972641967 0 0 0 0 -498.36653646995546 -475.60888246138347 0 -475.60888246138347 306.1580493436777 0 0 0 0 224.6848423043848 -198.13708411405969 0 -198.13708411405969 383.25033851410626 0 0 0 0 -7.8024739295315584 -26.539969439031225 0 -26.539969439031225 2.829650089889185 0 0 0 0 1343.2099005512719 -844.67813787397972 0 -844.67813787397972 42.93933028797619 0 0 0 0 -2430.434817389556 -630.99018089557285 0 -630.99018089557285 761.33173549140338 0 0 0 0 344.80860179458978 -1211.1137341822396 0 -1211.1137341822396 727.16608847153839 0 0 0 0 3318.6082399978186 -1522.9983155795271 0 -1522.9983155795271 -818.6406793589631 0 0 0 0 -3.0900074828790167 -9.2319188744319689 0 -9.2319188744319689 1.9340526018108903 0 0 0 0 -101.16434643646062 -686.53736517965444 0 -686.53736517965444 896.3938599962421 0 0 0 0 -102.60143858456286 -722.19037019350071 0 -722.19037019350071 453.19334387079289 0 0 0 0 -1706.896412494476 -1326.7952752661949 0 -1326.7952752661949 792.42948228787282 0 0 0 0 -824.56645699592991 -976.13184291833022 0 -976.13184291833022 788.87049806973664 0 0 0 0 -126.2172854274686 -515.25731359385827 0 -515.25731359385827 463.07447193900953 0 0 0 0 -1746.8350519127416 -142.75640618088801 0 -142.75640618088801 748.85835659108125 0 0 0 0 -1201.7027751327259 -99.999019541217422 0 -99.999019541217422 179.09301786223432 0 0 0 0 -2266.6041789017036 -499.26548855910369 0 -499.26548855910369 1228.890010591349 0 0 0 0 -1299.0807678737692 -601.34280939142627 0 -601.34280939142627 -192.05010244590812 0 0 0 0 -4.7231459589110782 -38.663863421325658 0 -38.663863421325658 -7.1217162164904266 0 0 0 0 -1201.7580385991751 -957.69220177450188 0 -957.69220177450188 277.72233043074084 0 0 0 0 -1890.6969449018943 173.28662587951112 0 173.28662587951112 357.6992561185034 0 0 0 0 -2976.5446591692598 475.73454510941519 0 475.73454510941519 370.65607021099049 0 0 0 0 -2.8676372354181545 -36.037269738538498 0 -36.037269738538498 -22.332408437222739 0 0 0 0 -2202.7627132302678 -734.67456099294964 0 -734.67456099294964 -2025.3352427360078 0 0 0 0 527.22179982859234 -1022.1166942204036 0 -1022.1166942204036 -494.78754951091832 0 0 0 0 -221.37848496701918 11.023131577050663 0 11.023131577050663 -1638.1824197876704 0 0 0 0 -521.71536126778665 -869.19412813904637 0 -869.19412813904637 728.23649697437941 0 0 0 0 -5357.2340192313277 -278.01340239883575 0 -278.01340239883575 346.19003888589941 0 0 0 0 -6.3231484132654998 -10.962987654293059 0 -10.962987654293059 -21.151010888275266 0 0 0 0 793.91885639646353 -118.38030297461592 0 -118.38030297461592 -831.77626012673136 0 0 0 0 128.03147139466455 -153.1397878194548 0 -153.1397878194548 23.093938118676306 0 0 0 0 -78.262335290928604 -478.6604081641417 0 -478.6604081641417 -437.3612231948573 0 0 0 0 247.0338313485081 -1161.7698300504599 0 -1161.7698300504599 452.339341144645 0 0 0 0 132.34543449747798 -1706.938939725409 0 -1706.938939725409 -2138.6892493281193 0 0 0 0 -3317.9509245951049 -952.6330958932449 0 -952.6330958932449 771.99243438010262 0 0 0 0 -166.49927807596396 193.10804872775407 0 193.10804872775407 879.13664026520564 0 0 0 0 1218.6882272276489 -440.67630030025612 0 -440.67630030025612 -459.85437571232978 0 0 0 0 -779.23558109867736 -1178.1946237799348 0 -1178.1946237799348 -585.2407629131776 0 0 0 0 -77.598392203413823 -455.09515220339381 0 -455.09515220339381 -27.044816471719969 0 0 0 0 11.226766945721465 -428.95730055494641 0 -428.95730055494641 -237.18440445030865 0 0 0 0 -143.8144134467002 -706.6655014474818 0 -706.6655014474818 -486.10141802230646 0 0 0 0 0.96505742348381318 -1003.8835642547056 0 -1003.8835642547056 124.05321009518229 0 0 0 0 -759.0753477224207 -1844.4806464547437 0 -1844.4806464547437 -622.76908401826631 0 0 0 0 -1282.9178968276901 -1597.7021316226164 0 -1597.7021316226164 1103.0168214579753 0 0 0 0 1180.4942195006297 -380.27435983931355 0 -380.27435983931355 -563.90541870995003 0 0 0 0 388.09101699193707 -482.86747146569542 0 -482.86747146569542 -570.04818112103385 0 0 0 0 -25.074867077099043 -387.28047688759398 0 -387.28047688759398 -871.75054902690317 0 0 0 0 279.50442196796939 -1124.6924598825717 0 -1124.6924598825717 -1401.411841819463 0 0 0 0 366.18890992981142 -428.31097219301682 0 -428.31097219301682 -631.95206677058013 0 0 0 0 -392.16289865892759 -980.51918486848444 0 -980.51918486848444 -245.67143967050652 0 0 0 0 -841.73095147866479 -1540.5122864074765 0 -1540.5122864074765 -725.79217944800621 0 0 0 0 -479.14357060154725 -670.13079902421305 0 -670.13079902421305 17.715023931123142 0 0 0 0 41.006174081878271 -646.12271914652956 0 -646.12271914652956 -770.74635674143792 0 0 0 0 -5.5410709243719651 -10.187960684683532 0 -10.187960684683532 -12.656709338331666 0 0 0 0 1135.3833776947067 -1400.2698469108182 0 -1400.2698469108182 -600.04683049061555 0 0 0 0 -1326.05614114733 -796.96574774031433 0 -796.96574774031433 325.66713733387587 0 0 0 0 -326.41839338639329 -212.38860940520863 0 -212.38860940520863 477.16356312281277 0 0 0 0 -603.85953418668578 -765.33155279647508 0 -765.33155279647508 155.12127494820743 0 0 0 0 -628.53891019470029 -621.03785832021094 0 -621.03785832021094 365.21348935158312 0 0 0 0 -488.23167556818589 -397.3379369731083 0 -397.3379369731083 295.05856476769259 0 0 0 0 632.32791190126954 -820.81501519868107 0 -820.81501519868107 196.07509976749861 0 0 0 0 -14.43944955404217 -21.965521772495784 0 -21.965521772495784 -22.904997949047583 0 0 0 0 626.93909111588437 -1672.1003148754826 0 -1672.1003148754826 -213.68378905361897 0 0 0 0 -4323.0286943287829 217.82829863389179 0 217.82829863389179 1001.4463444383146 0 0 0 0 -2462.1916123324409 -589.93479663555263 0 -589.93479663555263 746.72864959384606 0 0 0 0 -321.14272802920459 480.54826483458601 0 480.54826483458601 -450.1928920972714 0 0 0 0 -2550.8831482393434 -554.42106205486198 0 -554.42106205486198 796.93886947748251 0 0 0 0 -9.3250048107471173 -11.559667249504116 0 -11.559667249504116 -10.355706216532951 0 0 0 0 970.14839813481194 -1151.5536839262395 0 -1151.5536839262395 -608.80079393860069 0 0 0 0 1050.4292804976812 -670.34142657280609 0 -670.34142657280609 -674.77509008822381 0 0 0 0 303.63981592232449 -172.49724922471069 0 -172.49724922471069 365.19197879300555 0 0 0 0 149.94872292642685 -538.77422197099077 0 -538.77422197099077 -597.70693509383273 0 0 0 0 405.54462970645909 -300.84398592881917 0 -300.84398592881917 -859.72750151726359 0 0 0 0 503.60934485706093 -563.30576085759094 0 -563.30576085759094 -689.01839433280838 0 0 0 0 120.3726058333923 -543.96554462370841 0 -543.96554462370841 -152.04170407608763 0 0 0 0 -819.87589251318423 -1092.3887652461417 0 -1092.3887652461417 -431.08293377062364 0 0 0 0 262.01587000281143 -1248.624295709451 0 -1248.624295709451 -587.88639881229756 0 0 0 0 15.52162310767946 -25.485557099022515 0 -25.485557099022515 5.8870154707374311 0 0 0 0 27.650277385211666 -32.36219950891973 0 -32.36219950891973 -23.03167430008034 0 0 0 0 -689.49566833923745 -387.24585503739945 0 -387.24585503739945 257.86996597942198 0 0 0 0 7.1783083304108288 -19.487406026619823 0 -19.487406026619823 5.5230891104309947 0 0 0 0 11.433518942394585 -41.375285772744974 0 -41.375285772744974 9.1945592404954368 0 0 0 0 5.6039713485224638 -37.379869141987001 0 -37.379869141987001 7.0124342436611187 0 0 0 0 15.564219251842587 -38.551118109906383 0 -38.551118109906383 0.11521145942970179 0 0 0 0 7.0358955425508611 -28.706830382187036 0 -28.706830382187036 -8.2330352247663541 0 0 0 0 19.020205691529554 -38.703461275974405 0 -38.703461275974405 -0.041699966900849553 0 0 0 0 -35.18007761532499 -90.187289670902828 0 -90.187289670902828 214.90831574980984 0 0 0 0 23.322427369414072 -53.248633095136029 0 -53.248633095136029 122.09144716757874 0 0 0 0 53.334275537279609 -116.56094692614715 0 -116.56094692614715 -0.14099629507836653 0 0 0 0 23.133014847335289 -43.09553598662751 0 -43.09553598662751 2.6385680093953852 0 0 0 0 84.815812378335977 -449.16922212046484 0 -449.16922212046484 -926.6512485744588 0 0 0 0 -140.86586471168994 -240.18185849201836 0 -240.18185849201836 -1279.060178072119 0 0 0 0 -2.5221928053905174 -15.156756532033654 0 -15.156756532033654 3.7196263810717198 0 0 0 0 48.718469244726293 -179.74673438345053 0 -179.74673438345053 -1294.7348281812883 0 0 0 0 -136.99738113448984 -712.93734442708956 0 -712.93734442708956 -871.82212171779247 0 0 0 0 -169.53723878882738 -635.5924265657959 0 -635.5924265657959 -1040.6367455746513 0 0 0 0 -190.88305167668295 -550.77546314607753 0 -550.77546314607753 -375.92649780059583 0 0 0 0 -34.049315278345603 -689.87897497053928 0 -689.87897497053928 -425.77596779595478 0 0 0 0 -1056.1534028298483 -1074.2729861968546 0 -1074.2729861968546 -105.24187904765131 0 0 0 0 -604.42165250339895 -586.58739870743739 0 -586.58739870743739 -11.610497131918237 0 0 0 0 65.947548217140138 -295.50366149771435 0 -295.50366149771435 150.70634389792394 0 0 0 0 -490.43579296850658 -174.62037419671105 0 -174.62037419671105 211.12844272240181 0 0 0 0 -12.872971819168924 -10.126332478207601 0 -10.126332478207601 -6.9257813823876404 0 0 0 0 -1544.9932357078987 -484.96975890151225 0 -484.96975890151225 795.89335914976255 0 0 0 0 -407.33740580078302 -1221.316914460891 0 -1221.316914460891 -3013.4132878507808 0 0 0 0 -1225.1935410160804 -1510.9895979456705 0 -1510.9895979456705 -988.80995260074269 0 0 0 0 -445.72771149405162 -1227.8413808297701 0 -1227.8413808297701 -2098.6259655838076 0 0 0 0 -114.62691610613547 18.125705192127498 0 18.125705192127498 -2086.2193871256563 0 0 0 0 -1016.9225784316732 -1713.0072000222426 0 -1713.0072000222426 -2399.9248423024474 0 0 0 0 -1752.3210136064372 -1550.3925339372872 0 -1550.3925339372872 -2096.24330622868 0 0 0 0 -4.5032849274943771 -8.1648909149972724 0 -8.1648909149972724 1.3290063938915608 0 0 0 0 -37.094107444273504 -167.44557914693178 0 -167.44557914693178 1095.2988363626064 0 0 0 0 -655.31302687503921 -1591.9578763823229 0 -1591.9578763823229 2.0087593665510655 0 0 0 0 -2.7464447234815452 -210.47235923247354 0 -210.47235923247354 127.3586234254908 0 0 0 0 -804.54650123728061 -1080.3608707469248 0 -1080.3608707469248 -1.4418989428377245 0 0 0 0 -586.6516687576368 -1259.7765007752896 0 -1259.7765007752896 -254.78786882464192 0 0 0 0 -553.90789665748889 -939.11991326484713 0 -939.11991326484713 -455.13305267678516 0 0 0 0 -527.49200725543778 -604.96636392975051 0 -604.96636392975051 -63.260870717698708 0 0 0 0 -656.96281831789383 -1450.2282100929369 0 -1450.2282100929369 -685.30176010288415 0 0 0 0 -381.52108109535766 -1109.4810731396428 0 -1109.4810731396428 -566.78493500105469 0 0 0 0 -1013.8816018541111 -1919.961236127303 0 -1919.961236127303 -1586.558286194675 0 0 0 0 197.39537170007679 -328.671647195486 0 -328.671647195486 -1763.18803152074 0 0 0 0 -137.71141869510757 -439.37026289687492 0 -439.37026289687492 -833.61869264599954 0 0 0 0 -429.97378407321958 -1018.5454709018086 0 -1018.5454709018086 -663.37091568228789 0 0 0 0 -211.80653012856783 -159.46797989558399 0 -159.46797989558399 -106.98499232194445 0 0 0 0 -33.8602959356366 -22.183054601136931 0 -22.183054601136931 -14.233992247087997 0 0 0 0 -32.390757792330987 53.114828011566715 0 53.114828011566715 21.499766238797747 0 0 0 0 -113.64463286470709 -315.73000136559131 0 -315.73000136559131 -48.760997073273757 0 0 0 0 -191.62903295693832 -97.02088507219014 0 -97.02088507219014 -188.73987658176338 0 0 0 0 -3.7266087085026811 -561.04433642851473 0 -561.04433642851473 329.91693153162487 0 0 0 0 19.280541554500815 -447.26103341185808 0 -447.26103341185808 232.34879502865806 0 0 0 0 70.294443304872402 -458.00473188453179 0 -458.00473188453179 55.33194943680428 0 0 0 0 293.135883509618 -685.4238867667882 0 -685.4238867667882 190.12861216747115 0 0 0 0 1447.5776161892427 1111.7876523290979 0 1111.7876523290979 -1005.4618637718522 0 0 0 0 -83.216637526202248 -328.62477583367581 0 -328.62477583367581 1168.6847026383002 0 0 0 0 -122.43064998096088 -202.62206976625021 0 -202.62206976625021 819.88221114244516 0 0 0 0 24.252847443517425 -11.350275093491007 0 -11.350275093491007 4.976561547502854 0 0 0 0 -103.81643384739618 -193.83547031777834 0 -193.83547031777834 -23.05922121994081 0 0 0 0 -316.04896811877552 -198.36239428025874 0 -198.36239428025874 270.4795862257306 0 0 0 0 1.6382925068974146 -448.23610007657044 0 -448.23610007657044 267.79041187572875 0 0 0 0 -501.68426446424564 -360.65394242466573 0 -360.65394242466573 284.05758751534177 0 0 0 0 -944.05246988245926 -450.61296703269545 0 -450.61296703269545 273.80910526444495 0 0 0 0 -641.18725651537716 -530.88424823611695 0 -530.88424823611695 78.704115014697891 0 0 0 0 -426.66863554540032 -550.69582171396905 0 -550.69582171396905 73.531299863359891 0 0 0 0 -210.28413855362305 -276.71046457374905 0 -276.71046457374905 -30.451570015877223 0 0 0 0 -447.66678928401234 -384.39286260049266 0 -384.39286260049266 17.929080325964605 0 0 0 0 -266.46393392591381 -421.88169359683707 0 -421.88169359683707 -350.20532981721044 0 0 0 0 -267.66778187953787 -423.49429133550439 0 -423.49429133550439 -266.9775430860609 0 0 0 0 -171.36040004438837 -466.11855850739812 0 -466.11855850739812 -320.56433810318413 0 0 0 0 -54.633692979859916 -376.22689636133146 0 -376.22689636133146 -464.27646223668125 0 0 0 0 654.17346726257529 -126.26100857004349 0 -126.26100857004349 -352.98878375288041 0 0 0 0 232.46414681134047 -150.28504324803362 0 -150.28504324803362 -485.58972842211369 0 0 0 0 -41.631139798584627 -285.55585611247807 0 -285.55585611247807 -501.80181478674058 0 0 0 0 -392.48688749491703 -407.07825744948059 0 -407.07825744948059 -319.1344011593028 0 0 0 0 -284.86840961845883 -181.69858680696052 0 -181.69858680696052 -335.2099357903935 0 0 0 0 -1868.3273942977539 -1111.3091983444465 0 -1111.3091983444465 3852.741577485438 0 0 0 0 -4495.1008435948315 6096.6542467390536 0 6096.6542467390536 5384.9707597452798 0 0 0 0 -2296.6376469146053 -3412.2792074602621 0 -3412.2792074602621 10863.084257130758 0 0 0 0 -6876.105768111971 5031.952823869884 0 5031.952823869884 14238.613181389985 0 0 0 0 -42.85191042596125 -114.41282429102284 0 -114.41282429102284 -348.86459818697767 0 0 0 0 71.182878703416918 -53.28578776184375 0 -53.28578776184375 36.286137623239853 0 0 0 0 -304.91404224403959 -485.86167159012984 0 -485.86167159012984 -334.00647930492778 0 0 0 0 -434.63693496381165 -846.88703672771226 0 -846.88703672771226 -1818.4706053474802 0 0 0 0 -1022.0929760151193 -804.57420350323082 0 -804.57420350323082 221.28050236025592 0 0 0 0 -755.02077745826682 2630.4713558608491 0 2630.4713558608491 -1653.774022382463 0 0 0 0 -1052.678477657435 -105.92181928361242 0 -105.92181928361242 1141.5981469651015 0 0 0 0 -1146.0968278731016 62.486739173924434 0 62.486739173924434 1128.2084178813093 0 0 0 0 -591.88504725218809 -148.00830435218813 0 -148.00830435218813 19.436827482590161 0 0 0 0 34.936078442347934 -82.67267184087541 0 -82.67267184087541 396.5969920781954 0 0 0 0 -649.66075995734718 -366.00526827420254 0 -366.00526827420254 1036.6021101518709 0 0 0 0 557.06591061055951 -318.88517457973649 0 -318.88517457973649 -876.65283924802497 0 0 0 0 -851.65221816364465 -228.24951945572684 0 -228.24951945572684 426.65870045035263 0 0 0 0 323.47506369377516 -624.76332332423772 0 -624.76332332423772 1414.5024453862716 0 0 0 0 1488.9815989826529 -127.88627120659658 0 -127.88627120659658 308.32595876173582 0 0 0 0 2200.2367180989168 -1193.6516006826641 0 -1193.6516006826641 1346.3976721109066 0 0 0 0 1555.6016936631422 472.55465673047729 0 472.55465673047729 92.701049820927437 0 0 0 0 3835.8458148613281 590.64940558421222 0 590.64940558421222 -32.248825261252932 0 0 0 0 -1.939399921480657 -12.53499071267116 0 -12.53499071267116 3.4033982056264449 0 0 0 0 2418.5470876152904 175.99621416617083 0 175.99621416617083 -59.381400550133549 0 0 0 0 18.317287748531299 -22.767689951441639 0 -22.767689951441639 -22.510103609058149 0 0 0 0 562.27024970232742 -592.69281972273893 0 -592.69281972273893 445.44083896796292 0 0 0 0 -12.0686603804279 -300.34219120828493 0 -300.34219120828493 183.06608218875772 0 0 0 0 1314.1734225533128 -18.648637291851401 0 -18.648637291851401 -625.72168604501348 0 0 0 0 393.26232107853866 -1382.7737449795095 0 -1382.7737449795095 -999.20569102982699 0 0 0 0 55.43757743408139 -36.167184505084208 0 -36.167184505084208 20.66509660078691 0 0 0 0 -205.98684741408215 -281.54873576515092 0 -281.54873576515092 -77.959916731299018 0 0 0 0 739.5162638795955 -217.63482109971301 0 -217.63482109971301 119.57551064217114 0 0 0 0 -27.960205216339091 -189.27765905077831 0 -189.27765905077831 675.24307159758246 0 0 0 0 215.61952506314265 -107.20248210361751 0 -107.20248210361751 696.86273429512585 0 0 0 0 505.2907268745621 -284.57896831538528 0 -284.57896831538528 410.67291577173603 0 0 0 0 1573.0937417401292 -184.7943440151721 0 -184.7943440151721 409.97350513113224 0 0 0 0 2081.3332152314251 552.21994920470024 0 552.21994920470024 1329.4059706631961 0 0 0 0 694.21173625701067 -131.5958297275829 0 -131.5958297275829 993.14294977748068 0 0 0 0 790.05152984970755 -343.94526707575187 0 -343.94526707575187 827.84200711318408 0 0 0 0 2688.9934545353753 -903.18647999342647 0 -903.18647999342647 975.13765637549659 0 0 0 0 -164.69742315060284 319.90573322542332 0 319.90573322542332 1774.0733424364298 0 0 0 0 842.97159623882908 -1356.155595335902 0 -1356.155595335902 2305.1582712669915 0 0 0 0 828.15802892233842 -334.45472279967544 0 -334.45472279967544 2421.5449988268811 0 0 0 0 -104.00284856223152 -62.470384381798794 0 -62.470384381798794 1417.544412570147 0 0 0 0 720.13144183500481 58.750376997546482 0 58.750376997546482 1102.5773518593342 0 0 0 0 656.53069783171759 293.42145719639393 0 293.42145719639393 1006.2813787966152 0 0 0 0 -272.7866076878272 24.770180852050544 0 24.770180852050544 1255.1742911080219 0 0 0 0 -110.04955151288596 -129.43745771986869 0 -129.43745771986869 1075.389516933159 0 0 0 0 -554.41040707092907 18.618193790825899 0 18.618193790825899 1154.9870646784839 0 0 0 0 -836.84480191198963 -360.77471472909383 0 -360.77471472909383 1286.8051173913409 0 0 0 0 -878.80288721526449 -290.74448081110313 0 -290.74448081110313 1170.6657905136526 0 0 0 0 -973.31783897613059 -708.99916017675423 0 -708.99916017675423 2121.8809563307586 0 0 0 0 -1612.2707259555755 173.1371521136316 0 173.1371521136316 1526.085543934314 0 0 0 0 -812.69289491811651 -1003.4433336180373 0 -1003.4433336180373 1471.7401016886288 0 0 0 0 -1117.800842389639 -351.69451970643422 0 -351.69451970643422 1418.5423307956371 0 0 0 0 217.75509619709919 -1033.421084074027 0 -1033.421084074027 870.78207381625543 0 0 0 0 -591.0864776437229 -672.05665985887754 0 -672.05665985887754 1422.4909702112634 0 0 0 0 -642.95414740101842 -879.39730855113521 0 -879.39730855113521 1404.4051961835648 0 0 0 0 -776.73955411261704 -459.18312012960087 0 -459.18312012960087 1198.9357901385811 0 0 0 0 -382.71563333775521 -239.72045469869408 0 -239.72045469869408 981.2735047978058 0 0 0 0 1355.5631453152619 -771.92264114452701 0 -771.92264114452701 176.89913202128082 0 0 0 0 1134.9676880439947 -1928.9104549218391 0 -1928.9104549218391 5562.978504003142 0 0 0 0 920.12532634535432 33.487143206906921 0 33.487143206906921 -313.94646501183161 0 0 0 0 29.32112710889686 -32.274319924041635 0 -32.274319924041635 32.084058956450406 0 0 0 0 2689.4452556512333 -3087.94468762014 0 -3087.94468762014 2682.267175142304 0 0 0 0 707.93789616131107 -1135.6275038652966 0 -1135.6275038652966 885.20669451521826 0 0 0 0 -2030.943724779987 -750.38004867850032 0 -750.38004867850032 3340.7398341384833 0 0 0 0 252.64111210301053 -2087.3456639405194 0 -2087.3456639405194 2440.8839402996673 0 0 0 0 47.234327744867187 -572.96844138127562 0 -572.96844138127562 463.85793392287451 0 0 0 0 885.39856280731328 -1159.3933978015848 0 -1159.3933978015848 872.48857666498952 0 0 0 0 393.906336783808 423.7097260632072 0 423.7097260632072 -290.51362858233915 0 0 0 0 100.63872535591508 -599.70817502198042 0 -599.70817502198042 -48.803325634478824 0 0 0 0 -328.99531005560129 -392.92915675012046 0 -392.92915675012046 645.64348391639942 0 0 0 0 -211.77083117351867 -696.83788583618298 0 -696.83788583618298 727.54773619433399 0 0 0 0 -27.71356883128874 -22.136924122319812 0 -22.136924122319812 -20.172326904528404 0 0 0 0 -198.40903947025072 -616.46892838705389 0 -616.46892838705389 542.12405393599329 0 0 0 0 -91.393717488448601 10.657499576584087 0 10.657499576584087 288.97177288604871 0 0 0 0 -377.97953086877897 -117.58982985034891 0 -117.58982985034891 -92.903675228109933 0 0 0 0 446.98462538557214 767.53941365845822 0 767.53941365845822 -314.66648814574728 0 0 0 0 -177.46740283507097 -457.07311285391916 0 -457.07311285391916 341.85415673394164 0 0 0 0 -7.7942861205956433 245.75027265518293 0 245.75027265518293 740.95684978194186 0 0 0 0 -43.710922587717505 -640.04098511420125 0 -640.04098511420125 449.09440036411979 0 0 0 0 -226.2574940314953 -264.81192393435776 0 -264.81192393435776 946.47519727522013 0 0 0 0 336.40470380821671 -267.88793506447314 0 -267.88793506447314 -229.47095821534458 0 0 0 0 4.2905904556750301 -6.3034242934981535 0 -6.3034242934981535 11.24068140591271 0 0 0 0 306.35595686170836 -564.44541548319012 0 -564.44541548319012 -183.54455437009165 0 0 0 0 113.08343317671097 -443.04787021789161 0 -443.04787021789161 -224.82669092118158 0 0 0 0 117.40579036185954 -438.89899215505284 0 -438.89899215505284 -288.22179290952772 0 0 0 0 143.07911269723991 -241.24276876477597 0 -241.24276876477597 -424.08759773509883 0 0 0 0 -23.565921945031732 -311.64530871518946 0 -311.64530871518946 -370.13598550963798 0 0 0 0 -11.375728732603591 -12.40304624546549 0 -12.40304624546549 -10.535694498792793 0 0 0 0 379.24613448526361 -30.136449948979134 0 -30.136449948979134 82.928747189713249 0 0 0 0 -150.78336056970511 100.68370574878463 0 100.68370574878463 -671.47200081498158 0 0 0 0 566.41577290646819 -482.78992613251467 0 -482.78992613251467 127.44523954116812 0 0 0 0 101.23894707077852 180.57541039044736 0 180.57541039044736 -1664.5154311526276 0 0 0 0 -3.2493475220124992 -4.0701653226087373 0 -4.0701653226087373 -3.781281798513362 0 0 0 0 226.91099551436491 -543.72433372394516 0 -543.72433372394516 -423.97495957872161 0 0 0 0 25.174626781947154 -414.21961335462402 0 -414.21961335462402 347.07322226487304 0 0 0 0 252.63823325504563 -545.73136574522505 0 -545.73136574522505 -86.122192203838495 0 0 0 0 3.2674303493076877 -621.30525458061675 0 -621.30525458061675 41.396627010828524 0 0 0 0 115.50929884133802 -292.21416003821287 0 -292.21416003821287 -32.111770516446995 0 0 0 0 8.6394876416525221 -376.17138840403641 0 -376.17138840403641 924.76272405030613 0 0 0 0 54.606074496128713 -528.85551157968803 0 -528.85551157968803 655.51626626246434 0 0 0 0 349.05901715337677 -382.72398384787448 0 -382.72398384787448 339.80099877436169 0 0 0 0 109.31699081831903 -703.22732409734454 0 -703.22732409734454 1599.3378717357591 0 0 0 0 -1.6093207377411716 -0.91685333667854962 0 -0.91685333667854962 2.5611917049200486 0 0 0 0 173.88590856912924 -425.55676471730112 0 -425.55676471730112 1033.9883445002852 0 0 0 0 338.03859692210972 -407.8640887530164 0 -407.8640887530164 887.70640724824807 0 0 0 0 -603.69147945971781 762.86986996764972 0 762.86986996764972 365.95968287588039 0 0 0 0 -329.4301946577034 -557.55406234052498 0 -557.55406234052498 74.88164280077217 0 0 0 0 -386.18641966476571 619.72673613277584 0 619.72673613277584 -1451.8494921549718 0 0 0 0 -857.76132496504579 -540.76922718960486 0 -540.76922718960486 -485.38030101983168 0 0 0 0 752.15918184152451 -2116.0074711969728 0 -2116.0074711969728 2065.967967637218 0 0 0 0 -2990.4724140668841 3763.2171547929902 0 3763.2171547929902 1545.1842615359201 0 0 0 0 -7.8530758036872328 -5.53313490579405 0 -5.53313490579405 -3.7332232280213589 0 0 0 0 177.48917492543842 -1690.1295323720406 0 -1690.1295323720406 3334.6511215747014 0 0 0 0 -579.21266858727904 471.07305816569715 0 471.07305816569715 1484.8185607220075 0 0 0 0 310.9447635444958 -698.46320535312407 0 -698.46320535312407 878.793024888746 0 0 0 0 -51.800408775598044 -231.84958458759502 0 -231.84958458759502 286.44817346967466 0 0 0 0 402.04368221989716 -5.1604338568358799 0 -5.1604338568358799 911.37578009862045 0 0 0 0 322.14350733640458 -468.50753358598377 0 -468.50753358598377 177.13889461423969 0 0 0 0 -332.3607074386382 -571.54598727340635 0 -571.54598727340635 428.36646869229116 0 0 0 0 -343.31426702621684 -463.07699490792584 0 -463.07699490792584 112.58695893630465 0 0 0 0 -840.00058372670173 -312.22150143599356 0 -312.22150143599356 222.85662582411169 0 0 0 0 -806.28344072344771 -239.33713225168685 0 -239.33713225168685 200.48765319936501 0 0 0 0 -248.43253429826291 -388.01600463658542 0 -388.01600463658542 201.34266333392588 0 0 0 0 -175.83673537666255 -406.38548158412959 0 -406.38548158412959 -33.74446422373876 0 0 0 0 -18.609779606449592 -605.64854659731282 0 -605.64854659731282 181.47657638026169 0 0 0 0 57.868133387550188 -521.13237679141457 0 -521.13237679141457 -79.462100274423392 0 0 0 0 76.488513462023548 -492.37455424974542 0 -492.37455424974542 -249.34787002371741 0 0 0 0 80.850944311161584 -442.53289384493291 0 -442.53289384493291 -39.599128567213484 0 0 0 0 -161.76375456514143 -221.58623264529888 0 -221.58623264529888 -203.76143259862874 0 0 0 0 -240.89577863417799 -280.68949934278498 0 -280.68949934278498 4.4330032644611492 0 0 0 0 -293.1493933741076 -210.85988613214249 0 -210.85988613214249 -70.905524832371157 0 0 0 0 7.1565758981172678 -24.494482906553174 0 -24.494482906553174 24.537997501547835 0 0 0 0 -24.33902550599305 -49.390252166776918 0 -49.390252166776918 82.330816237881663 0 0 0 0 -22.533176200699927 -40.018506052568227 0 -40.018506052568227 96.443830687952868 0 0 0 0 53.263304776123334 -68.476556929934532 0 -68.476556929934532 17.701877758870495 0 0 0 0 17.041495631472117 -52.731287553894845 0 -52.731287553894845 35.135151265465538 0 0 0 0 5.7332576873304788 -222.0608581208071 0 -222.0608581208071 -171.31243766591069 0 0 0 0 17.884135121344343 -13.627267159566124 0 -13.627267159566124 -1.3887370686954625 0 0 0 0 -92.771006681388826 -164.21379046618677 0 -164.21379046618677 37.144360316291568 0 0 0 0 -265.36307617546663 -211.99376521493105 0 -211.99376521493105 49.538913709315239 0 0 0 0 -103.71888841711552 -177.22401957085458 0 -177.22401957085458 49.989656771911541 0 0 0 0 -402.13539473309356 -183.11126578416588 0 -183.11126578416588 -32.083550006838777 0 0 0 0 -233.57965936611436 -61.35510724939013 0 -61.35510724939013 51.141890260856599 0 0 0 0 -1185.9538893349381 3.0255350124352844 0 3.0255350124352844 102.12172426558027 0 0 0 0 -422.22705696483536 25.267239758670257 0 25.267239758670257 99.240595065486559 0 0 0 0 -36.818115681009061 -17.635677622953338 0 -17.635677622953338 -2.2350642117087602 0 0 0 0 -124.50093182027922 -72.380706096089853 0 -72.380706096089853 51.288546722552155 0 0 0 0 35.371989803104952 -959.29579427332646 0 -959.29579427332646 1594.6327933115244 0 0 0 0 5.2210449917911319 143.15410449167393 0 143.15410449167393 919.89152622892107 0 0 0 0 -38.333333163944587 -46.640242007180404 0 -46.640242007180404 -7.4394157195289949 0 0 0 0 158.66002549583209 -1009.0505305827719 0 -1009.0505305827719 1356.9208161988936 0 0 0 0 172.28289728519667 -939.83868478790464 0 -939.83868478790464 1708.2534956908639 0 0 0 0 1037.7066459939524 -900.10846873535047 0 -900.10846873535047 1097.8115555522309 0 0 0 0 424.79155729118793 -239.47584451618241 0 -239.47584451618241 729.13119748112513 0 0 0 0 1743.5029923131224 -1340.44865768624 0 -1340.44865768624 1084.4912484528177 0 0 0 0 1382.0097122349271 626.29033745342258 0 626.29033745342258 1504.958899998659 0 0 0 0 452.37455959472572 -1539.7432349598785 0 -1539.7432349598785 2486.1949847433643 0 0 0 0 260.95186709726113 -1261.1244615058749 0 -1261.1244615058749 1218.7711866121608 0 0 0 0 125.36862655298319 -921.15290173356334 0 -921.15290173356334 1346.2235078074591 0 0 0 0 24.214261432323838 -77.835555300291162 0 -77.835555300291162 2593.0761480259307 0 0 0 0 3.129461352411937 -19.360281626044866 0 -19.360281626044866 17.541830467818045 0 0 0 0 462.21519264098606 -1413.849073158166 0 -1413.849073158166 2643.4941720809802 0 0 0 0 1535.1282704466139 -1164.5839690220091 0 -1164.5839690220091 487.69786700571422 0 0 0 0 523.87602097111812 -494.85543457497988 0 -494.85543457497988 142.26334513881739 0 0 0 0 1386.6564642989424 -132.23076321299777 0 -132.23076321299777 -47.018184697095421 0 0 0 0 466.72121445984521 161.09258488964406 0 161.09258488964406 71.292419404073371 0 0 0 0 9.6836711926560213 -12.31092357104945 0 -12.31092357104945 -0.059306949408920673 0 0 0 0 -34.589986931736348 -124.3178152051878 0 -124.3178152051878 131.44746284764551 0 0 0 0 -54.681942131336058 -40.911916548078501 0 -40.911916548078501 -6.258831540479818 0 0 0 0 201.7577912780398 -295.88229297080397 0 -295.88229297080397 67.897882437315275 0 0 0 0 150.18039646896068 68.30805450081607 0 68.30805450081607 -158.15293431949976 0 0 0 0 488.45900752657326 -111.50669910257784 0 -111.50669910257784 -299.41364213373163 0 0 0 0 -343.84483565016126 -246.95664610244421 0 -246.95664610244421 487.8236525006505 0 0 0 0 189.98609932773979 -757.27339917233621 0 -757.27339917233621 -61.006625201946008 0 0 0 0 91.323485323169734 -498.16340915093315 0 -498.16340915093315 -233.21270578117401 0 0 0 0 -31.574682731064968 -539.75234720198932 0 -539.75234720198932 455.77189160820944 0 0 0 0 -57.906353148454855 -27.031196561049928 0 -27.031196561049928 8.9587710957748641 0 0 0 0 -38.087388187779652 -105.36040417917593 0 -105.36040417917593 76.416911819498637 0 0 0 0 7.5421662903705169 -78.369865101358272 0 -78.369865101358272 83.294304686417121 0 0 0 0 -330.3871769230318 -497.59014346617187 0 -497.59014346617187 -511.38100905194733 0 0 0 0 -50.247601969338575 -121.34964561365268 0 -121.34964561365268 79.583456676584319 0 0 0 0 -50.75904349099801 -111.90954353399502 0 -111.90954353399502 0.70424586020817515 0 0 0 0 -60.586480036028661 -110.66585970857886 0 -110.66585970857886 97.726403236491024 0 0 0 0 -60.084616303851362 -69.720536736072972 0 -69.720536736072972 97.849968374968739 0 0 0 0 -34.950326829391997 -90.820805619507155 0 -90.820805619507155 94.141309871207341 0 0 0 0 -39.062434392471914 -40.910878521161067 0 -40.910878521161067 136.29541143959068 0 0 0 0 -26.956473661659402 -36.078011339537625 0 -36.078011339537625 96.443199278032267 0 0 0 0 54.34280518511332 82.671393106766118 0 82.671393106766118 264.91249524867453 0 0 0 0 -75.217112700971484 -157.37719556194861 0 -157.37719556194861 117.21103468002548 0 0 0 0 -137.12904970826639 -214.00921829984145 0 -214.00921829984145 380.64404005341021 0 0 0 0 -82.022443338501034 -113.44925417490595 0 -113.44925417490595 308.13683536133613 0 0 0 0 -85.657272130483761 -159.02560201251617 0 -159.02560201251617 173.69614185338287 0 0 0 0 16.12178123701878 -76.72248518504054 0 -76.72248518504054 100.88799415109199 0 0 0 0 -45.878003148311109 -230.32316660564175 0 -230.32316660564175 16.497095725223062 0 0 0 0 -302.28560056591232 -447.69972315468476 0 -447.69972315468476 -991.77228970068973 0 0 0 0 -45.973313948561554 -319.29408199530008 0 -319.29408199530008 131.92595177344265 0 0 0 0 81.620142276617116 -220.56707570014987 0 -220.56707570014987 -391.64188444989122 0 0 0 0 -82.446045805685571 -169.45801280065643 0 -169.45801280065643 -55.492333870373841 0 0 0 0 12.748675604554592 -38.183752630160598 0 -38.183752630160598 -373.85814497059664 0 0 0 0 -50.723330295042146 -52.889430392491889 0 -52.889430392491889 -9.4817699387417775 0 0 0 0 -45.671214223089919 -163.74460600108068 0 -163.74460600108068 -89.979709969717078 0 0 0 0 2203.8727058438817 -3165.5581950261258 0 -3165.5581950261258 6634.3346043200581 0 0 0 0 35.651624009488316 -45.993420736947769 0 -45.993420736947769 22.868395573695409 0 0 0 0 -2084.3194356403692 1346.8195729339059 0 1346.8195729339059 4362.0811027713353 0 0 0 0 -2843.8718300502951 8400.6677193015494 0 8400.6677193015494 -11869.355261971476 0 0 0 0 -8.2080281228387548 -95.046151357480312 0 -95.046151357480312 106.38956344886199 0 0 0 0 -743.88304528869048 -2318.5525864795054 0 -2318.5525864795054 3893.9731604533154 0 0 0 0 1776.6317197975768 -1916.0100237540319 0 -1916.0100237540319 386.86597192732734 0 0 0 0 -985.84916873543989 1068.5371345985768 0 1068.5371345985768 -640.45015886762849 0 0 0 0 -1433.4152518338014 -885.18899869445158 0 -885.18899869445158 919.06652489103726 0 0 0 0 -968.3085835135571 -567.91999506104912 0 -567.91999506104912 1065.0245405742171 0 0 0 0 -216.45926988183783 -456.32047387215425 0 -456.32047387215425 -401.31348533667915 0 0 0 0 -778.68471677578054 -569.58146687384942 0 -569.58146687384942 34.24987736697949 0 0 0 0 -124.44213321592542 -495.97053236239299 0 -495.97053236239299 -382.85296775979805 0 0 0 0 -261.20160857080191 -471.0281973809615 0 -471.0281973809615 -232.90883818737075 0 0 0 0 -193.45868875310407 -527.58559653709381 0 -527.58559653709381 -506.17316611613933 0 0 0 0 -244.9135601096641 -430.95113444345407 0 -430.95113444345407 -417.94339934269374 0 0 0 0 -355.07069080448855 -541.51210967324005 0 -541.51210967324005 -375.80928223962837 0 0 0 0 -107.57540698739467 -350.9980285813017 0 -350.9980285813017 -1271.545085840713 0 0 0 0 -9.9869992898941149 -41.922742250272492 0 -41.922742250272492 -86.743385538962173 0 0 0 0 -275.99899471981917 -356.50166129795252 0 -356.50166129795252 -429.35798367629468 0 0 0 0 -2293.471507709648 -344.77551081505226 0 -344.77551081505226 -8.8009129110796493 0 0 0 0 -229.99827803575317 -345.09625069927279 0 -345.09625069927279 -504.9860596065264 0 0 0 0 -275.88893823960098 -390.35963300816366 0 -390.35963300816366 -432.98241491654335 0 0 0 0 -114.71670107841783 -475.89506429174799 0 -475.89506429174799 -396.28888735707005 0 0 0 0 -84.165213460801169 -227.53421255043941 0 -227.53421255043941 -342.70124297664734 0 0 0 0 24.975925363774877 -477.13857269073196 0 -477.13857269073196 -82.475094247161906 0 0 0 0 -142.65734544223233 -345.46432916889353 0 -345.46432916889353 -185.82614103658125 0 0 0 0 442.08793572034847 -375.73820791174148 0 -375.73820791174148 -311.54968131048372 0 0 0 0 -2467.5663634269658 -885.46319801554273 0 -885.46319801554273 -517.26533393100544 0 0 0 0 -10.154176037454747 -26.247207124687378 0 -26.247207124687378 -60.278011747252663 0 0 0 0 -5657.858040810519 -1539.3193158825452 0 -1539.3193158825452 636.13827665497956 0 0 0 0 -2.1497786845761491 -17.433093480056982 0 -17.433093480056982 -13.149587264661307 0 0 0 0 -3658.9746971006534 -235.11532783816801 0 -235.11532783816801 318.42837865711044 0 0 0 0 1968.8063520644791 -393.12786052474257 0 -393.12786052474257 452.37800160646657 0 0 0 0 3435.1890928124849 -1084.4961870164952 0 -1084.4961870164952 -575.25422251741111 0 0 0 0 2125.4500746282138 -1891.6168925425445 0 -1891.6168925425445 -234.05815744275606 0 0 0 0 132.96325481844542 -1719.9823468806426 0 -1719.9823468806426 -106.49066221634712 0 0 0 0 -2660.2893384680065 -2692.6027404007182 0 -2692.6027404007182 -835.96457711694529 0 0 0 0 -112.83722606970696 -1359.1876264573511 0 -1359.1876264573511 -1104.9686200677515 0 0 0 0 -1393.4431690134079 -625.39968652870084 0 -625.39968652870084 625.09390814782819 0 0 0 0 -1326.5223873876894 -540.06143092652746 0 -540.06143092652746 3438.8305832955884 0 0 0 0 368.5202327814477 -710.25913498547015 0 -710.25913498547015 94.264866916847041 0 0 0 0 42.395987913034332 -1210.786722128938 0 -1210.786722128938 -602.16624636579218 0 0 0 0 -907.40175752920914 -1516.3810162780574 0 -1516.3810162780574 138.46443356633245 0 0 0 0 -1216.5940345469789 -728.70787719576765 0 -728.70787719576765 640.81483968319662 0 0 0 0 -7.6939430459357823 -15.835884359023709 0 -15.835884359023709 4.1393244401874156 0 0 0 0 203.73645926284371 -755.51809265273914 0 -755.51809265273914 -1340.3989631198601 0 0 0 0 -4.0796703685455782 -8.084412020320741 0 -8.084412020320741 2.4727307526636153 0 0 0 0 904.24321306534694 -2143.2648644290239 0 -2143.2648644290239 -2560.6860154526075 0 0 0 0 1122.3216369436705 -1342.5734784906381 0 -1342.5734784906381 -911.1486789304472 0 0 0 0 -15.450384124377337 -30.178843802540968 0 -30.178843802540968 9.1930602156376722 0 0 0 0 1004.8044993292715 -375.87034259313077 0 -375.87034259313077 1083.5143003476151 0 0 0 0 -70.479321763819826 -1842.2463916860574 0 -1842.2463916860574 201.04988986320677 0 0 0 0 -9.541874305868987 -2475.5656209700246 0 -2475.5656209700246 39.70068949915003 0 0 0 0 49.63194125748123 -2274.0096512582095 0 -2274.0096512582095 1301.8135853552521 0 0 0 0 1499.3306996853353 -707.45919948726078 0 -707.45919948726078 -268.21740486827912 0 0 0 0 1404.1197098315315 -995.09327416061933 0 -995.09327416061933 1027.5521788780461 0 0 0 0 15.635356675428284 -6.5257060411032768 0 -6.5257060411032768 -23.513002547082607 0 0 0 0 -26.360460235311393 -70.203041375395429 0 -70.203041375395429 -56.446326538884392 0 0 0 0 -287.32523853787279 -284.39012484946579 0 -284.39012484946579 -641.39088007608734 0 0 0 0 -158.93604511585727 -397.07378354338289 0 -397.07378354338289 -598.17799058163655 0 0 0 0 -563.91910827805987 -389.63104176838533 0 -389.63104176838533 -252.25908937356144 0 0 0 0 -9.3830535114030909 -18.158085223187243 0 -18.158085223187243 -10.08948552390089 0 0 0 0 -1452.5858935208234 -1273.2796570909341 0 -1273.2796570909341 -207.68649559965706 0 0 0 0 93.370395704259863 2008.4847206173072 0 2008.4847206173072 274.42955727749359 0 0 0 0 -425.13906818171381 -740.67668754791521 0 -740.67668754791521 127.05000277949148 0 0 0 0 -1169.9010425281886 -246.8848372795328 0 -246.8848372795328 1125.4159884746259 0 0 0 0 -353.82759426004486 410.84584586217534 0 410.84584586217534 1520.8481930429261 0 0 0 0 139.56864260978182 -150.30932423982449 0 -150.30932423982449 678.60802630678518 0 0 0 0 102.48052219364763 -583.40325625464902 0 -583.40325625464902 12.020817065160372 0 0 0 0 -1.1627478410079135 -3.9916706749928892 0 -3.9916706749928892 1.7702583110479679 0 0 0 0 -3122.5988082319964 477.42661063633568 0 477.42661063633568 1245.4349127512978 0 0 0 0 -1152.7899984088726 -1176.8218988492081 0 -1176.8218988492081 194.4609853754373 0 0 0 0 802.60813811360276 -1304.4411115476214 0 -1304.4411115476214 1065.291781210617 0 0 0 0 602.49844830113216 -501.81739453523733 0 -501.81739453523733 238.9764734772325 0 0 0 0 3500.7523064043999 -1371.5833667892675 0 -1371.5833667892675 -170.87624502960534 0 0 0 0 216.10512360713619 -1289.9856065735003 0 -1289.9856065735003 668.3133702732739 0 0 0 0 453.09322535552201 -861.49564023015773 0 -861.49564023015773 561.00018596008886 0 0 0 0 482.95117711813828 -1315.7168178840109 0 -1315.7168178840109 163.74395299864409 0 0 0 0 469.05347104546672 -1042.8094990918398 0 -1042.8094990918398 865.19745810382301 0 0 0 0 221.93464025116555 -951.31870735538178 0 -951.31870735538178 1157.5969138817163 0 0 0 0 334.27935598911426 -927.28682543193281 0 -927.28682543193281 806.2091658850768 0 0 0 0 192.90253313531866 -598.47942124741894 0 -598.47942124741894 693.97214185027406 0 0 0 0 -429.82210433782893 -279.25495179863719 0 -279.25495179863719 859.97307118585013 0 0 0 0 87.32433834602125 -732.52733772656939 0 -732.52733772656939 858.16398595724604 0 0 0 0 -54.638391209533438 -162.00322950303234 0 -162.00322950303234 424.45606069631322 0 0 0 0 -307.358920036786 -315.54022420731781 0 -315.54022420731781 350.77344149092096 0 0 0 0 465.94689675080008 210.04355289936939 0 210.04355289936939 307.37181958662404 0 0 0 0 -93.592440238036943 -213.17784558202493 0 -213.17784558202493 1520.1876125315175 0 0 0 0 -413.73848553264543 -233.37951471801898 0 -233.37951471801898 40.740232549498614 0 0 0 0 -144.47212571732234 23.988219511484203 0 23.988219511484203 495.41323835931325 0 0 0 0 -309.29306444749818 -473.52943097846583 0 -473.52943097846583 -636.89619836624479 0 0 0 0 -1120.6903396988637 -161.89022201789339 0 -161.89022201789339 645.10279343330694 0 0 0 0 -76.281863932454144 -41.415219321948825 0 -41.415219321948825 482.94105176316225 0 0 0 0 98.424733972453396 -368.50794228433369 0 -368.50794228433369 203.78267203881478 0 0 0 0 -840.11620510992361 -214.63484206024077 0 -214.63484206024077 113.98480756568097 0 0 0 0 -13.396631711593969 -22.945791549249549 0 -22.945791549249549 -33.088969245672558 0 0 0 0 -749.15829655875859 -271.46725554384102 0 -271.46725554384102 34.524547690045438 0 0 0 0 636.32797230927827 -622.31009397262278 0 -622.31009397262278 94.738400409776659 0 0 0 0 -2689.384911356472 61.978319978210493 0 61.978319978210493 228.93137209278211 0 0 0 0 -6.1562714900004778 -8.4451050854870999 0 -8.4451050854870999 -9.7337429603137195 0 0 0 0 40.77349099406274 -778.97088526078733 0 -778.97088526078733 558.8447177973726 0 0 0 0 15.963438844039047 -414.63544466972235 0 -414.63544466972235 594.58585632060567 0 0 0 0 256.48869335792551 -948.09085555526872 0 -948.09085555526872 -156.57599228891922 0 0 0 0 -617.10284339995997 -1077.060398006488 0 -1077.060398006488 -102.57331331926252 0 0 0 0 169.42833049835463 -221.10592506724424 0 -221.10592506724424 -660.19412145337446 0 0 0 0 591.54002528196725 -349.34186566374046 0 -349.34186566374046 -335.04991650684678 0 0 0 0 -88.445170891398448 94.752526715317799 0 94.752526715317799 789.1743368430507 0 0 0 0 22.941322006081464 -574.12607526191096 0 -574.12607526191096 -87.900268921279348 0 0 0 0 -105.36176256397448 -402.42823625375968 0 -402.42823625375968 -189.28739045184193 0 0 0 0 -1287.7255886487255 -1212.2736684585034 0 -1212.2736684585034 -83.144715747148439 0 0 0 0 -949.93550799976219 -419.45401723216128 0 -419.45401723216128 284.78059663587192 0 0 0 0 13.258178279953427 -337.94572378583325 0 -337.94572378583325 219.88143895515532 0 0 0 0 -572.77689396471396 -793.02221183558868 0 -793.02221183558868 -51.146750613872427 0 0 0 0 -573.90463881399774 -704.7915636152502 0 -704.7915636152502 420.79470473040419 0 0 0 0 -145.7632034177459 -175.65437714261088 0 -175.65437714261088 973.78135659329564 0 0 0 0 -526.50385567640478 -643.06490278842466 0 -643.06490278842466 132.33553150147054 0 0 0 0 -607.9785654344596 -510.07948564769504 0 -510.07948564769504 -79.555798182649596 0 0 0 0 0.61027817854989763 -11.28014504644662 0 -11.28014504644662 -9.2874083103014584 0 0 0 0 150.10277473067981 -147.31743824627483 0 -147.31743824627483 119.75999034357665 0 0 0 0 -4.3773112184790079 -12.019060019816607 0 -12.019060019816607 -6.1790029361727647 0 0 0 0 141.05739837036526 -227.28643367755285 0 -227.28643367755285 261.0037892280161 0 0 0 0 0.50492446736461716 -25.914053526701537 0 -25.914053526701537 -12.459089800271613 0 0 0 0 296.72619507020147 -128.58823611950811 0 -128.58823611950811 -0.47592592402361333 0 0 0 0 -46.473006884581991 -372.12679002679215 0 -372.12679002679215 149.67084616834836 0 0 0 0 294.71146669439622 -346.74801938080782 0 -346.74801938080782 74.648814243490051 0 0 0 0 175.03798939094122 -533.63401046499348 0 -533.63401046499348 -31.790364505752223 0 0 0 0 368.00205228253617 -364.65378225420136 0 -364.65378225420136 55.760437813136377 0 0 0 0 1.9058374929359445 -9.1681376518895661 0 -9.1681376518895661 -8.7254081408503623 0 0 0 0 912.15856096145581 -193.86121395878581 0 -193.86121395878581 -124.88027163901279 0 0 0 0 74.25043717965309 40.344106843516784 0 40.344106843516784 13.909153620465077 0 0 0 0 415.05157815493294 -381.97847339068539 0 -381.97847339068539 -26.186359236953649 0 0 0 0 660.7431584821752 -119.88856318925536 0 -119.88856318925536 -0.44620021803712007 0 0 0 0 -1.2045224570611026 155.56320343523112 0 155.56320343523112 76.400910243261023 0 0 0 0 786.57758166403801 -327.71570215651445 0 -327.71570215651445 -49.373639877465394 0 0 0 0 493.3535109233344 -317.15086200620135 0 -317.15086200620135 -102.17762369514276 0 0 0 0 512.4701019111526 -375.78412668951569 0 -375.78412668951569 66.546784715021204 0 0 0 0 722.19223920695367 -68.950129785465833 0 -68.950129785465833 57.078467220722132 0 0 0 0 793.71315988093556 -1006.445404955266 0 -1006.445404955266 -1175.9623401124991 0 0 0 0 474.40089985405939 -273.91584279278322 0 -273.91584279278322 33.636045824503526 0 0 0 0 484.3873976659379 -633.79207574662723 0 -633.79207574662723 218.49464756847374 0 0 0 0 1.1656540100148405 -5.2317929841510704 0 -5.2317929841510704 -4.3817463968336199 0 0 0 0 1668.0952414339263 -204.27839718793985 0 -204.27839718793985 -457.16970411581133 0 0 0 0 -777.32836406238857 -960.27828707683784 0 -960.27828707683784 -818.61233560234541 0 0 0 0 91.716119810545933 -1106.739788673709 0 -1106.739788673709 -1026.7988912995352 0 0 0 0 145.71190757428849 -1155.5061982745574 0 -1155.5061982745574 -1075.078366072994 0 0 0 0 -0.52429587524238741 -1433.4686304338829 0 -1433.4686304338829 -1457.0876811813359 0 0 0 0 79.316221984408912 -1179.5966113209943 0 -1179.5966113209943 -1082.8522368842896 0 0 0 0 0.36912509539251914 -1220.1747767280867 0 -1220.1747767280867 -1034.4333215307561 0 0 0 0 -160.26959338490269 -747.42371158992319 0 -747.42371158992319 -1134.0623360697864 0 0 0 0 -124.29721433747909 -1461.3572474078064 0 -1461.3572474078064 -1544.4680299495958 0 0 0 0 28.532117420167197 -1131.8343487014536 0 -1131.8343487014536 -1035.1700195558951 0 0 0 0 -133.06011091332039 -426.18422948902662 0 -426.18422948902662 1761.7636107565922 0 0 0 0 -3.0253426827268299 -5.8262694923988647 0 -5.8262694923988647 0.45098210539195804 0 0 0 0 392.8643682320544 -1142.5274846430766 0 -1142.5274846430766 -3103.6029990455627 0 0 0 0 635.95714331734052 -1533.6661293551952 0 -1533.6661293551952 -675.32772493904008 0 0 0 0 -325.56925312279782 -963.61650527291931 0 -963.61650527291931 -698.90639667007781 0 0 0 0 -189.83087353057817 -298.78743285483642 0 -298.78743285483642 -1742.9594081162359 0 0 0 0 -206.2764012538828 -1241.9761216775805 0 -1241.9761216775805 -908.75946051305073 0 0 0 0 -29.220107334796921 -1446.9895594288973 0 -1446.9895594288973 -64.262041865349602 0 0 0 0 -74.106193440384232 -809.81752111065725 0 -809.81752111065725 -518.85055678470235 0 0 0 0 137.39539482907276 -1253.3355664148758 0 -1253.3355664148758 159.96533139233361 0 0 0 0 261.56057074998535 -1568.0176209208767 0 -1568.0176209208767 523.39214465562691 0 0 0 0 -184.28161632876436 -1114.244610197793 0 -1114.244610197793 -176.78230506226828 0 0 0 0 -0.141454724711366 -1259.7156061844689 0 -1259.7156061844689 -243.34831207688694 0 0 0 0 -51.19670028229848 -992.89762554294748 0 -992.89762554294748 -408.55612664416549 0 0 0 0 -6.6310214526893105 -1200.331745734904 0 -1200.331745734904 -721.66137317707035 0 0 0 0 89.485314877980272 57.718591188343453 0 57.718591188343453 -550.50073738875653 0 0 0 0 24.804199880585657 107.16861622210854 0 107.16861622210854 -52.54178782460076 0 0 0 0 -2.5468201232125125 -3.4306529740997291 0 -3.4306529740997291 -5.0691404227653578 0 0 0 0 -105.99124860245502 -60.398140672847148 0 -60.398140672847148 -0.85317121784100891 0 0 0 0 -83.259592447197065 -124.95170915463677 0 -124.95170915463677 -148.04453931236276 0 0 0 0 -0.199137129180599 -76.205225673509631 0 -76.205225673509631 -210.09369819137646 0 0 0 0 58.352724490410765 -23.536816015410295 0 -23.536816015410295 0.73208315885443653 0 0 0 0 66.26243842538679 -113.32475426357269 0 -113.32475426357269 46.418773230809165 0 0 0 0 -43.993077503226232 -88.592010595126339 0 -88.592010595126339 99.590992230656411 0 0 0 0 -83.586794308313983 30.409491735528718 0 30.409491735528718 9.5800830912794481 0 0 0 0 24.998913863231564 -31.952335156378183 0 -31.952335156378183 26.993474454652905 0 0 0 0 -10.569958282081643 21.44557014383463 0 21.44557014383463 13.388502987718766 0 0 0 0 15.211631293117534 -40.358904714888922 0 -40.358904714888922 49.837710289375536 0 0 0 0 -2.693539462517947 24.584488866467836 0 24.584488866467836 -32.119785520000733 0 0 0 0 70.293520957638975 -42.819726828340208 0 -42.819726828340208 23.01524738461012 0 0 0 0 -14.385030968653155 -12.252728590862262 0 -12.252728590862262 -50.040498612484953 0 0 0 0 1.4331524728404474 3.8972957665857848 0 3.8972957665857848 -88.668763082721853 0 0 0 0 -11.822438558632712 -32.986007331286828 0 -32.986007331286828 -90.984705109985953 0 0 0 0 70.321002804499585 2.0225572637427831 0 2.0225572637427831 -152.72969296519386 0 0 0 0 -115.21317010588245 -196.29151027050648 0 -196.29151027050648 -432.01624968823671 0 0 0 0 -94.404724749852903 48.919371124877216 0 48.919371124877216 -164.96346268654816 0 0 0 0 78.865492925266153 -78.803244646838721 0 -78.803244646838721 -172.74844537610625 0 0 0 0 -75.448926845914684 -268.18996046256507 0 -268.18996046256507 -231.37735175996386 0 0 0 0 68.841413022615598 -21.526295808787836 0 -21.526295808787836 -342.038162782359 0 0 0 0 36.673336053194362 -108.77376403179369 0 -108.77376403179369 -29.945242368081381 0 0 0 0 -114.27969926562946 -277.37150666899106 0 -277.37150666899106 223.67957076053426 0 0 0 0 -108.21469329782121 -294.18712386727748 0 -294.18712386727748 68.804289811087074 0 0 0 0 -63.602783347931108 -119.21771742720739 0 -119.21771742720739 -22.25569904565964 0 0 0 0 -66.232144919777056 -104.56177705652226 0 -104.56177705652226 181.0771027253586 0 0 0 0 218.5957017235196 -61.199794608014599 0 -61.199794608014599 -381.53984273897368 0 0 0 0 262.29656507013715 -202.75005531695206 0 -202.75005531695206 -660.93075176885031 0 0 0 0 -3.6834760337341663 -1.1840232334548091 0 -1.1840232334548091 0.22134619291070123 0 0 0 0 333.69007693297317 -142.90839912425508 0 -142.90839912425508 -791.8317178814832 0 0 0 0 243.69748388960215 -50.664427914639418 0 -50.664427914639418 -781.98918631010019 0 0 0 0 206.13126507456764 -123.45633064948197 0 -123.45633064948197 -640.29930337203768 0 0 0 0 -28.458198602776974 -196.99053118564188 0 -196.99053118564188 -518.73837269708747 0 0 0 0 -312.1734430987417 -186.15855604071294 0 -186.15855604071294 373.74402655869198 0 0 0 0 0.33230335962434765 -99.483137639441338 0 -99.483137639441338 -552.72019141783039 0 0 0 0 -4.0093815371343453 -1.0440404376851689 0 -1.0440404376851689 0.52585783679808173 0 0 0 0 143.86506941376138 -264.39973856748838 0 -264.39973856748838 -742.43495559169969 0 0 0 0 -189.14400504913647 -704.87178445820246 0 -704.87178445820246 -361.00893708031072 0 0 0 0 22.738321678334614 -575.87601172073482 0 -575.87601172073482 -708.42576308757452 0 0 0 0 -72.858906838679104 -437.4149689896185 0 -437.4149689896185 -263.73604738104768 0 0 0 0 -40.953845121322956 -443.69011980399137 0 -443.69011980399137 -314.11688653839519 0 0 0 0 -197.97260438728699 -451.6081431010698 0 -451.6081431010698 -248.41215156435646 0 0 0 0 -189.9880710920479 -466.35887916852334 0 -466.35887916852334 -221.55198772636504 0 0 0 0 -212.50392701786768 -693.92457261708114 0 -693.92457261708114 -207.6118081335444 0 0 0 0 -230.94517032432486 -544.67710782006543 0 -544.67710782006543 -148.82704048761661 0 0 0 0 -351.93658386688912 -372.28276353755064 0 -372.28276353755064 -40.130008523847209 0 0 0 0 -378.88642191655526 -317.55916560972037 0 -317.55916560972037 -151.23566221502551 0 0 0 0 -316.35910002706805 -554.38457755174386 0 -554.38457755174386 176.8067287973463 0 0 0 0 -1.4386385738806453 -4.9241640705168095 0 -4.9241640705168095 1.7182088297576854 0 0 0 0 -304.57575634968816 -322.63747485123167 0 -322.63747485123167 -205.65688165437314 0 0 0 0 -326.28992850399663 -490.13334360351291 0 -490.13334360351291 -171.28117933838803 0 0 0 0 -268.87237378397549 -390.74546026501048 0 -390.74546026501048 -82.013263085376821 0 0 0 0 -259.44384693002212 -361.72683852905948 0 -361.72683852905948 -278.55051910527982 0 0 0 0 -189.16014684658148 -339.56004578674401 0 -339.56004578674401 -278.35185424509109 0 0 0 0 -243.27933801320614 -272.84768053398147 0 -272.84768053398147 -359.31762011165119 0 0 0 0 -349.23921701752988 -273.39738222573942 0 -273.39738222573942 -229.7298085214079 0 0 0 0 -8.7682326445370222 -3.9658818802162301 0 -3.9658818802162301 -0.54130948220691255 0 0 0 0 289.9055098120516 -20.174890900078026 0 -20.174890900078026 -1.6072950100060552 0 0 0 0 -0.076980487683727006 -7.9680989528915234 0 -7.9680989528915234 -5.4890266349223547 0 0 0 0 -3.3721148711421733 0.29226064562293175 0 0.29226064562293175 -0.061156071863508354 0 0 0 0 -309.1088021727337 -754.77864325000337 0 -754.77864325000337 -1115.3216726679818 0 0 0 0 -188.98733687232198 -340.77236371806293 0 -340.77236371806293 -359.2258968493843 0 0 0 0 -169.59942270963802 -456.223600287718 0 -456.223600287718 -356.88068837901915 0 0 0 0 -490.13364933533376 -377.27549523204152 0 -377.27549523204152 -85.923189895191172 0 0 0 0 -112.13870578425121 -223.47134827610716 0 -223.47134827610716 -154.85758647055627 0 0 0 0 -246.95892826665659 -188.59863923847661 0 -188.59863923847661 -19.016972164106846 0 0 0 0 -136.04204359778669 -264.34606592903037 0 -264.34606592903037 -24.971220700637787 0 0 0 0 -339.92936874882434 -416.27648132636205 0 -416.27648132636205 -167.01150133761257 0 0 0 0 -168.60134564611872 -263.15250767188718 0 -263.15250767188718 -51.755199002873269 0 0 0 0 -92.540926226356532 -203.55112236898458 0 -203.55112236898458 -121.31586481514751 0 0 0 0 -113.22379015398838 -175.61082703738975 0 -175.61082703738975 -4.2059925379762717 0 0 0 0 24.813848863181192 -141.37698326899408 0 -141.37698326899408 -41.896465454149165 0 0 0 0 35.400329644078738 -93.032344472601835 0 -93.032344472601835 96.000999050120299 0 0 0 0 305.03270801869803 -217.55608155180926 0 -217.55608155180926 22.146864633527002 0 0 0 0 241.87698232722141 -153.9561675177697 0 -153.9561675177697 2.4427268792496761 0 0 0 0 245.63531947485899 -208.53246629070964 0 -208.53246629070964 -15.957487854262581 0 0 0 0 4.9675731461987311 0.35824159738578487 0 0.35824159738578487 -7.0022154102381364 0 0 0 0 242.79280706241116 -157.07272388077081 0 -157.07272388077081 -55.845543181188987 0 0 0 0 242.68967140471796 -222.93052584084217 0 -222.93052584084217 -83.883916645947465 0 0 0 0 33.281408411290613 -148.02522790421426 0 -148.02522790421426 -36.287432742181409 0 0 0 0 97.329001681675436 -240.52994332535673 0 -240.52994332535673 27.296173092221579 0 0 0 0 -104.61466837167973 -256.88223342777928 0 -256.88223342777928 -34.5151011297948 0 0 0 0 30.882863817067118 -201.1403702941534 0 -201.1403702941534 -115.99060278181423 0 0 0 0 49.878133425590931 -98.780949660971601 0 -98.780949660971601 -58.533400695734599 0 0 0 0 183.3391366062715 10.048459172550793 0 10.048459172550793 -205.28096013238974 0 0 0 0 66.625763613439631 -58.722300168374204 0 -58.722300168374204 23.356897777339327 0 0 0 0 80.504255756372004 -230.19873629439462 0 -230.19873629439462 -55.089812014746713 0 0 0 0 0.90341374941868935 0.95201304583140711 0 0.95201304583140711 -11.409326665778593 0 0 0 0 -67.840996089726104 449.41348452539387 0 449.41348452539387 1031.6609011332621 0 0 0 0 -263.01500251656398 -327.50272693090665 0 -327.50272693090665 -1350.8482480282546 0 0 0 0 -15.945425888262548 -31.681034833226676 0 -31.681034833226676 -56.929188258619831 0 0 0 0 74.811474187044951 -187.63517795624557 0 -187.63517795624557 -137.50744285888504 0 0 0 0 -318.84427798938123 -365.17654596067587 0 -365.17654596067587 -192.32804580198717 0 0 0 0 -192.54072249867022 -210.19209990622039 0 -210.19209990622039 -116.41459753707022 0 0 0 0 -54.303797331172973 -90.451849273384141 0 -90.451849273384141 -76.718699645123706 0 0 0 0 -186.66708499370725 -239.28337681832636 0 -239.28337681832636 -18.073931755832746 0 0 0 0 193.64541404144256 192.66902186837251 0 192.66902186837251 -368.20133204892045 0 0 0 0 207.54208153177751 324.68092235910808 0 324.68092235910808 -71.78968230735336 0 0 0 0 421.47829885380634 284.59842999156535 0 284.59842999156535 -488.92078526614932 0 0 0 0 253.37102998874616 -66.945111086090037 0 -66.945111086090037 15.048795133159729 0 0 0 0 236.40800105775634 237.08941827994295 0 237.08941827994295 -240.50455019521178 0 0 0 0 -622.81697472327505 508.19212332803727 0 508.19212332803727 -284.34315796183364 0 0 0 0 -90.115900482283905 137.67385075442144 0 137.67385075442144 -245.70942251582164 0 0 0 0 5.3888954867725261 211.23591145628598 0 211.23591145628598 -979.22159103933518 0 0 0 0 -270.22696447596536 553.90563531976659 0 553.90563531976659 -604.68655618801131 0 0 0 0 -148.47346628023661 255.33035848296277 0 255.33035848296277 -331.35779679229017 0 0 0 0 126.78852411714615 380.87881268304773 0 380.87881268304773 -350.66854680361939 0 0 0 0 -65.326539079513168 325.42820029142604 0 325.42820029142604 -318.72398854280254 0 0 0 0 16.838270425083465 -308.18231085454318 0 -308.18231085454318 -606.09059744355909 0 0 0 0 -21.47055812170268 -42.12728902558564 0 -42.12728902558564 -67.463827089573101 0 0 0 0 81.952336809888948 215.33276918729825 0 215.33276918729825 -295.91571445055888 0 0 0 0 -320.65906615540734 173.5850919347431 0 173.5850919347431 -102.79694829627988 0 0 0 0 -55.880115284875501 61.735152743087383 0 61.735152743087383 -89.479859005015896 0 0 0 0 -15.74772706249496 24.26994170047692 0 24.26994170047692 -140.14922563201981 0 0 0 0 74.188251054118155 102.56309078034246 0 102.56309078034246 -269.71334396250313 0 0 0 0 -8.5284710968116997 162.1510114648845 0 162.1510114648845 -312.08297218207736 0 0 0 0 -74.76165005780058 97.224406747656758 0 97.224406747656758 -153.65764506551204 0 0 0 0 4.1764061449794099 34.761655106267426 0 34.761655106267426 -212.73211930168327 0 0 0 0 -6.9076385016087443 44.748685315338662 0 44.748685315338662 -220.32507845869986 0 0 0 0 21.93701103242347 59.595660552178742 0 59.595660552178742 -301.45855709645548 0 0 0 0 114.47885675451835 65.016638968983898 0 65.016638968983898 -442.3266145256348 0 0 0 0 60.257406213808281 4.217300882384734 0 4.217300882384734 -343.78196837147698 0 0 0 0 45.099497976130806 6.4349091313779354 0 6.4349091313779354 -319.48241879063426 0 0 0 0 48.041768640920054 -75.977178560977336 0 -75.977178560977336 -476.82549970049877 0 0 0 0 90.053534448263235 75.455270517646568 0 75.455270517646568 -361.49823993918108 0 0 0 0 117.01074170981883 244.60246952410671 0 244.60246952410671 -369.37625634331857 0 0 0 0 296.02115198646788 167.44037689899415 0 167.44037689899415 -474.59729162845179 0 0 0 0 239.35366948759474 81.090946214320866 0 81.090946214320866 -570.22007134027081 0 0 0 0 396.37772299707285 74.963339778711088 0 74.963339778711088 -623.52729057542456 0 0 0 0 207.08809297499829 -110.2005200214353 0 -110.2005200214353 -717.73656911845319 0 0 0 0 237.17869357802556 -8.1370970157440752 0 -8.1370970157440752 -458.13342128272052 0 0 0 0 66.162018006638391 -166.22593643558503 0 -166.22593643558503 -427.82014767164947 0 0 0 0 38.752955752446724 -77.343778600508813 0 -77.343778600508813 27.712314803149638 0 0 0 0 26.858607445089433 -46.780146683109024 0 -46.780146683109024 23.379952630956311 0 0 0 0 -24.279815267364029 -116.76903440529713 0 -116.76903440529713 -419.57027325034142 0 0 0 0 57.661325716064312 14.55026715763961 0 14.55026715763961 -315.41652581343078 0 0 0 0 -56.828223000629805 -38.232710143638542 0 -38.232710143638542 -427.76877778570633 0 0 0 0 -10.654339302098379 -88.872227639629273 0 -88.872227639629273 -372.33572963454935 0 0 0 0 7.9051820643362589 -28.688391305637197 0 -28.688391305637197 -212.01004007802112 0 0 0 0 122.17282732288004 -192.04356239858316 0 -192.04356239858316 -291.11604579660343 0 0 0 0 -5.2706039505119691 -15.565938316249898 0 -15.565938316249898 12.68834913904837 0 0 0 0 114.79673026088858 -22.529416151504847 0 -22.529416151504847 73.566891285416204 0 0 0 0 -5.6922104388941079 16.88224891514983 0 16.88224891514983 -172.75601751296199 0 0 0 0 0.82085610717240343 -16.363677823154319 0 -16.363677823154319 -22.076185441457028 0 0 0 0 -36.226047490839846 -3.4022707575350069 0 -3.4022707575350069 -22.615242889485671 0 0 0 0 -5.5354018649668433 13.432707884057891 0 13.432707884057891 -137.66464446811005 0 0 0 0 18.713890648912638 2.8610290834330954 0 2.8610290834330954 -224.52893253225193 0 0 0 0 18.317422897322103 4.3439722811162937 0 4.3439722811162937 -217.45080841734307 0 0 0 0 58.117427231743932 9.0074689045723062 0 9.0074689045723062 -248.4889575127163 0 0 0 0 -1.2892346978769638 -103.20623213605722 0 -103.20623213605722 -70.151264609739883 0 0 0 0 6.0780494881521463 -48.037837571332574 0 -48.037837571332574 19.816815011583671 0 0 0 0 21.495976774371229 -55.497130535310134 0 -55.497130535310134 8.2456078237155452 0 0 0 0 -73.898855444329612 -67.436030296817648 0 -67.436030296817648 91.091172530133406 0 0 0 0 -15.78797442098579 -11.671969490683153 0 -11.671969490683153 10.897405169279921 0 0 0 0 -51.288640511513222 29.483269007876515 0 29.483269007876515 117.23500361201877 0 0 0 0 1.9839296239706528 -63.901449842085235 0 -63.901449842085235 -72.590161440837591 0 0 0 0 62.475777611893136 -293.9801070518879 0 -293.9801070518879 -5.7717732134042308 0 0 0 0 172.32590323142358 -20.22316426566249 0 -20.22316426566249 -137.31710124648089 0 0 0 0 39.433487807167694 -58.761247637274209 0 -58.761247637274209 -129.39291214512195 0 0 0 0 105.14591185358586 -229.73839444712576 0 -229.73839444712576 217.13904453335272 0 0 0 0 4.7126347561318198 -6.8185001867693487 0 -6.8185001867693487 0.8045114833355278 0 0 0 0 -29.268431834576518 -42.742705640521706 0 -42.742705640521706 -1.3587940498160833 0 0 0 0 -45.569454531684642 -148.46076627644948 0 -148.46076627644948 -207.63520118739689 0 0 0 0 4.1924340005468821 -26.523099070690826 0 -26.523099070690826 -9.2030664836583753 0 0 0 0 -4.7915861255610537 -33.888667780930817 0 -33.888667780930817 -4.6114369200745102 0 0 0 0 10.946886405283294 -68.429663883913236 0 -68.429663883913236 -4.4907478914101375 0 0 0 0 27.909139264200348 -81.418844990132129 0 -81.418844990132129 43.729500599940366 0 0 0 0 20.980643447902139 -37.493373392033774 0 -37.493373392033774 -19.971131717911614 0 0 0 0 -15.862471260046448 -26.185095774649341 0 -26.185095774649341 4.8812151110177808 0 0 0 0 -24.567608760860026 -36.584523990987179 0 -36.584523990987179 4.3061463642196287 0 0 0 0 50.752315025776625 -74.876193111136672 0 -74.876193111136672 0.52900024679911439 0 0 0 0 37.381579212844372 -57.752297616780197 0 -57.752297616780197 10.146507503770408 0 0 0 0 -5.7442730728112679 -44.182677312479214 0 -44.182677312479214 -12.90789350079811 0 0 0 0 55.360816232845536 -54.203116522676282 0 -54.203116522676282 5.4206911260989727 0 0 0 0 53.832433566334657 -52.851117258211161 0 -52.851117258211161 9.0959551020714571 0 0 0 0 145.52242179894529 -88.507072999385855 0 -88.507072999385855 -43.410518392560334 0 0 0 0 131.21911690253182 -102.77342179270454 0 -102.77342179270454 2.6143992302422703 0 0 0 0 79.302688437834149 -111.84926802815789 0 -111.84926802815789 118.55093161016703 0 0 0 0 180.52984341817501 -155.48134151483828 0 -155.48134151483828 -10.05468496769754 0 0 0 0 161.79023415695519 -85.356226532885103 0 -85.356226532885103 -11.831469708624354 0 0 0 0 120.92871028368245 -106.02954130750004 0 -106.02954130750004 -22.270898845843476 0 0 0 0 108.35122424124711 -144.70767531348429 0 -144.70767531348429 -139.02609921294788 0 0 0 0 86.187602726480691 -54.944755658074428 0 -54.944755658074428 -99.579476131768388 0 0 0 0 166.65673613359104 -40.001606611247553 0 -40.001606611247553 -62.529007244200329 0 0 0 0 171.22209642075177 -86.673359325784986 0 -86.673359325784986 -93.993156700511463 0 0 0 0 219.42389223879582 -33.458492113383727 0 -33.458492113383727 -96.649169378069928 0 0 0 0 152.35270779710481 -80.7230567665747 0 -80.7230567665747 -126.32047915230942 0 0 0 0 7.5642415174127677 0.69005212855671516 0 0.69005212855671516 -9.3720071305198971 0 0 0 0 44.668494043129613 -56.894436121998297 0 -56.894436121998297 -106.55163887345952 0 0 0 0 32.662205586646451 19.819084481652681 0 19.819084481652681 -86.219577322975965 0 0 0 0 27.002669356574188 -133.96656362143585 0 -133.96656362143585 -41.504071831976034 0 0 0 0 1.9868182187533137 -5.1984031464955223 0 -5.1984031464955223 7.032910366002838 0 0 0 0 44.502933391049737 35.694714847806608 0 35.694714847806608 -5.5747490049980115 0 0 0 0 135.06521377398167 69.955643906316254 0 69.955643906316254 -10.960110206673562 0 0 0 0 103.96993739140453 -48.987836977750703 0 -48.987836977750703 -66.244578716890828 0 0 0 0 41.004840418756345 -11.348997885959761 0 -11.348997885959761 -41.749914744450933 0 0 0 0 4.3764311790831698 0.27336164564098908 0 0.27336164564098908 -14.96611117511592 0 0 0 0 122.48121857163642 -69.529598265417917 0 -69.529598265417917 -92.768610396655276 0 0 0 0 105.23580935364933 -24.06853794831386 0 -24.06853794831386 -17.644561784987872 0 0 0 0 146.02804301699507 -180.35802103337119 0 -180.35802103337119 -228.10493678025887 0 0 0 0 93.170770762306347 -136.65351191512127 0 -136.65351191512127 -188.94780852113763 0 0 0 0 170.10932689769834 -34.503230864836951 0 -34.503230864836951 -191.39013275754769 0 0 0 0 159.30660021757649 11.330207760354824 0 11.330207760354824 -220.46264372534267 0 0 0 0 129.86723166744196 -6.6882862604961701 0 -6.6882862604961701 -168.9104907408564 0 0 0 0 140.55133853401639 28.560404853160435 0 28.560404853160435 -219.90434835477208 0 0 0 0 122.9542645941612 -32.380608962847802 0 -32.380608962847802 -5.5699243558204827 0 0 0 0 121.00691321099293 -3.8799799151165644 0 -3.8799799151165644 -140.95474776454648 0 0 0 0 121.59314396628179 -25.946986254224612 0 -25.946986254224612 156.71502031336422 0 0 0 0 25.41373364473057 -0.90668703617292579 0 -0.90668703617292579 -2.5213797134553317 0 0 0 0 96.361198156446335 -34.017408019330105 0 -34.017408019330105 -49.156923729808113 0 0 0 0 107.48294033673756 -105.69534091484218 0 -105.69534091484218 -50.561542566210846 0 0 0 0 223.73877944111882 6.7489788503880845 0 6.7489788503880845 -26.097557909328316 0 0 0 0 96.887292125771637 -60.511376485359506 0 -60.511376485359506 7.6799693343236868 0 0 0 0 9.7574348326608629 -7.4218747122843496 0 -7.4218747122843496 -14.416071759137097 0 0 0 0 45.705109760877804 -41.858420035475731 0 -41.858420035475731 5.2059063486195996 0 0 0 0 78.797556391866237 -50.605971320083881 0 -50.605971320083881 5.4530569033304346 0 0 0 0 28.85749547362866 -71.908878926066791 0 -71.908878926066791 18.567127911272109 0 0 0 0 122.07990244645771 23.505685393076419 0 23.505685393076419 -203.88749612767424 0 0 0 0 -64.768571097229142 116.60397335370726 0 116.60397335370726 -37.545278535352736 0 0 0 0 -83.355951315512357 271.00882546423964 0 271.00882546423964 125.937742609618 0 0 0 0 -879.25078697266872 -147.53598929417421 0 -147.53598929417421 210.88553292449615 0 0 0 0 -897.10335568441951 -919.78241752825852 0 -919.78241752825852 -674.29016835146467 0 0 0 0 -351.62127119837169 -688.61690174622254 0 -688.61690174622254 -606.272045526086 0 0 0 0 -508.41762373728125 -411.42901659669678 0 -411.42901659669678 -90.3055309929332 0 0 0 0 63.974043409441947 -349.84314420128794 0 -349.84314420128794 -547.1253613872268 0 0 0 0 -229.74674246736686 -399.91310310530389 0 -399.91310310530389 -745.44634663220131 0 0 0 0 -147.39424277040234 -418.64963510150483 0 -418.64963510150483 -319.15957839522889 0 0 0 0 -144.7710992172606 -494.23078273898193 0 -494.23078273898193 -447.09786635657656 0 0 0 0 -4.970111562332022 -332.10794180209632 0 -332.10794180209632 -336.25145249045454 0 0 0 0 -267.73756367317401 -435.40971209430063 0 -435.40971209430063 -267.67404040971451 0 0 0 0 -127.2562089554558 -251.86211375361745 0 -251.86211375361745 -91.577461261920689 0 0 0 0 -136.94160717081286 -330.87139718057506 0 -330.87139718057506 -260.99765315860714 0 0 0 0 -460.65018892700755 -141.76113575663476 0 -141.76113575663476 46.096467849303735 0 0 0 0 -286.6052281112643 -292.76414343273063 0 -292.76414343273063 -154.31577265140004 0 0 0 0 -292.86541536526056 -240.40043870371301 0 -240.40043870371301 -40.827237022203917 0 0 0 0 -168.15073338257207 -255.37442650591402 0 -255.37442650591402 -61.461002654563345 0 0 0 0 -163.84806095760723 19.639355255370901 0 19.639355255370901 113.27370339482513 0 0 0 0 4.9386865992821356 -8.5043797291964012 0 -8.5043797291964012 6.711730276476672 0 0 0 0 -55.30166693382489 -68.466443847100891 0 -68.466443847100891 -24.587875612720381 0 0 0 0 -75.209661111690366 -49.072092387062185 0 -49.072092387062185 -20.259220341009495 0 0 0 0 6.5347890369021684 -3.3264022821310029 0 -3.3264022821310029 0.22886114614517794 0 0 0 0 -169.00220648894901 -113.54142435353424 0 -113.54142435353424 140.90637227182742 0 0 0 0 -16.228280924675346 -199.38047898498371 0 -199.38047898498371 -173.71383477137715 0 0 0 0 -100.17510185510037 -121.88625696430972 0 -121.88625696430972 -23.498247482799343 0 0 0 0 -188.45977568627859 -223.62399266372449 0 -223.62399266372449 -96.816078300958907 0 0 0 0 -64.077016104696668 -107.21581896249336 0 -107.21581896249336 -131.85289364436903 0 0 0 0 -50.517400662691216 -81.088315715558565 0 -81.088315715558565 -81.633717088374397 0 0 0 0 -108.92173833978813 -147.18495192825503 0 -147.18495192825503 -90.437232484240667 0 0 0 0 0.29637472808809662 -3.6455727674231753 0 -3.6455727674231753 3.8967742584368708 0 0 0 0 -18.642289071765845 -138.88178533938481 0 -138.88178533938481 -149.99394386645508 0 0 0 0 -89.474305985946557 112.96380623759205 0 112.96380623759205 440.42082171037327 0 0 0 0 -157.36969383686665 203.05602021229424 0 203.05602021229424 375.84552286002145 0 0 0 0 19.013682729855645 -59.015608055833582 0 -59.015608055833582 143.22297012813942 0 0 0 0 1.9091641043416416 -5.8261913509960124 0 -5.8261913509960124 10.409280184895643 0 0 0 0 -119.26191439380636 -20.191544322704431 0 -20.191544322704431 80.713610093085663 0 0 0 0 32.834775235125562 11.428900368817267 0 11.428900368817267 262.69023597274281 0 0 0 0 -6.370364176138537 -37.509038370350027 0 -37.509038370350027 205.27421938062616 0 0 0 0 -26.005896119051613 -69.253926297551516 0 -69.253926297551516 215.65485825246105 0 0 0 0 244.61162046893151 139.49511561156396 0 139.49511561156396 223.28086921323847 0 0 0 0 1.2506551287859509 -2.3182753758016617 0 -2.3182753758016617 -10.950268284309352 0 0 0 0 105.96607347647659 -85.463379562232149 0 -85.463379562232149 -19.833368393123237 0 0 0 0 10.996788829429789 -50.061588582831995 0 -50.061588582831995 -5.8403119925488198 0 0 0 0 -6.4157818320090882 -101.32149578128883 0 -101.32149578128883 93.136212795394385 0 0 0 0 72.599407995316142 61.138575176713857 0 61.138575176713857 69.568808499752777 0 0 0 0 -35.844966719785589 -54.55022255786389 0 -54.55022255786389 240.09125772459811 0 0 0 0 -19.935360916628269 -23.600772474477708 0 -23.600772474477708 256.83966920381499 0 0 0 0 25.86935234858538 -36.840039559916477 0 -36.840039559916477 9.0238964348245645 0 0 0 0 22.3275446562252 -15.79077111382253 0 -15.79077111382253 4.2196893112363725 0 0 0 0 2.3256659318421953 34.490354424997122 0 34.490354424997122 34.925155896948127 0 0 0 0 43.486273132075439 -42.454942759341066 0 -42.454942759341066 7.3776816500048881 0 0 0 0 -3.2813761974343265 -7.1709086471007453 0 -7.1709086471007453 -0.67008343198001796 0 0 0 0 14.096150999102974 -31.354952799643797 0 -31.354952799643797 102.12402600930363 0 0 0 0 1.4519637165909387 -22.552133208102518 0 -22.552133208102518 -3.3119842911743262 0 0 0 0 53.860253054808709 -52.354156919594971 0 -52.354156919594971 5.2293849727284396 0 0 0 0 18.614163411264599 -18.71964615790057 0 -18.71964615790057 8.8816454140614951 0 0 0 0 55.42690285327626 -54.082778535775105 0 -54.082778535775105 2.0094633124826942 0 0 0 0 -13.624119237530977 -90.819432184536709 0 -90.819432184536709 117.04567461407714 0 0 0 0 36.516796529154817 -73.18441033261297 0 -73.18441033261297 59.808356465640827 0 0 0 0 44.35303911853407 -15.989363267814042 0 -15.989363267814042 -1.1421805428326479 0 0 0 0 3.4243479914985357 -10.525419737404029 0 -10.525419737404029 14.300611045100396 0 0 0 0 13.292270541285689 -65.172616725329135 0 -65.172616725329135 -12.754758752715134 0 0 0 0 15.753739868506898 -54.572965655924968 0 -54.572965655924968 -24.667614259187076 0 0 0 0 24.880405757896369 -57.381264180206927 0 -57.381264180206927 -44.248470293081482 0 0 0 0 -1.2563519615650875 -63.839750259248831 0 -63.839750259248831 -21.548396219266579 0 0 0 0 21.653124686861702 -71.147408234272007 0 -71.147408234272007 -19.710141119197942 0 0 0 0 2.4518196767603513 -84.999370962184912 0 -84.999370962184912 -19.730303307478607 0 0 0 0 25.992098611510301 -52.96261970134583 0 -52.96261970134583 11.021918475016719 0 0 0 0 36.428307003239752 -77.306331348688218 0 -77.306331348688218 -14.905969614876085 0 0 0 0 22.478467679393361 -68.901395694276289 0 -68.901395694276289 -11.615616129880436 0 0 0 0 22.207118681180873 -43.682298748772155 0 -43.682298748772155 16.447040885024762 0 0 0 0 61.862526662531309 -492.50944554377929 0 -492.50944554377929 -904.23794978336809 0 0 0 0 117.78206237687846 -288.04057277042011 0 -288.04057277042011 -464.88639994405094 0 0 0 0 101.6851288973121 450.84972827066667 0 450.84972827066667 -804.22519960947102 0 0 0 0 333.97492339574819 -120.74806274856019 0 -120.74806274856019 -1233.6998786671611 0 0 0 0 -231.86463475001074 -194.26155224504873 0 -194.26155224504873 2.1113763655303046 0 0 0 0 -2.8442762113459708 -11.737178681559342 0 -11.737178681559342 6.2220679840192901 0 0 0 0 297.6559829297621 -81.693040079437196 0 -81.693040079437196 -1626.3615991961778 0 0 0 0 29.677968067052461 -47.108684140812187 0 -47.108684140812187 14.082858391131708 0 0 0 0 341.93119340007252 -411.79251983826543 0 -411.79251983826543 501.23709917363158 0 0 0 0 -231.01561861040682 -419.46627982632526 0 -419.46627982632526 307.8239413604897 0 0 0 0 694.30954922945239 -588.43020991257072 0 -588.43020991257072 -130.75838701768953 0 0 0 0 473.70553430001019 378.50273565841781 0 378.50273565841781 26.99882791692653 0 0 0 0 278.85214998151059 42.434969711348458 0 42.434969711348458 -251.41063002921874 0 0 0 0 -362.05406644150207 -422.78719483436726 0 -422.78719483436726 -152.40291666817211 0 0 0 0 73.307419615346589 -776.47398141728991 0 -776.47398141728991 1424.4461072152044 0 0 0 0 393.51163408264256 -556.02211976384933 0 -556.02211976384933 405.52453300727939 0 0 0 0 327.53344339923206 -811.51048125246234 0 -811.51048125246234 836.86700783704873 0 0 0 0 128.71583863784326 -1002.2568983541205 0 -1002.2568983541205 1363.3699539764348 0 0 0 0 237.81279526969593 -876.49767284546397 0 -876.49767284546397 353.90691998990951 0 0 0 0 264.19351347883639 -789.98832535497786 0 -789.98832535497786 243.7798515025861 0 0 0 0 183.18784491420956 4.3503897449190845 0 4.3503897449190845 -96.118549452003208 0 0 0 0 -3.4245898814697284 -80.588582252443302 0 -80.588582252443302 21.92609999790875 0 0 0 0 -4.5150439621068017 -7.3991863001851357 0 -7.3991863001851357 -4.4559284504017711 0 0 0 0 11.049671164117626 -52.228569766979319 0 -52.228569766979319 -12.226335068281131 0 0 0 0 103.23727586302448 -584.06900402103747 0 -584.06900402103747 843.35887025464035 0 0 0 0 -7.9737125386600383 -58.935503772037919 0 -58.935503772037919 6.3784757337562041 0 0 0 0 26.165322982562429 -56.597192068610639 0 -56.597192068610639 -133.18753953983833 0 0 0 0 0.045160538356867619 -139.86974044253293 0 -139.86974044253293 -94.035281194321215 0 0 0 0 19.155511176228174 -43.433205119070408 0 -43.433205119070408 -69.975801010732539 0 0 0 0 18.343177712289616 -79.422122163661697 0 -79.422122163661697 -57.152456017793156 0 0 0 0 11.577953077474376 -71.820089098117023 0 -71.820089098117023 -14.7168113095031 0 0 0 0 4.7583496755042063 -51.030932759330625 0 -51.030932759330625 34.508873875857958 0 0 0 0 109.32395834822091 -136.96977301095467 0 -136.96977301095467 -23.617121178482193 0 0 0 0 -0.10049598097975831 -88.848931015163544 0 -88.848931015163544 -2.6233791451668367 0 0 0 0 -16.144521956943208 -110.54465945791162 0 -110.54465945791162 -29.465792072915065 0 0 0 0 -3.0277050072363636 -80.503271390516602 0 -80.503271390516602 -4.6057752904307563 0 0 0 0 -1.6386135419921573 -4.8849707777885243 0 -4.8849707777885243 14.49732750336657 0 0 0 0 89.168979974332615 -359.54120494651579 0 -359.54120494651579 60.007143255967094 0 0 0 0 -85.079704971292813 -3.2823445824105875 0 -3.2823445824105875 250.37208862233456 0 0 0 0 37.173086475173477 -113.09273910157935 0 -113.09273910157935 -168.51624897075089 0 0 0 0 1.8207466104735772 -49.410214628907681 0 -49.410214628907681 36.197190563147799 0 0 0 0 42.806227002365631 97.713825611190259 0 97.713825611190259 136.98807400708756 0 0 0 0 -7.7360483708198373 -15.60864819567341 0 -15.60864819567341 -20.207380736783477 0 0 0 0 49.967704590642825 -58.1583518188163 0 -58.1583518188163 -196.15472031667014 0 0 0 0 4.087089686159743 -95.410448675969747 0 -95.410448675969747 85.069551864013192 0 0 0 0 -114.73785680884612 -91.643030770446785 0 -91.643030770446785 -47.393423550172884 0 0 0 0 -3.6394652930030134 -59.665151963607059 0 -59.665151963607059 -101.37573375579086 0 0 0 0 -13.987656357785454 -50.075678056760808 0 -50.075678056760808 -34.704131277445413 0 0 0 0 22.717346769706637 -74.046759780168941 0 -74.046759780168941 -260.14739131744136 0 0 0 0 -9.0148630039332005 -75.773913239635107 0 -75.773913239635107 -54.600419747914003 0 0 0 0 3.1145182924483379 -85.94813370414704 0 -85.94813370414704 -135.49482943338808 0 0 0 0 -5.8447532042376622 -46.4401632755511 0 -46.4401632755511 -32.128839507176423 0 0 0 0 -32.945410965534393 -135.87517184838362 0 -135.87517184838362 198.00820161245065 0 0 0 0 -9.7833862648935792 -29.070166524329437 0 -29.070166524329437 -6.2417172629677324 0 0 0 0 -4.5498227588832378 -32.964899509956012 0 -32.964899509956012 -10.964063186722342 0 0 0 0 8.7630510548929124 -22.745570717627842 0 -22.745570717627842 -47.843125458459895 0 0 0 0 -34.581646342769091 -77.988739725340565 0 -77.988739725340565 -57.741306955569598 0 0 0 0 -19.371466067843613 -56.218867685402074 0 -56.218867685402074 -23.831080373528955 0 0 0 0 -15.721546038755491 -44.964999439045201 0 -44.964999439045201 21.428895679928281 0 0 0 0 5.55418628328772 -23.408517316702785 0 -23.408517316702785 -12.618611995230935 0 0 0 0 -75.314338211093855 -291.90715098008513 0 -291.90715098008513 402.11502509963793 0 0 0 0 -449.82926205694093 -945.0091713751026 0 -945.0091713751026 1086.4307124662955 0 0 0 0 -8.0812128290191083 -4.0972363164656045 0 -4.0972363164656045 14.594749476596661 0 0 0 0 -874.19416734445986 -56.00691118373652 0 -56.00691118373652 1731.8397988923243 0 0 0 0 -359.68136702495394 39.84340556387906 0 39.84340556387906 1667.3022929785366 0 0 0 0 465.57014956066268 -601.96926662155238 0 -601.96926662155238 534.47906188886554 0 0 0 0 -164.04123219437315 1447.3353112596596 0 1447.3353112596596 -1443.7815754013391 0 0 0 0 -3868.094747855459 982.61046281902236 0 982.61046281902236 -1302.9217628613987 0 0 0 0 734.77536244862858 622.52908560389187 0 622.52908560389187 -1145.2045270005765 0 0 0 0 5.8533726504538492 8.9992537180081875 0 8.9992537180081875 11.533540640810372 0 0 0 0 -703.13402892120939 -1238.9480150745294 0 -1238.9480150745294 1984.4825704062241 0 0 0 0 -1809.8425545510545 117.74065236646129 0 117.74065236646129 547.20390972706809 0 0 0 0 222.00885083187313 -534.86158579774201 0 -534.86158579774201 1036.4973751577782 0 0 0 0 -9.2473107358183597 -3.4294958493984637 0 -3.4294958493984637 3.0301220696742917 0 0 0 0 430.64552086033655 -456.26501682844537 0 -456.26501682844537 1023.137516636627 0 0 0 0 788.09172141943691 -169.74617980812945 0 -169.74617980812945 889.47953311863239 0 0 0 0 451.23105151180062 -1343.2635371014112 0 -1343.2635371014112 1676.499649745092 0 0 0 0 12.008306358699727 26.318343103971312 0 26.318343103971312 36.114686197688641 0 0 0 0 -781.6341922746069 725.37467999632645 0 725.37467999632645 167.19214374819421 0 0 0 0 -261.97419731251284 971.80757601403457 0 971.80757601403457 -459.49236514884979 0 0 0 0 -325.26955286478915 -197.80302472488256 0 -197.80302472488256 998.80037651429302 0 0 0 0 386.91852095087233 -129.54775558896654 0 -129.54775558896654 -745.40627640453386 0 0 0 0 -637.29939829504292 101.41325744496135 0 101.41325744496135 841.64960518587031 0 0 0 0 276.34372161411829 -499.64114680643297 0 -499.64114680643297 1398.1296986206216 0 0 0 0 10.171251196889472 38.088473298440348 0 38.088473298440348 65.883993186316189 0 0 0 0 -594.10524849298417 323.74472087495269 0 323.74472087495269 539.26622527564177 0 0 0 0 422.75877986379783 -766.51505058234397 0 -766.51505058234397 1358.1075242120851 0 0 0 0 -38.503876090187191 -54.550794462967076 0 -54.550794462967076 28.670141820183009 0 0 0 0 -488.39820417176816 291.00089677729557 0 291.00089677729557 228.64943008095725 0 0 0 0 -108.15598805646005 -19.887709231077679 0 -19.887709231077679 149.3953353467441 0 0 0 0 -245.98193082705984 30.696860918789753 0 30.696860918789753 -39.097593622238492 0 0 0 0 -75.385885620620684 -231.87811062701803 0 -231.87811062701803 300.58094311537207 0 0 0 0 -350.60427895086468 88.409569202834973 0 88.409569202834973 256.62583414086839 0 0 0 0 -39.376387027031399 -62.673318619769987 0 -62.673318619769987 2.9124558151468278 0 0 0 0 -129.48508471270907 -133.61149883255712 0 -133.61149883255712 -125.37444793648319 0 0 0 0 0.59191393920397672 -8.2769762377269842 0 -8.2769762377269842 -5.9244882275319668 0 0 0 0 -34.012178847504401 -176.25270915901365 0 -176.25270915901365 969.68721910532622 0 0 0 0 -107.99505093772314 -131.29113100687391 0 -131.29113100687391 -141.92449030582793 0 0 0 0 3.0786022386087097 -7.8464018702091494 0 -7.8464018702091494 -8.800547153255593 0 0 0 0 51.461378317631898 -453.30984380358132 0 -453.30984380358132 502.66408171562944 0 0 0 0 184.45540089145652 -260.95553547832242 0 -260.95553547832242 -241.95658661039488 0 0 0 0 -323.21111000550445 -231.2488382376032 0 -231.2488382376032 886.09777575953194 0 0 0 0 -86.287045393168228 13.863609564450599 0 13.863609564450599 109.51904138541795 0 0 0 0 38.907747417320934 -42.988892736102571 0 -42.988892736102571 -156.92160973054706 0 0 0 0 -141.55873306503054 -100.065346709609 0 -100.065346709609 -65.150312554687844 0 0 0 0 -41.471566985892423 -318.34923477348275 0 -318.34923477348275 -204.27638929236127 0 0 0 0 -9.2422417371999472 58.91588455861347 0 58.91588455861347 -391.28952685815057 0 0 0 0 4.3748963678190194 -149.37330075496175 0 -149.37330075496175 -176.87372092822625 0 0 0 0 -157.74913378844212 -251.8556445874201 0 -251.8556445874201 -181.87776399606969 0 0 0 0 -104.31256838183617 -464.65399816658464 0 -464.65399816658464 -538.65333415949135 0 0 0 0 -419.81553278987849 -520.89407030347502 0 -520.89407030347502 -255.69484385853139 0 0 0 0 -221.97920642019017 -591.05714098847238 0 -591.05714098847238 -329.1648895012986 0 0 0 0 -379.16078484071841 -658.02623122137265 0 -658.02623122137265 -645.63245633372208 0 0 0 0 -116.68856975426024 -346.09542036238054 0 -346.09542036238054 -308.87596377154114 0 0 0 0 -1095.2684648985378 -433.4234058098973 0 -433.4234058098973 -101.55789455068953 0 0 0 0 0.37812370711902332 0.26140818298846114 0 0.26140818298846114 -10.183097984678312 0 0 0 0 -331.99223778900705 -169.70339921396362 0 -169.70339921396362 -33.728909038451093 0 0 0 0 -75.803515954568866 -114.43240483856789 0 -114.43240483856789 -135.23737835335851 0 0 0 0 -70.293429941273644 -121.43844077667745 0 -121.43844077667745 90.533186351865879 0 0 0 0 -4.8378759719635127 -126.40159218943154 0 -126.40159218943154 90.882951776799473 0 0 0 0 37.270712869358249 -86.049707678081177 0 -86.049707678081177 -167.28097091131713 0 0 0 0 -73.58719794760691 -144.45348420300797 0 -144.45348420300797 339.32436004047486 0 0 0 0 67.745669401941996 -278.49355478413963 0 -278.49355478413963 8.6945384603677667 0 0 0 0 -35.884806360496441 -252.24422636552845 0 -252.24422636552845 -276.6345862106009 0 0 0 0 246.54870235035196 -59.900020152210345 0 -59.900020152210345 -361.3019040262152 0 0 0 0 65.60207100599564 -480.26269761271465 0 -480.26269761271465 -809.53793598119228 0 0 0 0 102.03096776412895 -264.41265045065484 0 -264.41265045065484 -366.27786042981461 0 0 0 0 0.2840259202348534 -397.26441051749498 0 -397.26441051749498 -515.03377706819447 0 0 0 0 -82.304777113546152 -425.80999521584454 0 -425.80999521584454 -462.45751051506522 0 0 0 0 15.702448400581488 -440.29310962837917 0 -440.29310962837917 -511.4186671148168 0 0 0 0 6.4235970419540536 -469.03819081784241 0 -469.03819081784241 -583.76753881241166 0 0 0 0 -132.1544429365531 -268.80460162211966 0 -268.80460162211966 -213.37616657844046 0 0 0 0 -362.13979947747066 -155.47232517460907 0 -155.47232517460907 -20.193017511512153 0 0 0 0 -110.04300911025348 -244.90825941939329 0 -244.90825941939329 -191.84154154585758 0 0 0 0 -107.22767619563092 147.6201385164095 0 147.6201385164095 62.177075853045608 0 0 0 0 -22.95966760146257 -245.84781843647943 0 -245.84781843647943 -197.6171500039618 0 0 0 0 -212.79684876868123 53.1465641342038 0 53.1465641342038 -616.45819714585741 0 0 0 0 -732.4335976350194 -470.44423349283534 0 -470.44423349283534 -246.19185801929962 0 0 0 0 -28.844239595437102 2.2889292622771791 0 2.2889292622771791 105.27971051279746 0 0 0 0 13.344122987982701 -5.7271544515315327 0 -5.7271544515315327 30.907538683282837 0 0 0 0 -17.483176183672185 -34.598976756406046 0 -34.598976756406046 78.207448129192926 0 0 0 0 11.106179835027433 -0.78001454848708818 0 -0.78001454848708818 109.39034904918663 0 0 0 0 34.719273222392076 16.881096405319113 0 16.881096405319113 39.322259152846527 0 0 0 0 180.05152138239646 61.230600773269543 0 61.230600773269543 -46.425828026003728 0 0 0 0 -60.121452861261787 30.369230475494987 0 30.369230475494987 37.666854788345518 0 0 0 0 -130.34211584032164 -77.383031027195102 0 -77.383031027195102 9.0601747172186151 0 0 0 0 -20.996842469154217 4.6328912561093603 0 4.6328912561093603 16.574555467414029 0 0 0 0 -0.092928539321292192 -131.28232925489283 0 -131.28232925489283 -183.7530331501539 0 0 0 0 37.682168478495441 -34.058284045662731 0 -34.058284045662731 -73.447608519814821 0 0 0 0 -50.27091075451608 -179.60068553794008 0 -179.60068553794008 -168.17525112892326 0 0 0 0 41.552143439475913 -334.16985341329746 0 -334.16985341329746 -554.1386575892684 0 0 0 0 94.67458785774943 -215.66834285409277 0 -215.66834285409277 -324.78812714460946 0 0 0 0 118.86164611621643 40.601815164322034 0 40.601815164322034 -249.72401195664861 0 0 0 0 -25.315844785891386 -149.66494722554216 0 -149.66494722554216 48.736800684724585 0 0 0 0 99.382526799732659 -176.72194676073832 0 -176.72194676073832 37.515794376537087 0 0 0 0 -0.88710557576729343 -4.0514032830023439 0 -4.0514032830023439 -3.8387502328843226 0 0 0 0 37.374955479368509 -36.625129990346977 0 -36.625129990346977 148.85993747020257 0 0 0 0 -58.097872685168113 -37.498426307822228 0 -37.498426307822228 93.881962555053178 0 0 0 0 -4.9451691358699463 -124.45876196528843 0 -124.45876196528843 15.314195237395325 0 0 0 0 72.317371623765212 -87.2677896631576 0 -87.2677896631576 109.84401767950476 0 0 0 0 23.829869805573253 -29.609609997001826 0 -29.609609997001826 24.262608987206477 0 0 0 0 51.149878840544261 -49.425695670404821 0 -49.425695670404821 196.41920304312953 0 0 0 0 90.333875836458901 -60.909454143342373 0 -60.909454143342373 19.377371331589529 0 0 0 0 -7.0144644256506581 -104.38691978826682 0 -104.38691978826682 173.52644468310609 0 0 0 0 8.7157105527146541 -9.6816356823166387 0 -9.6816356823166387 -5.951035980443919 0 0 0 0 4.2447424540430276 -6.2195964963556349 0 -6.2195964963556349 -1.9840020389455333 0 0 0 0 -4.3489049793983554 -9.2361388915654921 0 -9.2361388915654921 8.0845717934416825 0 0 0 0 26.949200300904863 -23.050200262565752 0 -23.050200262565752 12.356980248129801 0 0 0 0 15.424375433546686 -16.962608225879976 0 -16.962608225879976 3.6417313297420435 0 0 0 0 7.4651571188041999 -13.781044708169247 0 -13.781044708169247 9.273264550283784 0 0 0 0 7.068185106747336 -14.247407789462855 0 -14.247407789462855 7.0523786370912944 0 0 0 0 7.9662039960094262 -12.197997095932806 0 -12.197997095932806 3.6962063389946707 0 0 0 0 126.39404570102852 -215.75499066246721 0 -215.75499066246721 7.1521424128040962 0 0 0 0 -80.72713959212706 31.022556283816812 0 31.022556283816812 80.481662800593767 0 0 0 0 -11.297746869523024 -24.488111200498395 0 -24.488111200498395 -16.176258624217795 0 0 0 0 -20.193455139829894 -76.100230131416538 0 -76.100230131416538 52.674177222354047 0 0 0 0 -28.851127176414593 -39.866775256876281 0 -39.866775256876281 21.309072130166896 0 0 0 0 17.439767308220326 -27.619847999052581 0 -27.619847999052581 34.090935254946089 0 0 0 0 3.8452027114544762 -94.585105308633501 0 -94.585105308633501 80.957915120879406 0 0 0 0 -2.0792592204188125 -27.044359007157453 0 -27.044359007157453 35.624920526456165 0 0 0 0 23.71597160039164 -38.559499462511667 0 -38.559499462511667 26.066840524959844 0 0 0 0 6.3212624370991648 -10.954251280914146 0 -10.954251280914146 8.439861942803816 0 0 0 0 24.641888098485651 -28.157693260005544 0 -28.157693260005544 26.0466357564801 0 0 0 0 23.533680933556752 -38.933905498132845 0 -38.933905498132845 25.592076037639345 0 0 0 0 11.122254066030536 -12.266990369565958 0 -12.266990369565958 6.935473532512674 0 0 0 0 23.356345504027558 -28.373942601327144 0 -28.373942601327144 29.302891596351401 0 0 0 0 21.302203828921705 -23.599113868724203 0 -23.599113868724203 9.8957469462068772 0 0 0 0 -4.2575550072469923 -7.216376449479867 0 -7.216376449479867 98.326663234525768 0 0 0 0 14.514754400381008 -17.211117923787384 0 -17.211117923787384 2.7857901003906917 0 0 0 0 31.887580807946506 -51.924377705101506 0 -51.924377705101506 133.57405569139519 0 0 0 0 17.491392981202807 -23.45079557408917 0 -23.45079557408917 11.100530116447771 0 0 0 0 19.377895300764067 -28.730837834322301 0 -28.730837834322301 17.943252648450652 0 0 0 0 17.349497484902557 -23.795236916470358 0 -23.795236916470358 28.670621029564039 0 0 0 0 63.455647415212297 -5.051474705525834 0 -5.051474705525834 62.762117122139898 0 0 0 0 46.502366396976868 29.469261711092258 0 29.469261711092258 54.433969887206331 0 0 0 0 71.248945998187992 11.268351689692281 0 11.268351689692281 60.48867689783583 0 0 0 0 93.289345954079181 44.676919920777436 0 44.676919920777436 62.073175967641873 0 0 0 0 3.4224637218905372 -3.5948976269342836 0 -3.5948976269342836 2.1172029085288528 0 0 0 0 97.960612749040592 -6.7396595325990347 0 -6.7396595325990347 34.159427088292432 0 0 0 0 162.19058604160091 3.2665845355877536 0 3.2665845355877536 35.565359042577256 0 0 0 0 58.232885196397547 -12.020442738285055 0 -12.020442738285055 44.659256778919371 0 0 0 0 21.165751565782713 -22.717065268756116 0 -22.717065268756116 20.013868919851014 0 0 0 0 96.2635623741171 23.273030216931602 0 23.273030216931602 40.863822421757504 0 0 0 0 29.481004262546776 1.3196666467283649 0 1.3196666467283649 66.291619926803833 0 0 0 0 102.97363603786653 15.790829378282069 0 15.790829378282069 36.897581598197576 0 0 0 0 84.113215496443445 23.422173683575238 0 23.422173683575238 57.883088027156191 0 0 0 0 48.937045946520811 2.8589081595928292 0 2.8589081595928292 29.867890244029695 0 0 0 0 13.31933691665472 -48.994001919791117 0 -48.994001919791117 43.363031465727545 0 0 0 0 42.369869812377146 0.86491005253628828 0 0.86491005253628828 65.0168300308178 0 0 0 0 122.43975848263472 28.647161514829804 0 28.647161514829804 15.877215657121269 0 0 0 0 69.024852026457665 36.569008257953101 0 36.569008257953101 107.29879946957226 0 0 0 0 7.7604776697284592 -6.5572274864608922 0 -6.5572274864608922 5.8254437473818541 0 0 0 0 111.5487260560185 -53.658894606469403 0 -53.658894606469403 68.99690453427138 0 0 0 0 70.802919949041097 -32.076557921049243 0 -32.076557921049243 -3.7476698114323881 0 0 0 0 83.420382691314444 15.891910464502871 0 15.891910464502871 -16.441760829482519 0 0 0 0 60.107073907201993 3.5639723182066518 0 3.5639723182066518 5.4831601504411083 0 0 0 0 23.659611304581631 -35.83997715535952 0 -35.83997715535952 27.511680431070999 0 0 0 0 26.766691345275746 -26.147924320167846 0 -26.147924320167846 19.38545967559498 0 0 0 0 41.114315395621816 11.850798918869259 0 11.850798918869259 97.085041239333805 0 0 0 0 51.48296576944449 -12.762605615759639 0 -12.762605615759639 28.892401577002602 0 0 0 0 77.707931917477254 7.5243958493801983 0 7.5243958493801983 -10.697802972463251 0 0 0 0 74.79027759093151 3.421756078627368 0 3.421756078627368 8.9787576537419227 0 0 0 0 82.809785191129777 -12.566100334282964 0 -12.566100334282964 27.675235217526279 0 0 0 0 11.449222978850798 -6.4128466583155372 0 -6.4128466583155372 2.5655949927859609 0 0 0 0 67.226130440576526 2.3183302611250838 0 2.3183302611250838 -18.388649850923684 0 0 0 0 96.081178366323002 -8.6102881843798968 0 -8.6102881843798968 -41.336011549843533 0 0 0 0 79.241216482299933 -19.225611995761938 0 -19.225611995761938 -43.051219332824985 0 0 0 0 76.867899097953341 -10.611813768740831 0 -10.611813768740831 -6.0982608757167327 0 0 0 0 195.16196113151818 2.171020629168197 0 2.171020629168197 -40.305649760961387 0 0 0 0 50.177019817638211 -2.0313181511064613 0 -2.0313181511064613 -49.528263373165828 0 0 0 0 29.724716240725684 -2.5821006763462719 0 -2.5821006763462719 -23.068805129289103 0 0 0 0 -36.433929451319273 -40.763558675418608 0 -40.763558675418608 -31.814007042827143 0 0 0 0 -57.461874048349273 -53.80166413140978 0 -53.80166413140978 -107.86769404178995 0 0 0 0 -16.513090272259433 -91.954167136664182 0 -91.954167136664182 -73.880180277417821 0 0 0 0 22.258289930465253 -155.36864044387403 0 -155.36864044387403 -184.48837037058183 0 0 0 0 68.091578679013764 7.9721026716542838 0 7.9721026716542838 23.341748568633193 0 0 0 0 177.57701312514837 -54.537703753727328 0 -54.537703753727328 -168.52350827806367 0 0 0 0 -4.124202210601652 -147.70452193893288 0 -147.70452193893288 -35.397011965375896 0 0 0 0 18.561417185766913 -129.95089658137476 0 -129.95089658137476 -192.71817323148389 0 0 0 0 -118.06548431414558 -99.32956103064862 0 -99.32956103064862 -204.99470305776231 0 0 0 0 12.37218835980833 -25.312047216001204 0 -25.312047216001204 -96.350612787833057 0 0 0 0 156.73923927509168 -97.369268964835697 0 -97.369268964835697 -182.82757846287922 0 0 0 0 26.587551111208541 -204.57470262637213 0 -204.57470262637213 -198.54264091779714 0 0 0 0 75.216930324808345 -120.30525492435163 0 -120.30525492435163 -128.63688738386099 0 0 0 0 96.316808039562602 2.3256366839796101 0 2.3256366839796101 -150.16338940260903 0 0 0 0 96.932146793456923 -10.609164191484524 0 -10.609164191484524 -131.47190385672729 0 0 0 0 114.09938704497108 45.468145273479422 0 45.468145273479422 -20.995458190878708 0 0 0 0 120.25231349821843 -147.10377151139983 0 -147.10377151139983 28.199753919523573 0 0 0 0 -2.1374039630102573 -14.237824368500647 0 -14.237824368500647 -17.109547249295023 0 0 0 0 5.8662705942343507 -56.849901256813581 0 -56.849901256813581 10.285526394485903 0 0 0 0 -4.1048541566415224 -64.572074018213243 0 -64.572074018213243 -31.143010753101862 0 0 0 0 40.744412110812846 -80.38549723905578 0 -80.38549723905578 -79.926579616001845 0 0 0 0 28.726014826630262 -45.525420413591576 0 -45.525420413591576 18.406972011819207 0 0 0 0 11.653194360682392 -77.42009967506965 0 -77.42009967506965 16.881668704223557 0 0 0 0 13.439715050311861 -84.662470087492238 0 -84.662470087492238 28.751833147187426 0 0 0 0 -4.0543044170772191 -74.830183051140921 0 -74.830183051140921 4.9611448453870253 0 0 0 0 34.212028692558299 -46.912513020768088 0 -46.912513020768088 -17.485965835377144 0 0 0 0 24.185959756466175 -36.343268312432727 0 -36.343268312432727 16.980042263597447 0 0 0 0 89.759969006107895 -99.06444330388149 0 -99.06444330388149 -6.9964600433522719 0 0 0 0 6.8400196158981998 -34.752409425453152 0 -34.752409425453152 12.234898288737895 0 0 0 0 14.272664652173614 -34.096476864353974 0 -34.096476864353974 12.26706254903128 0 0 0 0 23.656119055814202 -35.507485683374114 0 -35.507485683374114 20.243428769797902 0 0 0 0 6.0222601547739032 -74.721180258165532 0 -74.721180258165532 23.312748316078796 0 0 0 0 18.819108421189199 -30.649572129414977 0 -30.649572129414977 10.864598136016127 0 0 0 0 5.8266200877151277 -74.906685576366726 0 -74.906685576366726 22.817323759059946 0 0 0 0 7.586555187459453 -73.019278690542706 0 -73.019278690542706 19.458911742865894 0 0 0 0 31.600359029034735 -103.74395339247712 0 -103.74395339247712 44.477264784405634 0 0 0 0 50.891048790530476 -87.352585640957841 0 -87.352585640957841 13.701387035245716 0 0 0 0 104.05157100857468 -100.46308417031833 0 -100.46308417031833 25.4343595919363 0 0 0 0 57.766225517014391 -96.906156756478595 0 -96.906156756478595 26.548521079939746 0 0 0 0 78.921631151212296 -95.537468084088232 0 -95.537468084088232 8.0276852968963794 0 0 0 0 58.409914508083602 -84.236007030322071 0 -84.236007030322071 1.8552980649474193 0 0 0 0 58.387888894266695 -94.445503862411329 0 -94.445503862411329 9.6926693080822588 0 0 0 0 47.967795049553388 -75.82740667764665 0 -75.82740667764665 24.442869287791837 0 0 0 0 43.832497658208013 -70.451359443210094 0 -70.451359443210094 0.44133180472999811 0 0 0 0 62.251889601699077 -94.087604111282417 0 -94.087604111282417 7.892989246196521 0 0 0 0 -3.2411667257983936 -80.554851202778991 0 -80.554851202778991 -31.583400636249507 0 0 0 0 63.798834223969607 -102.35195109448978 0 -102.35195109448978 -13.89342695551386 0 0 0 0 14.74314601196437 -48.833135167992516 0 -48.833135167992516 21.97573623195963 0 0 0 0 50.505862130931163 -39.088357093668506 0 -39.088357093668506 2.0926187296016678 0 0 0 0 6.0651320914573148 -4.6075721981604829 0 -4.6075721981604829 -21.414256234840607 0 0 0 0 18.905622601640061 -93.240784601926862 0 -93.240784601926862 55.220912577067793 0 0 0 0 3.6734509785601404 -51.339712702960242 0 -51.339712702960242 12.176537977724365 0 0 0 0 32.99175534099777 -35.838989018588109 0 -35.838989018588109 -21.044242855692573 0 0 0 0 -6.8804402641092963 -23.823073698120865 0 -23.823073698120865 15.863275144313809 0 0 0 0 -12.128822414641036 -40.343351240291668 0 -40.343351240291668 -12.667161428573309 0 0 0 0 17.772598748083311 -44.822364454843068 0 -44.822364454843068 4.0310488251714602 0 0 0 0 18.218395583807251 -80.987617370248586 0 -80.987617370248586 -40.40575601987166 0 0 0 0 19.180453987647525 -68.173773382897338 0 -68.173773382897338 9.6452975987776881 0 0 0 0 16.196335752483719 -93.816108898821994 0 -93.816108898821994 -38.438049123720702 0 0 0 0 13.349249913255335 -98.161674792415852 0 -98.161674792415852 -20.266250405658866 0 0 0 0 -297.77056473778794 -271.88847023857852 0 -271.88847023857852 -146.48907572658572 0 0 0 0 13.899000740755582 -101.28407087762525 0 -101.28407087762525 -33.165919711081415 0 0 0 0 45.330743238637154 -35.383369504666611 0 -35.383369504666611 20.806137637248604 0 0 0 0 -73.914282018726226 -367.97785599550798 0 -367.97785599550798 -362.8748587240807 0 0 0 0 -93.748507032512862 -313.43105075802987 0 -313.43105075802987 -292.05738091552485 0 0 0 0 87.004360261249531 -113.36823987090702 0 -113.36823987090702 -213.42141967357793 0 0 0 0 -41.59880408442757 -46.979613618669823 0 -46.979613618669823 -3.8899063195099934 0 0 0 0 34.864947455411311 3.9993228112507495 0 3.9993228112507495 49.891981135602691 0 0 0 0 -68.077082862873795 -59.184195038644248 0 -59.184195038644248 51.343215481160769 0 0 0 0 -74.23441479120811 -0.62164441958884709 0 -0.62164441958884709 314.98698293256894 0 0 0 0 -2.1064379498590426 0.40424863996244653 0 0.40424863996244653 8.0556490053900518 0 0 0 0 -25.926512619394693 -26.311980647608408 0 -26.311980647608408 53.543248937992644 0 0 0 0 -45.948729319366976 -52.735002940349659 0 -52.735002940349659 27.811891403944173 0 0 0 0 -49.6457112490898 -56.87337552497047 0 -56.87337552497047 156.12746069377317 0 0 0 0 -6.9809657316493343 -14.747517001275554 0 -14.747517001275554 -4.2105115607376113 0 0 0 0 7.9848744529081159 -78.348897156085059 0 -78.348897156085059 44.772485082181447 0 0 0 0 -62.051301587198395 -18.347079601537189 0 -18.347079601537189 -17.471870182645034 0 0 0 0 -56.133936490137955 -13.019724090823349 0 -13.019724090823349 83.422205673912146 0 0 0 0 -22.435514848373714 -71.116927332349519 0 -71.116927332349519 20.711019455381802 0 0 0 0 -67.880762254440924 -41.571256655857724 0 -41.571256655857724 24.211850930112632 0 0 0 0 -61.467738911291235 -76.113580067352416 0 -76.113580067352416 2.3213576846898434 0 0 0 0 -18.169680713367597 -56.683489238357964 0 -56.683489238357964 -1.9857305189850076 0 0 0 0 -28.120016715663951 -50.94972965740817 0 -50.94972965740817 18.516176566376089 0 0 0 0 -53.088732936565066 -50.240842929657447 0 -50.240842929657447 36.929889834169444 0 0 0 0 -25.840307607585203 -44.827864601832289 0 -44.827864601832289 20.599857122858776 0 0 0 0 -51.552348281024024 -62.177829029584245 0 -62.177829029584245 24.034903055129689 0 0 0 0 -41.106501465008478 0.57253976701395004 0 0.57253976701395004 9.270552270776534 0 0 0 0 38.135452243797772 -47.298279761545928 0 -47.298279761545928 -0.87584644202433992 0 0 0 0 -102.27146492020984 -27.854029418882419 0 -27.854029418882419 49.662903277261648 0 0 0 0 -26.087689505649053 -23.746142308788656 0 -23.746142308788656 19.961645482271621 0 0 0 0 -3.8377754053951847 -7.3243724186107215 0 -7.3243724186107215 2.1904737639860627 0 0 0 0 -3.7637507674226072 -33.037751798154204 0 -33.037751798154204 3.0649660469935043 0 0 0 0 -8.0902440533139099 -52.296760402802335 0 -52.296760402802335 9.2418876312636229 0 0 0 0 -277.42873922472791 -144.0155659197826 0 -144.0155659197826 15.497484984036419 0 0 0 0 -0.69303195465621314 -11.468244003724777 0 -11.468244003724777 12.46062582941201 0 0 0 0 -13.008313504484249 -202.91712595259014 0 -202.91712595259014 -254.84373001955828 0 0 0 0 -246.85550232983951 -100.26754139564582 0 -100.26754139564582 -52.906303538416978 0 0 0 0 -150.71894866856746 -110.16062098435941 0 -110.16062098435941 -171.82418350996159 0 0 0 0 -171.31885275308741 -134.09662953311999 0 -134.09662953311999 26.242483421694487 0 0 0 0 -60.436511305189924 -217.42691438340989 0 -217.42691438340989 -58.790856836552848 0 0 0 0 -203.6903981884243 -171.51103984485962 0 -171.51103984485962 44.855211623391369 0 0 0 0 -159.20294501379249 -175.92436095458106 0 -175.92436095458106 38.601694715071062 0 0 0 0 -120.92440572286432 -139.24366219952572 0 -139.24366219952572 20.991727662403719 0 0 0 0 -238.03293107467471 -156.84749773740623 0 -156.84749773740623 45.671048526273808 0 0 0 0 -110.71061206432569 -120.95215930897484 0 -120.95215930897484 58.014575767330825 0 0 0 0 -110.97112292188103 -124.94050284342666 0 -124.94050284342666 -2.9372633718885481 0 0 0 0 -203.02308229124174 -121.25931569488603 0 -121.25931569488603 73.685316591101582 0 0 0 0 -239.2588755625693 -139.621789390201 0 -139.621789390201 -61.989284339681035 0 0 0 0 -234.26379377233388 -117.26579961739117 0 -117.26579961739117 -33.31842547954875 0 0 0 0 -289.34146461407363 -28.141811994944874 0 -28.141811994944874 -119.02275416425255 0 0 0 0 -217.21745432756143 -64.300407921458827 0 -64.300407921458827 -82.494131817016751 0 0 0 0 -157.99319190497044 -145.13393204569002 0 -145.13393204569002 -90.170154825173086 0 0 0 0 -40.012089777417714 -90.537855614289583 0 -90.537855614289583 -85.626954880543053 0 0 0 0 -174.18194818435586 -107.89424673316535 0 -107.89424673316535 -64.866035248734988 0 0 0 0 -171.25780201534508 -128.21548437827005 0 -128.21548437827005 26.372022256720811 0 0 0 0 38.276733838822111 -47.857665854197876 0 -47.857665854197876 -2.5098674190085148 0 0 0 0 -66.560193371828063 -130.65364414524447 0 -130.65364414524447 75.328282573842444 0 0 0 0 79.83347822015503 -65.148218954840445 0 -65.148218954840445 -9.4964562202221714 0 0 0 0 92.466659576770326 -88.846312415986176 0 -88.846312415986176 23.025727506945259 0 0 0 0 1.6200902853326369 -6.7079596121325551 0 -6.7079596121325551 9.5288689025036177 0 0 0 0 117.01376283235732 54.239836650358484 0 54.239836650358484 -47.557041820752602 0 0 0 0 -627.77374315710767 -251.73056880886361 0 -251.73056880886361 32.434916939935647 0 0 0 0 -498.5192664971546 -3.4926657492142112 0 -3.4926657492142112 -14.46105109815835 0 0 0 0 10.051179747562855 -175.58141873698332 0 -175.58141873698332 -154.25892071971612 0 0 0 0 -201.61762019764865 -99.977690893443651 0 -99.977690893443651 -97.804449579605716 0 0 0 0 -474.23461332537408 -121.97516309018465 0 -121.97516309018465 -7.2586529976906604 0 0 0 0 -353.57803219394555 -238.82461689933552 0 -238.82461689933552 -50.139908653436578 0 0 0 0 -102.49803471675841 -216.7790492913482 0 -216.7790492913482 -144.68322894259836 0 0 0 0 -245.93522235396085 -244.74121372208174 0 -244.74121372208174 -119.74102948627842 0 0 0 0 -167.7097061361419 -160.52022541894985 0 -160.52022541894985 -109.51892974935981 0 0 0 0 -478.25158512819962 -71.232046271032004 0 -71.232046271032004 -57.230427864080411 0 0 0 0 -324.71513369886088 -215.19075383534073 0 -215.19075383534073 -61.369088628474856 0 0 0 0 -333.29893549597909 -262.95332537350441 0 -262.95332537350441 -281.94742104441684 0 0 0 0 -76.655287716770545 -257.17470069364208 0 -257.17470069364208 -145.84245626656048 0 0 0 0 -168.27069178305101 -215.66397110471735 0 -215.66397110471735 -120.62320329154682 0 0 0 0 -121.18948602965975 -353.42290343514651 0 -353.42290343514651 7.9448732181044761 0 0 0 0 -128.23587939018034 -382.86176424035148 0 -382.86176424035148 43.035999064632051 0 0 0 0 -452.79822077779681 -299.62834839264542 0 -299.62834839264542 74.784275723053725 0 0 0 0 -383.68730809775298 -446.09436531082974 0 -446.09436531082974 173.05736253111172 0 0 0 0 -344.75224791357323 -307.47300055674623 0 -307.47300055674623 81.517862377419078 0 0 0 0 587.94586546651408 -269.90111204109598 0 -269.90111204109598 17.24990437469387 0 0 0 0 0.2848552527836361 -2.8417221753237811 0 -2.8417221753237811 3.789667147924149 0 0 0 0 -960.99193136148824 -341.85826790910141 0 -341.85826790910141 206.48890471439518 0 0 0 0 -336.22708975037676 -332.89130963309071 0 -332.89130963309071 565.0408033625572 0 0 0 0 78.082741656384314 -73.994113943432239 0 -73.994113943432239 65.896109524397616 0 0 0 0 214.27667760875192 -57.951915332017961 0 -57.951915332017961 62.090794812956574 0 0 0 0 104.73358508018282 -192.78521429596549 0 -192.78521429596549 174.42870879429393 0 0 0 0 2.7299905933759874 -72.45805408554952 0 -72.45805408554952 30.401749016695248 0 0 0 0 35.780193566286471 -119.02788447057355 0 -119.02788447057355 82.178941224941809 0 0 0 0 11.6984125780873 -74.928678669308283 0 -74.928678669308283 61.003827377135167 0 0 0 0 -14.28648422408537 -13.734088101857566 0 -13.734088101857566 -15.453933309593637 0 0 0 0 17.178443698576302 38.395196877569106 0 38.395196877569106 4.5532093205274577 0 0 0 0 30.685505625064252 82.381148304721137 0 82.381148304721137 -8.2592958701134194 0 0 0 0 -3.7544206476159161 -28.182254460451077 0 -28.182254460451077 -29.61644321642234 0 0 0 0 -14.827026946986734 -26.529787507854053 0 -26.529787507854053 151.05283951095771 0 0 0 0 -88.018955057501444 74.924897308173968 0 74.924897308173968 33.538652158946206 0 0 0 0 -214.96265156524169 91.743433058625669 0 91.743433058625669 69.816295728829573 0 0 0 0 -159.50218974042218 -37.33963635461987 0 -37.33963635461987 274.22217405788615 0 0 0 0 -352.62524431546626 -126.82459957640822 0 -126.82459957640822 -193.92824967583147 0 0 0 0 -800.46730512537761 -148.63816289481292 0 -148.63816289481292 -72.373548987810864 0 0 0 0 -153.77566088405729 232.0796190582314 0 232.0796190582314 -62.791285814615549 0 0 0 0 79.394877849554177 473.23176656314899 0 473.23176656314899 378.67652762903526 0 0 0 0 9.0795791085984092 -4.7540256250649691 0 -4.7540256250649691 3.8015962644130923 0 0 0 0 0.76459264903769508 -2.3657468435366962 0 -2.3657468435366962 -1.6259694519457213 0 0 0 0 -3.6056016390994046 -244.47588955867559 0 -244.47588955867559 -749.44354473313433 0 0 0 0 124.86698461584456 -94.769138754960295 0 -94.769138754960295 -883.06357855044189 0 0 0 0 41.354776430642232 -28.572383895487292 0 -28.572383895487292 -4.7540956451284728 0 0 0 0 1.4563354096339083 -1.512160615298729 0 -1.512160615298729 -4.1968463164496796 0 0 0 0 -66.325318002367567 -466.92962483236806 0 -466.92962483236806 -1224.2844972324092 0 0 0 0 -59.423627177238814 -530.82572646414701 0 -530.82572646414701 -805.66787710331846 0 0 0 0 -78.647802746098023 -412.29444725271242 0 -412.29444725271242 -1120.5213685679628 0 0 0 0 -662.50621157939895 18.829140833389829 0 18.829140833389829 -130.96714993298701 0 0 0 0 -4.761781363450666 -5.6247512888507671 0 -5.6247512888507671 -7.0488684315363486 0 0 0 0 -120.91742309692199 -480.11185710416612 0 -480.11185710416612 -1168.4220608717151 0 0 0 0 -164.62586534861475 -589.46659892343996 0 -589.46659892343996 -1283.7099992773947 0 0 0 0 -41.358339911814255 283.81822773298336 0 283.81822773298336 -770.07250386302621 0 0 0 0 -0.96381842093909142 -1.059561252161032 0 -1.059561252161032 -8.0212556414870448 0 0 0 0 -365.06752163765486 -765.02920764613373 0 -765.02920764613373 -1243.7927233733208 0 0 0 0 -790.83270784770457 -447.8172705281504 0 -447.8172705281504 -1211.7194382479211 0 0 0 0 136.43141060155176 -267.20786643548854 0 -267.20786643548854 -1376.6060026069135 0 0 0 0 135.5906961233195 118.21025543541509 0 118.21025543541509 -566.10178057273151 0 0 0 0 114.33634247476493 -160.54791053675171 0 -160.54791053675171 -406.40122582299955 0 0 0 0 -123.51415472611552 -455.60814850381757 0 -455.60814850381757 -340.62142738838884 0 0 0 0 158.62414528270892 -228.26736026946674 0 -228.26736026946674 -519.86947639493519 0 0 0 0 -153.67878975646454 -410.13805682613747 0 -410.13805682613747 -140.32620792120724 0 0 0 0 -488.64695418177871 -1016.7919530601575 0 -1016.7919530601575 -811.69082267057456 0 0 0 0 -503.37943781608192 -720.21095044266985 0 -720.21095044266985 32.965142678607663 0 0 0 0 -170.58068997878581 -218.8750955773794 0 -218.8750955773794 4.7195484517651494 0 0 0 0 -1133.6554822611579 -595.97938433064519 0 -595.97938433064519 -99.339240272653115 0 0 0 0 -41.678743082366765 -49.296661932512393 0 -49.296661932512393 -58.566868575797812 0 0 0 0 225.05772833689844 -261.54089538859625 0 -261.54089538859625 266.91300315119588 0 0 0 0 397.23817775936914 -312.22901348121013 0 -312.22901348121013 -107.10150109967435 0 0 0 0 242.23668759173597 -284.74877705923427 0 -284.74877705923427 -216.75235187610815 0 0 0 0 155.67312965341262 -216.03951321801651 0 -216.03951321801651 -98.963560844309541 0 0 0 0 68.255317398652551 -346.82726875168373 0 -346.82726875168373 -123.11574825945172 0 0 0 0 269.1459263064753 -108.19545517647566 0 -108.19545517647566 -351.12695123857702 0 0 0 0 166.68137677460618 5.4248384171569342 0 5.4248384171569342 -285.94470840316353 0 0 0 0 163.49559077099548 -111.92153729187339 0 -111.92153729187339 -182.40653491419653 0 0 0 0 223.80817619933987 -216.26215981741325 0 -216.26215981741325 -67.963040517061017 0 0 0 0 36.797392279215273 -201.20365401328945 0 -201.20365401328945 -52.199877735831251 0 0 0 0 -25.133407490149125 -54.178398530155093 0 -54.178398530155093 -61.045076712753733 0 0 0 0 194.39766648353543 -162.65814599506848 0 -162.65814599506848 -224.33217408267956 0 0 0 0 40.946778836092562 -217.0106312617736 0 -217.0106312617736 -70.991146362253858 0 0 0 0 54.298491146186279 -141.7395704869391 0 -141.7395704869391 -49.054849348449352 0 0 0 0 28.279488065170881 -157.66679714245765 0 -157.66679714245765 -132.18273857991335 0 0 0 0 -29.835999184579123 -154.94899981376238 0 -154.94899981376238 -48.098946665886615 0 0 0 0 21.165828174445778 -142.08582975901481 0 -142.08582975901481 -40.462980347234407 0 0 0 0 49.307175776215445 -192.88386805129949 0 -192.88386805129949 -37.968744897149008 0 0 0 0 9.6792893790116068 -89.947371302119791 0 -89.947371302119791 -98.837514933162311 0 0 0 0 40.555031174320902 -58.391772321893768 0 -58.391772321893768 -232.02413062284904 0 0 0 0 0.2512142672057962 -126.31164252515919 0 -126.31164252515919 -109.36642888466486 0 0 0 0 39.893999169260496 -79.640560311149216 0 -79.640560311149216 -251.20112004400471 0 0 0 0 54.318322687731609 20.649187619635086 0 20.649187619635086 -16.384316629100496 0 0 0 0 12.080642800574424 -171.16072837728279 0 -171.16072837728279 -351.46364174587507 0 0 0 0 -59.379770820261911 -115.99973626049905 0 -115.99973626049905 -437.2008277529352 0 0 0 0 65.200263737220666 -112.61699584297003 0 -112.61699584297003 -156.72742998653121 0 0 0 0 58.694489165776218 14.874693836384907 0 14.874693836384907 -20.590492426484793 0 0 0 0 171.72288131143432 -534.24090909311781 0 -534.24090909311781 -457.34137842224663 0 0 0 0 49.237652301017079 -50.223170972145454 0 -50.223170972145454 -63.32921797990457 0 0 0 0 -32.788288979273403 -49.210740418402871 0 -49.210740418402871 -59.571996564017368 0 0 0 0 298.92715327211772 -522.66842452240235 0 -522.66842452240235 48.318699862145877 0 0 0 0 78.85886775266772 -91.818022954278149 0 -91.818022954278149 -145.1056477885395 0 0 0 0 68.13269096299797 -323.38494390738208 0 -323.38494390738208 106.1422507934476 0 0 0 0 365.89652748085791 -467.00048903240531 0 -467.00048903240531 -11.607612289582903 0 0 0 0 330.85291884819162 -358.9338508450237 0 -358.9338508450237 569.23335922523984 0 0 0 0 128.95991264774057 -191.80616935572834 0 -191.80616935572834 245.98167082614964 0 0 0 0 97.432938250072766 -304.84940874591121 0 -304.84940874591121 -38.229461775175878 0 0 0 0 177.08926951792091 -323.6062946523889 0 -323.6062946523889 -182.59360815689433 0 0 0 0 391.56138911447488 -884.82380256865872 0 -884.82380256865872 98.580578338518535 0 0 0 0 170.28784499457106 -257.75145639547554 0 -257.75145639547554 -763.12741493234353 0 0 0 0 203.59097711677896 74.29727352908958 0 74.29727352908958 -197.85529481436242 0 0 0 0 -24.621233031415613 -133.82210085918632 0 -133.82210085918632 -20.482452270749491 0 0 0 0 -63.502957218654046 -232.51867469837998 0 -232.51867469837998 -214.65249463892542 0 0 0 0 -108.68292787123937 374.52392078833509 0 374.52392078833509 -1987.6196193674405 0 0 0 0 12.091308151078067 2.4528657400911698 0 2.4528657400911698 -13.277884509518515 0 0 0 0 680.51747428218368 -700.45707434343785 0 -700.45707434343785 -1732.2076193616376 0 0 0 0 -3.3251405751814218 -8.9391734070101592 0 -8.9391734070101592 -7.0118003481791433 0 0 0 0 -531.79349118634127 -515.68243101841654 0 -515.68243101841654 -509.38571991937351 0 0 0 0 -74.629554337530863 660.91497671740944 0 660.91497671740944 -1422.5951805796758 0 0 0 0 -574.56619363845675 355.85367452136052 0 355.85367452136052 224.28534312234842 0 0 0 0 653.02494090043183 -463.08343200578565 0 -463.08343200578565 -230.67059172145673 0 0 0 0 84.554678794083884 -705.37435701640061 0 -705.37435701640061 853.68509982503747 0 0 0 0 -20.667691632203059 -159.14578679964325 0 -159.14578679964325 -128.47529679554282 0 0 0 0 -159.81538859392458 -190.00989203517747 0 -190.00989203517747 22.996863768290495 0 0 0 0 92.198787967819953 -438.62149313012196 0 -438.62149313012196 141.76047064704471 0 0 0 0 -24.614712262700778 -253.48969704724732 0 -253.48969704724732 -98.082647130533587 0 0 0 0 -96.00541113971849 -285.36782585077162 0 -285.36782585077162 -72.488839384095627 0 0 0 0 77.435847120155813 -304.27707764543447 0 -304.27707764543447 -89.439738934132038 0 0 0 0 140.59941510786302 -216.0854063513907 0 -216.0854063513907 -198.2248441428892 0 0 0 0 -101.70636663756159 -210.11595169059547 0 -210.11595169059547 -92.347458999138325 0 0 0 0 298.42612688572262 -305.79128395230509 0 -305.79128395230509 -202.61011707829311 0 0 0 0 303.40873734122579 -223.17194270190055 0 -223.17194270190055 -364.28634664670972 0 0 0 0 477.28166790504474 -338.23918535349367 0 -338.23918535349367 -311.63997376740735 0 0 0 0 336.7913374818163 -157.48899624449405 0 -157.48899624449405 -328.32265838195235 0 0 0 0 142.7399249857117 -185.81623156683054 0 -185.81623156683054 -209.92395160037267 0 0 0 0 1.7859302077486063 -129.86811368108465 0 -129.86811368108465 -161.29950721030764 0 0 0 0 232.12105936724402 -89.631625283760513 0 -89.631625283760513 -213.32954712254286 0 0 0 0 -56.081336361225112 309.28310776157377 0 309.28310776157377 -424.49963665985706 0 0 0 0 6.4291573590490145 -5.0941401191695945 0 -5.0941401191695945 7.6701921093222154 0 0 0 0 -614.62801899033184 -274.42751210584265 0 -274.42751210584265 212.80136696065165 0 0 0 0 -698.19646155978262 156.8072748324812 0 156.8072748324812 200.0787462182343 0 0 0 0 -0.52053283072719125 -1.5620022240286318 0 -1.5620022240286318 -5.0695648670516391 0 0 0 0 -24.914690920544672 -231.27160852550878 0 -231.27160852550878 52.436164567985543 0 0 0 0 -121.62036829916178 -225.72432056855905 0 -225.72432056855905 60.845649305487314 0 0 0 0 -368.29054532588634 -11.089778996113637 0 -11.089778996113637 3.3535648190154461 0 0 0 0 14.978257315291557 -233.65666753133701 0 -233.65666753133701 43.194997604017772 0 0 0 0 -218.30413849179604 346.93253372735307 0 346.93253372735307 -228.76385625336843 0 0 0 0 272.753692388942 206.83818044279178 0 206.83818044279178 -428.71719422705064 0 0 0 0 -67.270931978309818 -129.08524798031249 0 -129.08524798031249 20.31805807260389 0 0 0 0 412.61585191759514 -79.22037259492572 0 -79.22037259492572 -253.37616512853856 0 0 0 0 258.61351755802752 -42.921386895512114 0 -42.921386895512114 -153.31961614792817 0 0 0 0 94.925564415578265 26.988667665791581 0 26.988667665791581 51.796219906769693 0 0 0 0 79.014562098309398 -17.687454484272166 0 -17.687454484272166 -14.651011029738584 0 0 0 0 161.95984291497734 -113.35808092215302 0 -113.35808092215302 -164.59352648212371 0 0 0 0 -38.745391263739293 -82.22079425940683 0 -82.22079425940683 -49.505656626366545 0 0 0 0 163.664867638141 -104.59449290295652 0 -104.59449290295652 -191.41387237198069 0 0 0 0 356.09358764412173 110.22182463985519 0 110.22182463985519 5.9825640310300514 0 0 0 0 3.4337954183574766 -96.39776279918442 0 -96.39776279918442 379.91889722202359 0 0 0 0 77.098197110928595 60.118482468853472 0 60.118482468853472 355.20418723085277 0 0 0 0 94.714261759479996 13.966233643339365 0 13.966233643339365 153.28996308959177 0 0 0 0 -25.197587913193274 -159.48178454734443 0 -159.48178454734443 268.52530314959586 0 0 0 0 15.828878518484998 -65.581660623305652 0 -65.581660623305652 83.327353957982268 0 0 0 0 -8.3548870895174332 -36.441345604485832 0 -36.441345604485832 123.06270728827803 0 0 0 0 -88.072597706690431 -193.43309445331397 0 -193.43309445331397 89.418349152194423 0 0 0 0 -9.5637228293464034 -16.908426977860302 0 -16.908426977860302 -9.666945660740069 0 0 0 0 47.194412579730852 -285.18203117881785 0 -285.18203117881785 26.485944344443851 0 0 0 0 -240.98217847809428 -94.252514642643291 0 -94.252514642643291 35.879545498537482 0 0 0 0 188.08821061966592 -188.58891054199921 0 -188.58891054199921 -310.609216377954 0 0 0 0 -35.456743470553192 -123.76049277887068 0 -123.76049277887068 157.99106899746403 0 0 0 0 -4.824727686951519 -277.06224240591473 0 -277.06224240591473 31.046387421374675 0 0 0 0 -57.292598657892086 -209.52152641460998 0 -209.52152641460998 -38.938592135877116 0 0 0 0 47.202710556681268 -288.796272690568 0 -288.796272690568 -142.88395726764429 0 0 0 0 18.449246926466003 -207.33640997027396 0 -207.33640997027396 238.70392609541886 0 0 0 0 -181.10140806893469 -239.76527096513018 0 -239.76527096513018 68.593592296805582 0 0 0 0 -15.659522710341662 -136.13447173965938 0 -136.13447173965938 -33.581212412434979 0 0 0 0 -28.263507978757843 -382.16692004354991 0 -382.16692004354991 147.04134945176338 0 0 0 0 0.51601551627879871 -7.8212865557717919 0 -7.8212865557717919 -12.532449456910172 0 0 0 0 -85.425280999887036 -86.529883742794482 0 -86.529883742794482 197.28835921329119 0 0 0 0 -26.504428683998412 -105.09184075194935 0 -105.09184075194935 -104.1784705624159 0 0 0 0 -3.0040081720580929 -67.662069752224852 0 -67.662069752224852 -106.5206852101619 0 0 0 0 -57.249844596270123 -47.679666692740284 0 -47.679666692740284 -35.119944790400041 0 0 0 0 -118.04893980865018 -84.111580519027484 0 -84.111580519027484 -56.26484373769199 0 0 0 0 -130.18156022617768 -68.738200138945103 0 -68.738200138945103 -14.021563295911619 0 0 0 0 -31.454650447809342 -38.169546436170236 0 -38.169546436170236 -28.867474066017088 0 0 0 0 13.121927024389151 -61.987863366419333 0 -61.987863366419333 -7.6416183909386746 0 0 0 0 -82.192686147624045 -60.925909674174591 0 -60.925909674174591 13.001389061262216 0 0 0 0 -51.283062394999519 -34.90085246213566 0 -34.90085246213566 -8.9678039524015745 0 0 0 0 -49.126805493040592 -87.759747358184995 0 -87.759747358184995 47.866245626979435 0 0 0 0 15.588466551329475 206.80124492564937 0 206.80124492564937 169.05023682273168 0 0 0 0 -21.145076052620425 -76.149135399613442 0 -76.149135399613442 -53.48846465489305 0 0 0 0 -4.9688799810097635 -24.824623551651676 0 -24.824623551651676 1.063689733976247 0 0 0 0 -21.438909429489286 -51.439332503332821 0 -51.439332503332821 -11.322472361913242 0 0 0 0 -39.109854116265012 -40.949099099743293 0 -40.949099099743293 -16.636812995563119 0 0 0 0 -37.672423556199647 -50.571455116092693 0 -50.571455116092693 -48.683973624705459 0 0 0 0 -39.902411063296313 -40.569335149662038 0 -40.569335149662038 -8.7029503238290999 0 0 0 0 -27.455299217370339 -35.522950047652557 0 -35.522950047652557 18.556238638320792 0 0 0 0 -24.944178576697595 -45.258496151442159 0 -45.258496151442159 -12.554035683921029 0 0 0 0 -8.2002039419894572 -48.082520755560836 0 -48.082520755560836 -42.829159857676132 0 0 0 0 -19.557161239838592 -47.607150654572422 0 -47.607150654572422 -39.697526385217728 0 0 0 0 -42.681362417476635 -38.157717975673599 0 -38.157717975673599 -6.7919138308288751 0 0 0 0 -3.765788473887369 -67.366887724332628 0 -67.366887724332628 37.091005342786957 0 0 0 0 -29.515210648500727 -38.834472422973292 0 -38.834472422973292 -19.044437322352017 0 0 0 0 -18.435991083584668 -41.033158429828291 0 -41.033158429828291 -24.547953743196558 0 0 0 0 -21.958725596349325 -30.387775961174093 0 -30.387775961174093 -3.3598800168164082 0 0 0 0 -26.858015021192841 -49.037577155156214 0 -49.037577155156214 -25.204140666497551 0 0 0 0 -10.273603324661963 -50.952933257522091 0 -50.952933257522091 -53.188137026334061 0 0 0 0 -1.5942466439534257 -23.934268470023397 0 -23.934268470023397 -19.487294453548273 0 0 0 0 -10.828012959819546 -43.796616010990157 0 -43.796616010990157 -50.396514482616858 0 0 0 0 -10.679932960743827 -130.79991803697067 0 -130.79991803697067 -31.777462255617138 0 0 0 0 15.45356638408893 -28.033506300237462 0 -28.033506300237462 9.0526694961420588 0 0 0 0 29.976251841057092 -107.03350300432794 0 -107.03350300432794 -20.745096075874244 0 0 0 0 -26.36659243646136 -46.068195032581571 0 -46.068195032581571 -68.238484986264666 0 0 0 0 46.897968151693931 -164.53085091441972 0 -164.53085091441972 9.6603021896735299 0 0 0 0 -80.378341343486682 -82.862120217188931 0 -82.862120217188931 -64.235401344194543 0 0 0 0 -79.672971726566175 -177.13044079970405 0 -177.13044079970405 -187.96396229804668 0 0 0 0 -22.068063627186348 -29.552725981258845 0 -29.552725981258845 -101.00173145491863 0 0 0 0 6.8594354234810453 -61.478261713535176 0 -61.478261713535176 -281.22889173531803 0 0 0 0 44.59747939805078 19.664388641721573 0 19.664388641721573 -25.068831394030731 0 0 0 0 41.712019156606402 -84.217570710981818 0 -84.217570710981818 -171.23607024303783 0 0 0 0 6.6950054720546177 -52.882247304668454 0 -52.882247304668454 -42.104584825981874 0 0 0 0 -6.8617982864713554 -41.75937807219556 0 -41.75937807219556 -60.199391994229515 0 0 0 0 8.3401920899923425 -11.736809514541164 0 -11.736809514541164 -30.281008465554805 0 0 0 0 13.150564749015757 -29.792054032726128 0 -29.792054032726128 -35.280795931488683 0 0 0 0 9.0248623590553052 -18.60921765787397 0 -18.60921765787397 -23.302790594007742 0 0 0 0 -9.9832829388858073 -27.58291364194389 0 -27.58291364194389 -42.138839083365482 0 0 0 0 1.569792948444956 -50.877765544642898 0 -50.877765544642898 -56.782539953288506 0 0 0 0 -5.7293424589224742 -41.728041797637161 0 -41.728041797637161 -42.532063797723822 0 0 0 0 109.28631063280045 -5.6668738885528001 0 -5.6668738885528001 -64.566257576087082 0 0 0 0 -2.0575664920470444 -50.802557883685949 0 -50.802557883685949 -53.186300094275794 0 0 0 0 -4.9073160688276403 -47.164475645648054 0 -47.164475645648054 -43.6117360993685 0 0 0 0 -0.4973144033459107 -36.057497146583515 0 -36.057497146583515 -22.703518516839353 0 0 0 0 15.786410632717889 -47.990945075924628 0 -47.990945075924628 -26.958531472971117 0 0 0 0 -0.22114939415769186 -44.82717347486323 0 -44.82717347486323 -61.840815690982708 0 0 0 0 -1.1748338830093417 -7.9769355190675668 0 -7.9769355190675668 -15.245428934650114 0 0 0 0 -12.340372748991044 -31.84994491788953 0 -31.84994491788953 -18.742744273583362 0 0 0 0 6.0610719516334939 -50.71211203050801 0 -50.71211203050801 -2.1510798593140521 0 0 0 0 29.867565581633244 -93.691300313806835 0 -93.691300313806835 18.494598475675957 0 0 0 0 66.795130287588108 -74.807357465292966 0 -74.807357465292966 -28.671441198007869 0 0 0 0 16.982021992036607 -61.067203262986368 0 -61.067203262986368 -56.770441946364372 0 0 0 0 -15.320943075654213 -80.137785994415935 0 -80.137785994415935 -0.59701163590489159 0 0 0 0 -8.7806110329838702 -48.480917419436082 0 -48.480917419436082 -18.325173044818257 0 0 0 0 3.3634681440175882 -32.969691304869471 0 -32.969691304869471 16.548974144438859 0 0 0 0 -23.306481833191356 -36.188710570383591 0 -36.188710570383591 17.247836089172779 0 0 0 0 9.862566582072759 -71.625795604211135 0 -71.625795604211135 42.526405907862681 0 0 0 0 0.0038081621169112623 -95.367597308127529 0 -95.367597308127529 23.097544790633037 0 0 0 0 28.76670410024235 -90.837071267037686 0 -90.837071267037686 11.578874664593286 0 0 0 0 17.190085603273474 -80.654236625729936 0 -80.654236625729936 7.5208409171930271 0 0 0 0 1.918642801423573 -3.1800854694841476 0 -3.1800854694841476 -9.4486925352852111 0 0 0 0 20.981419239527895 -68.060646120162119 0 -68.060646120162119 14.147621638222972 0 0 0 0 18.861709704142413 -72.59467594108969 0 -72.59467594108969 20.230421516356273 0 0 0 0 25.015496901673032 -53.902846189048432 0 -53.902846189048432 36.245619950253513 0 0 0 0 0.017259738699067384 -82.616823381509221 0 -82.616823381509221 111.15212289663305 0 0 0 0 -47.997317069006385 -31.472137840979485 0 -31.472137840979485 -156.38121461799665 0 0 0 0 -1.807181239835586 3.8369445824572104 0 3.8369445824572104 2.1799006702494994 0 0 0 0 68.290065016975859 -38.668197154731388 0 -38.668197154731388 -83.297567985807746 0 0 0 0 -14.1940366397248 37.117420099437823 0 37.117420099437823 -17.969609610856423 0 0 0 0 1.7214532270549796 -9.2352737686166222 0 -9.2352737686166222 -23.232611881385871 0 0 0 0 -161.99231358690304 -287.26026969460145 0 -287.26026969460145 -209.26497640682646 0 0 0 0 272.76162430644035 -159.46059459263779 0 -159.46059459263779 -61.235697651936789 0 0 0 0 71.229752104176441 111.15695133746704 0 111.15695133746704 71.186082851687388 0 0 0 0 433.97773562173825 177.25960487001066 0 177.25960487001066 139.33816125171506 0 0 0 0 -1.732331179283392 -3.7459569767688805 0 -3.7459569767688805 -2.9972415075025509 0 0 0 0 -42.272827170905657 -65.686701423965133 0 -65.686701423965133 130.38667393336345 0 0 0 0 -16.139813000918366 3.6979241342150999 0 3.6979241342150999 -39.119344656346584 0 0 0 0 -192.26039707285236 -64.669012968593961 0 -64.669012968593961 33.569051466220117 0 0 0 0 -47.304642003495246 -31.720205853861444 0 -31.720205853861444 -8.9644869800140441 0 0 0 0 -234.98873943573562 -146.14408474854645 0 -146.14408474854645 30.023101403191504 0 0 0 0 -0.58363466605078429 -75.158267234060077 0 -75.158267234060077 -117.29199049604722 0 0 0 0 -85.190730841386539 -160.81964693288683 0 -160.81964693288683 -203.16767639421414 0 0 0 0 -200.6475274641416 -366.12306926598831 0 -366.12306926598831 -323.93606206202185 0 0 0 0 -200.4317577148031 -521.27427887329486 0 -521.27427887329486 -846.35982713596968 0 0 0 0 0.73327308861189522 -262.53565865416203 0 -262.53565865416203 -816.26121502016213 0 0 0 0 -175.71714995088405 -316.48170503897745 0 -316.48170503897745 -352.01669332713846 0 0 0 0 41.182656196921016 -347.28710764090374 0 -347.28710764090374 -1145.9650773806825 0 0 0 0 228.83223211645964 625.00000997810457 0 625.00000997810457 -615.26938175467694 0 0 0 0 -729.75935152708553 -874.60226752805829 0 -874.60226752805829 287.19279678730891 0 0 0 0 189.0824965275242 -809.98766406176037 0 -809.98766406176037 -1876.7781594582302 0 0 0 0 -347.41803722684563 -410.4660446918142 0 -410.4660446918142 -377.89231104305873 0 0 0 0 -381.7397667354744 781.57320516080199 0 781.57320516080199 -1328.0012520993987 0 0 0 0 -258.01794202301971 117.34387916406195 0 117.34387916406195 94.197375806732452 0 0 0 0 -2.016770368873992 -3.43899476574353 0 -3.43899476574353 -7.2221532600968459 0 0 0 0 39.712184599688044 91.902676986044753 0 91.902676986044753 -346.43969520549581 0 0 0 0 27.065997693596728 56.749673663538033 0 56.749673663538033 -425.03008430333284 0 0 0 0 11.689073229873372 -0.28219268123054064 0 -0.28219268123054064 -15.509503320974364 0 0 0 0 310.6918805524474 -91.724411486900863 0 -91.724411486900863 -374.48511024707295 0 0 0 0 -81.882205291709397 223.01168363673423 0 223.01168363673423 -357.94422312747361 0 0 0 0 177.84569077385822 178.97336053341314 0 178.97336053341314 -783.69840877897877 0 0 0 0 62.723488235482364 -21.536769515390915 0 -21.536769515390915 -259.82033330975446 0 0 0 0 36.16562140338101 -57.11143615994456 0 -57.11143615994456 -296.83815681776468 0 0 0 0 22.640407642960781 -115.1385146311477 0 -115.1385146311477 -240.59115453226696 0 0 0 0 -157.67266625841148 -275.90885739706937 0 -275.90885739706937 -237.49431754129 0 0 0 0 1.3385987180809025 -141.67462557710769 0 -141.67462557710769 -264.05103444767519 0 0 0 0 59.712732064424927 -198.61048647486314 0 -198.61048647486314 -379.09191644267048 0 0 0 0 152.8080161984617 -784.91233300702106 0 -784.91233300702106 -347.82845728181201 0 0 0 0 -295.7168130800128 -118.57345621662353 0 -118.57345621662353 -20.509419272631931 0 0 0 0 1.7026114365691143 -2.6240289244615269 0 -2.6240289244615269 4.443670400481615 0 0 0 0 342.34631874709157 -563.3928285627926 0 -563.3928285627926 -114.38083220044973 0 0 0 0 -26.44366182172962 -134.72548906200973 0 -134.72548906200973 -84.025196186290486 0 0 0 0 -87.876934343483299 -159.61931453038778 0 -159.61931453038778 -91.725387799135206 0 0 0 0 3.3248713805478474 -92.692750605337096 0 -92.692750605337096 -2.5003060546987399 0 0 0 0 -76.082842485295259 -135.06513054100287 0 -135.06513054100287 -24.625678808673911 0 0 0 0 26.30998246891977 -45.505329420119779 0 -45.505329420119779 40.425241589058714 0 0 0 0 -81.81121786251606 -10.819871605621302 0 -10.819871605621302 33.452074895484657 0 0 0 0 9.9720145356690182 -23.04279935913226 0 -23.04279935913226 26.919500393592102 0 0 0 0 20.534719652154308 16.864945111096858 0 16.864945111096858 72.947051362356433 0 0 0 0 -1.9925354777662392 -11.078237464539939 0 -11.078237464539939 -12.167148669336427 0 0 0 0 154.53601123632689 -206.04034939429857 0 -206.04034939429857 209.36917454185914 0 0 0 0 0.24003554276714567 -26.528772652929547 0 -26.528772652929547 78.379716098210338 0 0 0 0 -0.52270007989136502 -131.50900821831874 0 -131.50900821831874 474.14397388469661 0 0 0 0 168.85724831841071 -43.874658814394934 0 -43.874658814394934 -53.235723835601675 0 0 0 0 4.9910113397472173 -5.1749388300895305 0 -5.1749388300895305 1.3054256760042335 0 0 0 0 35.766152573683939 198.2414427874678 0 198.2414427874678 1059.0719247982815 0 0 0 0 178.99722356887651 -840.42252340479899 0 -840.42252340479899 1123.9612159775643 0 0 0 0 508.17462296922895 -350.40838805924795 0 -350.40838805924795 1329.8162924319004 0 0 0 0 419.11969174729165 -281.22228760872531 0 -281.22228760872531 1850.7098665915328 0 0 0 0 569.75442115125043 -983.61417127192544 0 -983.61417127192544 1848.7466616150816 0 0 0 0 498.21920014190982 -377.78625541030488 0 -377.78625541030488 1391.7319772363335 0 0 0 0 561.66947262590111 -875.33030469756704 0 -875.33030469756704 1109.3362736008985 0 0 0 0 50.919135293544969 -551.68276142182367 0 -551.68276142182367 1145.5887268344577 0 0 0 0 341.9251204135544 -735.3237380666078 0 -735.3237380666078 1257.2696257870921 0 0 0 0 20.418863141872862 -424.15611028454441 0 -424.15611028454441 781.10440418219059 0 0 0 0 64.179327746081981 -413.42356469931474 0 -413.42356469931474 743.41419777213741 0 0 0 0 -61.294949054172321 -2.3888871425788238 0 -2.3888871425788238 693.95818123551726 0 0 0 0 -90.67544983485277 134.34747290337327 0 134.34747290337327 1487.4968688667186 0 0 0 0 0.21065960307508647 -2.5240268368656302 0 -2.5240268368656302 6.6700052400164793 0 0 0 0 -69.930216199587449 -73.250958046006417 0 -73.250958046006417 216.56013881275106 0 0 0 0 51.473087459293311 39.06884551528492 0 39.06884551528492 218.57706072798464 0 0 0 0 49.485019574516627 14.842450893860587 0 14.842450893860587 15.475155092739442 0 0 0 0 3.5097045511138276 -73.180070433165383 0 -73.180070433165383 -24.290719196154896 0 0 0 0 -522.99875408426306 -121.96163242140028 0 -121.96163242140028 171.19627062483778 0 0 0 0 -1032.1457700614264 -67.111769098042714 0 -67.111769098042714 185.74977220465735 0 0 0 0 0.76186654747731097 -5.6762169214641602 0 -5.6762169214641602 14.152935209582523 0 0 0 0 -698.70610247636068 -628.12298654604456 0 -628.12298654604456 -108.86818922519524 0 0 0 0 244.70731871679163 -441.14407636646865 0 -441.14407636646865 -96.144255401810369 0 0 0 0 -514.1713346630313 -134.47322574934515 0 -134.47322574934515 20.822435535876139 0 0 0 0 272.7006367111062 -726.10126770867282 0 -726.10126770867282 -75.515997106682335 0 0 0 0 234.04519253130593 -499.3457147681911 0 -499.3457147681911 179.65604927828826 0 0 0 0 640.93018564381782 -463.74505759141539 0 -463.74505759141539 177.8827728843753 0 0 0 0 557.79087200581125 -448.15671472081522 0 -448.15671472081522 -167.23750841156289 0 0 0 0 367.62939236294187 -437.87921772618392 0 -437.87921772618392 68.302874198911013 0 0 0 0 398.1808350907686 -549.32302314257686 0 -549.32302314257686 317.46984637746209 0 0 0 0 239.70532911947521 -639.43529058881541 0 -639.43529058881541 565.0226628268174 0 0 0 0 45.848480184864457 -583.05754067159432 0 -583.05754067159432 612.94016986663701 0 0 0 0 702.16570638721805 -881.18102742978044 0 -881.18102742978044 421.14777094066812 0 0 0 0 60.810061901545851 -404.48093352910382 0 -404.48093352910382 256.44443455447617 0 0 0 0 -45.660151850766852 -619.82267702948957 0 -619.82267702948957 685.14438237908689 0 0 0 0 31.727285935256077 -679.43432066856985 0 -679.43432066856985 805.11215619164432 0 0 0 0 21.940209629541641 -595.96019700653233 0 -595.96019700653233 693.01518312964254 0 0 0 0 145.30591663743871 -508.71926652206639 0 -508.71926652206639 577.42267316809011 0 0 0 0 35.868851125866058 -587.0100712065323 0 -587.0100712065323 856.24171401885906 0 0 0 0 -19.140736799286969 -351.22107780531587 0 -351.22107780531587 727.11094536388646 0 0 0 0 -29.137555503140902 -276.51694173266515 0 -276.51694173266515 454.97513395448914 0 0 0 0 -114.99947979376248 -436.67632099023058 0 -436.67632099023058 708.37078668782488 0 0 0 0 136.51814088109677 -454.33980437012724 0 -454.33980437012724 581.39407104652537 0 0 0 0 -62.832187232272389 -50.237936095408969 0 -50.237936095408969 -36.419872813815132 0 0 0 0 1271.7403502067973 -982.34195291919605 0 -982.34195291919605 983.77949543691648 0 0 0 0 280.5253062732445 -687.12057282203205 0 -687.12057282203205 905.69878921173222 0 0 0 0 -161.53067465334152 -576.51381698546311 0 -576.51381698546311 1227.5418829776172 0 0 0 0 310.48417109543516 -876.11155441577648 0 -876.11155441577648 897.68741037369546 0 0 0 0 -319.90192994930112 -215.95294853664745 0 -215.95294853664745 867.12726792881585 0 0 0 0 -152.05458024153995 -671.80935997383676 0 -671.80935997383676 1760.834624658004 0 0 0 0 0.88387013648709178 -3.1096018320188534 0 -3.1096018320188534 14.622072703687081 0 0 0 0 -644.67672441242621 236.46132625616337 0 236.46132625616337 736.72095345101116 0 0 0 0 58.202117493705373 -80.334700914180758 0 -80.334700914180758 181.89927566191909 0 0 0 0 38.094648717764358 -180.31914305661121 0 -180.31914305661121 -149.89082227614563 0 0 0 0 364.29946151516924 -198.83568456121429 0 -198.83568456121429 -2.1167752689034387 0 0 0 0 -3.0832675018973532 -347.89462659764831 0 -347.89462659764831 135.27866511429056 0 0 0 0 -623.49631538450558 -289.07538435562492 0 -289.07538435562492 176.01036081274287 0 0 0 0 2.0601179562224381 -7.9465912683600664 0 -7.9465912683600664 35.879148304193393 0 0 0 0 219.78546177660064 -215.09491718805748 0 -215.09491718805748 227.76223336892144 0 0 0 0 133.94154250102497 -410.04997390510891 0 -410.04997390510891 396.86477166559052 0 0 0 0 30.74172981519223 -225.20831240227926 0 -225.20831240227926 459.72204353876214 0 0 0 0 75.580075304045749 -171.35677645946271 0 -171.35677645946271 189.91041687908728 0 0 0 0 -55.109949354653743 -52.21264432849447 0 -52.21264432849447 -40.31500303486348 0 0 0 0 -12.197095161500329 -205.97145955239102 0 -205.97145955239102 176.98854391610803 0 0 0 0 175.44525601901114 -411.32933201731794 0 -411.32933201731794 -65.132169835880632 0 0 0 0 -77.74912559713448 -48.823637056673761 0 -48.823637056673761 64.785262068549855 0 0 0 0 -16.303643799268286 -5.1585989993543393 0 -5.1585989993543393 5.3199297333373465 0 0 0 0 269.25403087448194 -187.95178806554395 0 -187.95178806554395 -478.13344135555235 0 0 0 0 27.562741421722421 180.83240799721534 0 180.83240799721534 -461.56130826600861 0 0 0 0 -6.865200914362374 -3.6038131105920002 0 -3.6038131105920002 -3.3953419139026266 0 0 0 0 -119.54068272824179 -33.776684480519179 0 -33.776684480519179 65.403120404222136 0 0 0 0 -363.76372790455275 50.326509488350439 0 50.326509488350439 69.267970118329686 0 0 0 0 191.47486842223952 -94.54937194627928 0 -94.54937194627928 -121.54352288216614 0 0 0 0 -19.927222564221864 -68.606406121288273 0 -68.606406121288273 23.07851270546962 0 0 0 0 -6.7473018045368356 -19.535019047712524 0 -19.535019047712524 -16.980231564266916 0 0 0 0 -20.504907077116144 -72.083027262625137 0 -72.083027262625137 65.740507049333246 0 0 0 0 -30.633862832313753 -195.36654758640361 0 -195.36654758640361 -123.99875240408801 0 0 0 0 -12.825009584550571 38.533220852383238 0 38.533220852383238 49.869203878130065 0 0 0 0 -75.729169246529636 14.367295906580694 0 14.367295906580694 -41.703099202502926 0 0 0 0 68.956661666114087 15.791047167647775 0 15.791047167647775 -101.4174551687347 0 0 0 0 17.639744085048548 -2.083075320324518 0 -2.083075320324518 -13.89141642674744 0 0 0 0 209.03290168568492 -36.363268162051099 0 -36.363268162051099 -231.05913648771821 0 0 0 0 -38.748592451578105 -48.090633279024871 0 -48.090633279024871 -45.055495003754885 0 0 0 0 -13.177829351283435 -129.69491093183024 0 -129.69491093183024 105.94817493460869 0 0 0 0 65.017067420718377 -228.73192644967639 0 -228.73192644967639 -65.623918777164363 0 0 0 0 -116.45428001986147 -48.117101693642326 0 -48.117101693642326 24.925063523944118 0 0 0 0 -40.250018703136135 -50.864766795483376 0 -50.864766795483376 -36.667105907830432 0 0 0 0 -8.7940248132286882 -51.325286317367286 0 -51.325286317367286 -34.745016436808612 0 0 0 0 -9.641362816199166 -15.391782919212943 0 -15.391782919212943 44.973263030266423 0 0 0 0 -254.47042415535088 -199.62410823563096 0 -199.62410823563096 46.653823690416175 0 0 0 0 -97.27542800757783 -22.860384001091461 0 -22.860384001091461 66.820550592150539 0 0 0 0 -29.954530434959452 -16.380174976453418 0 -16.380174976453418 -6.5399167040341126 0 0 0 0 -89.330629216872694 -33.155055787726269 0 -33.155055787726269 67.735278936932446 0 0 0 0 -29.094396988963126 -37.74281090250588 0 -37.74281090250588 3.9216450581443496 0 0 0 0 -16.030963915301982 -215.83553597947321 0 -215.83553597947321 -23.417871140089119 0 0 0 0 65.307064371838351 -124.60413521813462 0 -124.60413521813462 88.029642294010046 0 0 0 0 91.360095960957551 -263.75989791828215 0 -263.75989791828215 132.06076562922681 0 0 0 0 -9.7896324384055333 -154.2697790364582 0 -154.2697790364582 143.03946265832928 0 0 0 0 153.63115912321518 -300.38154925422714 0 -300.38154925422714 135.94128854320229 0 0 0 0 215.09407788292083 -431.90470864374947 0 -431.90470864374947 277.34905663579411 0 0 0 0 113.03470154156093 -297.6657565196565 0 -297.6657565196565 226.8397364268094 0 0 0 0 426.26266405169008 -494.84099762365804 0 -494.84099762365804 253.36759776341751 0 0 0 0 65.202475811507611 -120.37484758651772 0 -120.37484758651772 98.21225688749837 0 0 0 0 231.01978299317852 -84.720437034677161 0 -84.720437034677161 -23.047091344042201 0 0 0 0 250.83637536223978 -295.64163547349017 0 -295.64163547349017 161.68745840379233 0 0 0 0 239.29613704577787 -289.12313401890424 0 -289.12313401890424 190.33922386232734 0 0 0 0 441.61760991728443 -128.17043349942287 0 -128.17043349942287 70.691863466741779 0 0 0 0 774.04798079206375 -573.87687676353016 0 -573.87687676353016 265.5469877359883 0 0 0 0 383.60698632091953 -672.33199569564749 0 -672.33199569564749 477.46748418171774 0 0 0 0 242.44316368698492 -611.31741872110979 0 -611.31741872110979 487.54148520957096 0 0 0 0 413.6978131840151 -788.83409075228519 0 -788.83409075228519 749.67122465290595 0 0 0 0 457.68641574563662 -637.53969611228968 0 -637.53969611228968 800.16379329012852 0 0 0 0 1733.8644105412409 -979.55908083763097 0 -979.55908083763097 546.12060352395929 0 0 0 0 162.84685627227736 -698.04046460765676 0 -698.04046460765676 840.7850944021684 0 0 0 0 121.79867040294266 -605.71220379990336 0 -605.71220379990336 658.78758948392351 0 0 0 0 363.42125100647536 -860.45579766559968 0 -860.45579766559968 936.75801464876713 0 0 0 0 193.0775507651706 -675.98053895046905 0 -675.98053895046905 737.70070234058949 0 0 0 0 271.12786953648174 -795.5318123103898 0 -795.5318123103898 708.18225943458128 0 0 0 0 232.69677574443631 -721.59585201938171 0 -721.59585201938171 584.89973652569461 0 0 0 0 179.52119092524663 -695.73569309073355 0 -695.73569309073355 590.84739116697438 0 0 0 0 215.95328223406068 -750.46839284451471 0 -750.46839284451471 623.01069796555385 0 0 0 0 208.25047812282719 -741.38411548041404 0 -741.38411548041404 612.48625959019409 0 0 0 0 61.758852860686602 -585.9633722695653 0 -585.9633722695653 636.88778264660505 0 0 0 0 197.39611278813754 -714.843297794514 0 -714.843297794514 620.56538267554424 0 0 0 0 207.26326961766244 -709.56734056896858 0 -709.56734056896858 586.88956391221291 0 0 0 0 270.99671417651552 -611.71250980516197 0 -611.71250980516197 427.93654461602273 0 0 0 0 159.15688107250025 -545.28738666881327 0 -545.28738666881327 501.43264489379362 0 0 0 0 103.94045309615467 -469.38909204298398 0 -469.38909204298398 436.47604262000618 0 0 0 0 0.63197593309450895 -370.44642995614413 0 -370.44642995614413 423.06919262779411 0 0 0 0 4.1509500491421818 -189.99492649630207 0 -189.99492649630207 280.50820581673906 0 0 0 0 19.446766466528061 -230.90105691046483 0 -230.90105691046483 255.21320073472452 0 0 0 0 91.796592466904258 -363.23108600665 0 -363.23108600665 400.50634960865864 0 0 0 0 106.16426038971986 -742.59023436174448 0 -742.59023436174448 897.41012652596692 0 0 0 0 53.431712408331805 -509.70269800084498 0 -509.70269800084498 677.2238673479078 0 0 0 0 69.254052733722347 -566.11225368873693 0 -566.11225368873693 607.87784839620872 0 0 0 0 -77.844140780318412 -308.35399477247847 0 -308.35399477247847 568.79166295222967 0 0 0 0 2.3972636176381457 -295.65425163648109 0 -295.65425163648109 552.9124126307579 0 0 0 0 -7.1864590758959821 -480.35250138020456 0 -480.35250138020456 836.52764205183485 0 0 0 0 118.85414081880299 -674.67835628991452 0 -674.67835628991452 1040.6884879315476 0 0 0 0 -66.690044327478972 -495.49131334845879 0 -495.49131334845879 880.06104588711605 0 0 0 0 311.78948392215898 -644.13319446517198 0 -644.13319446517198 846.29566804420028 0 0 0 0 87.45123642096587 -904.56082039683679 0 -904.56082039683679 1674.6405390641339 0 0 0 0 215.46298925732845 -751.5176692159439 0 -751.5176692159439 693.37186736894728 0 0 0 0 384.93405181884737 -715.41060330534674 0 -715.41060330534674 681.50795144412405 0 0 0 0 309.80865218190593 -739.94354391997695 0 -739.94354391997695 597.86679487672518 0 0 0 0 391.04965526736032 -385.65886302243644 0 -385.65886302243644 784.69787101101247 0 0 0 0 467.08116765697196 -689.18693833057114 0 -689.18693833057114 677.09727383079371 0 0 0 0 277.94335521258472 -601.95542876812397 0 -601.95542876812397 636.93082027896526 0 0 0 0 418.04705839987582 -217.03615510179588 0 -217.03615510179588 1587.4072536365275 0 0 0 0 282.76999975545914 -516.8716302441353 0 -516.8716302441353 973.81622101843823 0 0 0 0 1137.3748213839208 -789.15315682026267 0 -789.15315682026267 871.62332921704365 0 0 0 0 182.68112232434214 -439.45498004219553 0 -439.45498004219553 1011.8360656210461 0 0 0 0 109.75073885670281 -501.57825213459728 0 -501.57825213459728 966.331452313716 0 0 0 0 138.33898278020934 -391.4661719075375 0 -391.4661719075375 910.48374633993626 0 0 0 0 150.59322464030993 -455.26072714694601 0 -455.26072714694601 1012.6391144924055 0 0 0 0 124.7111453350808 -459.22617286800596 0 -459.22617286800596 867.25989423725696 0 0 0 0 83.969725619637757 -457.22778148493671 0 -457.22778148493671 909.17673719088452 0 0 0 0 65.984634266706053 -383.37132481432673 0 -383.37132481432673 859.23220092417614 0 0 0 0 93.247389888727412 -460.09399734962517 0 -460.09399734962517 819.39255654800945 0 0 0 0 42.512504564518167 -373.05713134966572 0 -373.05713134966572 783.31962704284706 0 0 0 0 80.758462279292871 -562.77584291018138 0 -562.77584291018138 690.79137118771905 0 0 0 0 43.520952454089638 -336.83307531912578 0 -336.83307531912578 745.92461903439107 0 0 0 0 85.000980303942924 -414.8320800707952 0 -414.8320800707952 615.3015173067397 0 0 0 0 -4.6558679101252665 -5.0880184374951511 0 -5.0880184374951511 -3.6906729011264474 0 0 0 0 -238.74845806139638 -464.93165094195501 0 -464.93165094195501 617.25429686921723 0 0 0 0 -55.663891714717465 -269.92279621557282 0 -269.92279621557282 556.77163543538336 0 0 0 0 394.5515168448328 -134.28094486801638 0 -134.28094486801638 -496.59908557812741 0 0 0 0 5.7446236170344491 -728.90223830571995 0 -728.90223830571995 230.55641514247691 0 0 0 0 161.7711606970297 -556.88339070625989 0 -556.88339070625989 612.31446827814943 0 0 0 0 100.57513167036814 -434.9964139264448 0 -434.9964139264448 377.466301392491 0 0 0 0 245.76867202986614 -699.11411872154713 0 -699.11411872154713 489.18815654125865 0 0 0 0 206.75335099589927 -678.27217017061753 0 -678.27217017061753 562.01327023908379 0 0 0 0 190.68511053547991 -484.9401542421183 0 -484.9401542421183 481.73767141450662 0 0 0 0 163.19776344344154 -679.75146865609895 0 -679.75146865609895 584.39161035846337 0 0 0 0 510.94297242264292 -682.79312594351723 0 -682.79312594351723 1269.3899808844508 0 0 0 0 436.63116473966511 -602.59736816484292 0 -602.59736816484292 1271.593130747875 0 0 0 0 479.95410987685318 -672.89609471579024 0 -672.89609471579024 1311.6440186795226 0 0 0 0 431.24481921028928 -625.84802973896149 0 -625.84802973896149 1378.736135215222 0 0 0 0 268.21617359814627 -475.93831559769751 0 -475.93831559769751 885.78081754291634 0 0 0 0 237.68403932816 -378.46311869763122 0 -378.46311869763122 825.51040186742466 0 0 0 0 242.55513546962902 -415.52140533509373 0 -415.52140533509373 774.99751098256093 0 0 0 0 212.76596037871423 -429.89181669797108 0 -429.89181669797108 802.09346022720274 0 0 0 0 -72.609842955775093 -919.36499902347714 0 -919.36499902347714 1688.0055546023359 0 0 0 0 228.52416795168392 -421.76656182985971 0 -421.76656182985971 775.0865010209975 0 0 0 0 -17.309628931540118 -9.8505553715457914 0 -9.8505553715457914 -1.5342488873724847 0 0 0 0 205.39999040654948 -390.30549196348511 0 -390.30549196348511 748.55257857673132 0 0 0 0 220.73908751314593 -447.31475052132737 0 -447.31475052132737 703.07643144792382 0 0 0 0 234.07087070281705 -436.13311269910628 0 -436.13311269910628 808.36905212135753 0 0 0 0 199.40089423101745 -417.33479427689963 0 -417.33479427689963 798.17833602054452 0 0 0 0 125.97045705300116 -455.32285340925591 0 -455.32285340925591 843.6260101338803 0 0 0 0 156.83430146781029 -396.35720047897485 0 -396.35720047897485 744.80759033171489 0 0 0 0 155.7346868753375 -413.49152807781138 0 -413.49152807781138 801.98360158752621 0 0 0 0 221.12665241482318 -358.68413342435451 0 -358.68413342435451 585.23565726960078 0 0 0 0 364.15200217386882 -122.50894061849976 0 -122.50894061849976 -120.38155922503211 0 0 0 0 -1.8449810688929063 -6.9533960985852445 0 -6.9533960985852445 -8.4881378536949512 0 0 0 0 34.068746212717087 -11.128298524410638 0 -11.128298524410638 222.39360883041172 0 0 0 0 359.15048473823117 456.32298582110161 0 456.32298582110161 -929.42682467017039 0 0 0 0 -14.663631443968313 -12.008597361258104 0 -12.008597361258104 -6.1640894647193107 0 0 0 0 210.92252619246119 -380.29202272516295 0 -380.29202272516295 664.22598931334505 0 0 0 0 495.04716262489819 -1139.0687913787187 0 -1139.0687913787187 395.92096459086179 0 0 0 0 1051.8492406919213 -797.03756220750074 0 -797.03756220750074 -1288.1592814560281 0 0 0 0 -792.65977064588515 -763.51955423283653 0 -763.51955423283653 1678.349887305234 0 0 0 0 -412.37382599631383 -108.1501892545657 0 -108.1501892545657 1089.4423014409258 0 0 0 0 500.40413126702515 -2391.3511624245452 0 -2391.3511624245452 -302.75708554225275 0 0 0 0 1087.0653276979938 -672.34556640815208 0 -672.34556640815208 -230.93482870483422 0 0 0 0 -9.5827716736296509 -12.42938517346143 0 -12.42938517346143 6.0962232021422267 0 0 0 0 14.015325402302551 -39.699831087396888 0 -39.699831087396888 -1093.2758829148943 0 0 0 0 91.855806579842465 -725.29343745875303 0 -725.29343745875303 -1308.5385676419537 0 0 0 0 -57.6593357809179 -487.64910318293551 0 -487.64910318293551 -592.74994794898157 0 0 0 0 637.5321716243634 -755.48229150682891 0 -755.48229150682891 667.39793301007012 0 0 0 0 63.351710093134898 -578.83080149869784 0 -578.83080149869784 1395.2392125129845 0 0 0 0 352.94131448512053 -248.22406882065115 0 -248.22406882065115 1139.5390474438027 0 0 0 0 1027.3252073359326 -636.59185034886468 0 -636.59185034886468 696.66209290639381 0 0 0 0 788.17906619262067 -588.98059077253856 0 -588.98059077253856 1263.6517891340518 0 0 0 0 558.72072608743474 -826.5677537585434 0 -826.5677537585434 1408.8607755833655 0 0 0 0 -0.057379275402610119 -1.5637119024253963 0 -1.5637119024253963 10.29961404602129 0 0 0 0 -180.13583913068942 -303.07353828763462 0 -303.07353828763462 -21.147919708353584 0 0 0 0 -186.24352149463812 -439.36694825555423 0 -439.36694825555423 -142.72267312947588 0 0 0 0 -192.81198523801868 -476.35611008816522 0 -476.35611008816522 -80.859638388021267 0 0 0 0 -317.34968762887002 -823.29711783663515 0 -823.29711783663515 -397.26027656723454 0 0 0 0 -283.36788852659265 -620.47864919677568 0 -620.47864919677568 1226.4969844995358 0 0 0 0 -32.741984565131133 -198.79675378730826 0 -198.79675378730826 147.0448328057746 0 0 0 0 -443.88650636425882 -1231.2750131784996 0 -1231.2750131784996 -529.15727482485818 0 0 0 0 -369.21782388571046 -628.58105682957876 0 -628.58105682957876 288.60240696609253 0 0 0 0 -26.096014424863824 -246.45559045117898 0 -246.45559045117898 384.93789115141408 0 0 0 0 500.74004184861406 -34.05940568069127 0 -34.05940568069127 80.284690829463216 0 0 0 0 676.45004547951248 115.63567706571484 0 115.63567706571484 514.30974563029667 0 0 0 0 355.69175005011493 -473.30198655846834 0 -473.30198655846834 -99.041554520916179 0 0 0 0 1037.3345190186756 -666.66529706760275 0 -666.66529706760275 428.31597779321601 0 0 0 0 -2.2372595379379163 -15.268063579277658 0 -15.268063579277658 -21.973248005479221 0 0 0 0 353.73063374781395 -416.56870513390777 0 -416.56870513390777 471.65424676420298 0 0 0 0 385.07154486065701 -246.06442567008344 0 -246.06442567008344 231.16636604437372 0 0 0 0 264.2196375639578 64.954411972779781 0 64.954411972779781 -12.403908232157846 0 0 0 0 -0.80390636748307998 -0.3568670756205421 0 -0.3568670756205421 1.3917123079756095 0 0 0 0 -53.973533629832673 -202.19642305464004 0 -202.19642305464004 136.33793434025438 0 0 0 0 76.955992812587283 53.213810695050597 0 53.213810695050597 -109.17633244699391 0 0 0 0 277.86913093525072 -337.42331460745845 0 -337.42331460745845 153.35525030439521 0 0 0 0 225.70110328710507 -18.091075543035004 0 -18.091075543035004 9.2867140958478558 0 0 0 0 72.333014328276477 -30.307555695082556 0 -30.307555695082556 -47.793303382648446 0 0 0 0 66.089890167429985 -13.095688584755408 0 -13.095688584755408 154.57422182736445 0 0 0 0 45.20861324780617 52.487110353019716 0 52.487110353019716 -66.88981908732967 0 0 0 0 39.875580949606956 19.58031336944623 0 19.58031336944623 7.7831454645415761 0 0 0 0 -10.251339687798463 63.510594178052997 0 63.510594178052997 15.761607807256951 0 0 0 0 -4.3590171256510075 83.284004759951131 0 83.284004759951131 40.181166589445638 0 0 0 0 2.9663010851123488 0.49930789540158216 0 0.49930789540158216 -0.58963801546578054 0 0 0 0 63.487577697891538 99.698648450439123 0 99.698648450439123 -80.206362698845624 0 0 0 0 94.252392456895905 0.60311514923523646 0 0.60311514923523646 -244.98535885615638 0 0 0 0 -33.846246261433407 -35.898702104732365 0 -35.898702104732365 385.56777807726758 0 0 0 0 -48.554382862816055 -98.439993755702744 0 -98.439993755702744 225.45967202889733 0 0 0 0 -15.341169662962784 -285.32540993267321 0 -285.32540993267321 537.15692857975228 0 0 0 0 156.93947179999304 -375.03904638791573 0 -375.03904638791573 420.42235029173025 0 0 0 0 99.486048862177995 -252.68217553547584 0 -252.68217553547584 289.61904023819807 0 0 0 0 103.63904320180882 -198.67690879762449 0 -198.67690879762449 -130.82311058454798 0 0 0 0 -318.60325815437682 -175.00031005529672 0 -175.00031005529672 336.568644626077 0 0 0 0 67.689642480152543 -250.40580634696016 0 -250.40580634696016 350.31969876418043 0 0 0 0 371.46512203017483 -447.36630732289632 0 -447.36630732289632 -396.8464483889411 0 0 0 0 -1.4778228028473848 -15.65928061673479 0 -15.65928061673479 -24.075925278267775 0 0 0 0 476.61600762521448 -489.61234542630018 0 -489.61234542630018 413.04599552573927 0 0 0 0 263.45086613283274 -281.01942660997884 0 -281.01942660997884 184.20801017157646 0 0 0 0 280.25979332360293 -230.56823417839041 0 -230.56823417839041 255.35160371306665 0 0 0 0 386.37386644977232 -469.97962249495868 0 -469.97962249495868 358.13240682024116 0 0 0 0 2.8329906992045437 -13.185313070680134 0 -13.185313070680134 -24.125868919545724 0 0 0 0 12.05134943628218 -47.042016398336273 0 -47.042016398336273 220.53078765189275 0 0 0 0 39.484745065587049 -59.358633052519508 0 -59.358633052519508 229.30779748060013 0 0 0 0 -3.1495439538339269 -4.323469082977681 0 -4.323469082977681 240.15602843340639 0 0 0 0 27.299265898096564 -64.096794136530661 0 -64.096794136530661 38.602343721708166 0 0 0 0 28.863506642359425 0.49352295442804461 0 0.49352295442804461 12.141417489490777 0 0 0 0 7.6151674811568171 -10.782356820116494 0 -10.782356820116494 -21.999377556277892 0 0 0 0 841.31264966540039 -357.96151308619301 0 -357.96151308619301 112.50601610136437 0 0 0 0 432.59074922961008 -293.59982548775588 0 -293.59982548775588 153.82722694799304 0 0 0 0 369.74455373694946 -500.12277506173268 0 -500.12277506173268 333.68546472074377 0 0 0 0 3.6390820799058901 -0.56394445655573122 0 -0.56394445655573122 -7.2256286902693887 0 0 0 0 1176.9340969697805 -410.44576500476251 0 -410.44576500476251 102.27592358071706 0 0 0 0 -174.86282347692031 -112.72074664328102 0 -112.72074664328102 833.81467348002479 0 0 0 0 1538.4337389860302 -1652.061977814039 0 -1652.061977814039 -396.50079906987958 0 0 0 0 947.44342998313368 -777.77574380424994 0 -777.77574380424994 411.34452700157999 0 0 0 0 168.37477949197637 -697.76494249729876 0 -697.76494249729876 690.80584297067981 0 0 0 0 -493.84951371618081 -691.1302086362266 0 -691.1302086362266 1112.7176604210108 0 0 0 0 693.29363825749715 -1143.0350591079541 0 -1143.0350591079541 207.57350221755041 0 0 0 0 -82.841228220146149 -906.86494590787333 0 -906.86494590787333 1136.1119909446134 0 0 0 0 224.88566908946086 -332.20205581779555 0 -332.20205581779555 236.84103402480832 0 0 0 0 -6.2040663157458766 -148.04864892020123 0 -148.04864892020123 330.33124991206751 0 0 0 0 92.539703938471575 -259.22498926140361 0 -259.22498926140361 328.03884762704547 0 0 0 0 69.002613342039695 -249.19527582229784 0 -249.19527582229784 374.66901073366171 0 0 0 0 353.67171006486751 -533.04813609953271 0 -533.04813609953271 479.13760577218636 0 0 0 0 343.98038371032999 -409.12016954555838 0 -409.12016954555838 285.16455009156198 0 0 0 0 257.91003122942311 -268.99864882001748 0 -268.99864882001748 129.30705078761093 0 0 0 0 195.55485185375437 -263.14577805424051 0 -263.14577805424051 257.97558424283125 0 0 0 0 164.72636936913841 -70.445120550832144 0 -70.445120550832144 -18.310903000441613 0 0 0 0 47.42192564724246 -52.591096206961083 0 -52.591096206961083 65.18655095901704 0 0 0 0 106.8367476903768 -90.841614840313923 0 -90.841614840313923 -18.592151025040948 0 0 0 0 42.457630117278313 -35.887253647251782 0 -35.887253647251782 -56.130330170781235 0 0 0 0 80.869857744339242 -104.874720085636 0 -104.874720085636 -53.439677158867198 0 0 0 0 30.434076601619779 -19.827468992027836 0 -19.827468992027836 -41.217500907013772 0 0 0 0 89.121399164692775 18.837122890568935 0 18.837122890568935 -105.90895356138208 0 0 0 0 168.2480729447343 -112.41747357501481 0 -112.41747357501481 -61.72197773523294 0 0 0 0 57.415302147237526 -11.60237596834304 0 -11.60237596834304 -81.157233822006674 0 0 0 0 25.188965521407169 -26.874215392677684 0 -26.874215392677684 -38.586194115930056 0 0 0 0 73.188981828941905 47.610849554464949 0 47.610849554464949 -87.164949368525413 0 0 0 0 -206.59880268010602 -78.479216319621628 0 -78.479216319621628 7.7624899682523392 0 0 0 0 15.72398012909845 -28.432893208047759 0 -28.432893208047759 23.600139922578677 0 0 0 0 -914.31002691765025 -38.208121895797376 0 -38.208121895797376 31.886924362464924 0 0 0 0 -186.69470554588042 -597.51350306255881 0 -597.51350306255881 -176.98329707839002 0 0 0 0 86.276691258368373 -672.60504886872877 0 -672.60504886872877 -157.50866473031783 0 0 0 0 4.9866938158339593 -7.2173127579460612 0 -7.2173127579460612 12.060086208083192 0 0 0 0 -309.79688619175067 -199.95158966220333 0 -199.95158966220333 -24.530729072015674 0 0 0 0 875.49397389358273 -295.46834954143924 0 -295.46834954143924 -69.230252879962791 0 0 0 0 -95.979485819509136 -286.92143267359643 0 -286.92143267359643 569.02690771989 0 0 0 0 48.933865886931471 -136.64101145074073 0 -136.64101145074073 -185.78922362762387 0 0 0 0 -190.49162163386063 71.214916609715146 0 71.214916609715146 91.257856823947805 0 0 0 0 41.066486483388871 3.1354800003864511 0 3.1354800003864511 66.401258975269229 0 0 0 0 55.179616384280962 -16.304229964087426 0 -16.304229964087426 13.644979937467724 0 0 0 0 158.55938696456724 -77.413479618368456 0 -77.413479618368456 35.73938129209273 0 0 0 0 52.698284458718263 -20.974882143840659 0 -20.974882143840659 13.264863996104395 0 0 0 0 52.933223302791703 -18.235514632151535 0 -18.235514632151535 19.150619952182751 0 0 0 0 6.9663284280753999 1.6158819026318483 0 1.6158819026318483 0.99993739746287247 0 0 0 0 18.799243055764236 24.084028492012294 0 24.084028492012294 -48.418057379225502 0 0 0 0 27.507073235675989 -23.922519947146696 0 -23.922519947146696 10.471072165238368 0 0 0 0 33.001930726968567 -30.892621641141886 0 -30.892621641141886 63.073059894008111 0 0 0 0 13.835931957684807 -14.329839729354717 0 -14.329839729354717 -12.125218588626012 0 0 0 0 18.537783709566781 -14.592752114802636 0 -14.592752114802636 7.0051847819185582 0 0 0 0 55.165307577240071 -13.860867789813526 0 -13.860867789813526 18.303229888137139 0 0 0 0 48.550954632017238 -86.615421136015357 0 -86.615421136015357 56.299197187050595 0 0 0 0 63.165454133353705 -51.710345588931887 0 -51.710345588931887 51.74471077585622 0 0 0 0 17.534354280699233 -13.443557768806482 0 -13.443557768806482 4.2225898962128099 0 0 0 0 34.230236870898807 18.931309087598493 0 18.931309087598493 -1.3645950385762262 0 0 0 0 60.338396453920723 -32.256291525361121 0 -32.256291525361121 -12.856862371401803 0 0 0 0 4.9916116938838968 -36.905302154544188 0 -36.905302154544188 -100.27470747407824 0 0 0 0 1.8620424312581463 0.52756713057956972 0 0.52756713057956972 0.2863651391890869 0 0 0 0 2.7068198802504639 3.0340710722687021 0 3.0340710722687021 -10.449608139621205 0 0 0 0 20.216732183165732 -64.406033561343065 0 -64.406033561343065 49.692846379159164 0 0 0 0 25.775014499551617 43.529517971379391 0 43.529517971379391 -53.600522879478376 0 0 0 0 36.431011609730319 -18.332977529275517 0 -18.332977529275517 -32.783247365572592 0 0 0 0 78.795465079963833 -80.61310322016584 0 -80.61310322016584 2.8315896729545784 0 0 0 0 28.733920535938523 -75.518555732905952 0 -75.518555732905952 53.498995604364609 0 0 0 0 34.558838058743277 -121.58204176033905 0 -121.58204176033905 -34.873877967949738 0 0 0 0 40.926669417276571 -178.68522129961821 0 -178.68522129961821 -95.714260466957057 0 0 0 0 -0.51065955183730694 -122.57602862210115 0 -122.57602862210115 -31.798194271710599 0 0 0 0 -33.012728695252008 -87.13190468114135 0 -87.13190468114135 29.252694670336496 0 0 0 0 38.004219040478347 -72.432531695794751 0 -72.432531695794751 30.292392213513267 0 0 0 0 4.6005178236737265 -61.084405916955802 0 -61.084405916955802 50.257328192179557 0 0 0 0 22.547399291981492 -30.377597168078864 0 -30.377597168078864 49.230147738941014 0 0 0 0 -12.683939843853295 -55.945413650875707 0 -55.945413650875707 41.357868771577159 0 0 0 0 28.584152169773006 -38.755235517470283 0 -38.755235517470283 58.152438459503173 0 0 0 0 -3.6977872246916377 -42.790772795032353 0 -42.790772795032353 19.481281149346614 0 0 0 0 -45.299223107824218 -85.609941632113987 0 -85.609941632113987 -3.7133875060353603 0 0 0 0 -40.914423218957381 -14.833177531638285 0 -14.833177531638285 33.30490230626674 0 0 0 0 12.519028039369005 -0.62177226438006983 0 -0.62177226438006983 47.269482105119096 0 0 0 0 -21.033168508060044 -28.62727942010315 0 -28.62727942010315 42.85199837824257 0 0 0 0 9.1671483041282045 -28.294426516647945 0 -28.294426516647945 20.328844525243767 0 0 0 0 13.488719414126535 13.159413392391798 0 13.159413392391798 62.083610758672876 0 0 0 0 36.198446931019134 -13.202705160278128 0 -13.202705160278128 52.651541580118646 0 0 0 0 11.960639499360695 -36.250400990058552 0 -36.250400990058552 -1.6037173933909799 0 0 0 0 17.808856767313785 -26.089401345656896 0 -26.089401345656896 22.486067319903476 0 0 0 0 20.688290202263019 -21.596035618544576 0 -21.596035618544576 15.378696203475315 0 0 0 0 44.989523649283001 6.286920949703017 0 6.286920949703017 56.92188628527947 0 0 0 0 -78.609757049751352 -142.66667183171012 0 -142.66667183171012 -159.15864591484569 0 0 0 0 -45.217493826363352 -65.988353144975918 0 -65.988353144975918 -118.50404507939311 0 0 0 0 -45.303088559377102 -92.352502365799182 0 -92.352502365799182 -48.842671995633282 0 0 0 0 3.3042046681748616 -66.986681223583219 0 -66.986681223583219 -61.543669518767274 0 0 0 0 -13.782782642534585 -10.980309101769308 0 -10.980309101769308 7.3537988019816112 0 0 0 0 -51.084619074841612 -82.13821497664776 0 -82.13821497664776 -21.864068542181485 0 0 0 0 -13.295541064901045 -14.200831900558114 0 -14.200831900558114 -1.3911027608555742 0 0 0 0 -107.10715178920873 -137.30449998558242 0 -137.30449998558242 -93.091652686427551 0 0 0 0 -63.471512510979665 -48.923494542566914 0 -48.923494542566914 -74.214703741734411 0 0 0 0 -158.59274087249287 -111.669406891162 0 -111.669406891162 -94.980000907555223 0 0 0 0 -66.77720050237258 -93.396926734480076 0 -93.396926734480076 -242.03696503097126 0 0 0 0 -73.862681430575321 -52.586017613270087 0 -52.586017613270087 -31.653128167406976 0 0 0 0 -55.779275889975906 -167.47533057014653 0 -167.47533057014653 -67.620861096427689 0 0 0 0 460.70225574816868 176.96232453245466 0 176.96232453245466 -83.555718054358294 0 0 0 0 3.525238629477343 -1.4811890829788865 0 -1.4811890829788865 0.040714661629905891 0 0 0 0 -62.809758196557596 -299.12861343396617 0 -299.12861343396617 -185.80207319136753 0 0 0 0 428.23457270157814 175.89017440913813 0 175.89017440913813 -83.399179067356954 0 0 0 0 121.72291374487941 -92.038628626890386 0 -92.038628626890386 -311.25997780007674 0 0 0 0 -43.995602731913095 -17.926593156520539 0 -17.926593156520539 315.01530910200017 0 0 0 0 10.660071742626315 -100.04407795727457 0 -100.04407795727457 -162.37382613702403 0 0 0 0 8.4565200911934539 -3.8234236906716603 0 -3.8234236906716603 0.3223697469401543 0 0 0 0 107.94103893209467 -96.511746255055641 0 -96.511746255055641 -164.62090014702517 0 0 0 0 -143.16079331285437 -245.28735026944923 0 -245.28735026944923 -280.96307893524545 0 0 0 0 -17.020545671522996 -115.01311453468134 0 -115.01311453468134 -195.83578705474429 0 0 0 0 -147.46897931644924 -119.0095568085431 0 -119.0095568085431 -165.61945483251475 0 0 0 0 -140.42060836125165 -277.82992469216879 0 -277.82992469216879 -274.32946555078161 0 0 0 0 10.669152991208662 -4.6947902527401055 0 -4.6947902527401055 -0.38579747563178302 0 0 0 0 -68.01506871861784 -134.10549959075433 0 -134.10549959075433 -264.09864031424263 0 0 0 0 -91.756557898272149 -170.18898537481118 0 -170.18898537481118 -157.1568389118911 0 0 0 0 -362.30989797826987 -381.90802608441936 0 -381.90802608441936 -282.45385722284482 0 0 0 0 -831.68267769299564 -333.89436320118693 0 -333.89436320118693 -70.07970520111121 0 0 0 0 -276.88085011649673 -46.701540895539438 0 -46.701540895539438 -657.08871840388019 0 0 0 0 -658.55309404527907 -907.29439659419131 0 -907.29439659419131 -320.27438559185975 0 0 0 0 -467.04695643145533 -591.86253280463643 0 -591.86253280463643 -546.64422905126412 0 0 0 0 -3.5476390746339632 -5.9201950067843221 0 -5.9201950067843221 1.0963372663642801 0 0 0 0 -131.80426301677653 -387.65782489219418 0 -387.65782489219418 -774.65895205891866 0 0 0 0 -6.8796925900533097 -44.282362358258979 0 -44.282362358258979 -12.651914625623249 0 0 0 0 -99.456908234797993 -198.70079262868535 0 -198.70079262868535 -512.82395487862595 0 0 0 0 3.2813293253802556 0.63278913135110315 0 0.63278913135110315 -17.647278450322304 0 0 0 0 314.62118330228259 -190.16269594940059 0 -190.16269594940059 -155.07504247336328 0 0 0 0 22.205855072148552 79.306311973818083 0 79.306311973818083 155.85804942096365 0 0 0 0 327.40632056461618 59.642008221097058 0 59.642008221097058 -64.154300681495442 0 0 0 0 369.40849698152306 69.38438869410129 0 69.38438869410129 -70.967133516644026 0 0 0 0 579.2842242767656 23.919642019050116 0 23.919642019050116 -68.653236423364433 0 0 0 0 -363.46529691562318 -340.48237069133575 0 -340.48237069133575 -258.63831316289725 0 0 0 0 -503.81530029744863 -607.74335636877913 0 -607.74335636877913 -485.0381589821227 0 0 0 0 0.5297539482913578 0.62313520836289626 0 0.62313520836289626 -4.3275155252489981 0 0 0 0 5.7242995148044429 -306.21292828149853 0 -306.21292828149853 -500.04553985139273 0 0 0 0 -174.74132581684171 -371.87479018518206 0 -371.87479018518206 -16.392107253668655 0 0 0 0 -270.3059129433168 -220.48448429906693 0 -220.48448429906693 -151.98304436990293 0 0 0 0 -201.42421490379274 -169.06206465617106 0 -169.06206465617106 -279.26376930067272 0 0 0 0 -196.9808773487166 -170.06535928556877 0 -170.06535928556877 -286.83537385651653 0 0 0 0 -421.04161871963151 -286.07038004073547 0 -286.07038004073547 -305.32076614096513 0 0 0 0 -314.12505069292092 -71.114472946137539 0 -71.114472946137539 -55.306715995097534 0 0 0 0 -194.66791012119575 -44.401352970142398 0 -44.401352970142398 -273.60666190195479 0 0 0 0 -141.75524117136592 -64.903847686822701 0 -64.903847686822701 -302.37998128324034 0 0 0 0 15.605658869317267 -108.89973707036916 0 -108.89973707036916 -325.88387243155012 0 0 0 0 45.712106063685496 -68.04419890369536 0 -68.04419890369536 -593.79229072489579 0 0 0 0 24.99763354822062 135.26957626546391 0 135.26957626546391 -452.36330773056034 0 0 0 0 -35.366448229538946 185.63095058772615 0 185.63095058772615 -584.74809369266222 0 0 0 0 -11.085175122607325 53.960315885615273 0 53.960315885615273 -251.36165232189524 0 0 0 0 176.39131872988946 8.2910892170548323 0 8.2910892170548323 -247.54582747222162 0 0 0 0 -186.07767871293163 86.955222880996075 0 86.955222880996075 -120.67691690954234 0 0 0 0 -28.274522740430257 263.74491873040097 0 263.74491873040097 76.315022625298297 0 0 0 0 -23.49919556630266 -706.20879429900106 0 -706.20879429900106 -90.611723154142965 0 0 0 0 -224.29307930569485 74.62701297080821 0 74.62701297080821 -948.28152288377714 0 0 0 0 -218.71780558519094 -355.89239118234855 0 -355.89239118234855 -117.740596301388 0 0 0 0 41.550165201115306 -332.59378834249583 0 -332.59378834249583 -1354.41660462041 0 0 0 0 67.300483275823353 -274.53953727235239 0 -274.53953727235239 -1253.0980699164793 0 0 0 0 -210.92081701748248 -370.44889286050602 0 -370.44889286050602 -249.45239751980353 0 0 0 0 36.404809285610099 -70.818089158827206 0 -70.818089158827206 -123.84203595842882 0 0 0 0 557.03726768349588 -376.44988508238748 0 -376.44988508238748 -118.52499250609998 0 0 0 0 -26.438261675899639 -191.42286719981297 0 -191.42286719981297 496.70189847956499 0 0 0 0 -29.776652297485271 -266.75043123682735 0 -266.75043123682735 458.09669908767319 0 0 0 0 21.370739935868187 -363.36881195372371 0 -363.36881195372371 410.13378190125513 0 0 0 0 -16.533119101919738 -45.805045776612587 0 -45.805045776612587 -21.750681321937478 0 0 0 0 41.748174851003569 10.515895760981948 0 10.515895760981948 -97.387922543246532 0 0 0 0 29.174882333056303 -118.37617434552521 0 -118.37617434552521 -18.571421908705815 0 0 0 0 43.327176273658566 -9.775194863918216 0 -9.775194863918216 -23.690312154362665 0 0 0 0 -34.674401172394369 -52.161136762095957 0 -52.161136762095957 -58.791320885349364 0 0 0 0 282.04093010303404 -202.74724314104242 0 -202.74724314104242 -69.284740428221994 0 0 0 0 524.27550600571703 346.66079130514299 0 346.66079130514299 12.579440186091233 0 0 0 0 79.169404847489204 -209.77264306906 0 -209.77264306906 -46.850343903528483 0 0 0 0 426.38735281708796 -541.8503979477955 0 -541.8503979477955 439.80662000886514 0 0 0 0 291.60171158360026 275.12057983705563 0 275.12057983705563 200.85525932132441 0 0 0 0 20.24209469876223 -308.4273154650291 0 -308.4273154650291 918.58846685251046 0 0 0 0 -52.288795160020527 -18.224281352597245 0 -18.224281352597245 57.776720746653154 0 0 0 0 934.2882699727852 -689.41589670716166 0 -689.41589670716166 138.06292232454871 0 0 0 0 -5.867689642288533 -10.705426504583585 0 -10.705426504583585 8.1494706712692278 0 0 0 0 1346.821667516962 -331.66279698986614 0 -331.66279698986614 -174.92914056126028 0 0 0 0 420.41679315069632 -204.51752898350969 0 -204.51752898350969 255.58138114483154 0 0 0 0 175.42140923132683 -477.56375690530695 0 -477.56375690530695 -458.04646808235339 0 0 0 0 -257.73744154458836 -209.66972086403075 0 -209.66972086403075 277.87296397637328 0 0 0 0 166.87818717634218 -404.81880703380011 0 -404.81880703380011 233.82606952791684 0 0 0 0 -132.51013458152738 -751.61346875973686 0 -751.61346875973686 -109.83815885707736 0 0 0 0 -46.716361739658169 -705.91514863762495 0 -705.91514863762495 -118.41404277797119 0 0 0 0 -136.23593651072588 -787.22651519564533 0 -787.22651519564533 -6.6126152749857283 0 0 0 0 -225.84375602938962 -627.10286287776762 0 -627.10286287776762 -147.58941349695488 0 0 0 0 228.08419232984306 -716.80364074549288 0 -716.80364074549288 -32.421330945284353 0 0 0 0 193.4902037393731 -137.62986663738229 0 -137.62986663738229 20.886194437378435 0 0 0 0 -378.70604254465434 -693.71727002317493 0 -693.71727002317493 -24.017977613722906 0 0 0 0 -634.93593167308427 -507.97527852421263 0 -507.97527852421263 35.689798041625181 0 0 0 0 -0.19089332695893457 -10.960261619210328 0 -10.960261619210328 -42.005192932248264 0 0 0 0 -175.1297476210184 -347.17789015644757 0 -347.17789015644757 -127.98346892937843 0 0 0 0 602.4890231359168 -245.6060607011259 0 -245.6060607011259 -205.54389926971635 0 0 0 0 4.7686291266671317 -25.469411770007255 0 -25.469411770007255 -62.175846714400478 0 0 0 0 -63.253376937080702 -32.533310804220264 0 -32.533310804220264 -43.944411142001627 0 0 0 0 28.143219499121187 -61.917941967629304 0 -61.917941967629304 -55.253449932395597 0 0 0 0 111.90757322919671 -80.393332415813347 0 -80.393332415813347 -64.807551729456463 0 0 0 0 89.661295619334851 -187.68610627499129 0 -187.68610627499129 75.061255667271325 0 0 0 0 69.195272474542435 -41.924611081391049 0 -41.924611081391049 -52.528570140590091 0 0 0 0 130.59145965951029 -185.29094550040827 0 -185.29094550040827 49.494936467970547 0 0 0 0 112.92635241015523 -81.588216614480189 0 -81.588216614480189 -3.0812443379254546 0 0 0 0 86.942584457588964 -103.89708342091762 0 -103.89708342091762 202.00619406453916 0 0 0 0 208.31498922780884 -280.59282772876759 0 -280.59282772876759 154.22039376081193 0 0 0 0 250.27261401165015 -234.0052859475727 0 -234.0052859475727 55.127022796757046 0 0 0 0 243.748197480214 -252.22192177739089 0 -252.22192177739089 4.5425228180247359 0 0 0 0 163.92166138180983 -153.62435893857582 0 -153.62435893857582 28.299972648987023 0 0 0 0 329.5796714214157 -117.90447590157055 0 -117.90447590157055 23.330834001717449 0 0 0 0 323.56729136448121 -244.45502568059419 0 -244.45502568059419 -48.823396725689236 0 0 0 0 344.42794878229324 -270.30266638144167 0 -270.30266638144167 -23.024045343641774 0 0 0 0 311.06977275353165 -197.7015864581972 0 -197.7015864581972 -172.71993335469597 0 0 0 0 422.40566522525478 -308.69561729869747 0 -308.69561729869747 -133.34856509635574 0 0 0 0 343.73148162454163 -271.16849814105808 0 -271.16849814105808 -107.05332287161036 0 0 0 0 366.18334829296964 -475.93779958330015 0 -475.93779958330015 -620.5972529515202 0 0 0 0 299.43073338208342 -310.46661504248186 0 -310.46661504248186 -121.51675337418419 0 0 0 0 -356.08914234330587 -678.64101011836829 0 -678.64101011836829 -1058.6650472261681 0 0 0 0 -2217.2910750749797 -636.43193201207214 0 -636.43193201207214 247.25599716245415 0 0 0 0 4.0840953650856733 -10.595973442912694 0 -10.595973442912694 15.191924178977558 0 0 0 0 -200.87919710673305 110.42030351672292 0 110.42030351672292 -266.3048338087392 0 0 0 0 -536.45738937964757 -375.97546057425257 0 -375.97546057425257 -210.62304972704442 0 0 0 0 -156.15637434882774 -38.056669673152101 0 -38.056669673152101 379.81668651019572 0 0 0 0 -526.63430135634553 -547.773394642536 0 -547.773394642536 -321.46397393141433 0 0 0 0 -543.10811505754828 -803.7460460336988 0 -803.7460460336988 454.92827363315155 0 0 0 0 -68.997794827695543 -825.57270650037572 0 -825.57270650037572 144.90192660769389 0 0 0 0 -1.4462105506188832 -4.1893069319979759 0 -4.1893069319979759 -12.715389855818074 0 0 0 0 563.51134846458081 -153.57705816102316 0 -153.57705816102316 -262.71627203912794 0 0 0 0 -1340.3432856871586 38.148449792572137 0 38.148449792572137 233.73341539840476 0 0 0 0 -251.45955955616591 -237.14062183871647 0 -237.14062183871647 137.77802136687023 0 0 0 0 -360.71959233841881 69.874495693087738 0 69.874495693087738 -706.6125991453373 0 0 0 0 -270.41579046996412 -863.5626742998902 0 -863.5626742998902 777.1534888277165 0 0 0 0 -369.64159847176961 -323.06166005927389 0 -323.06166005927389 430.32885695452569 0 0 0 0 8.7021023400739068 -313.14048418490347 0 -313.14048418490347 158.02032094205424 0 0 0 0 20.100559670572693 -345.41165737412393 0 -345.41165737412393 249.38451552324841 0 0 0 0 386.9969493608005 -400.26243864130447 0 -400.26243864130447 89.953452505420501 0 0 0 0 311.3452437691667 -297.90249446048983 0 -297.90249446048983 -21.286071797894692 0 0 0 0 332.97939820410829 -315.5357995275881 0 -315.5357995275881 -52.438029004038981 0 0 0 0 303.89441094449649 -265.86027280730923 0 -265.86027280730923 -98.656293176078179 0 0 0 0 312.72613174676735 -352.33092838912853 0 -352.33092838912853 -48.771019160254582 0 0 0 0 305.92575947859586 -344.41737822896903 0 -344.41737822896903 14.713985634116398 0 0 0 0 283.59524249967944 -321.66774545001317 0 -321.66774545001317 39.431507711422455 0 0 0 0 284.60841064295528 -315.60652176523945 0 -315.60652176523945 75.648136362869991 0 0 0 0 209.05143384406983 -406.39191857030164 0 -406.39191857030164 303.78654440908576 0 0 0 0 231.99492409003142 -261.66375025581146 0 -261.66375025581146 124.01739147945773 0 0 0 0 217.05098847600311 -429.90695003125802 0 -429.90695003125802 117.07496981486474 0 0 0 0 67.380021438668336 -558.90759703593358 0 -558.90759703593358 1124.2090520517668 0 0 0 0 349.41375462524229 -591.12722524129276 0 -591.12722524129276 -66.138714817352593 0 0 0 0 -319.1224579497466 -388.94897509605289 0 -388.94897509605289 90.891343304047041 0 0 0 0 223.74533030823841 -142.81015526697774 0 -142.81015526697774 -380.65333253128483 0 0 0 0 -576.4029446905588 -776.07345741402241 0 -776.07345741402241 -308.09159262327012 0 0 0 0 -145.20340501376631 -577.2141427564311 0 -577.2141427564311 531.63516396312116 0 0 0 0 -476.89620085950446 -38.494174314464544 0 -38.494174314464544 439.15790818391542 0 0 0 0 272.93765929521942 -518.37375333336149 0 -518.37375333336149 -259.7131051947872 0 0 0 0 -42.340380278270459 -408.83360995678959 0 -408.83360995678959 -256.37808623693741 0 0 0 0 115.14587422383192 -492.60207779807024 0 -492.60207779807024 -117.31162017190218 0 0 0 0 246.38973189090575 -763.11668756177482 0 -763.11668756177482 -37.66459139817016 0 0 0 0 27.098432118823382 -1.2792064176075542 0 -1.2792064176075542 -1.4383124021716114 0 0 0 0 197.31575613585301 164.92956583314663 0 164.92956583314663 -49.362592950534236 0 0 0 0 87.73214861706947 -282.48256858006425 0 -282.48256858006425 525.8080334744227 0 0 0 0 8.4945701562710951 -1.2676055616583994 0 -1.2676055616583994 0.64545829736510996 0 0 0 0 -154.00483410968081 -292.15167280890091 0 -292.15167280890091 -183.16145084347409 0 0 0 0 -484.45714849736396 -512.35485196607624 0 -512.35485196607624 -44.434788109792635 0 0 0 0 -236.50403162335351 -314.49283556271439 0 -314.49283556271439 -38.153467674543208 0 0 0 0 0.3056450045623933 504.89790814849403 0 504.89790814849403 559.06083847239915 0 0 0 0 -455.31950734460588 137.47803415506678 0 137.47803415506678 328.81758412039198 0 0 0 0 411.56426296160316 -1032.1934481714541 0 -1032.1934481714541 96.365363787612296 0 0 0 0 -1106.1940769234934 -384.4670057386611 0 -384.4670057386611 663.71626680820964 0 0 0 0 -32.108567437239827 -41.098506632745995 0 -41.098506632745995 -51.39571685063882 0 0 0 0 -1271.6484525232227 -1733.4046053529892 0 -1733.4046053529892 -2349.9416022485238 0 0 0 0 -659.56412054058455 -1064.956888050031 0 -1064.956888050031 -1105.2382849479836 0 0 0 0 19.554697005311027 -14.353429224018328 0 -14.353429224018328 -1778.8857978651795 0 0 0 0 -70.536575770667696 69.19383223344812 0 69.19383223344812 -843.71025216956332 0 0 0 0 -158.13914433072568 -641.24877175572692 0 -641.24877175572692 -722.82271097139164 0 0 0 0 1435.0076923332963 1664.2342744619382 0 1664.2342744619382 993.85760601679794 0 0 0 0 -13.589708975115286 -4.9262492800673954 0 -4.9262492800673954 -2.3782957299428489 0 0 0 0 -662.08039444147289 -304.77260325426687 0 -304.77260325426687 464.06563597452259 0 0 0 0 -13.84603111917167 -17.242952539571938 0 -17.242952539571938 -20.347789047823312 0 0 0 0 697.64769744171645 92.74859923456097 0 92.74859923456097 -730.28583633139351 0 0 0 0 426.10015244483657 -244.14034815821651 0 -244.14034815821651 -1113.7151241984575 0 0 0 0 455.59037638385053 86.415678025710804 0 86.415678025710804 89.279409373899398 0 0 0 0 -83.243534506837022 -571.31963657724191 0 -571.31963657724191 616.23222678302045 0 0 0 0 26.42446013650806 -417.28873402539648 0 -417.28873402539648 -167.81669067507391 0 0 0 0 225.12579060817734 -454.73232077967896 0 -454.73232077967896 -160.77620563282107 0 0 0 0 -52.076933621900025 -54.067004798453127 0 -54.067004798453127 -256.23258845071541 0 0 0 0 165.01325544688007 -407.87347628128919 0 -407.87347628128919 -509.6686214024885 0 0 0 0 -34.352686081375154 -18.970006969387288 0 -18.970006969387288 -11.980221372092956 0 0 0 0 -105.70389890751903 20.515264476696757 0 20.515264476696757 -333.33880366976518 0 0 0 0 -145.19112325941387 -111.30139158502789 0 -111.30139158502789 300.73934321771958 0 0 0 0 196.1533712337332 117.70119469623569 0 117.70119469623569 -299.08898576189313 0 0 0 0 -51.501026877035372 -37.9165432203568 0 -37.9165432203568 -3.5562587415210558 0 0 0 0 509.37707885931741 -252.39051971550725 0 -252.39051971550725 4.0068484688090393 0 0 0 0 488.56668007691042 -45.584326406640685 0 -45.584326406640685 -992.93554053665139 0 0 0 0 -770.3502685371277 -976.76765363002596 0 -976.76765363002596 472.14612787558872 0 0 0 0 -12.725321380668902 -40.99195029454313 0 -40.99195029454313 122.18613393110536 0 0 0 0 -3.4587252864353957 -59.487131820507528 0 -59.487131820507528 -34.39800208898005 0 0 0 0 -1355.0262328012905 1863.9928372518043 0 1863.9928372518043 -167.1457050834324 0 0 0 0 26.819631317674066 -102.67429101323523 0 -102.67429101323523 63.572629727469121 0 0 0 0 -147.4552240708399 -41.058684931263997 0 -41.058684931263997 1090.5104717760223 0 0 0 0 106.90990019301535 -4.8964956309228 0 -4.8964956309228 414.68454357131122 0 0 0 0 -16.697909802671347 -51.112913768612998 0 -51.112913768612998 15.341787908197148 0 0 0 0 130.82131788028892 151.71401919593745 0 151.71401919593745 -65.503809620091488 0 0 0 0 14.719740137832048 -49.507884456375464 0 -49.507884456375464 22.903198237869425 0 0 0 0 -9.6376788048814035 -34.62145782967626 0 -34.62145782967626 -5.198828083133634 0 0 0 0 9.3220025379956439 -0.30208242185548073 0 -0.30208242185548073 -16.662689268839323 0 0 0 0 394.6372790620153 300.38430995387534 0 300.38430995387534 -1003.8498919368112 0 0 0 0 415.54194982830904 -0.083364526503373781 0 -0.083364526503373781 -709.24527203376056 0 0 0 0 479.68180119964381 -786.04192915388376 0 -786.04192915388376 344.46399837389617 0 0 0 0 736.21869072402842 172.32377520226419 0 172.32377520226419 -853.49579704545613 0 0 0 0 845.48678559860855 -1507.7814153567633 0 -1507.7814153567633 -2222.3384015163792 0 0 0 0 -44.087962843077548 -54.875225292076721 0 -54.875225292076721 128.50535834300354 0 0 0 0 3.6639064048661112 -62.655561261959619 0 -62.655561261959619 -43.095645592828248 0 0 0 0 36.428095355935511 -2.3531590366801538 0 -2.3531590366801538 -14.842686285855507 0 0 0 0 -0.34748437990128878 -73.939774194682627 0 -73.939774194682627 29.549561903196263 0 0 0 0 -27.469305300113504 -80.806321231918503 0 -80.806321231918503 316.75911033645025 0 0 0 0 -44.501369012732539 -52.95957050278912 0 -52.95957050278912 119.65516067685166 0 0 0 0 -39.084895078565751 -67.281479236986343 0 -67.281479236986343 124.91372292413939 0 0 0 0 -38.653971515614103 -66.531780653941041 0 -66.531780653941041 106.77217922276213 0 0 0 0 -26.090346512421092 -76.516256333779893 0 -76.516256333779893 77.257080836017849 0 0 0 0 -36.939776487939525 -94.815645112011225 0 -94.815645112011225 49.171187699885195 0 0 0 0 -27.47028478431821 -81.284519264524988 0 -81.284519264524988 84.128487097683319 0 0 0 0 -88.055409145534213 -150.71998631876704 0 -150.71998631876704 417.6815046301308 0 0 0 0 -1.3624407812312711 -77.38675813057489 0 -77.38675813057489 55.769944341256632 0 0 0 0 2.5883848925877828 -104.07827134865511 0 -104.07827134865511 108.53978250238288 0 0 0 0 12.125026211419026 -86.620299343885563 0 -86.620299343885563 95.18908272144472 0 0 0 0 26.392125075828517 -77.426807595285936 0 -77.426807595285936 56.0298490873829 0 0 0 0 -3.4445315180928446 -80.719196754209406 0 -80.719196754209406 55.915615091874542 0 0 0 0 17.971051574044395 -85.358702401608753 0 -85.358702401608753 16.687704849871807 0 0 0 0 -16.087442442280008 -97.052789178698731 0 -97.052789178698731 7.8098919691583433 0 0 0 0 2.8644490292863338 -110.70270128950187 0 -110.70270128950187 17.472867138421861 0 0 0 0 -27.382539308688138 -138.88776127402889 0 -138.88776127402889 -18.126779276362868 0 0 0 0 1.9321687219198793 -80.314098026843567 0 -80.314098026843567 4.8675839697825722 0 0 0 0 -52.20462993500405 -172.11562673712251 0 -172.11562673712251 -65.597406464077721 0 0 0 0 -38.134632630913984 -113.57138262953595 0 -113.57138262953595 -30.671689202830748 0 0 0 0 -9.8649772519711405 -106.48306137058171 0 -106.48306137058171 -46.287224305342534 0 0 0 0 -21.630179855812457 -139.57652615048391 0 -139.57652615048391 -105.62543756424566 0 0 0 0 -36.427845464932034 -52.782482440950844 0 -52.782482440950844 36.130156147552043 0 0 0 0 -27.232655005936977 -81.598325848208333 0 -81.598325848208333 64.121972634311533 0 0 0 0 -11.696188230984262 -100.37623660111421 0 -100.37623660111421 57.413631794974208 0 0 0 0 -26.415305312722921 -100.42944237584015 0 -100.42944237584015 45.644473724722047 0 0 0 0 -22.684522574010771 -77.075170203965172 0 -77.075170203965172 148.02815550210653 0 0 0 0 -5.9714526707539335 -53.381711087607982 0 -53.381711087607982 35.337733246065909 0 0 0 0 -6.8771375022479333 -60.176829651281878 0 -60.176829651281878 90.471404134168552 0 0 0 0 -157.64392144529847 116.4475935664741 0 116.4475935664741 366.83708554071927 0 0 0 0 -4.7984253321628785 -113.12170481948488 0 -113.12170481948488 154.00256241635361 0 0 0 0 8.7757455500832293 -95.453135562747775 0 -95.453135562747775 125.14080533712695 0 0 0 0 -91.806832480069716 -72.646163016896026 0 -72.646163016896026 301.48307732730245 0 0 0 0 -57.048726381239248 58.712052069320634 0 58.712052069320634 148.61500217611683 0 0 0 0 11.852490685560042 -136.80108128739448 0 -136.80108128739448 208.55318525291295 0 0 0 0 -2.4843590753152966 -71.738955372486089 0 -71.738955372486089 125.62339691070247 0 0 0 0 -2.5230987590621226 -102.63126889422347 0 -102.63126889422347 190.27234810158552 0 0 0 0 26.355271596999955 -68.322553016389065 0 -68.322553016389065 107.50766708585434 0 0 0 0 71.202452575031202 -120.83785874562091 0 -120.83785874562091 139.75391218290861 0 0 0 0 112.96956808981486 -149.49866878253306 0 -149.49866878253306 193.61725288044909 0 0 0 0 45.582080835079978 -39.824195247721264 0 -39.824195247721264 126.61517454780915 0 0 0 0 5.9446829338412499 -49.552965699825108 0 -49.552965699825108 83.992566946395527 0 0 0 0 -6.2800313885818468 -59.096747621297254 0 -59.096747621297254 123.49262881840696 0 0 0 0 82.089440415471472 -88.513500273049885 0 -88.513500273049885 133.02573561159807 0 0 0 0 -43.546690141913132 -48.804587799649198 0 -48.804587799649198 135.17829345240534 0 0 0 0 -22.941315507152467 -50.340767498907553 0 -50.340767498907553 67.289141475092038 0 0 0 0 -30.973757201893022 -78.633578501654483 0 -78.633578501654483 40.207748542936315 0 0 0 0 -19.1251929570426 -50.114272246702967 0 -50.114272246702967 84.313827737009888 0 0 0 0 37.430879421110149 -59.713496224711889 0 -59.713496224711889 66.463109109245124 0 0 0 0 -2.4381880440923851 -85.138536677008233 0 -85.138536677008233 24.434493788623513 0 0 0 0 -3.9197494790059864 -68.432116251276057 0 -68.432116251276057 65.32643317786642 0 0 0 0 -0.47367808547278401 -72.992367544258741 0 -72.992367544258741 11.919625784656091 0 0 0 0 -12.195524802969885 -68.045538452934125 0 -68.045538452934125 29.746996026924535 0 0 0 0 -45.551640845136717 -116.32433842443788 0 -116.32433842443788 -11.339630605012644 0 0 0 0 -25.317144292559533 -94.913291245597975 0 -94.913291245597975 -12.779820341300365 0 0 0 0 -36.015167174336966 -111.67097578979337 0 -111.67097578979337 -39.093604428147955 0 0 0 0 -44.251608439510164 -117.22891271865228 0 -117.22891271865228 -11.017156280009658 0 0 0 0 -75.58423512999434 -152.0054278829939 0 -152.0054278829939 -45.825108893861398 0 0 0 0 -80.44413963212719 -143.83051297653037 0 -143.83051297653037 -59.414411829486198 0 0 0 0 -27.08557042395114 -112.73261745297714 0 -112.73261745297714 -36.82130063886143 0 0 0 0 -68.093452171175159 -150.63496350609603 0 -150.63496350609603 -39.236912488733651 0 0 0 0 -51.742087696591625 -125.37844984030016 0 -125.37844984030016 -26.156501636678513 0 0 0 0 -6.2708093168548658 -123.9912032572056 0 -123.9912032572056 -37.217123006943439 0 0 0 0 -29.929482445440954 -96.85389616095199 0 -96.85389616095199 18.337425018128215 0 0 0 0 -108.41752066250774 -217.15906456689481 0 -217.15906456689481 -94.137677598351729 0 0 0 0 -51.201350255592843 -168.60303161197226 0 -168.60303161197226 -86.451926725771045 0 0 0 0 -70.647557545511518 -174.49625156076581 0 -174.49625156076581 -55.803772897899989 0 0 0 0 -23.818399005140236 -127.78490650204185 0 -127.78490650204185 -51.498302038016845 0 0 0 0 -33.421703317362699 -145.47168359815532 0 -145.47168359815532 -62.655954120738897 0 0 0 0 -56.350731648635701 -173.32816942447607 0 -173.32816942447607 -73.20988239102735 0 0 0 0 -60.057336009034771 -181.73801615804587 0 -181.73801615804587 -83.698772494906734 0 0 0 0 -127.54192521848017 -198.38141279196498 0 -198.38141279196498 -57.654865359683754 0 0 0 0 -150.46794971870258 -210.67856164643672 0 -210.67856164643672 -58.563840168673778 0 0 0 0 -142.25674597933539 -219.04507229855153 0 -219.04507229855153 -70.522124421044282 0 0 0 0 -102.47986363359087 -168.64532121637239 0 -168.64532121637239 -54.899719742166781 0 0 0 0 -120.28509553725598 -196.06347187609572 0 -196.06347187609572 -70.329112558987617 0 0 0 0 -180.86220668225724 -205.61836644302366 0 -205.61836644302366 -69.775694072533952 0 0 0 0 -174.40689713813481 -177.58892335320161 0 -177.58892335320161 -54.130869187778444 0 0 0 0 -145.2553341239618 -156.69435388617421 0 -156.69435388617421 -67.553675724546338 0 0 0 0 -115.75165725016268 -182.83585881494946 0 -182.83585881494946 -67.790444499196383 0 0 0 0 -89.946008193328453 -137.84519464983623 0 -137.84519464983623 -64.016967786745226 0 0 0 0 -86.670749797121971 -167.96941537603561 0 -167.96941537603561 -83.5674875716104 0 0 0 0 -138.83793940367468 -149.75432719532819 0 -149.75432719532819 -73.121863800872234 0 0 0 0 -165.86650026998541 -196.24925398754749 0 -196.24925398754749 -83.715978109846219 0 0 0 0 -197.5186737654949 -165.86765499888588 0 -165.86765499888588 -78.186270721911569 0 0 0 0 -96.067196298623458 -162.789664667529 0 -162.789664667529 -98.266703590075849 0 0 0 0 -181.18016505843116 -170.71104545907292 0 -170.71104545907292 -71.836433091073559 0 0 0 0 -191.22662950325503 -147.64708060718476 0 -147.64708060718476 -74.781931034376612 0 0 0 0 -291.68862441629608 -205.63162665397795 0 -205.63162665397795 -66.848552588872735 0 0 0 0 -39.915190322455601 -130.28963861391458 0 -130.28963861391458 -107.96516449286537 0 0 0 0 -55.69787045592966 -156.14202421827758 0 -156.14202421827758 -99.474764104536007 0 0 0 0 -115.14073434183229 -124.79083376657763 0 -124.79083376657763 -79.585404454417585 0 0 0 0 -96.815391947966418 -141.316217093663 0 -141.316217093663 -81.477311498465497 0 0 0 0 -37.058505630697255 -151.51752981135337 0 -151.51752981135337 -88.38040871514022 0 0 0 0 -85.205805038916878 -143.83787109426885 0 -143.83787109426885 -55.235751630480081 0 0 0 0 -43.421685782799614 -130.35233673392304 0 -130.35233673392304 -64.910563486129831 0 0 0 0 -77.813954113429645 -152.9523438099186 0 -152.9523438099186 -46.329787871238295 0 0 0 0 -44.805144298181403 -139.52865750986348 0 -139.52865750986348 -12.820550445079212 0 0 0 0 -12.494445411593915 -123.03409051002382 0 -123.03409051002382 -50.987316009117421 0 0 0 0 -11.17768779767357 -163.356511397551 0 -163.356511397551 41.432739311045225 0 0 0 0 -39.851288741632743 -145.80806521092927 0 -145.80806521092927 -45.323822211928928 0 0 0 0 65.533852075863251 -143.36903104758449 0 -143.36903104758449 -58.528505164649687 0 0 0 0 16.490295081552176 -150.00610005080853 0 -150.00610005080853 -58.903344166934403 0 0 0 0 27.332043194533981 -139.75781857967991 0 -139.75781857967991 -119.73227115759619 0 0 0 0 19.301929993373051 -158.6829840977116 0 -158.6829840977116 -97.133003132134036 0 0 0 0 16.021391946690528 -135.8039632935338 0 -135.8039632935338 -121.01631458917473 0 0 0 0 18.79703027591313 -125.24346647115271 0 -125.24346647115271 -113.6015833982492 0 0 0 0 25.909602611314313 -274.45368535356681 0 -274.45368535356681 -434.08755838340403 0 0 0 0 52.217017519273213 -113.40703243105418 0 -113.40703243105418 -107.27078190145039 0 0 0 0 27.96542404487991 -145.89360034968013 0 -145.89360034968013 -73.944237947296642 0 0 0 0 6.5505851764437466 -50.648215285371862 0 -50.648215285371862 -15.174084311067418 0 0 0 0 -150.42348332385882 -76.015030554919576 0 -76.015030554919576 8.4724479880901526 0 0 0 0 -89.286361211816256 -132.63119217547046 0 -132.63119217547046 -72.24572442556746 0 0 0 0 -298.55024094142209 -137.73196214468226 0 -137.73196214468226 -13.166594843485655 0 0 0 0 -266.0608739858726 -171.30102146602121 0 -171.30102146602121 -49.824992893154558 0 0 0 0 -182.44772141385329 -115.74635153449253 0 -115.74635153449253 -52.737272814487369 0 0 0 0 -288.129604949434 -186.81619097547446 0 -186.81619097547446 -62.53534838934138 0 0 0 0 -129.34801357518154 -155.42326607689211 0 -155.42326607689211 -85.308204539131111 0 0 0 0 -78.8657227571166 -101.78931705276773 0 -101.78931705276773 -65.913121062134451 0 0 0 0 -35.732450778232305 -83.07289613744706 0 -83.07289613744706 -102.22214240301946 0 0 0 0 -134.06546590242215 -130.59145600934971 0 -130.59145600934971 -119.47971980960392 0 0 0 0 -110.59971334063448 -174.73999869976433 0 -174.73999869976433 -40.342870624420357 0 0 0 0 2.1969687925302424 -67.20081910717272 0 -67.20081910717272 -136.91603685982773 0 0 0 0 -1.701743774676288 -112.90250992408801 0 -112.90250992408801 -35.54397274252733 0 0 0 0 -0.60732628362787011 0.22255693095343076 0 0.22255693095343076 -0.25675666878204595 0 0 0 0 -3.2848788789633545 -5.2064847813708184 0 -5.2064847813708184 45.837842343303237 0 0 0 0 34.712049550646043 1.903338505640022 0 1.903338505640022 -249.253214137334 0 0 0 0 -129.91875847108895 -280.80131989371148 0 -280.80131989371148 -156.5854368016162 0 0 0 0 -3.7638748121411112 -0.50156592075319395 0 -0.50156592075319395 0.51237079040237177 0 0 0 0 -45.895312629494583 -213.49981018610924 0 -213.49981018610924 -277.7728749921298 0 0 0 0 68.007521371946495 -42.220975540907602 0 -42.220975540907602 -185.65399637947485 0 0 0 0 0.22647124476551994 0.76918882383209741 0 0.76918882383209741 -0.79310493717323283 0 0 0 0 -1.0633051700934288 0.16444418014227935 0 0.16444418014227935 -0.27839805689145081 0 0 0 0 -40.545960307281348 -32.499012038420915 0 -32.499012038420915 32.684327295915864 0 0 0 0 -223.49461268186315 -184.07141227542297 0 -184.07141227542297 -130.06754691702008 0 0 0 0 -32.617301092554044 -103.16236755373575 0 -103.16236755373575 -37.386529822470038 0 0 0 0 13.382792189360771 -48.141022927050699 0 -48.141022927050699 -53.63433632280794 0 0 0 0 18.466756005545903 -93.426281804209793 0 -93.426281804209793 147.04350660524142 0 0 0 0 -85.776954701970681 -152.10166260974529 0 -152.10166260974529 -102.22436647224822 0 0 0 0 -69.560987457487499 -80.003646509960163 0 -80.003646509960163 -21.201963108262134 0 0 0 0 5.4853141318156844 -5.1700848276206912 0 -5.1700848276206912 4.8694813077601395 0 0 0 0 5.1061165866758529 55.327027022652715 0 55.327027022652715 166.50437235305981 0 0 0 0 -54.425078448635759 -74.666890289201547 0 -74.666890289201547 -69.543045010247624 0 0 0 0 -100.86727047697059 -124.95582694391032 0 -124.95582694391032 -61.128538927820046 0 0 0 0 11.600268966059957 -10.674391384873161 0 -10.674391384873161 64.065429893270448 0 0 0 0 8.7639288450835124 -8.5227327694273498 0 -8.5227327694273498 5.8460996985152498 0 0 0 0 -148.95738539826561 -75.401553171685009 0 -75.401553171685009 -22.066455048850912 0 0 0 0 -0.012659251543013283 -1.6346481965502875 0 -1.6346481965502875 2.8989303910215227 0 0 0 0 -9.2320187645891565 -1.5672592797081961 0 -1.5672592797081961 70.07082679137784 0 0 0 0 -2.7645148852316197 -19.319894198326438 0 -19.319894198326438 100.45213016418711 0 0 0 0 -70.289685186522547 -70.40452449679492 0 -70.40452449679492 88.880603095986771 0 0 0 0 -19.357558395095111 -12.703424880742205 0 -12.703424880742205 140.18655590696312 0 0 0 0 -33.586752487752165 -2.4232909366960484 0 -2.4232909366960484 133.107297533581 0 0 0 0 -73.116932797478512 -217.39951955922697 0 -217.39951955922697 60.895387784824834 0 0 0 0 -55.532262429325783 -193.66940402895398 0 -193.66940402895398 -53.533327001179714 0 0 0 0 19.683238410532567 -44.241554830624338 0 -44.241554830624338 62.020070019440297 0 0 0 0 94.252579173760751 -221.61599352361418 0 -221.61599352361418 72.207142828659926 0 0 0 0 119.81430765370533 -147.94357453189559 0 -147.94357453189559 -156.43999426680557 0 0 0 0 34.250290411237074 152.61594022724944 0 152.61594022724944 454.61567353682494 0 0 0 0 2.9383420953287924 -1.5826651164020298 0 -1.5826651164020298 0.85980602989528876 0 0 0 0 105.73023114046373 -246.42591726418959 0 -246.42591726418959 288.66627644021287 0 0 0 0 214.02744957192408 23.764370040738868 0 23.764370040738868 71.346047110231666 0 0 0 0 8.1441198366737808 -43.694723595977393 0 -43.694723595977393 22.937706102858101 0 0 0 0 20.909561166084131 -207.62669064441661 0 -207.62669064441661 -46.25644669223766 0 0 0 0 -2.7518512960091925 -7.6341232358900193 0 -7.6341232358900193 10.372549301748087 0 0 0 0 56.02368161882805 -63.451318477582959 0 -63.451318477582959 -1419.1897428649609 0 0 0 0 -160.89719791696552 -67.431016346929027 0 -67.431016346929027 60.602627182332071 0 0 0 0 27.829594092073989 -55.227878476364985 0 -55.227878476364985 53.638698717109065 0 0 0 0 99.67420983070042 -40.279075224122153 0 -40.279075224122153 -89.562486530336628 0 0 0 0 22.51596691354473 -59.094539485956041 0 -59.094539485956041 -29.293593445401942 0 0 0 0 -194.5023589482953 161.37101636311854 0 161.37101636311854 -218.81318682254278 0 0 0 0 5.8461636622179185 -0.80716072847388887 0 -0.80716072847388887 -21.212907845778709 0 0 0 0 -37.23088636952798 -245.83402181094539 0 -245.83402181094539 -229.15099861121416 0 0 0 0 22.618292545948009 -46.673353534154643 0 -46.673353534154643 65.83329089875474 0 0 0 0 -78.905711585139215 -113.34203708873792 0 -113.34203708873792 18.099749405228067 0 0 0 0 90.759542163592414 -217.84870190095353 0 -217.84870190095353 -964.9508754932267 0 0 0 0 -171.13068607792945 -435.38326974625215 0 -435.38326974625215 -322.15355518231809 0 0 0 0 -7.6180791864680941 -165.01930250758232 0 -165.01930250758232 -336.09879169455417 0 0 0 0 93.091703607037743 -175.45647066821368 0 -175.45647066821368 -420.73185368542181 0 0 0 0 10.227197945786429 -213.94269598216192 0 -213.94269598216192 -300.7995843360477 0 0 0 0 -74.889502981714031 -150.10645056856447 0 -150.10645056856447 -344.5595469445243 0 0 0 0 4.4423780422148411 -161.08837430986205 0 -161.08837430986205 -268.17190595596276 0 0 0 0 -43.381053844790586 -177.42873381611571 0 -177.42873381611571 -149.32313961453474 0 0 0 0 8.2295345704624197 -218.41292694040203 0 -218.41292694040203 -353.78902517985534 0 0 0 0 -50.456816430589242 -194.32951600461456 0 -194.32951600461456 -277.77472606803622 0 0 0 0 -143.08809395799472 -295.73191989962379 0 -295.73191989962379 -278.92955392424119 0 0 0 0 -179.92132639462943 -341.88014313539315 0 -341.88014313539315 -148.53202614318104 0 0 0 0 -230.69663903511901 -464.99212761302169 0 -464.99212761302169 -336.86406657668158 0 0 0 0 -148.95365332904839 -405.55861054601792 0 -405.55861054601792 -756.99117346696221 0 0 0 0 -341.1369157398658 -294.11050485190935 0 -294.11050485190935 -361.68354521577567 0 0 0 0 -100.40014855365007 -312.62045291639697 0 -312.62045291639697 -439.5914886042101 0 0 0 0 -121.37984937681904 -309.38702105805169 0 -309.38702105805169 -293.16247597050824 0 0 0 0 83.331624662528611 3.551557961358526 0 3.551557961358526 -286.29268380445501 0 0 0 0 -96.860465204342574 -221.70514061397941 0 -221.70514061397941 -261.30448404666822 0 0 0 0 68.018864390040108 -159.98051116112038 0 -159.98051116112038 -525.1854236516956 0 0 0 0 -97.164081145910657 -375.28234331913865 0 -375.28234331913865 -475.43077595558134 0 0 0 0 -64.92062658949726 -41.304302802074744 0 -41.304302802074744 83.764771987594145 0 0 0 0 -472.24924685481528 -181.22354450712555 0 -181.22354450712555 70.954219575161915 0 0 0 0 -3.6025298735587512 -0.91566022305792671 0 -0.91566022305792671 -2.2561310075108381 0 0 0 0 -2.49117670496031 -14.198832004265654 0 -14.198832004265654 15.442379817236791 0 0 0 0 -14.379376978202345 -98.732999260580982 0 -98.732999260580982 43.575687203143389 0 0 0 0 -3.5879326890208176 -27.437911493776483 0 -27.437911493776483 17.729326022783425 0 0 0 0 18.042152556387492 -41.489388519282173 0 -41.489388519282173 58.974053540307416 0 0 0 0 4.411925871020685 -148.90802979644377 0 -148.90802979644377 -161.26093676439996 0 0 0 0 34.929142319509992 -40.14087019802173 0 -40.14087019802173 -24.832256956873607 0 0 0 0 8.4344953321528067 -7.5412363284195933 0 -7.5412363284195933 6.5399866347409379 0 0 0 0 -70.817921627264695 -266.92953009275925 0 -266.92953009275925 -364.88702337362702 0 0 0 0 160.74440309711281 -259.02165357050308 0 -259.02165357050308 -764.63117854906886 0 0 0 0 -81.395595740621502 -77.19091879730604 0 -77.19091879730604 -48.998984254734751 0 0 0 0 -102.43455220921896 -88.580009589522888 0 -88.580009589522888 -262.00661431175467 0 0 0 0 -34.434631201251705 -54.136109531225657 0 -54.136109531225657 -7.7993528393435554 0 0 0 0 -10.922436964487133 -72.803120273219974 0 -72.803120273219974 -510.71338752806878 0 0 0 0 -105.83611762915825 -178.92959844503093 0 -178.92959844503093 -599.56193355313189 0 0 0 0 5.2203234665114451 -5.3797772987664771 0 -5.3797772987664771 1.4400604984243692 0 0 0 0 1.8488076059006744 -1.3966479297396077 0 -1.3966479297396077 0.16806029471119288 0 0 0 0 -105.61613179746928 -170.39714516341064 0 -170.39714516341064 -551.87219533245661 0 0 0 0 -352.5896835231822 -160.25641428005525 0 -160.25641428005525 -366.544733585637 0 0 0 0 -179.90890073463379 -284.95109861661513 0 -284.95109861661513 -592.40959730893155 0 0 0 0 -209.40520682611896 -223.67575967725043 0 -223.67575967725043 -148.68519071000628 0 0 0 0 -218.71053120063152 -377.15105058562585 0 -377.15105058562585 -100.75088514406343 0 0 0 0 -133.24577505681737 -168.59295598750123 0 -168.59295598750123 11.855002899701503 0 0 0 0 -286.20234185455047 -505.78544053409405 0 -505.78544053409405 74.425007982628131 0 0 0 0 -189.47137372433008 -280.17879018778967 0 -280.17879018778967 -197.63052397457795 0 0 0 0 20.483235321429675 -243.36674135519843 0 -243.36674135519843 4.9360930040929816 0 0 0 0 78.720772689375735 -115.98599166920758 0 -115.98599166920758 -276.51335808653948 0 0 0 0 -101.97741764816783 -269.06268186639954 0 -269.06268186639954 54.393335367607506 0 0 0 0 182.4485209863924 -137.96073968015662 0 -137.96073968015662 90.418935779232925 0 0 0 0 217.07986855335184 -509.40892266364244 0 -509.40892266364244 308.87921328029779 0 0 0 0 57.55433212054777 -233.39874102598696 0 -233.39874102598696 60.954425510513829 0 0 0 0 -21.378340356313856 -126.69435449923913 0 -126.69435449923913 159.76924241385859 0 0 0 0 -34.502975627132145 -59.533853097132109 0 -59.533853097132109 -68.312398649886276 0 0 0 0 -218.16947972247726 -231.75730854762151 0 -231.75730854762151 397.33345417179498 0 0 0 0 -11.110782413594762 -4.6558297478085926 0 -4.6558297478085926 19.228423508243885 0 0 0 0 62.34861472324701 -125.86487445529565 0 -125.86487445529565 343.87520883857906 0 0 0 0 -47.603124060704431 -76.862386022550709 0 -76.862386022550709 5.0180339667285807 0 0 0 0 88.970633121040009 -100.78361119015244 0 -100.78361119015244 -316.57816496321539 0 0 0 0 -26.438472434914729 -208.16516768880956 0 -208.16516768880956 -164.68139923418721 0 0 0 0 -14.473968405087362 -199.11625492549956 0 -199.11625492549956 -161.62157378701522 0 0 0 0 26.716971023176029 -202.27736883509385 0 -202.27736883509385 -218.69912573104375 0 0 0 0 -64.248459077836742 -241.35121994211113 0 -241.35121994211113 -165.82657230848599 0 0 0 0 -25.996862099865723 -50.875755610285196 0 -50.875755610285196 -69.913284452666915 0 0 0 0 4.2880005472748337 -1.2656693796880383 0 -1.2656693796880383 -18.288650658094802 0 0 0 0 -235.53883973037591 -328.07749910915118 0 -328.07749910915118 508.61968594472819 0 0 0 0 -38.293845960244653 -209.26410487436078 0 -209.26410487436078 -168.89485676118602 0 0 0 0 -108.31475953773406 -160.20957033548393 0 -160.20957033548393 -182.06421122777829 0 0 0 0 -147.31190210451314 -632.30170090578758 0 -632.30170090578758 -476.38796577874018 0 0 0 0 -138.28663191010128 -491.42391807873992 0 -491.42391807873992 -306.61238260408572 0 0 0 0 219.17605656882733 -184.28357840204808 0 -184.28357840204808 -278.39907831754317 0 0 0 0 -116.17429455475212 -231.44827127089593 0 -231.44827127089593 -93.472013987936407 0 0 0 0 -86.667173194397037 -286.40848826018123 0 -286.40848826018123 -48.946936461048608 0 0 0 0 7.767725249294017 -193.36154076911771 0 -193.36154076911771 116.87271638332845 0 0 0 0 -44.175061986446963 -84.598361549687525 0 -84.598361549687525 97.82209889844853 0 0 0 0 -99.392080968638766 -67.293791599822725 0 -67.293791599822725 -49.368850562150328 0 0 0 0 -15.264226143163484 -49.68849841731668 0 -49.68849841731668 -63.135884809830571 0 0 0 0 -22.201822852577607 -26.328286131976711 0 -26.328286131976711 -36.200736678058092 0 0 0 0 -19.514272028772837 -40.77829250690052 0 -40.77829250690052 15.652501778452766 0 0 0 0 -32.407518413361686 -51.601121557292572 0 -51.601121557292572 -22.080431461294211 0 0 0 0 -103.40388801800145 -80.483584104942565 0 -80.483584104942565 3.2256250584614463 0 0 0 0 15.580072246246061 -44.473727878751305 0 -44.473727878751305 -5.2182654612588522 0 0 0 0 22.01886994053288 -23.14702504453329 0 -23.14702504453329 10.57358417809612 0 0 0 0 0.49506239305513589 -16.477158080102839 0 -16.477158080102839 -2.5472743184083626 0 0 0 0 13.672010264985147 8.8453247456291137 0 8.8453247456291137 -62.089287371767568 0 0 0 0 -39.712915535128559 -89.361168887173335 0 -89.361168887173335 -49.445172505114897 0 0 0 0 1.8543316476721827 -2.3182715473802347 0 -2.3182715473802347 3.8065265869675358 0 0 0 0 233.58361511566909 66.978228479132667 0 66.978228479132667 -31.761676245098442 0 0 0 0 36.262916486724862 -33.492574707848689 0 -33.492574707848689 -9.2090457984095337 0 0 0 0 125.96844234503806 -134.00172842388656 0 -134.00172842388656 -104.70819099270739 0 0 0 0 -130.02874542004247 -172.86260890004382 0 -172.86260890004382 -94.007965883814904 0 0 0 0 15.246371410372376 -117.02278553932683 0 -117.02278553932683 -83.089401177079708 0 0 0 0 -45.027901007015316 -182.23558461346238 0 -182.23558461346238 -122.55313770553039 0 0 0 0 -17.122629301075904 -205.45299018547075 0 -205.45299018547075 -103.27111079804672 0 0 0 0 -28.367646476552181 -149.5814087592953 0 -149.5814087592953 -90.080026701478346 0 0 0 0 -155.03580879868241 -205.72744005135246 0 -205.72744005135246 -40.850408201982646 0 0 0 0 14.376117403196986 -201.04747249128923 0 -201.04747249128923 -116.45245562085256 0 0 0 0 336.43883492499299 -120.6461393143145 0 -120.6461393143145 -165.02856448316925 0 0 0 0 1.0069890057784505 -180.52131785653592 0 -180.52131785653592 -101.97061667870366 0 0 0 0 -29.521076203382108 -176.00141905277451 0 -176.00141905277451 -126.9165649204142 0 0 0 0 -84.035900497088733 -97.501436280749658 0 -97.501436280749658 -95.724519146777311 0 0 0 0 -26.413993798643787 -141.07770240087757 0 -141.07770240087757 -161.35085019471444 0 0 0 0 -46.717659731654976 -204.75086171781754 0 -204.75086171781754 -153.96864153848219 0 0 0 0 37.75961359896246 -70.098532558205079 0 -70.098532558205079 29.034519624425229 0 0 0 0 58.067083333538903 -69.554555569809963 0 -69.554555569809963 14.337270652445568 0 0 0 0 123.25069942531991 -84.796332788138898 0 -84.796332788138898 15.991362074666313 0 0 0 0 11.728264008149381 -10.942132675473772 0 -10.942132675473772 53.581235728041065 0 0 0 0 121.72240528171096 -5.6069896989301924 0 -5.6069896989301924 -6.1000854085830838 0 0 0 0 70.745801074932388 6.8268707692095632 0 6.8268707692095632 -6.2798810101898823 0 0 0 0 8.603915821956889 -3.6766326135723517 0 -3.6766326135723517 -4.7525929038553159 0 0 0 0 7.9523691056101597 -29.469040069066978 0 -29.469040069066978 81.237893165925925 0 0 0 0 5.401729281675216 -21.413351364198206 0 -21.413351364198206 67.785932367760324 0 0 0 0 14.715312473282097 -10.839608216717977 0 -10.839608216717977 18.472945557631604 0 0 0 0 10.858242790629447 -97.604767347712368 0 -97.604767347712368 63.154116261810486 0 0 0 0 18.07765116677183 -32.595646133283481 0 -32.595646133283481 58.844755821340129 0 0 0 0 -265.44924121103213 -165.66391406156652 0 -165.66391406156652 39.369104263050758 0 0 0 0 -66.718541840386933 -62.53385683710394 0 -62.53385683710394 56.445252556644846 0 0 0 0 -17.311614374535566 -86.173887675319747 0 -86.173887675319747 58.498997723083448 0 0 0 0 3.2824321172081454 -83.091594320502537 0 -83.091594320502537 58.912265130084052 0 0 0 0 38.106031204276462 -78.605865761640047 0 -78.605865761640047 24.400020337454407 0 0 0 0 36.849934133460138 -49.146737115850485 0 -49.146737115850485 58.145257818746813 0 0 0 0 23.913064163676609 -62.073702003292055 0 -62.073702003292055 29.644250533348895 0 0 0 0 13.819888969184831 -73.338458409787563 0 -73.338458409787563 39.276114680425962 0 0 0 0 27.345266741758678 -70.805208273170138 0 -70.805208273170138 39.574662803588581 0 0 0 0 31.313883666671245 -56.744778310463545 0 -56.744778310463545 51.699459922211332 0 0 0 0 42.487488724291325 -65.818296766195999 0 -65.818296766195999 21.114270766956906 0 0 0 0 21.516377877938794 -88.85357635265791 0 -88.85357635265791 23.895383498434967 0 0 0 0 26.920048133324599 -83.31189343486767 0 -83.31189343486767 48.995016979068168 0 0 0 0 -26.147141890396597 -49.78538895022939 0 -49.78538895022939 70.211106684524566 0 0 0 0 15.133039219628699 -23.60973136283792 0 -23.60973136283792 -12.846242930812878 0 0 0 0 -7.6524134491650813 -14.717405786018688 0 -14.717405786018688 -8.3829280582832055 0 0 0 0 33.805015087738866 -81.742347354134836 0 -81.742347354134836 47.154057353845928 0 0 0 0 -6.591100244150212 -2.5209014777694225 0 -2.5209014777694225 3.2300335749708466 0 0 0 0 100.27243353209633 -87.053990266882465 0 -87.053990266882465 48.437984247037093 0 0 0 0 23.064986166760718 -82.171048081359004 0 -82.171048081359004 52.6908500283389 0 0 0 0 36.000068878056481 -80.033549769541423 0 -80.033549769541423 48.002099520312186 0 0 0 0 24.492402924588532 -63.560625724682723 0 -63.560625724682723 50.439597602382491 0 0 0 0 35.605347381802858 -77.453543207428083 0 -77.453543207428083 44.919566053944436 0 0 0 0 11.16424548253417 -74.507911693988717 0 -74.507911693988717 41.771727208104494 0 0 0 0 34.181635000328242 -72.455869380393779 0 -72.455869380393779 38.290293446974829 0 0 0 0 0.18616976129487739 -95.300664920500367 0 -95.300664920500367 43.710915570278303 0 0 0 0 30.043197641020924 -95.130022731250278 0 -95.130022731250278 39.874646401109203 0 0 0 0 -12.947185278042525 5.2495859281154935 0 5.2495859281154935 37.110555762232252 0 0 0 0 3.9993183726450781 -0.28202121203714547 0 -0.28202121203714547 -3.2733920426441969 0 0 0 0 -89.90851139301958 -112.31571556964718 0 -112.31571556964718 21.285528240630811 0 0 0 0 0.70375751356694138 0.87359065027658822 0 0.87359065027658822 -0.71160283187432327 0 0 0 0 148.25025746915708 -179.34269476377813 0 -179.34269476377813 -374.07358665374068 0 0 0 0 -9.8452791806776077 -88.4562144342799 0 -88.4562144342799 285.9985005983508 0 0 0 0 -60.402088671504316 -191.84836926223034 0 -191.84836926223034 157.32939692336913 0 0 0 0 130.69117580801321 -253.67109285225706 0 -253.67109285225706 97.303374226634332 0 0 0 0 -283.57681615668753 -204.55560671690296 0 -204.55560671690296 250.75416587118889 0 0 0 0 -13.765946765141052 32.244381477694333 0 32.244381477694333 -101.89365763733804 0 0 0 0 -342.04324160305987 99.741822293746736 0 99.741822293746736 89.58105165135521 0 0 0 0 -3.501906167815136 -2.1979304004026972 0 -2.1979304004026972 -1.0421005509984624 0 0 0 0 -18.911087806145588 -64.708775001641243 0 -64.708775001641243 55.747799413908069 0 0 0 0 2.3701014756261429 -90.188388683032372 0 -90.188388683032372 50.287634998341673 0 0 0 0 -8.4176934022227385 -6.5773095565498352 0 -6.5773095565498352 -5.5219956938829284 0 0 0 0 11.658126744969195 5.0102030992675282 0 5.0102030992675282 -18.922084615242056 0 0 0 0 28.775710724188684 -37.709058519018072 0 -37.709058519018072 -4.0190352334557247 0 0 0 0 24.807832112586766 -32.064458576027391 0 -32.064458576027391 16.38898406752196 0 0 0 0 27.826831490536279 -37.833499607200793 0 -37.833499607200793 -2.0168660731569616 0 0 0 0 1.9678153990207647 -57.074326015970655 0 -57.074326015970655 85.768551829434728 0 0 0 0 63.648577149531775 -29.353739028189921 0 -29.353739028189921 -16.995540222469572 0 0 0 0 71.589364911677876 -98.528294317324821 0 -98.528294317324821 57.996840848645661 0 0 0 0 -14.82729486654469 -9.7658926434199458 0 -9.7658926434199458 -8.916068961841674 0 0 0 0 14.312355079258936 -45.408882432956702 0 -45.408882432956702 41.26262403751025 0 0 0 0 3.8233424540250098 -22.481308868879296 0 -22.481308868879296 -16.958077195979378 0 0 0 0 -76.420898243362899 -28.217732564135076 0 -28.217732564135076 -33.464778687786747 0 0 0 0 27.513571753479482 -173.85462676058341 0 -173.85462676058341 83.946971580733106 0 0 0 0 -11.511384192912757 -9.6622423128812187 0 -9.6622423128812187 -1.5505394820507234 0 0 0 0 14.350295276807628 -48.021657607468256 0 -48.021657607468256 46.999611359853589 0 0 0 0 5.174702836281952 -22.207251061067268 0 -22.207251061067268 -25.44473403379633 0 0 0 0 -57.66073720683562 -4.4511439667312516 0 -4.4511439667312516 144.48155890331327 0 0 0 0 -33.228460702717712 -1.929861844620973 0 -1.929861844620973 115.76587591699717 0 0 0 0 159.51706333318725 120.25212495902815 0 120.25212495902815 -242.00704449221303 0 0 0 0 -278.32663147956919 -59.621014750857285 0 -59.621014750857285 102.70885663484751 0 0 0 0 0.75387721993329393 -1.5576701135881024 0 -1.5576701135881024 3.7206650257338936 0 0 0 0 8.6832438445635489 -131.64652240884425 0 -131.64652240884425 -107.67938647519622 0 0 0 0 1.1366685454057119 -9.2058775728594924 0 -9.2058775728594924 12.202076693724614 0 0 0 0 -8.6935520826918946 -92.139626597664574 0 -92.139626597664574 -10.039755960073308 0 0 0 0 25.073747508518863 -65.318018902275071 0 -65.318018902275071 -87.63266604110413 0 0 0 0 -22.129075340864802 -59.861321763361957 0 -59.861321763361957 -81.740315720922808 0 0 0 0 29.33394502092051 -103.12346049418647 0 -103.12346049418647 -141.64681962911709 0 0 0 0 109.31880162891321 -353.17163899910611 0 -353.17163899910611 -232.86046922420064 0 0 0 0 233.24315099223168 514.12684120525591 0 514.12684120525591 9.8379999032576961 0 0 0 0 7.570125178791443 -9.0643920015793498 0 -9.0643920015793498 5.6172595504800427 0 0 0 0 4.5927135875754175 -49.389873721312597 0 -49.389873721312597 27.430731669366651 0 0 0 0 22.113766297752576 -29.003103089270159 0 -29.003103089270159 24.231204086200492 0 0 0 0 14.81036872508156 -40.942133442959118 0 -40.942133442959118 26.190841433530295 0 0 0 0 -10.885147747655822 -18.74633978208233 0 -18.74633978208233 -3.0132843226551671 0 0 0 0 14.793829037742398 -39.822045508519295 0 -39.822045508519295 28.86187281257844 0 0 0 0 24.301694904588658 -70.331432467092782 0 -70.331432467092782 28.037281148053808 0 0 0 0 31.950503576610188 -27.678053115024849 0 -27.678053115024849 17.690586139635002 0 0 0 0 -201.77574987889602 -306.94504370017944 0 -306.94504370017944 132.25146432351175 0 0 0 0 35.354869280883577 -37.630895505996705 0 -37.630895505996705 -3.4717312315278832 0 0 0 0 11.497072741483862 -43.095175347309123 0 -43.095175347309123 41.119628128293698 0 0 0 0 78.95092883540201 16.2291314393824 0 16.2291314393824 -250.94495697359162 0 0 0 0 -70.419696413104248 -40.017094080203606 0 -40.017094080203606 6.5799687764738337 0 0 0 0 4.8646823390297271 -21.589335531411223 0 -21.589335531411223 -18.935015997271449 0 0 0 0 11.583304367437563 -48.973008481967071 0 -48.973008481967071 37.610561368095659 0 0 0 0 10.847939552369922 -28.129638475481478 0 -28.129638475481478 -1.6905933510702766 0 0 0 0 14.194673341073212 -66.166026859442354 0 -66.166026859442354 31.359972146496148 0 0 0 0 -21.1515831854922 -68.145179379338515 0 -68.145179379338515 34.31863845564294 0 0 0 0 75.78015060220423 24.302307408943307 0 24.302307408943307 -305.71896915130492 0 0 0 0 52.361201059538871 -138.45413196819936 0 -138.45413196819936 241.42285030646053 0 0 0 0 -1.0586758777790237 -0.51571647775601548 0 -0.51571647775601548 -0.17706142558860449 0 0 0 0 58.430172609521833 -151.12982012116481 0 -151.12982012116481 121.43838605689234 0 0 0 0 0.40162084065389081 1.5686255892686205 0 1.5686255892686205 0.49792219333092547 0 0 0 0 42.34653227079616 -170.232727396673 0 -170.232727396673 326.59519427502528 0 0 0 0 -1.6621996616540855 -22.830516377995082 0 -22.830516377995082 18.458400241623167 0 0 0 0 182.21184093976626 -130.3079116892477 0 -130.3079116892477 -91.840952149301302 0 0 0 0 52.500081504520494 -37.118623289938114 0 -37.118623289938114 14.517341171605949 0 0 0 0 34.270921936093316 -50.055711387741226 0 -50.055711387741226 51.591470834399701 0 0 0 0 76.367704656865499 -105.37362527263122 0 -105.37362527263122 -1.8545360713687842 0 0 0 0 86.487686319698696 -79.509044832455402 0 -79.509044832455402 65.543095922781504 0 0 0 0 154.81040141307312 22.826163458772498 0 22.826163458772498 -50.795691825682297 0 0 0 0 41.386415081405175 -50.871838367513192 0 -50.871838367513192 49.245244506906602 0 0 0 0 38.253318004853099 -90.9415958372565 0 -90.9415958372565 0.4106390109664062 0 0 0 0 70.96018004760117 -63.622659782475239 0 -63.622659782475239 -214.73623928776215 0 0 0 0 -22.547961362652131 -43.884025675433804 0 -43.884025675433804 -3.1333382847660687 0 0 0 0 80.134652957436629 -162.86278336969553 0 -162.86278336969553 10.097820082795806 0 0 0 0 98.393689793883823 -94.079266679953435 0 -94.079266679953435 -17.089771530307189 0 0 0 0 97.752157997110771 -83.123240882030586 0 -83.123240882030586 76.657941358891549 0 0 0 0 106.7559620052707 -80.906577978323185 0 -80.906577978323185 60.120974156008742 0 0 0 0 79.905893404064955 -161.01769280995904 0 -161.01769280995904 102.27914783399319 0 0 0 0 106.0450621784239 -72.096836394463025 0 -72.096836394463025 127.34920168996177 0 0 0 0 132.37996738539368 -87.008798643586488 0 -87.008798643586488 62.278380493802615 0 0 0 0 139.25954798322709 -44.914653132302192 0 -44.914653132302192 24.987929938455636 0 0 0 0 121.16449764613208 -46.939580583835777 0 -46.939580583835777 74.040240382197226 0 0 0 0 153.21875477077356 35.787842002064281 0 35.787842002064281 108.96137482172344 0 0 0 0 145.22154102611239 -16.668533832173125 0 -16.668533832173125 72.756921962412889 0 0 0 0 63.809886954149988 -52.104287812231632 0 -52.104287812231632 155.52491055004066 0 0 0 0 53.78186402445499 -23.315792960220278 0 -23.315792960220278 192.18301056671771 0 0 0 0 58.488144642207772 43.566122679418186 0 43.566122679418186 193.60490601550555 0 0 0 0 57.523310306976782 50.657692422551918 0 50.657692422551918 141.74696591295651 0 0 0 0 -3.695042381967923 -2.644901696394939 0 -2.644901696394939 -0.99855842642382697 0 0 0 0 10.154814039215125 -5.7734550616369233 0 -5.7734550616369233 296.71134187013377 0 0 0 0 0.2344097385139321 56.320163913089345 0 56.320163913089345 237.6193783360286 0 0 0 0 109.00153006069013 89.507472993722331 0 89.507472993722331 43.934302246721927 0 0 0 0 18.912077850007336 99.047486051415035 0 99.047486051415035 173.79335256867489 0 0 0 0 53.614764825331804 84.020360485679703 0 84.020360485679703 46.114144699313329 0 0 0 0 526.58811132780829 41.397157893428812 0 41.397157893428812 -213.11146598577034 0 0 0 0 46.594488125207135 120.86970485348866 0 120.86970485348866 33.370323364099022 0 0 0 0 161.84403667976221 -1220.5892353335439 0 -1220.5892353335439 422.35039944597975 0 0 0 0 171.88141310786159 353.26519201658084 0 353.26519201658084 -153.60898830299993 0 0 0 0 12.886616978514212 373.96374900428782 0 373.96374900428782 -193.96519510502549 0 0 0 0 1.3655519824468598 -6.9965692914852298 0 -6.9965692914852298 -12.425047180981252 0 0 0 0 394.98653275847573 -246.25104309901963 0 -246.25104309901963 115.61022076429799 0 0 0 0 -3.2438923009552667 -12.455059877100652 0 -12.455059877100652 -18.732509823298713 0 0 0 0 138.94762927336706 -80.827234259315446 0 -80.827234259315446 11.291161447585182 0 0 0 0 275.68741236670576 -370.37184531521825 0 -370.37184531521825 -68.084224287726101 0 0 0 0 106.49161848600488 -193.81386611606285 0 -193.81386611606285 156.89255736289851 0 0 0 0 -35.831716652881596 -35.285970542271315 0 -35.285970542271315 -33.130998503978475 0 0 0 0 33.368082417313417 -148.12308268214838 0 -148.12308268214838 183.21569772169096 0 0 0 0 108.90002194000408 119.17374068169738 0 119.17374068169738 -37.161138858256891 0 0 0 0 73.154061564724543 122.0941003478365 0 122.0941003478365 -29.49259068207175 0 0 0 0 26.679823516853503 -91.81917733852606 0 -91.81917733852606 362.614547077319 0 0 0 0 213.24785687199619 -230.12701412885508 0 -230.12701412885508 151.96067927406602 0 0 0 0 -94.152436642143584 -287.5815258097573 0 -287.5815258097573 197.10850927554566 0 0 0 0 96.460471196034632 -183.53606230801961 0 -183.53606230801961 -96.283352881233441 0 0 0 0 23.347747370244178 -202.47846446182302 0 -202.47846446182302 149.39013611675182 0 0 0 0 107.58863019519777 -291.82052528970962 0 -291.82052528970962 166.00689678368508 0 0 0 0 -1257.0316260026302 -448.0672327314096 0 -448.0672327314096 124.3218237736146 0 0 0 0 3.1598276625991559 -0.29233889491388254 0 -0.29233889491388254 -6.5115260744204875 0 0 0 0 225.94005911799468 48.211299068237167 0 48.211299068237167 -265.46436734955932 0 0 0 0 -3.1389551409981866 -18.444150916645221 0 -18.444150916645221 -8.4737927962613924 0 0 0 0 -5.136045023419598 -14.28643681499203 0 -14.28643681499203 -15.634205075767483 0 0 0 0 1.6456157390207409 -12.967382625236269 0 -12.967382625236269 -8.823651959792187 0 0 0 0 155.96091905805224 -304.71175592546206 0 -304.71175592546206 161.51195595414902 0 0 0 0 17.693423978205828 -100.20869704448705 0 -100.20869704448705 -148.02515602757921 0 0 0 0 -3.0061652389344431 -17.360692870052951 0 -17.360692870052951 -21.707433218430207 0 0 0 0 -23.638153428601072 -15.615984948486584 0 -15.615984948486584 129.85027237395843 0 0 0 0 -246.14135428834561 -361.49465609121035 0 -361.49465609121035 -39.081953700093436 0 0 0 0 -0.9478991677242341 -6.1281111172273413 0 -6.1281111172273413 14.862101736574374 0 0 0 0 -41.997031729952141 -21.245824129749963 0 -21.245824129749963 151.50742024695137 0 0 0 0 6.2500969381289906 -4.1530158816603944 0 -4.1530158816603944 -92.391347729353583 0 0 0 0 -90.140661572244426 -245.9305194931294 0 -245.9305194931294 492.79115543320586 0 0 0 0 42.431064308948407 36.953519407339627 0 36.953519407339627 -130.11967212801756 0 0 0 0 -8.5647094289610948 -7.3116364768697224 0 -7.3116364768697224 -10.83383054067567 0 0 0 0 -1.1848290256439213 -0.88827289993052005 0 -0.88827289993052005 -6.042740474730067 0 0 0 0 -3.9548328257837682 -25.752708984331406 0 -25.752708984331406 -18.680921323556838 0 0 0 0 -47.677725120302057 -9.6012584175405209 0 -9.6012584175405209 -68.989734642877011 0 0 0 0 -40.277314074905007 66.677977624131017 0 66.677977624131017 383.29675791760383 0 0 0 0 87.199965522231651 -254.9190133926968 0 -254.9190133926968 271.07090945354867 0 0 0 0 -7.2894046447577523 -5.0837409605365735 0 -5.0837409605365735 -0.8852798599478362 0 0 0 0 -135.87836713867728 -74.55352555726131 0 -74.55352555726131 552.8951612787605 0 0 0 0 66.482564747995639 5.5215449561983405 0 5.5215449561983405 -178.5424468414858 0 0 0 0 42.497584216145697 -50.665392336073637 0 -50.665392336073637 316.96304800700455 0 0 0 0 5.7321576155954972 139.83533753508163 0 139.83533753508163 47.750756994020776 0 0 0 0 -200.76955885760981 106.12985125243722 0 106.12985125243722 288.24717493080698 0 0 0 0 -104.71052298082031 -59.854339801850074 0 -59.854339801850074 263.14898749953863 0 0 0 0 -74.114284112443329 -121.9224777734446 0 -121.9224777734446 218.74237584440561 0 0 0 0 -257.4494092490786 57.192607626006065 0 57.192607626006065 190.7948709613047 0 0 0 0 -118.62378575668845 -271.30884197100022 0 -271.30884197100022 44.805428592597309 0 0 0 0 -264.0710584371991 -125.94502453523091 0 -125.94502453523091 -9.0721236434910679 0 0 0 0 -217.71227963268029 -281.40659945379957 0 -281.40659945379957 -296.8866760780511 0 0 0 0 -257.44911158033938 -245.04817940460634 0 -245.04817940460634 -313.41752468691266 0 0 0 0 -187.32698655466083 -23.371971122018294 0 -23.371971122018294 -187.64516069852652 0 0 0 0 -223.68239706455643 283.63593293847225 0 283.63593293847225 -84.770039530558279 0 0 0 0 -530.00821034719411 -142.93310893445232 0 -142.93310893445232 71.419977911227761 0 0 0 0 -1074.0279079180982 533.75039299744458 0 533.75039299744458 -321.36960405745049 0 0 0 0 -16.173688056959406 -4.2767083277468174 0 -4.2767083277468174 -1.9972072116871189 0 0 0 0 -1167.2266068192423 -940.89162570318513 0 -940.89162570318513 -816.22176725116879 0 0 0 0 93.261524648165505 -459.58223904993065 0 -459.58223904993065 -1858.7923557044232 0 0 0 0 290.34312270952796 -451.1931461017266 0 -451.1931461017266 -1011.3244725246223 0 0 0 0 202.22138007950707 -96.138904992491007 0 -96.138904992491007 -739.34593150799265 0 0 0 0 -247.57158889476136 -595.82127426358898 0 -595.82127426358898 -695.42611818100704 0 0 0 0 112.52556783272303 -117.96326880354536 0 -117.96326880354536 -81.352435700770002 0 0 0 0 88.356119787502394 -238.45643147608098 0 -238.45643147608098 -477.23399839524063 0 0 0 0 -0.15006702404874162 -4.2646616544312153 0 -4.2646616544312153 -15.285747915066963 0 0 0 0 376.77808483791159 19.36901748605851 0 19.36901748605851 -234.26489856103763 0 0 0 0 305.56574619854291 -263.43729253305446 0 -263.43729253305446 -971.17336186496686 0 0 0 0 -1889.4518726039569 -623.82891727581136 0 -623.82891727581136 -222.39019714421011 0 0 0 0 -618.30756682709398 451.94021191105276 0 451.94021191105276 -88.33186289146397 0 0 0 0 -235.7984595633061 -765.29986701109374 0 -765.29986701109374 -520.72146114638599 0 0 0 0 256.09231668768552 -533.88052982155841 0 -533.88052982155841 -1135.0241405259148 0 0 0 0 -259.27200364839518 -1015.7975489495329 0 -1015.7975489495329 -903.61743521328754 0 0 0 0 132.48059380907216 -98.174770793042626 0 -98.174770793042626 -58.936129911111493 0 0 0 0 112.68930916075624 -48.799135452223709 0 -48.799135452223709 -19.571914731041034 0 0 0 0 327.69048755217227 -42.989840173506309 0 -42.989840173506309 -76.42404021753282 0 0 0 0 181.83935896975163 -130.72478534870788 0 -130.72478534870788 -24.602182696035015 0 0 0 0 550.89145151230332 -214.69692522089463 0 -214.69692522089463 -808.51366970188974 0 0 0 0 -1583.5778601484199 -1099.4771183857156 0 -1099.4771183857156 -192.02283900775001 0 0 0 0 2.77821062344346 -3.3641871645192225 0 -3.3641871645192225 -23.065702187524877 0 0 0 0 -967.24649675095861 -274.6977709986204 0 -274.6977709986204 345.37132974546694 0 0 0 0 -1118.8741654433816 -972.72215859099742 0 -972.72215859099742 -365.31349296378903 0 0 0 0 -879.62544181556586 -379.53742264853281 0 -379.53742264853281 -417.84722146626154 0 0 0 0 -1111.7917178315365 -985.84470745084036 0 -985.84470745084036 -295.62071982201087 0 0 0 0 -590.24575480518979 -591.75869340655481 0 -591.75869340655481 -697.20116414426593 0 0 0 0 -1.1785517835260464 -0.18077098346711296 0 -0.18077098346711296 2.9262234504380373 0 0 0 0 -992.23877435144095 -824.41003682253358 0 -824.41003682253358 -229.76582344399503 0 0 0 0 131.12205724648084 19.214623503830808 0 19.214623503830808 24.284635987089132 0 0 0 0 -1345.6117596870426 -836.25614826385208 0 -836.25614826385208 -145.75143962136463 0 0 0 0 503.27699891196244 93.820219149922195 0 93.820219149922195 -315.44784127870662 0 0 0 0 0.85960272328346576 -4.0923822236262026 0 -4.0923822236262026 -10.650325053017554 0 0 0 0 157.4772300204786 -360.53634295150368 0 -360.53634295150368 -828.78216861394685 0 0 0 0 188.60920342404279 -27.394375174829747 0 -27.394375174829747 -444.70507713645202 0 0 0 0 -284.78572452444496 39.419286789561738 0 39.419286789561738 -691.29155381597047 0 0 0 0 -581.33304478914943 -174.51473269745475 0 -174.51473269745475 543.26353946310883 0 0 0 0 -457.88698296854272 -770.57397342823242 0 -770.57397342823242 -954.37867930770517 0 0 0 0 26.579126097851258 -127.00027788906846 0 -127.00027788906846 -221.60459287339563 0 0 0 0 80.500517861957633 -142.04635123274056 0 -142.04635123274056 -292.09458366692343 0 0 0 0 100.04996363892133 -123.40227611493356 0 -123.40227611493356 -276.73612105712982 0 0 0 0 96.887506785365986 -94.702374447806505 0 -94.702374447806505 -294.48211198342324 0 0 0 0 127.08324307438306 -14.120604396284762 0 -14.120604396284762 -209.61583654283459 0 0 0 0 44.670890322882769 -38.865175673699923 0 -38.865175673699923 -74.534512826438004 0 0 0 0 40.902598180560744 -71.559606083228573 0 -71.559606083228573 -178.93765052948243 0 0 0 0 67.325612794655171 -64.921910236055737 0 -64.921910236055737 -178.63476581953 0 0 0 0 40.976571558436262 -97.311064837351296 0 -97.311064837351296 -215.06849252309985 0 0 0 0 17.341606705245795 -69.136994527496427 0 -69.136994527496427 -124.10504160290293 0 0 0 0 -2.4002707415784243 -108.90163755711183 0 -108.90163755711183 -119.65899844978048 0 0 0 0 21.212005063025572 -80.83092722362926 0 -80.83092722362926 -86.605690941643843 0 0 0 0 100.52204830260962 -61.574624593711633 0 -61.574624593711633 -43.61563457664306 0 0 0 0 53.722340415290091 -110.25666361745971 0 -110.25666361745971 -84.297935676370798 0 0 0 0 62.013411397128948 -128.58735515001172 0 -128.58735515001172 -34.921562666509544 0 0 0 0 51.26947302490953 -108.66985909062896 0 -108.66985909062896 -66.21534093770606 0 0 0 0 -18.074929907350452 -118.21902207577295 0 -118.21902207577295 -74.582080609594414 0 0 0 0 5.6541260211524786 -135.3843154498536 0 -135.3843154498536 -77.052355502178216 0 0 0 0 -3.3420313526512473 -139.38925385122639 0 -139.38925385122639 -33.723997556840914 0 0 0 0 -40.139941131477826 -146.90216128049542 0 -146.90216128049542 -58.46833187653101 0 0 0 0 -5.4354747356119333 -154.18101831698732 0 -154.18101831698732 -82.776486700372516 0 0 0 0 -46.227144730350119 -162.3191252608558 0 -162.3191252608558 -94.290941879151887 0 0 0 0 -51.007719066867139 -126.60262936514118 0 -126.60262936514118 -99.561460773242288 0 0 0 0 -26.948243130376795 -138.33880549568858 0 -138.33880549568858 -119.35083377524643 0 0 0 0 -75.886674285669869 -153.9732260758683 0 -153.9732260758683 -129.47677838784148 0 0 0 0 -107.15481499991438 -127.57183658518625 0 -127.57183658518625 -108.75691601128347 0 0 0 0 -89.96919086734124 -152.76227549064788 0 -152.76227549064788 -93.384968574293453 0 0 0 0 -189.33302952983649 -133.41131169311848 0 -133.41131169311848 -72.060096018652985 0 0 0 0 -318.52004418933939 -105.09818553186597 0 -105.09818553186597 -27.423478551558219 0 0 0 0 -222.75749953075137 -46.820792841630464 0 -46.820792841630464 -21.280565191649657 0 0 0 0 -259.91591565362614 -57.121255589077919 0 -57.121255589077919 -17.589724979799939 0 0 0 0 -160.32664567885513 -80.612831432081293 0 -80.612831432081293 -45.553724399811472 0 0 0 0 -159.64925916101492 -138.34991174046445 0 -138.34991174046445 -75.025114122370724 0 0 0 0 -192.34946713899262 -139.02061712743307 0 -139.02061712743307 -79.341525951880612 0 0 0 0 -280.41181110974867 -122.31599542817276 0 -122.31599542817276 -55.64772436756175 0 0 0 0 -165.21862477126706 -161.42265260573186 0 -161.42265260573186 -143.92762272491382 0 0 0 0 -281.82270552472255 -185.7304967464097 0 -185.7304967464097 -94.537728598152171 0 0 0 0 -164.98426931012364 -166.57019849529752 0 -166.57019849529752 -135.04792878745502 0 0 0 0 -128.75128980950103 -150.79430428522755 0 -150.79430428522755 -87.739729819702916 0 0 0 0 -144.26008846475452 -174.0019230509788 0 -174.0019230509788 -122.30873099956079 0 0 0 0 -111.53293224541994 -138.68685568522051 0 -138.68685568522051 -125.85368696141813 0 0 0 0 -84.322724656245555 -129.24192503102313 0 -129.24192503102313 -174.98444881731848 0 0 0 0 -214.10272683166841 -187.13781195782212 0 -187.13781195782212 -150.99974132725765 0 0 0 0 -114.80341150780441 -155.02388698614232 0 -155.02388698614232 -263.74188596657768 0 0 0 0 -136.18845025025075 -107.47890188622478 0 -107.47890188622478 -173.24538396258868 0 0 0 0 -91.660871836429578 -96.037847603896807 0 -96.037847603896807 -172.15723247034111 0 0 0 0 -122.0293517387654 -139.7271873544405 0 -139.7271873544405 -162.1719217022619 0 0 0 0 -36.541030525469978 -97.838853128163464 0 -97.838853128163464 -163.36362369593007 0 0 0 0 -36.427740617320524 -100.29492161061353 0 -100.29492161061353 -131.45919550857434 0 0 0 0 -46.459605382522568 -122.86130536817655 0 -122.86130536817655 -106.23608985880128 0 0 0 0 -6.803972230416548 -96.792332228913438 0 -96.792332228913438 -139.76690885911376 0 0 0 0 -46.608071830385597 -118.20704989873047 0 -118.20704989873047 -142.61665321192595 0 0 0 0 -84.459787760177278 -129.57220764263866 0 -129.57220764263866 -138.73914945397701 0 0 0 0 27.519986528445088 -31.293831129074988 0 -31.293831129074988 -217.41469717347809 0 0 0 0 -10.128030449628405 -20.217627580767637 0 -20.217627580767637 27.688094783903431 0 0 0 0 -360.85268941162576 -218.81353566263897 0 -218.81353566263897 -80.73246441140509 0 0 0 0 12.420386529801867 -0.28322162830905029 0 -0.28322162830905029 -2.8275749806158075 0 0 0 0 46.549525274535284 -62.316452116328122 0 -62.316452116328122 -89.349137988607836 0 0 0 0 258.55629894904996 10.491558300656834 0 10.491558300656834 -14.881494065114012 0 0 0 0 -15.227283649862329 -41.960573354190274 0 -41.960573354190274 -178.63662229341116 0 0 0 0 -9.8760435648945961 -74.543984972731494 0 -74.543984972731494 -8.9687223851289364 0 0 0 0 -148.23910815683394 -127.85948694852323 0 -127.85948694852323 98.075212459447357 0 0 0 0 65.609478873290342 -40.051226533586437 0 -40.051226533586437 -42.443493110649541 0 0 0 0 -201.24418596792384 -77.8248588609531 0 -77.8248588609531 -28.301411476557405 0 0 0 0 260.60909103370432 8.9250529901382833 0 8.9250529901382833 -186.85442917187174 0 0 0 0 -221.91503054698569 -268.1127973334344 0 -268.1127973334344 -257.90208238456398 0 0 0 0 -122.07420752712642 -134.76771693909177 0 -134.76771693909177 -309.09661062006489 0 0 0 0 -12.295433211206969 -110.7796683900262 0 -110.7796683900262 -154.06652366864728 0 0 0 0 33.457659522801123 -50.98480621950057 0 -50.98480621950057 -87.200214939220132 0 0 0 0 38.186057387803238 -63.998441790384646 0 -63.998441790384646 -72.682575636415777 0 0 0 0 -65.500909470985675 -60.036968566204223 0 -60.036968566204223 -48.799970566343291 0 0 0 0 -106.04820427596133 -191.66603863138334 0 -191.66603863138334 -78.005294096437865 0 0 0 0 -28.281996452646126 -155.7309100299899 0 -155.7309100299899 -111.98216320058782 0 0 0 0 -100.05957144195418 -159.06952004465711 0 -159.06952004465711 -85.548686790465581 0 0 0 0 -49.614237098983722 -109.96347957409307 0 -109.96347957409307 -150.55121230796112 0 0 0 0 -28.696594462431676 -123.84741228636085 0 -123.84741228636085 -182.87637776504562 0 0 0 0 11.255472916542203 -86.906329725736214 0 -86.906329725736214 -163.30302781667706 0 0 0 0 -1.1539783507250831 -96.777502989159984 0 -96.777502989159984 -165.13934259729285 0 0 0 0 -77.125057459626987 -116.093327038403 0 -116.093327038403 -148.87391625665623 0 0 0 0 -91.542275884014089 -150.05670781961999 0 -150.05670781961999 -108.53990381457334 0 0 0 0 -112.70595156400304 -133.95974779168864 0 -133.95974779168864 -143.99533280733158 0 0 0 0 -136.47460643916565 -122.90854244721049 0 -122.90854244721049 -124.20155986594182 0 0 0 0 -100.54399958932481 -183.57642066782864 0 -183.57642066782864 -130.17129825973643 0 0 0 0 21.2305978885488 -134.03703862919247 0 -134.03703862919247 -181.23453521535339 0 0 0 0 -6.6909366390673313 -163.42021697269183 0 -163.42021697269183 -206.13004297103544 0 0 0 0 -21.060221224700399 -198.62513316562627 0 -198.62513316562627 -146.80581851079842 0 0 0 0 -69.072884643785073 -217.1456292610892 0 -217.1456292610892 -153.81723227886869 0 0 0 0 -46.407461402726767 -269.47773169609354 0 -269.47773169609354 -172.43374695578677 0 0 0 0 43.888557039936131 -234.50231649767375 0 -234.50231649767375 -174.97389556269809 0 0 0 0 62.271413577062049 -156.05546364338693 0 -156.05546364338693 -141.48384491876641 0 0 0 0 -177.44539990631893 -151.15474751188776 0 -151.15474751188776 -63.651085946094099 0 0 0 0 40.854354434119713 -69.080107292567916 0 -69.080107292567916 -57.682535207529071 0 0 0 0 -101.12347831981606 -244.099291830521 0 -244.099291830521 -129.35942201714715 0 0 0 0 -199.99466178762668 -180.67403301556624 0 -180.67403301556624 -89.153066301028957 0 0 0 0 -83.458973671746207 -241.73710138750903 0 -241.73710138750903 -129.39863158530534 0 0 0 0 -264.74391200844548 -386.87595584830706 0 -386.87595584830706 -227.90676512933715 0 0 0 0 -400.51539077650523 -179.18747305251054 0 -179.18747305251054 -21.459197915284676 0 0 0 0 -248.86837280008331 -209.76093924992529 0 -209.76093924992529 -229.83080364532179 0 0 0 0 -3.9926233301595744 -0.54862356834419757 0 -0.54862356834419757 0.47272324271019883 0 0 0 0 -6.1525070520292502 -247.90214380569159 0 -247.90214380569159 -362.05634368753454 0 0 0 0 -327.1684936972232 -218.81260831540575 0 -218.81260831540575 293.82564698787792 0 0 0 0 -129.80710785099654 -14.195568992950029 0 -14.195568992950029 195.69657773676045 0 0 0 0 -286.63155661080964 -182.29820151308559 0 -182.29820151308559 19.666340279500446 0 0 0 0 -328.11063243609988 -317.99211688962583 0 -317.99211688962583 -20.768913576932391 0 0 0 0 -307.60198307866449 -155.18201179070729 0 -155.18201179070729 -6.8339340327474929 0 0 0 0 -1.0203703079714614 -160.68918064159425 0 -160.68918064159425 217.2211649790097 0 0 0 0 118.39919359714986 -82.211003970169259 0 -82.211003970169259 -166.57208447283028 0 0 0 0 115.05640108339867 -101.64642875348 0 -101.64642875348 -51.499093560189067 0 0 0 0 91.268760818958981 -25.687392991712841 0 -25.687392991712841 -13.36245791998374 0 0 0 0 -5.9917598777028616 -170.32332006390016 0 -170.32332006390016 164.88812836692887 0 0 0 0 -6.5352119527974253 -2.3044270234397715 0 -2.3044270234397715 -0.19531615717155049 0 0 0 0 -82.57928169198567 -25.263852934598617 0 -25.263852934598617 258.23061654400226 0 0 0 0 93.551496919992132 -109.17388277075315 0 -109.17388277075315 25.571761419949326 0 0 0 0 -123.76287026355203 -88.750350775429979 0 -88.750350775429979 166.81585901631115 0 0 0 0 -175.39527576794353 -148.7641674251372 0 -148.7641674251372 133.52151115132438 0 0 0 0 -187.36445117521362 -148.33633983380787 0 -148.33633983380787 332.33549537451108 0 0 0 0 -226.26590621377545 -235.45178431083787 0 -235.45178431083787 141.11021146485291 0 0 0 0 -67.191024845449647 -82.526162057518832 0 -82.526162057518832 174.27045788738542 0 0 0 0 -40.757849086687202 -126.47120821204226 0 -126.47120821204226 106.78874072912367 0 0 0 0 -166.94711180462036 -163.65310020226207 0 -163.65310020226207 111.23823597682031 0 0 0 0 -163.83442541245313 -110.30753635861583 0 -110.30753635861583 232.2653607824941 0 0 0 0 -5.0861630273766423 -83.321897580447512 0 -83.321897580447512 65.229788202890632 0 0 0 0 -27.480887378413172 -157.73150956831523 0 -157.73150956831523 104.66505924301782 0 0 0 0 155.6344585119441 -77.271447614300996 0 -77.271447614300996 114.07102373250018 0 0 0 0 -48.507401693183056 -43.291768947587116 0 -43.291768947587116 209.71757799110492 0 0 0 0 -145.77000240627967 -109.53533525631974 0 -109.53533525631974 150.49409426292914 0 0 0 0 -123.37676566430309 -132.2785232098322 0 -132.2785232098322 173.0427083607392 0 0 0 0 -237.15751176002232 -220.5059219318955 0 -220.5059219318955 95.957566455821507 0 0 0 0 -125.62565073963196 -69.116260011078339 0 -69.116260011078339 166.76112598143663 0 0 0 0 -65.104163818592497 -128.8217787164358 0 -128.8217787164358 169.65750488964113 0 0 0 0 190.61811726327869 23.919745346545824 0 23.919745346545824 34.108698203082895 0 0 0 0 -207.8708925143037 -247.03597007296776 0 -247.03597007296776 -56.808767815120518 0 0 0 0 -216.40620334484993 123.29145623863224 0 123.29145623863224 147.67530609434107 0 0 0 0 -806.00976870755221 -432.90682075674158 0 -432.90682075674158 -173.03375569294803 0 0 0 0 -143.45626533798713 -196.51154655525534 0 -196.51154655525534 5.2489183564430277 0 0 0 0 -212.42242256200188 -312.42691320012182 0 -312.42691320012182 -159.24367187374082 0 0 0 0 -423.82927098320215 -219.49509315627802 0 -219.49509315627802 115.95957747507509 0 0 0 0 31.827721209549054 -234.6321114967086 0 -234.6321114967086 -311.0499896068286 0 0 0 0 38.12943918388919 -203.80903181816575 0 -203.80903181816575 -176.3756546281511 0 0 0 0 -53.02761831121461 -202.16325905949452 0 -202.16325905949452 -12.456561943216002 0 0 0 0 -152.87228796372074 -291.93466731555236 0 -291.93466731555236 -99.862682212149593 0 0 0 0 -19.340063169262066 -153.67784240162473 0 -153.67784240162473 -2.6273606081122125 0 0 0 0 -1.8903088755978388 -3.7580498106631239 0 -3.7580498106631239 7.7743182475060166 0 0 0 0 -0.33487641636747867 -3.2180479615071818 0 -3.2180479615071818 7.4957780059958168 0 0 0 0 -61.723261462524533 -31.619484980317793 0 -31.619484980317793 67.211467951488885 0 0 0 0 0.17508827949285433 -0.45705887410056789 0 -0.45705887410056789 -0.37921129471389747 0 0 0 0 -1.3256115578666936 -2.8819564538607665 0 -2.8819564538607665 4.1774775515609122 0 0 0 0 -2.5351639124419307 -2.7727842341573705 0 -2.7727842341573705 2.9354277517631999 0 0 0 0 0.28641733446920625 -2.9411622135329765 0 -2.9411622135329765 5.5978000219806319 0 0 0 0 -2.7578212827356765 40.443900031146768 0 40.443900031146768 6.0660980504399049 0 0 0 0 3.6295049734850409 0.69640990354093901 0 0.69640990354093901 -2.4092151045376724 0 0 0 0 0.00070285524998325855 -4.1798120703897439 0 -4.1798120703897439 0.75778109620114265 0 0 0 0 10.483928338595433 -0.20148739396972815 0 -0.20148739396972815 129.68230332864914 0 0 0 0 66.533830204803962 -139.3880620953023 0 -139.3880620953023 154.7725802867817 0 0 0 0 41.110961121186847 -48.418846918840245 0 -48.418846918840245 -22.810720575711457 0 0 0 0 138.45145823384519 -190.36756233752021 0 -190.36756233752021 82.743584681469656 0 0 0 0 0.21673475789430086 -232.44440938787739 0 -232.44440938787739 309.99825387125748 0 0 0 0 103.06068408947613 -116.93045150634225 0 -116.93045150634225 84.948545468352677 0 0 0 0 38.82161464703313 21.117469553880255 0 21.117469553880255 139.25141262673424 0 0 0 0 -1.7715633675460083 -3.1971946796084012 0 -3.1971946796084012 5.7814535964032672 0 0 0 0 28.145489085702138 -21.731163948596532 0 -21.731163948596532 23.256320611522824 0 0 0 0 61.278918903466547 -153.57442752342831 0 -153.57442752342831 53.060547395165486 0 0 0 0 0.98906481130407542 -1.8397465974960596 0 -1.8397465974960596 1.6361558408370485 0 0 0 0 -256.12810479044856 -97.627520438696592 0 -97.627520438696592 -14.529811028885888 0 0 0 0 12.267886839414132 22.894866384200213 0 22.894866384200213 7.738408274941321 0 0 0 0 -0.05211003134544967 -6.365929622318788 0 -6.365929622318788 18.120102804867784 0 0 0 0 -60.958085002130247 9.8361789116170257 0 9.8361789116170257 62.284770942886098 0 0 0 0 -264.97174968908075 -108.80519706725318 0 -108.80519706725318 18.300909198034788 0 0 0 0 -217.75692443858134 -61.988028266379843 0 -61.988028266379843 60.6452618557596 0 0 0 0 -364.52509798988467 -249.7843304566195 0 -249.7843304566195 -25.542002262622191 0 0 0 0 -258.44224028332974 -147.3203499621377 0 -147.3203499621377 3.8635789612453664 0 0 0 0 -250.89301805356808 -145.36101752430113 0 -145.36101752430113 -10.296098303660983 0 0 0 0 -246.92088714415149 -129.81730778866404 0 -129.81730778866404 18.686222728327266 0 0 0 0 -207.34461702372209 -112.51705928767387 0 -112.51705928767387 -4.9182558903994504 0 0 0 0 -198.22274700212438 -193.88944852580062 0 -193.88944852580062 -37.510781403965666 0 0 0 0 -84.823428770177998 -110.6112223318778 0 -110.6112223318778 -77.301058316486888 0 0 0 0 -97.465581370517612 -51.600379979492573 0 -51.600379979492573 19.562102557450999 0 0 0 0 -68.195460097718751 -152.13655369035268 0 -152.13655369035268 -224.61902879222907 0 0 0 0 -16.64176692822366 -6.7284408817804433 0 -6.7284408817804433 17.911000495863846 0 0 0 0 -1.558022204379796 0.95437374644887996 0 0.95437374644887996 17.709826929159732 0 0 0 0 -56.666730540964636 -13.049870927410666 0 -13.049870927410666 -26.612025162001373 0 0 0 0 -2.608624110485863 -4.6354595247190957 0 -4.6354595247190957 14.720735204762349 0 0 0 0 -15.89521649683229 -8.6103100036693831 0 -8.6103100036693831 14.189311060734326 0 0 0 0 2.2215952002443373 -6.1504435375718458 0 -6.1504435375718458 13.676691937227588 0 0 0 0 -15.19962823811511 -3.0169849507674371 0 -3.0169849507674371 14.645773381578692 0 0 0 0 -1.639208344910827 -3.3122110029621012 0 -3.3122110029621012 13.66556340899632 0 0 0 0 -1.9752976317467983 -4.7030266518704593 0 -4.7030266518704593 13.183155377624644 0 0 0 0 -1.5546159715110548 -1.9189325744922883 0 -1.9189325744922883 7.7527571956512844 0 0 0 0 -15.495675700899255 -6.7339933160725423 0 -6.7339933160725423 28.877499502171574 0 0 0 0 2.2783517588721907 -5.2467912560156549 0 -5.2467912560156549 7.3984146873803951 0 0 0 0 7.7456044048303738 3.7469144273891288 0 3.7469144273891288 -17.63286433095891 0 0 0 0 6.9335707156860735 -75.120723207208357 0 -75.120723207208357 113.98665024928778 0 0 0 0 -77.363649340695702 -39.172453813087486 0 -39.172453813087486 36.308307787767262 0 0 0 0 -5.0579006267789453 -2.7525119485009668 0 -2.7525119485009668 17.255046142201479 0 0 0 0 -15.673851911625263 -5.9217607849308678 0 -5.9217607849308678 3.1333664767463176 0 0 0 0 1.0556749573734123 -48.312006601616304 0 -48.312006601616304 3.3194017980558783 0 0 0 0 9.8624266659244313 -8.9451860705553372 0 -8.9451860705553372 19.056793372939865 0 0 0 0 18.724957576574525 -41.671449152428977 0 -41.671449152428977 48.311804925840988 0 0 0 0 49.694399714760948 -64.066882382147014 0 -64.066882382147014 92.516480282109114 0 0 0 0 -1.701088389090728 -19.740676500245172 0 -19.740676500245172 114.8517692819878 0 0 0 0 -83.676616400829516 -72.415697890886804 0 -72.415697890886804 156.33772045760998 0 0 0 0 -40.320046793320216 -5.6707366807604558 0 -5.6707366807604558 -17.371487759090087 0 0 0 0 -6.1619502452812185 2.1974802815591943 0 2.1974802815591943 1.3528281993580009 0 0 0 0 15.908209455141332 48.093177046946948 0 48.093177046946948 40.194417587306816 0 0 0 0 46.149896141025238 -11.542277150641894 0 -11.542277150641894 -6.9526804054621607 0 0 0 0 29.624508559645619 -29.769003443247129 0 -29.769003443247129 14.668613639410069 0 0 0 0 3.8573106654803269 -23.758573197686928 0 -23.758573197686928 13.939041709996673 0 0 0 0 -2.1558738727395621 -12.982419808252288 0 -12.982419808252288 26.52308899076597 0 0 0 0 8.371270479574946 -17.344060940322933 0 -17.344060940322933 16.009297182738685 0 0 0 0 -6.8243187101470539 -16.581488548497873 0 -16.581488548497873 4.590203833693522 0 0 0 0 3.2650676742503606 -20.334996199568138 0 -20.334996199568138 20.056530830790734 0 0 0 0 19.078810871214955 -37.278136447189809 0 -37.278136447189809 9.5837920636477065 0 0 0 0 1.744056694663243 -4.8906061179848024 0 -4.8906061179848024 7.0302093936308125 0 0 0 0 28.435032903566025 -15.288928467238293 0 -15.288928467238293 6.8289154679223429 0 0 0 0 21.662347718316596 -14.91456425339311 0 -14.91456425339311 6.9838566123817145 0 0 0 0 3.4859392266807845 -4.9001040569946781 0 -4.9001040569946781 3.0294755009217624 0 0 0 0 0.17831335100345314 -6.4925860871589975 0 -6.4925860871589975 13.374509220084292 0 0 0 0 -1.5294510505918879 -3.9508378929331229 0 -3.9508378929331229 16.715338968606375 0 0 0 0 -0.21386665995476051 -0.49481930499590021 0 -0.49481930499590021 2.301138363752349 0 0 0 0 0.11758337075863068 -8.0947093837907289 0 -8.0947093837907289 7.988527706593338 0 0 0 0 -3.1156098234654621 -5.9290306313856149 0 -5.9290306313856149 7.7581015808228386 0 0 0 0 -0.86021110857836902 -5.8361878344294382 0 -5.8361878344294382 3.931156652597565 0 0 0 0 -0.20459145386121236 -5.8459069294549408 0 -5.8459069294549408 13.561625264565919 0 0 0 0 -2.9847211196029093 -5.5500648503166303 0 -5.5500648503166303 6.8340696975501487 0 0 0 0 0.6511461045864877 -5.6183004479225929 0 -5.6183004479225929 5.6496085688211153 0 0 0 0 3.120892457300215 -11.102702040001304 0 -11.102702040001304 12.777666944857629 0 0 0 0 -1.3269954987043491 -5.2983357179198265 0 -5.2983357179198265 7.6386420348825084 0 0 0 0 2.7029827778594608 0.55666291030055959 0 0.55666291030055959 4.3682619829096154 0 0 0 0 -1.3604412934655556 -2.9105229587821668 0 -2.9105229587821668 8.2789609515457414 0 0 0 0 1.5967926597402311 -0.25006162559955669 0 -0.25006162559955669 5.6672466207068126 0 0 0 0 -1.9893657098345727 -2.9444025566452581 0 -2.9444025566452581 3.0660054519271895 0 0 0 0 8.7358597712373012 -8.6125481679600853 0 -8.6125481679600853 5.5908622854794885 0 0 0 0 0.34937415154126938 -3.5883920414789827 0 -3.5883920414789827 1.2285167691497918 0 0 0 0 -0.00041741102177184075 -3.7536417755209186 0 -3.7536417755209186 3.311973605719686 0 0 0 0 8.5174948018830037 19.439371142239906 0 19.439371142239906 1.8376197786437842 0 0 0 0 9.2263397100905422 -6.3570048040373877 0 -6.3570048040373877 2.4297642828055359 0 0 0 0 -1.0631785360251342 1.3827615739799768 0 1.3827615739799768 2.0003780898803427 0 0 0 0 -21.277544006239623 -3.5876067255303496 0 -3.5876067255303496 21.735371670198219 0 0 0 0 19.147443563400884 -21.633027194404576 0 -21.633027194404576 -11.032062479041997 0 0 0 0 -2.1401899755948506 -2.7456739040295588 0 -2.7456739040295588 2.3011094533309659 0 0 0 0 0.00075842099613510072 -3.754450159109183 0 -3.754450159109183 3.3109798088098614 0 0 0 0 2.8957355263264617 -3.5398970373025804 0 -3.5398970373025804 9.3696744698654584 0 0 0 0 1.0491552766234733 -4.7337124946914741 0 -4.7337124946914741 0.053129560295346323 0 0 0 0 -2.6127297102461 -3.1401655288088932 0 -3.1401655288088932 2.225116233724691 0 0 0 0 45.304999604995828 -23.144620202446163 0 -23.144620202446163 1.7520014754518343 0 0 0 0 -5.8846969229634851 -31.240025356630213 0 -31.240025356630213 -42.53629468513418 0 0 0 0 -6.9403354738024063 14.542638914880627 0 14.542638914880627 -8.8238351112440796 0 0 0 0 -0.46506245444834349 -1.7387879877946943 0 -1.7387879877946943 -66.475939902045866 0 0 0 0 -0.0024254903837572783 9.8973658415588943 0 9.8973658415588943 42.954090257933785 0 0 0 0 -2.9667576500754365 -2.0135918495724638 0 -2.0135918495724638 2.3740653301911188 0 0 0 0 0.35196017462294549 -47.128004740169217 0 -47.128004740169217 -107.77500369285599 0 0 0 0 0.011418707581469789 -91.138443389050394 0 -91.138443389050394 -65.270836661828412 0 0 0 0 -14.981810842218692 -71.676926946354257 0 -71.676926946354257 -5.6522054742035834 0 0 0 0 -55.049810754462669 -68.542204324962768 0 -68.542204324962768 -36.605463035463345 0 0 0 0 -1.7467164277368283 -103.49255597117349 0 -103.49255597117349 -15.551109342213749 0 0 0 0 0.68863932363431957 -3.3543757655878323 0 -3.3543757655878323 -0.44315431188373822 0 0 0 0 38.755760569678387 -89.143102800069073 0 -89.143102800069073 -10.649527620338347 0 0 0 0 41.641542759298318 -73.337949924184727 0 -73.337949924184727 17.54644596989192 0 0 0 0 13.705659656072385 -96.597226351495124 0 -96.597226351495124 13.019932590539838 0 0 0 0 11.382082244477715 -80.793323632120931 0 -80.793323632120931 -5.4077381502916069 0 0 0 0 -22.84007516129347 -35.528686216070383 0 -35.528686216070383 13.168453858516326 0 0 0 0 -39.141131769007188 -64.77837920426191 0 -64.77837920426191 17.571371952034497 0 0 0 0 -16.869589032161457 -41.128425148014003 0 -41.128425148014003 22.308358843672067 0 0 0 0 -22.897294097187114 -91.030664215995785 0 -91.030664215995785 59.909278903679478 0 0 0 0 21.286228216311429 -93.405537252158638 0 -93.405537252158638 48.120234225182458 0 0 0 0 -11.843607918473765 -11.831494897554265 0 -11.831494897554265 2.4572644663398404 0 0 0 0 44.557662581879413 -68.065272931274876 0 -68.065272931274876 1.7952364689817841 0 0 0 0 60.449142773688436 -51.202217034810218 0 -51.202217034810218 -3.2544838930743936 0 0 0 0 157.7026114393957 -36.838869251413996 0 -36.838869251413996 -23.503851367259813 0 0 0 0 65.512687633847236 -84.12075219778535 0 -84.12075219778535 5.1960610886475251 0 0 0 0 2.2018552430090494 -40.684831552487594 0 -40.684831552487594 18.851102711514613 0 0 0 0 -17.354470711710917 -36.058016124580121 0 -36.058016124580121 6.5352081445193164 0 0 0 0 -66.684566696458205 -2.6745301523686749 0 -2.6745301523686749 34.155246102628553 0 0 0 0 -8.338733444805257 -44.715292927035989 0 -44.715292927035989 8.5838409112111549 0 0 0 0 50.282451660736115 -49.633293339114061 0 -49.633293339114061 2.1554861487920789 0 0 0 0 -1.3137120058763117 -26.475391590080591 0 -26.475391590080591 12.363431421057093 0 0 0 0 50.996153336949646 -9.4663865203601745 0 -9.4663865203601745 14.811501987023803 0 0 0 0 38.693323673142004 -28.829772133008191 0 -28.829772133008191 5.8167085504687748 0 0 0 0 30.957625277871557 -45.402425864875113 0 -45.402425864875113 -1.1412861917669943 0 0 0 0 41.089370371359109 -30.89278948964602 0 -30.89278948964602 2.4256985846695898 0 0 0 0 -2.7225707474747196 -20.410832363778987 0 -20.410832363778987 24.319479414519833 0 0 0 0 -28.660410844189755 -44.161067237087991 0 -44.161067237087991 7.039936637327628 0 0 0 0 -35.054018114693463 -33.862212204699972 0 -33.862212204699972 9.7522806683809904 0 0 0 0 19.303640610105049 -27.177617396290316 0 -27.177617396290316 7.6576877532249981 0 0 0 0 9.7149599022377515 -51.19956163413417 0 -51.19956163413417 6.9029599268396851 0 0 0 0 -10.015552018001671 -30.215873315776463 0 -30.215873315776463 -6.1313646246468707 0 0 0 0 -35.257058883114951 -33.374110855831532 0 -33.374110855831532 62.008508643077221 0 0 0 0 -21.64665750151471 -16.16645558679275 0 -16.16645558679275 34.925359541130007 0 0 0 0 -158.83869643998332 -40.000444137309387 0 -40.000444137309387 24.525385227708739 0 0 0 0 -11.787476250411856 -14.316694387034943 0 -14.316694387034943 10.952877360428658 0 0 0 0 -20.872937902255217 -34.217307894068654 0 -34.217307894068654 24.33292774239726 0 0 0 0 -364.9610009041935 -192.51162370669044 0 -192.51162370669044 23.323127566906351 0 0 0 0 -119.25693148453502 -111.07942417747199 0 -111.07942417747199 4.8404701884719543 0 0 0 0 -63.047927453764714 -48.255684589726116 0 -48.255684589726116 15.328367410535066 0 0 0 0 3.2045735330320895 -32.990078702301616 0 -32.990078702301616 -23.012406852898039 0 0 0 0 -34.302254220285249 -61.967916402333458 0 -61.967916402333458 -26.939265361332218 0 0 0 0 -9.4205471434018193 -3.8636586651558389 0 -3.8636586651558389 -0.2805980182760166 0 0 0 0 38.96230137225939 -49.329140445513985 0 -49.329140445513985 -16.446439893707065 0 0 0 0 3.5339231003672467 -83.448925964728687 0 -83.448925964728687 33.179735402918595 0 0 0 0 -55.655411232444749 -45.329910633052123 0 -45.329910633052123 15.032406888237347 0 0 0 0 -67.07110025021484 -85.42263334789277 0 -85.42263334789277 8.5126410698703694 0 0 0 0 -56.067329650861211 -59.93165697105951 0 -59.93165697105951 71.917192296005396 0 0 0 0 -63.032682296849089 -57.905087546877212 0 -57.905087546877212 11.606265479899776 0 0 0 0 -21.916265874140663 -16.659763583440508 0 -16.659763583440508 45.630588602813759 0 0 0 0 29.872654355422128 -72.798995198578041 0 -72.798995198578041 -3.1055449267678341 0 0 0 0 -35.027285536567689 -38.858721698950689 0 -38.858721698950689 16.927368545744475 0 0 0 0 -75.563528569422488 -62.706196831034504 0 -62.706196831034504 52.132334790989262 0 0 0 0 -46.847120949481905 -48.195958262506338 0 -48.195958262506338 44.046718323997084 0 0 0 0 -6.4583497722633183 -40.881707331795042 0 -40.881707331795042 43.114947231830229 0 0 0 0 -102.09391740823776 -38.801057011957397 0 -38.801057011957397 109.82944580766127 0 0 0 0 -28.577151295436522 -29.808259661896329 0 -29.808259661896329 -10.15333352288706 0 0 0 0 -45.699447220486036 -59.20039752566916 0 -59.20039752566916 51.019553146314138 0 0 0 0 -54.436828400212107 -36.609585428790979 0 -36.609585428790979 33.652662162790918 0 0 0 0 -44.885508825347642 -52.603340209675935 0 -52.603340209675935 33.551306764442415 0 0 0 0 -51.719632304753759 -37.884143683496859 0 -37.884143683496859 16.276033929986113 0 0 0 0 -115.81956927131978 -103.82903057495787 0 -103.82903057495787 -88.146326086521185 0 0 0 0 -15.073268720879014 -21.667391641924624 0 -21.667391641924624 41.939913870083792 0 0 0 0 0.3113174200989306 -213.52466661833932 0 -213.52466661833932 -387.97874560230775 0 0 0 0 -291.20730444943183 -246.55400850584192 0 -246.55400850584192 -214.46894314432575 0 0 0 0 -174.9646864678798 -297.29799730077502 0 -297.29799730077502 -254.71807402222294 0 0 0 0 -175.71234457592277 -333.53566090988596 0 -333.53566090988596 -271.87589950554684 0 0 0 0 -152.14192205444851 -235.5058203773342 0 -235.5058203773342 -118.08920754814608 0 0 0 0 -183.09085800102912 -179.38859905179925 0 -179.38859905179925 -66.320414340369098 0 0 0 0 -15.902493263300642 -17.767421684585656 0 -17.767421684585656 36.960940958938629 0 0 0 0 -260.07836591707019 -292.41336756757846 0 -292.41336756757846 -37.124293053651854 0 0 0 0 -278.56594720855355 -270.44253044030665 0 -270.44253044030665 -19.692893380204623 0 0 0 0 -123.0817298544207 -224.90027142198414 0 -224.90027142198414 -28.208042975576973 0 0 0 0 -239.67354208171309 -382.31348792820154 0 -382.31348792820154 -155.40340165679663 0 0 0 0 -21.933782366162632 -248.88843339259802 0 -248.88843339259802 -142.79845779108291 0 0 0 0 269.48408405782538 -160.4745368304466 0 -160.4745368304466 -205.11343283382303 0 0 0 0 -53.635056622766569 -194.45506245869547 0 -194.45506245869547 -94.800251866545295 0 0 0 0 -29.837824616002763 -269.39131053325536 0 -269.39131053325536 -236.06417749789398 0 0 0 0 -255.38174838147825 -287.21907252150595 0 -287.21907252150595 -113.44642705286969 0 0 0 0 -257.88321936377906 -251.40686078914587 0 -251.40686078914587 -583.94412841586018 0 0 0 0 -280.14362585311756 -281.08465166630413 0 -281.08465166630413 -8.6655699019320309 0 0 0 0 -352.1612954647353 -312.17711432306805 0 -312.17711432306805 15.904558290651039 0 0 0 0 -232.94092113808438 -78.452800420081985 0 -78.452800420081985 67.52533005335863 0 0 0 0 -315.07770104994415 -144.80280910089641 0 -144.80280910089641 47.617832040918074 0 0 0 0 -20.083978445531102 -7.9691878605626698 0 -7.9691878605626698 32.058521637187368 0 0 0 0 -19.449434440524783 -34.122431175859674 0 -34.122431175859674 40.667435758859938 0 0 0 0 -245.74860123329563 -59.252693279249797 0 -59.252693279249797 102.4024235300858 0 0 0 0 -300.440771005241 32.486785754984339 0 32.486785754984339 47.932513846899383 0 0 0 0 -87.032710451632738 -286.09329157488173 0 -286.09329157488173 -623.50229617969671 0 0 0 0 -409.74610966257751 114.42677088981145 0 114.42677088981145 75.813880866840918 0 0 0 0 -6.1672928098656712 -1.7256327016276032 0 -1.7256327016276032 -0.94722949522980571 0 0 0 0 48.97048478689976 -88.126193849835545 0 -88.126193849835545 40.923657599666512 0 0 0 0 32.520360347407404 27.167139623288676 0 27.167139623288676 -19.3850296822784 0 0 0 0 -7.3613636325317202 13.700395003852464 0 13.700395003852464 -78.283509807741211 0 0 0 0 -768.65535874261695 -127.50463686143848 0 -127.50463686143848 176.48562299162586 0 0 0 0 -604.07863144340809 -527.32857456209786 0 -527.32857456209786 -163.15943572612014 0 0 0 0 -808.34977210007492 -116.59953851037517 0 -116.59953851037517 -99.584968985851447 0 0 0 0 -659.93585933680879 -556.32024016834521 0 -556.32024016834521 -256.50345689944515 0 0 0 0 -305.54754336366022 -320.60390458839902 0 -320.60390458839902 -99.801022147890762 0 0 0 0 -316.87162246879598 -275.90911518998473 0 -275.90911518998473 -89.935196377648026 0 0 0 0 -497.58795019341051 -385.02121695558526 0 -385.02121695558526 -19.667187659826595 0 0 0 0 -425.33470089986804 -325.587796909178 0 -325.587796909178 28.450094317653566 0 0 0 0 -409.22205876095541 -258.59406441195279 0 -258.59406441195279 45.944415900587046 0 0 0 0 -514.92695732196444 -230.40696036759255 0 -230.40696036759255 16.025287484866567 0 0 0 0 -298.90244746743338 -275.09546233388483 0 -275.09546233388483 10.388894654413889 0 0 0 0 -25.07629040464235 -174.21890339477613 0 -174.21890339477613 -90.157195118415984 0 0 0 0 -369.6839913106669 -164.14478208923538 0 -164.14478208923538 -6.2087568885253859 0 0 0 0 -28.376236648808117 -192.36821382127528 0 -192.36821382127528 -16.413042119833335 0 0 0 0 475.42640447586018 -244.28745876112589 0 -244.28745876112589 -152.40135698099766 0 0 0 0 -29.588071765971108 -197.64553894486062 0 -197.64553894486062 -13.431014485606283 0 0 0 0 -25.451151858651428 -209.43638218607657 0 -209.43638218607657 -273.45632804316119 0 0 0 0 -364.02887803084741 -253.5229676567451 0 -253.5229676567451 -65.752642201365234 0 0 0 0 -32.631046655287918 -97.015811471529346 0 -97.015811471529346 -45.164794172397144 0 0 0 0 -97.150106055138167 -205.44974402105981 0 -205.44974402105981 -279.48705748861357 0 0 0 0 148.87404805271944 -23.480953717869852 0 -23.480953717869852 -3.0121222676207253 0 0 0 0 661.32295399750001 211.52996917846031 0 211.52996917846031 -52.631653362687302 0 0 0 0 3.6336187594223475 -1.2772340987920927 0 -1.2772340987920927 0.0012730546934278664 0 0 0 0 -211.82543621744117 -445.65925593390784 0 -445.65925593390784 -261.57734400570916 0 0 0 0 -86.764499851371511 -188.34004123878185 0 -188.34004123878185 -267.25393290516877 0 0 0 0 1.138232205506938 -265.19182899430871 0 -265.19182899430871 -207.19813465518018 0 0 0 0 -57.084775214636807 -93.61089420496306 0 -93.61089420496306 -44.860616482567252 0 0 0 0 236.46955332937796 -83.896857582665689 0 -83.896857582665689 -295.7109976867705 0 0 0 0 -62.537914304020887 -104.12346856084196 0 -104.12346856084196 -264.66811875967142 0 0 0 0 15.753430021446547 -160.16803132443965 0 -160.16803132443965 -242.39592183612058 0 0 0 0 -8.5581715754451579 -179.5054180056427 0 -179.5054180056427 -179.95064186903619 0 0 0 0 -3.2981280135554698 -192.5022404999263 0 -192.5022404999263 -161.41317379461543 0 0 0 0 -38.212000372928742 -189.54165267847566 0 -189.54165267847566 -88.505553987757594 0 0 0 0 -40.475826335097736 -202.95362459695707 0 -202.95362459695707 -164.24354447080987 0 0 0 0 -46.636817632876046 -153.91483402573522 0 -153.91483402573522 -171.09715257384596 0 0 0 0 69.420724551154422 -86.573592493213141 0 -86.573592493213141 -0.21771711628786505 0 0 0 0 -44.095251317936345 -171.1625890055966 0 -171.1625890055966 -174.30841787144345 0 0 0 0 45.815798393381556 -172.86679983974 0 -172.86679983974 -182.41718451233828 0 0 0 0 -16.256964804953896 -96.621551496164102 0 -96.621551496164102 -66.490048888739693 0 0 0 0 526.79714057801903 -539.67013802227393 0 -539.67013802227393 -89.525667535745015 0 0 0 0 -9.6570756144938059 -23.15903197382886 0 -23.15903197382886 -10.975290020578541 0 0 0 0 -147.3672160867427 -139.74670660445372 0 -139.74670660445372 -58.601649700958205 0 0 0 0 18.925039262507042 -1.9944773004269081 0 -1.9944773004269081 -1.3248171597710154 0 0 0 0 -122.20098220029649 -212.48277383174218 0 -212.48277383174218 -79.217676743628545 0 0 0 0 71.489947333504119 -72.040245418140671 0 -72.040245418140671 3.8888107274968888 0 0 0 0 49.826414763665525 -131.97869013639865 0 -131.97869013639865 -182.9241823171651 0 0 0 0 131.3134930840024 -125.23644257266824 0 -125.23644257266824 -44.537538132098234 0 0 0 0 11.510527897289734 -23.031893576336358 0 -23.031893576336358 -49.017869071336953 0 0 0 0 102.53370409604395 -65.503336298290378 0 -65.503336298290378 17.086632598726283 0 0 0 0 118.79127892472025 -92.022742908338842 0 -92.022742908338842 -77.723312397298287 0 0 0 0 193.20274788767711 5.0610313309025514 0 5.0610313309025514 -65.24167527622194 0 0 0 0 -13.154676568808071 -16.830142471723065 0 -16.830142471723065 -6.0750962446046231 0 0 0 0 50.607812503149034 -61.972603710957628 0 -61.972603710957628 -32.340827187086688 0 0 0 0 -138.70784475960681 -139.05108942344668 0 -139.05108942344668 -25.931237512031657 0 0 0 0 -94.348401451963582 -168.89435366217185 0 -168.89435366217185 -47.091881801360614 0 0 0 0 -5.4536500548786648 -11.901665172659875 0 -11.901665172659875 -32.05751061756434 0 0 0 0 255.72385782592755 -152.47511622814272 0 -152.47511622814272 1.5197918436278997 0 0 0 0 115.28916536465113 -62.204215581848075 0 -62.204215581848075 114.01078942662207 0 0 0 0 273.71374008528073 -25.541187116605215 0 -25.541187116605215 -168.7343444904036 0 0 0 0 -1115.9810497091967 -397.12548090542805 0 -397.12548090542805 24.820885358542 0 0 0 0 -574.61870312361862 -187.42002526280339 0 -187.42002526280339 -21.231953058992985 0 0 0 0 -1.3328149259491369 -3.832566588866996 0 -3.832566588866996 -11.659473335110889 0 0 0 0 339.91642142682394 -303.60272162834917 0 -303.60272162834917 -461.77164665154123 0 0 0 0 -131.1702459359949 -1071.2798719661514 0 -1071.2798719661514 -685.36102814157493 0 0 0 0 121.97777335186402 -212.3824202002761 0 -212.3824202002761 -360.8792167056672 0 0 0 0 -11.089869837663628 -11.637509895878367 0 -11.637509895878367 8.7589064660882201 0 0 0 0 -1298.3665863932401 -303.77450278190008 0 -303.77450278190008 128.76430597071885 0 0 0 0 -152.9722769066866 562.10138847502822 0 562.10138847502822 -1022.3605539059299 0 0 0 0 -426.68737924781453 -752.63702895296228 0 -752.63702895296228 -591.04073187024187 0 0 0 0 174.40583187577795 -107.83155529995747 0 -107.83155529995747 -217.53982961007205 0 0 0 0 89.323868888779543 -285.78254109599584 0 -285.78254109599584 -443.65997435288591 0 0 0 0 1.152605719773419 -277.28308625584759 0 -277.28308625584759 -233.08272623046651 0 0 0 0 22.487445773222134 -319.85557664549015 0 -319.85557664549015 -289.99958599192905 0 0 0 0 -191.6403792698693 -467.64056512074239 0 -467.64056512074239 -323.53763485820127 0 0 0 0 -61.733503085648408 -232.3061267439698 0 -232.3061267439698 -128.66224510614848 0 0 0 0 -1.888196813306422 -281.74373026006015 0 -281.74373026006015 -160.582157428551 0 0 0 0 -129.893157318671 -295.53635196432515 0 -295.53635196432515 -154.67953301214584 0 0 0 0 -44.087245796108618 -80.686431110150806 0 -80.686431110150806 42.536379637675964 0 0 0 0 -48.404907131502853 -47.770534973995296 0 -47.770534973995296 49.11509422244626 0 0 0 0 -198.40928534456179 -44.615122734001488 0 -44.615122734001488 73.01492567767491 0 0 0 0 -77.450939967471641 -65.455406536191731 0 -65.455406536191731 42.845074678910919 0 0 0 0 -97.129195632180199 -25.687387265195866 0 -25.687387265195866 -10.842348639564079 0 0 0 0 -251.06091299152467 -482.63841172911634 0 -482.63841172911634 68.250181747976058 0 0 0 0 -9.89119817007753 -2.0729805565567005 0 -2.0729805565567005 21.436733400977133 0 0 0 0 -559.29462499730289 -175.97274069856576 0 -175.97274069856576 53.900134473064099 0 0 0 0 -17.390840113395825 -187.24091768023027 0 -187.24091768023027 -191.29348757473963 0 0 0 0 -170.46906302636489 -80.403896356692712 0 -80.403896356692712 -265.30797815107053 0 0 0 0 11.418736618521507 -67.70864037712272 0 -67.70864037712272 -172.07935285735402 0 0 0 0 201.88581529719522 -65.794968364141823 0 -65.794968364141823 -182.19877556055144 0 0 0 0 126.74221268178371 -155.36382112307365 0 -155.36382112307365 -114.48698088741367 0 0 0 0 195.73051659831253 -162.93590333961856 0 -162.93590333961856 -227.48892767690995 0 0 0 0 183.43241749897425 -128.8145800316006 0 -128.8145800316006 -311.85708696594793 0 0 0 0 21.394447576214588 -299.55386532514262 0 -299.55386532514262 -402.99742040152341 0 0 0 0 -13.207951205040445 -159.05866903178503 0 -159.05866903178503 -214.09877551434874 0 0 0 0 -118.4536682839389 -175.66326529100843 0 -175.66326529100843 -493.52005427425684 0 0 0 0 -33.809951907264946 -98.361176021080752 0 -98.361176021080752 -57.504951397516464 0 0 0 0 72.213801013778721 -255.47568533703725 0 -255.47568533703725 -386.7568761850016 0 0 0 0 40.186016634499538 -246.8049956662835 0 -246.8049956662835 -209.34945819987115 0 0 0 0 4.61190796165846 -11.661099831140682 0 -11.661099831140682 0.33719486337750393 0 0 0 0 -174.59592348331353 -537.9046169193025 0 -537.9046169193025 -1040.1965438574862 0 0 0 0 -142.49660949425015 -390.71266901430954 0 -390.71266901430954 -567.72137454596668 0 0 0 0 -441.24689881938684 -473.59461574236957 0 -473.59461574236957 -501.19028385056299 0 0 0 0 75.86052914229009 -53.007112191293224 0 -53.007112191293224 -38.5473610462167 0 0 0 0 243.8616980217339 -21.690405668632593 0 -21.690405668632593 -74.016292055240228 0 0 0 0 18.260900531908362 1.7830405111007295 0 1.7830405111007295 -14.529409882290569 0 0 0 0 74.21120296906156 -196.84177286970316 0 -196.84177286970316 -296.38652052393263 0 0 0 0 -42.732765382446814 -186.9652937325136 0 -186.9652937325136 -392.5231406283965 0 0 0 0 -137.11543120296847 -441.13013484208568 0 -441.13013484208568 -577.59788331804839 0 0 0 0 -102.64775474982162 -92.342505820758561 0 -92.342505820758561 14.954658266600745 0 0 0 0 -30.625862500281073 -143.78148225077894 0 -143.78148225077894 -83.651523063473633 0 0 0 0 128.64762041835638 -143.16733229936108 0 -143.16733229936108 -110.2058510852512 0 0 0 0 -110.48518972966122 -183.28547346600226 0 -183.28547346600226 -76.676608355865028 0 0 0 0 -38.905605108634425 -84.251069971559218 0 -84.251069971559218 -36.206380126997573 0 0 0 0 64.723814102471806 -69.727457821294593 0 -69.727457821294593 -22.959254335220976 0 0 0 0 93.58705588094017 -134.85588194550837 0 -134.85588194550837 63.1358104818828 0 0 0 0 -21.737010582306539 -98.975791700095215 0 -98.975791700095215 22.410467331133987 0 0 0 0 100.83274544633969 -61.484206390884538 0 -61.484206390884538 -69.706518106802832 0 0 0 0 -35.833812909222615 -93.937728912634157 0 -93.937728912634157 -121.15141611888248 0 0 0 0 65.193329674220877 -156.94016577015464 0 -156.94016577015464 -82.494088273646412 0 0 0 0 255.17259079046198 -138.18324716086681 0 -138.18324716086681 -85.205689189824625 0 0 0 0 183.72435133787803 -138.74153538558858 0 -138.74153538558858 -16.370972152628383 0 0 0 0 291.8712657403521 -18.114715114741557 0 -18.114715114741557 -42.626902397038066 0 0 0 0 587.7859628724982 -92.43363178321124 0 -92.43363178321124 -62.878919980110368 0 0 0 0 308.85687194490311 -57.103983668080218 0 -57.103983668080218 2.1070424385834485 0 0 0 0 303.5511344375991 -42.505959517200608 0 -42.505959517200608 -33.770855062989085 0 0 0 0 233.47054469995055 -80.507947690580295 0 -80.507947690580295 -12.064641445562302 0 0 0 0 295.3958179383626 -178.83025272570649 0 -178.83025272570649 65.18866452704242 0 0 0 0 64.445258920648484 -98.555491623790658 0 -98.555491623790658 39.522804500255006 0 0 0 0 65.521248480492432 -112.88990098780243 0 -112.88990098780243 -98.900332619425171 0 0 0 0 242.69401055626804 -130.20695884851375 0 -130.20695884851375 -50.556887271020969 0 0 0 0 258.78306267907465 -67.586920518812803 0 -67.586920518812803 3.8347890863551584 0 0 0 0 121.19301709645515 -73.358024630546424 0 -73.358024630546424 -41.5305848067037 0 0 0 0 -44.14830713023548 -173.90077579399713 0 -173.90077579399713 41.457739514589775 0 0 0 0 59.132313120295294 -79.986576542536568 0 -79.986576542536568 47.206307850143276 0 0 0 0 -15.018615816403937 -79.896169033928913 0 -79.896169033928913 -12.416208886008164 0 0 0 0 -115.73826546416967 21.18142863470166 0 21.18142863470166 16.309055507341327 0 0 0 0 54.206934820482275 -153.26395183407749 0 -153.26395183407749 -20.466563033347484 0 0 0 0 -70.021739326643001 -91.634514845538433 0 -91.634514845538433 59.073709021469767 0 0 0 0 365.33261817392008 296.08710291341379 0 296.08710291341379 101.64315509753942 0 0 0 0 -17.482043857400768 -4.8958210143416139 0 -4.8958210143416139 0.51821535300826582 0 0 0 0 367.80159059207654 -366.36637680972126 0 -366.36637680972126 64.240596668678336 0 0 0 0 -416.62905829576994 -3.7275733083647538 0 -3.7275733083647538 -56.710616550153645 0 0 0 0 -827.57268296090115 -304.78018759754377 0 -304.78018759754377 45.671082178130746 0 0 0 0 1.5691446497830519 -1.1015454014563915 0 -1.1015454014563915 3.4405492390545547 0 0 0 0 1344.2447849269083 -21.773037388965349 0 -21.773037388965349 -339.96204114478314 0 0 0 0 -448.5514720855972 -24.116625716542785 0 -24.116625716542785 -67.663572248413402 0 0 0 0 -240.3246279420855 -151.89596904765858 0 -151.89596904765858 -124.61763665118906 0 0 0 0 -311.36129084936692 -271.28326760417622 0 -271.28326760417622 -82.640766144596455 0 0 0 0 -114.10540812594991 -207.86454481517285 0 -207.86454481517285 -92.385012638078479 0 0 0 0 -249.04488092966494 -356.97289386973716 0 -356.97289386973716 132.74035268035004 0 0 0 0 -4.7214089954425447 -12.773675891178128 0 -12.773675891178128 -39.446711246345572 0 0 0 0 -118.55932650098111 -398.83245714541772 0 -398.83245714541772 -665.34295090466367 0 0 0 0 -215.82860463569523 -191.404041396926 0 -191.404041396926 355.01899295991097 0 0 0 0 -192.66080271788633 -718.83107935057342 0 -718.83107935057342 108.95215099019697 0 0 0 0 -2.898359567310834 -21.045274100003098 0 -21.045274100003098 6.7999222581186487 0 0 0 0 -301.34805760031304 -244.51512589124195 0 -244.51512589124195 103.11039765090027 0 0 0 0 756.13482349511833 -86.846682496244284 0 -86.846682496244284 -129.05826598977546 0 0 0 0 462.57095521397423 -294.47826475874717 0 -294.47826475874717 192.63907864114049 0 0 0 0 -175.68381708220113 -218.801523787326 0 -218.801523787326 -175.27463168255872 0 0 0 0 -325.58070399583085 -132.8955735148993 0 -132.8955735148993 -173.17372483271174 0 0 0 0 535.72611363441683 -31.265167842143455 0 -31.265167842143455 55.685810837214376 0 0 0 0 569.28374177520709 26.140202573726242 0 26.140202573726242 -30.038957892400504 0 0 0 0 499.18336835262016 37.395136144028584 0 37.395136144028584 -12.033798280474002 0 0 0 0 438.17288572803955 47.208366238792223 0 47.208366238792223 62.609439392093918 0 0 0 0 310.60600995318964 -59.167321122669819 0 -59.167321122669819 45.124426989434141 0 0 0 0 561.64109131979058 228.02359901837553 0 228.02359901837553 -118.36208957616327 0 0 0 0 846.96773429785389 -133.92949425956976 0 -133.92949425956976 58.349683826676483 0 0 0 0 16.837611309310631 -7.2083785825866116 0 -7.2083785825866116 -23.281570165272019 0 0 0 0 439.26537178817671 -126.00529373009158 0 -126.00529373009158 -38.080068689436303 0 0 0 0 -107.49875940142374 -29.044430117794036 0 -29.044430117794036 -165.63595422909566 0 0 0 0 -23.50270647533705 -64.632473165193716 0 -64.632473165193716 -83.47471845977816 0 0 0 0 2.8437550545102965 -15.02046531082215 0 -15.02046531082215 -44.31577264181513 0 0 0 0 -43.05829418344365 -60.217739182677178 0 -60.217739182677178 -167.3773527076919 0 0 0 0 -19.237898410121488 -147.26423313865985 0 -147.26423313865985 -260.80262075156134 0 0 0 0 -56.923144560940273 -163.58769169435527 0 -163.58769169435527 -277.61500247903496 0 0 0 0 -28.780882361232671 -73.32781126196474 0 -73.32781126196474 -58.373153784563613 0 0 0 0 2.9376382773225487 -88.84091510413964 0 -88.84091510413964 -175.17935648040293 0 0 0 0 343.85412274882401 22.365195094448609 0 22.365195094448609 -183.67605418153107 0 0 0 0 8.9225490358006319 -25.664111074814826 0 -25.664111074814826 -111.16017287234882 0 0 0 0 58.769499660313159 -63.829558822293166 0 -63.829558822293166 -219.46515023742541 0 0 0 0 363.04230024322169 23.262766616022418 0 23.262766616022418 -245.09187998268408 0 0 0 0 204.19095169131742 -79.944216774236452 0 -79.944216774236452 -183.83808476326885 0 0 0 0 365.27696874002868 -25.338256496561371 0 -25.338256496561371 -173.02626030894317 0 0 0 0 10.30163912208549 -2.7857338782321932 0 -2.7857338782321932 1.9915949990058905 0 0 0 0 -64.994882150225749 -247.74548777337623 0 -247.74548777337623 -302.03952643858793 0 0 0 0 0.83196959362976486 -150.82783248935266 0 -150.82783248935266 -258.69820570860793 0 0 0 0 -83.787755559817015 -95.407737700355938 0 -95.407737700355938 -176.30805201572366 0 0 0 0 25.756731164958182 -68.807939414111388 0 -68.807939414111388 -253.87846913866815 0 0 0 0 -135.43189277149213 -160.44078163835366 0 -160.44078163835366 -162.6196570563261 0 0 0 0 4.0325296452619028 -11.080535249407191 0 -11.080535249407191 -22.511720726847926 0 0 0 0 5.7325755824228111 -17.715406317960415 0 -17.715406317960415 -17.611581640391986 0 0 0 0 24.636664964578358 -375.66965737788712 0 -375.66965737788712 35.879903176013613 0 0 0 0 -235.82676154701039 -98.767410978597582 0 -98.767410978597582 -126.84161555223 0 0 0 0 48.20643960768939 -317.82242971522464 0 -317.82242971522464 -414.96810571925107 0 0 0 0 -38.875587576368048 -65.236959099426386 0 -65.236959099426386 -56.355478052471923 0 0 0 0 -125.06330686998263 -259.6000833253006 0 -259.6000833253006 78.654508727564462 0 0 0 0 -50.534778075518261 -172.83778744368828 0 -172.83778744368828 -64.803395845600789 0 0 0 0 -153.58716824487601 -250.94712989942013 0 -250.94712989942013 78.344646729474334 0 0 0 0 -54.475225518799562 -197.52116781064524 0 -197.52116781064524 52.626380790591611 0 0 0 0 199.66513055956875 -367.06780128036439 0 -367.06780128036439 35.279708776846746 0 0 0 0 -39.403141895127803 -63.486130952836625 0 -63.486130952836625 -59.471225040126271 0 0 0 0 38.814414127848522 -121.9886494873208 0 -121.9886494873208 -111.30958733338775 0 0 0 0 -22.189029264474811 -197.25645373480074 0 -197.25645373480074 -152.68361082489355 0 0 0 0 -35.073919193266192 -198.44912192657466 0 -198.44912192657466 -152.30445672194901 0 0 0 0 -13.111688230477739 -186.83556983996641 0 -186.83556983996641 -149.8765375291332 0 0 0 0 -65.643861687218305 -200.56307511950035 0 -200.56307511950035 -129.96963243126629 0 0 0 0 -40.367743319475267 -206.64763297706213 0 -206.64763297706213 -164.58055193749533 0 0 0 0 -86.317101953514793 -199.66341966861364 0 -199.66341966861364 -129.35012508721047 0 0 0 0 -45.737466519378358 -161.33511607707806 0 -161.33511607707806 -98.18426382108737 0 0 0 0 -112.07354052624578 -195.14868354361715 0 -195.14868354361715 -71.259910402954119 0 0 0 0 -131.32742175660678 -235.5401775997816 0 -235.5401775997816 -105.36795398546019 0 0 0 0 -87.93683181614324 -206.23578299866858 0 -206.23578299866858 -103.62777907660927 0 0 0 0 239.28840328978549 -103.03407501490437 0 -103.03407501490437 -165.46824971593014 0 0 0 0 82.821977852807322 -398.06024958222224 0 -398.06024958222224 -131.76006780472153 0 0 0 0 -348.95483516319291 -451.02098063669155 0 -451.02098063669155 -137.7395486008827 0 0 0 0 -77.225346254053875 -223.35629216669258 0 -223.35629216669258 -127.3826207859147 0 0 0 0 -119.45683228978305 -230.94750788305828 0 -230.94750788305828 -119.99409969590488 0 0 0 0 -44.082707774010487 -206.8453572402932 0 -206.8453572402932 -195.5697068717318 0 0 0 0 -41.313783740486542 -243.04502937998768 0 -243.04502937998768 -159.24977329712783 0 0 0 0 -12.825083620195073 -195.127653556925 0 -195.127653556925 -201.52210707810809 0 0 0 0 -66.302696102509799 -184.62215826019383 0 -184.62215826019383 -192.03211370848112 0 0 0 0 -37.743549119386444 -191.21153068283729 0 -191.21153068283729 -196.68609594017471 0 0 0 0 -76.398401949019899 -253.93812651419148 0 -253.93812651419148 -237.05669476963158 0 0 0 0 -6.080539886286715 -184.75011270929463 0 -184.75011270929463 -297.43270557779579 0 0 0 0 -16.159048011832056 -175.649303059462 0 -175.649303059462 -227.18841435189734 0 0 0 0 -25.782705646415707 -182.66871917154094 0 -182.66871917154094 -187.83731277866173 0 0 0 0 -17.316649653766945 -172.0818161497682 0 -172.0818161497682 -175.92636132954976 0 0 0 0 -23.216237452368659 -201.20689484937157 0 -201.20689484937157 -165.46234787661524 0 0 0 0 -33.312647447668496 -203.39833801522946 0 -203.39833801522946 -165.05082733491872 0 0 0 0 -35.374013297398051 -198.00304501481151 0 -198.00304501481151 -166.48091837329594 0 0 0 0 -44.782480407523053 -216.41924174882627 0 -216.41924174882627 -190.7177280789947 0 0 0 0 -6.2472228360566078 -73.621666582428588 0 -73.621666582428588 145.74743377688446 0 0 0 0 -1.2241933047626787 -0.22559018355582339 0 -0.22559018355582339 -1.6867490711175783 0 0 0 0 5.5533008599450113 -144.30586404457972 0 -144.30586404457972 -211.96382375673602 0 0 0 0 36.279152259528928 -40.218442812660214 0 -40.218442812660214 -144.90420187917516 0 0 0 0 -18.079841214741464 -133.88623464694865 0 -133.88623464694865 -247.26125072323381 0 0 0 0 17.150020808083354 -105.96102827756704 0 -105.96102827756704 -336.89632861458813 0 0 0 0 -11.34463291875727 -183.30748205789132 0 -183.30748205789132 -247.82395701542919 0 0 0 0 56.157113753746671 -174.08901651536507 0 -174.08901651536507 -303.54514157932135 0 0 0 0 5.0378740301239304 -125.70239630985998 0 -125.70239630985998 -348.54718328689341 0 0 0 0 -1.0425991517149669 -357.83239879903454 0 -357.83239879903454 -483.66220363265529 0 0 0 0 -374.28937360227428 -286.91718823952942 0 -286.91718823952942 -223.52859489766888 0 0 0 0 -438.79678317846992 90.809213657908913 0 90.809213657908913 75.414716681077607 0 0 0 0 187.0533916114091 -122.72043604446867 0 -122.72043604446867 -457.53823311617452 0 0 0 0 -3.7081739454589382 -3.2987427995668668 0 -3.2987427995668668 -2.6570750162425938 0 0 0 0 -277.04492627561558 -17.864186098497157 0 -17.864186098497157 105.75257686321675 0 0 0 0 -37.504290604789276 -143.81331937621871 0 -143.81331937621871 75.550347565636912 0 0 0 0 43.745791401262977 -173.95548831195447 0 -173.95548831195447 -148.73201553974832 0 0 0 0 116.04879107638044 3.8967574287471507 0 3.8967574287471507 -80.412488768146432 0 0 0 0 156.70588420027343 -30.62312650774038 0 -30.62312650774038 -313.4819151375832 0 0 0 0 19.872545286809327 -114.4051391266421 0 -114.4051391266421 171.11516087870768 0 0 0 0 106.90298097868435 -88.468976891416332 0 -88.468976891416332 96.555074621821404 0 0 0 0 -7.8345460627698884 -7.8090487209753974 0 -7.8090487209753974 -9.4955483471608062 0 0 0 0 86.717854026406712 -220.56150293083192 0 -220.56150293083192 146.40962089238838 0 0 0 0 60.832478792006441 -98.853701591103345 0 -98.853701591103345 17.895491982890235 0 0 0 0 93.555249562159588 -53.868479612063311 0 -53.868479612063311 56.832615302555496 0 0 0 0 -231.43410769537149 -64.854730699486026 0 -64.854730699486026 -30.807837497781293 0 0 0 0 43.848844428175653 -129.54383170897563 0 -129.54383170897563 -12.823551374247472 0 0 0 0 -179.45540649002942 -26.209160817754309 0 -26.209160817754309 123.19104730199979 0 0 0 0 -2.1502382251544532 -0.27798323429676941 0 -0.27798323429676941 0.38781483833398056 0 0 0 0 64.155429690188612 -96.941527841818242 0 -96.941527841818242 6.1848668550810544 0 0 0 0 -26.996903116698377 -160.272811895009 0 -160.272811895009 114.63147169695003 0 0 0 0 -192.47117285229888 -173.27452591116798 0 -173.27452591116798 147.27612814472377 0 0 0 0 -17.174675897171255 -52.527653912016831 0 -52.527653912016831 27.921530674436326 0 0 0 0 -3.983857628257681 -33.67109446961981 0 -33.67109446961981 6.6149022506109283 0 0 0 0 -62.157424045377411 -56.680380854439136 0 -56.680380854439136 121.83202018678674 0 0 0 0 56.145086574048037 -219.23699224433949 0 -219.23699224433949 115.43309005936317 0 0 0 0 -118.23854023163767 -83.346268279788546 0 -83.346268279788546 70.555589170173334 0 0 0 0 -8.4230404301477044 -16.489189627724571 0 -16.489189627724571 5.6290486007499112 0 0 0 0 2.449789938138565 -89.842639276077534 0 -89.842639276077534 138.83896244791686 0 0 0 0 71.447830655684811 -105.45426489567581 0 -105.45426489567581 126.35480380401168 0 0 0 0 54.609190851391759 -60.028578607194504 0 -60.028578607194504 122.96994327704306 0 0 0 0 2.3661997557092889 -12.828751544516606 0 -12.828751544516606 17.997643012001376 0 0 0 0 0.93908735900186002 -78.269321425490489 0 -78.269321425490489 240.88373361289268 0 0 0 0 277.55300947738579 -1708.5535284201324 0 -1708.5535284201324 -127.00143708681571 0 0 0 0 -11.317225733422674 -999.22181663033552 0 -999.22181663033552 1046.1177783842577 0 0 0 0 38.083271018063101 -58.72974560206633 0 -58.72974560206633 -22.424376783915314 0 0 0 0 78.130407198335888 -117.28003973364321 0 -117.28003973364321 72.91150516365451 0 0 0 0 16.24675714408778 -21.423816312902559 0 -21.423816312902559 -18.267304631555419 0 0 0 0 481.59761518720188 -154.88145381570212 0 -154.88145381570212 105.27890504008246 0 0 0 0 477.38502684782725 -2.7436978335899767 0 -2.7436978335899767 -104.61800027100253 0 0 0 0 9.1396781532121167 -32.2912575609746 0 -32.2912575609746 32.95074463088531 0 0 0 0 27.038733133360125 -56.799132489743585 0 -56.799132489743585 1.0014267601920466 0 0 0 0 31.302224995836553 -36.674826433009443 0 -36.674826433009443 -17.525487219896579 0 0 0 0 31.790484519733582 -48.292711410791526 0 -48.292711410791526 -3.6638385848073085 0 0 0 0 11.860193374473795 -45.461450926734628 0 -45.461450926734628 -8.5946157307016477 0 0 0 0 8.2010223628821279 -44.787722838804669 0 -44.787722838804669 -46.192605633320554 0 0 0 0 -3.5772106480435468 -19.875163513730513 0 -19.875163513730513 22.845712444304809 0 0 0 0 16.003718635164091 -42.560777984242634 0 -42.560777984242634 29.57575828309507 0 0 0 0 9.084515908276444 -31.066312180281784 0 -31.066312180281784 18.224487710220274 0 0 0 0 17.090177214054648 -41.251616918144592 0 -41.251616918144592 49.413381321902932 0 0 0 0 62.868679461083957 -99.389163255030326 0 -99.389163255030326 43.084877229208359 0 0 0 0 82.826462678232929 -102.05700266036729 0 -102.05700266036729 103.15147557905584 0 0 0 0 57.548620140296407 -107.32280807221105 0 -107.32280807221105 90.582312134793028 0 0 0 0 -3.5276565709050089 -24.92682473584324 0 -24.92682473584324 3.5487173557732632 0 0 0 0 24.226037139516848 -50.531421512921952 0 -50.531421512921952 112.86899342917968 0 0 0 0 45.409013460593997 -63.68192239182099 0 -63.68192239182099 112.20316046975495 0 0 0 0 45.37696567401872 -65.571788200661103 0 -65.571788200661103 70.314078088555107 0 0 0 0 36.960385922589921 -82.589573139533968 0 -82.589573139533968 95.359036864541849 0 0 0 0 41.918485953669006 -88.62754111030381 0 -88.62754111030381 28.476745942858543 0 0 0 0 9.702790643365006 -71.534853236807066 0 -71.534853236807066 87.648318787320022 0 0 0 0 27.49662522923245 -41.340030328028661 0 -41.340030328028661 63.792907412364002 0 0 0 0 4.262467964872485 -109.12494716119181 0 -109.12494716119181 90.515842759574298 0 0 0 0 20.748637446915382 -19.305814901468693 0 -19.305814901468693 68.759748577758728 0 0 0 0 25.02681253557148 -111.39680913099176 0 -111.39680913099176 44.33874650139478 0 0 0 0 3.6453190761521199 -10.182270145160714 0 -10.182270145160714 14.049988542643455 0 0 0 0 34.067796142420633 -52.61664816628705 0 -52.61664816628705 49.633080502052906 0 0 0 0 62.02198501550447 -61.17345830303384 0 -61.17345830303384 -36.163846167398333 0 0 0 0 -32.415914038174378 -73.416767779799557 0 -73.416767779799557 48.098749799013603 0 0 0 0 8.7783130619936856 -110.81374955694628 0 -110.81374955694628 31.853949643307715 0 0 0 0 -64.699404789469554 41.82206465969648 0 41.82206465969648 37.92859251012851 0 0 0 0 327.22931966211763 275.26091189339058 0 275.26091189339058 -512.27383033855585 0 0 0 0 -129.14010255767425 -66.736951886545285 0 -66.736951886545285 122.59525032865713 0 0 0 0 -7.4158094067414027 -7.1205116693869002 0 -7.1205116693869002 -7.1740014226499227 0 0 0 0 21.045219667314086 -15.863714636143413 0 -15.863714636143413 -70.618086431990378 0 0 0 0 13.021021540266958 -4.5165125459464903 0 -4.5165125459464903 -27.005311098309875 0 0 0 0 -13.227332487003878 -55.391145443703863 0 -55.391145443703863 72.311353893499472 0 0 0 0 21.34289023000747 -75.724700104758085 0 -75.724700104758085 46.1151174173865 0 0 0 0 37.569015688248328 -47.556669120702281 0 -47.556669120702281 37.345509081504133 0 0 0 0 7.4329947557204719 -22.840274589697501 0 -22.840274589697501 -11.007735778267701 0 0 0 0 -7.8924521465016682 -29.054196738640798 0 -29.054196738640798 13.893789986781258 0 0 0 0 -75.063959949518903 13.400318293301098 0 13.400318293301098 63.716294605601433 0 0 0 0 84.783997186311581 -89.137241460568021 0 -89.137241460568021 123.10943400496035 0 0 0 0 -35.650849929792457 -153.67001943457581 0 -153.67001943457581 93.390495863750857 0 0 0 0 -34.161331176233944 -221.39196317686583 0 -221.39196317686583 -69.002705424078158 0 0 0 0 -60.832763431099011 -199.56303071982984 0 -199.56303071982984 -51.170657828624826 0 0 0 0 24.512425785642336 -110.38387999309816 0 -110.38387999309816 -29.621558618084237 0 0 0 0 -0.13774632956165078 -4.4095972959549528 0 -4.4095972959549528 5.229169411501374 0 0 0 0 -21.535919505341354 -21.91302516613203 0 -21.91302516613203 -21.32964527813516 0 0 0 0 -8.0156084151069251 -20.89995268065347 0 -20.89995268065347 -25.467958741447376 0 0 0 0 178.97646129061877 -174.55652173327553 0 -174.55652173327553 -77.372321957685926 0 0 0 0 63.138767971948255 -143.62686372013559 0 -143.62686372013559 127.43718997814722 0 0 0 0 92.450083307048772 -193.37187095002446 0 -193.37187095002446 97.237547270618961 0 0 0 0 -26.693055408526561 -156.95322116320312 0 -156.95322116320312 60.613235529453959 0 0 0 0 21.292703547835117 -112.10300607224053 0 -112.10300607224053 95.285467094046453 0 0 0 0 2.1721029196487507 -114.52010853192041 0 -114.52010853192041 69.774157281979569 0 0 0 0 42.420409273290716 -125.07038218052185 0 -125.07038218052185 32.115138883353211 0 0 0 0 43.070064544648631 -114.11373638825899 0 -114.11373638825899 94.947749321712763 0 0 0 0 89.19839667063934 -145.05307334156532 0 -145.05307334156532 62.50813485069375 0 0 0 0 63.844106371660018 -76.743853149258939 0 -76.743853149258939 41.424362240082701 0 0 0 0 36.399140134803019 -88.207360084517859 0 -88.207360084517859 66.264579618931748 0 0 0 0 26.850784550981189 -124.19663987392232 0 -124.19663987392232 0.19647546991473064 0 0 0 0 57.230601618568471 -53.446175463839609 0 -53.446175463839609 69.854871884388558 0 0 0 0 40.689778548359754 -75.252261565728986 0 -75.252261565728986 46.997851481195539 0 0 0 0 40.307193494353214 -81.695126909322425 0 -81.695126909322425 103.34682062020875 0 0 0 0 67.224428718720446 -97.674587274632358 0 -97.674587274632358 109.73969402078001 0 0 0 0 57.933467672788538 -126.16712569434458 0 -126.16712569434458 123.33096778100298 0 0 0 0 102.18644769119419 -125.59330294099072 0 -125.59330294099072 105.18484308072948 0 0 0 0 60.049738750967663 -98.355811301531503 0 -98.355811301531503 73.158546337588632 0 0 0 0 63.082365840193233 -159.62787363330426 0 -159.62787363330426 54.980488060653443 0 0 0 0 434.03945978280535 -205.58896342496155 0 -205.58896342496155 -109.09252671383729 0 0 0 0 -0.074567071111346195 -5.4195604396542194 0 -5.4195604396542194 2.5982601681485562 0 0 0 0 -495.05417123853113 375.99678533764381 0 375.99678533764381 -68.903242863661944 0 0 0 0 66.610396129457513 2.4929928343044594 0 2.4929928343044594 -52.304899881288293 0 0 0 0 301.87757970200619 -57.086606257056701 0 -57.086606257056701 -114.61714264156763 0 0 0 0 23.837316113676934 -147.2538806650191 0 -147.2538806650191 16.547582190512912 0 0 0 0 -441.2517373431765 -22.081304321472999 0 -22.081304321472999 51.434886432136409 0 0 0 0 -471.54026283962594 8.831106593945151 0 8.831106593945151 68.467808413581224 0 0 0 0 -2.2594913677141903 -13.649975106566785 0 -13.649975106566785 -15.270824027265519 0 0 0 0 -4.9546663486235758 -2.6484367384283303 0 -2.6484367384283303 0.98525342680068206 0 0 0 0 -35.718427259169403 -156.7740029432025 0 -156.7740029432025 -0.03740009741159156 0 0 0 0 -28.146573736594291 -125.71227330573311 0 -125.71227330573311 44.011067088256823 0 0 0 0 -169.39913837853237 -236.89093297455111 0 -236.89093297455111 -13.883504012272169 0 0 0 0 -550.31053038976097 -115.38174060270831 0 -115.38174060270831 -4.2629274613573216 0 0 0 0 -180.94492220893153 -137.99504923755012 0 -137.99504923755012 95.093157026851259 0 0 0 0 -458.17693869430877 -162.49411555680126 0 -162.49411555680126 96.808153384568868 0 0 0 0 -187.42394632450305 -146.75175311942439 0 -146.75175311942439 87.714802826521918 0 0 0 0 -203.55615793041943 -119.8048361988258 0 -119.8048361988258 100.53938392931013 0 0 0 0 -23.121489405151806 -157.47490668178943 0 -157.47490668178943 17.274809047696181 0 0 0 0 -122.04025732853916 -205.88937750805053 0 -205.88937750805053 20.360933599215059 0 0 0 0 -67.813168590262649 -144.26176349879825 0 -144.26176349879825 60.528451375372242 0 0 0 0 -45.622089752956526 -141.11504871462967 0 -141.11504871462967 81.070402460754849 0 0 0 0 -102.53900700747181 -128.39939398365095 0 -128.39939398365095 67.585614584037103 0 0 0 0 -72.575166101538343 -169.12043594452552 0 -169.12043594452552 61.833504721765166 0 0 0 0 -158.42725025941036 -101.50401785843133 0 -101.50401785843133 105.37313206517138 0 0 0 0 -140.44022511941148 -91.901899068747298 0 -91.901899068747298 85.93349740433041 0 0 0 0 -136.75505410906044 -144.98391816421645 0 -144.98391816421645 85.522952845742111 0 0 0 0 -95.314350455155363 -109.65030080497672 0 -109.65030080497672 32.661426119942917 0 0 0 0 -75.756973932118854 -154.48925165523542 0 -154.48925165523542 82.015247963827278 0 0 0 0 5.9496768029638929 -27.317605697337228 0 -27.317605697337228 12.080939467810236 0 0 0 0 34.910898942438777 -64.921694176608582 0 -64.921694176608582 38.783848288153223 0 0 0 0 2.7847631866898155 -96.536905689890773 0 -96.536905689890773 44.304221122700255 0 0 0 0 117.4147875912895 -45.331478743195476 0 -45.331478743195476 7.3673376262304373 0 0 0 0 12.738733302423498 -66.653944206849701 0 -66.653944206849701 2.8240884228434879 0 0 0 0 -135.7358674469051 -114.45645727109331 0 -114.45645727109331 82.355669025710085 0 0 0 0 7.1172378579894158 -34.081532395199076 0 -34.081532395199076 12.616964309802285 0 0 0 0 -17.584063037622542 -47.346208457347544 0 -47.346208457347544 8.3313566871734395 0 0 0 0 28.384409628182766 -66.459098394778266 0 -66.459098394778266 14.903949404106243 0 0 0 0 45.84315036620572 -94.427112787067415 0 -94.427112787067415 68.399371290488986 0 0 0 0 32.187374662836511 -11.649204981032824 0 -11.649204981032824 -16.425641848976397 0 0 0 0 -91.153026620406308 119.06472572524217 0 119.06472572524217 -18.158565217454452 0 0 0 0 3.2792680459861003 -56.14886088192543 0 -56.14886088192543 12.136748156975955 0 0 0 0 65.915338455508078 -74.468461223692714 0 -74.468461223692714 6.6317019267187334 0 0 0 0 -29.038744575598685 -118.75086452602409 0 -118.75086452602409 83.622605376956926 0 0 0 0 -51.323092968148558 -45.958718978054094 0 -45.958718978054094 26.790443777805194 0 0 0 0 -2.3526109368425452 -39.602572842756643 0 -39.602572842756643 21.584462331065424 0 0 0 0 -14.818083656894032 -43.69783659811965 0 -43.69783659811965 56.367850342884068 0 0 0 0 -0.20941223778690699 -25.936238786760406 0 -25.936238786760406 36.775312742803379 0 0 0 0 80.872454638010822 -104.73380596345669 0 -104.73380596345669 31.409361947269645 0 0 0 0 81.5187390979263 -64.908152796080685 0 -64.908152796080685 41.69328191304794 0 0 0 0 -149.12345672676747 -52.125884021894308 0 -52.125884021894308 49.883444385328403 0 0 0 0 -81.353767110907938 -151.84762192440394 0 -151.84762192440394 126.06725266849389 0 0 0 0 -56.024484543631843 -141.5409819964043 0 -141.5409819964043 86.174521934823133 0 0 0 0 -44.206793151883176 -167.00362534470332 0 -167.00362534470332 79.552462089262463 0 0 0 0 -71.321041417060769 -155.9678329611852 0 -155.9678329611852 76.876287768478505 0 0 0 0 -64.936692006471276 -177.68070974262082 0 -177.68070974262082 131.50228579463874 0 0 0 0 -174.90592116280459 -130.27974269035622 0 -130.27974269035622 293.4185305128849 0 0 0 0 19.11868558202687 -43.470944056384837 0 -43.470944056384837 37.32220300026637 0 0 0 0 -334.04875973844901 387.02809272683226 0 387.02809272683226 -1164.880790136056 0 0 0 0 -33.177816672956396 -51.496104343521438 0 -51.496104343521438 33.279456638294505 0 0 0 0 814.70348872774048 -661.80027787432482 0 -661.80027787432482 -908.90091183187906 0 0 0 0 24.796354420570424 -18.796219831552662 0 -18.796219831552662 49.172155427644611 0 0 0 0 -19.974827149055812 -37.992817360950724 0 -37.992817360950724 30.256350651741982 0 0 0 0 -1.2691192242709803 -47.871300511963454 0 -47.871300511963454 22.060848032866488 0 0 0 0 -19.869996485678712 -33.864275198451651 0 -33.864275198451651 28.700934020939712 0 0 0 0 -26.509453230022359 -46.432867505004452 0 -46.432867505004452 15.9311231873602 0 0 0 0 -12.592986462404951 -119.75851874087675 0 -119.75851874087675 55.961103502626429 0 0 0 0 54.487626209112932 -108.83921914020357 0 -108.83921914020357 55.451179664782103 0 0 0 0 -179.82746928412234 -105.56532410538421 0 -105.56532410538421 172.93275914813125 0 0 0 0 -216.89805082340899 -177.43492919929486 0 -177.43492919929486 176.24346699202215 0 0 0 0 -7.4966672654845752 -178.21472463996906 0 -178.21472463996906 22.521208990645391 0 0 0 0 65.416367627785746 -43.883194890655517 0 -43.883194890655517 -7.4568233101450616 0 0 0 0 2.1923785640392452 -128.59729993126894 0 -128.59729993126894 21.908067740867409 0 0 0 0 150.54368593209074 -47.908782051956223 0 -47.908782051956223 -117.56473778283544 0 0 0 0 -140.23997794286697 -304.95915793926906 0 -304.95915793926906 -98.44228610987193 0 0 0 0 50.685946136000211 -52.668835234287599 0 -52.668835234287599 -0.22151521519264961 0 0 0 0 94.786850321910606 -98.664609561661564 0 -98.664609561661564 93.235620583353011 0 0 0 0 98.210255179874366 -65.626332498857664 0 -65.626332498857664 6.6812672025826032 0 0 0 0 33.134035287657753 -85.328269811368955 0 -85.328269811368955 39.847500856853003 0 0 0 0 51.687791499323794 -89.213109674674342 0 -89.213109674674342 41.338578887377707 0 0 0 0 65.377970952467876 -56.146668886427506 0 -56.146668886427506 42.840713577199494 0 0 0 0 101.92738063310389 -68.867826764457277 0 -68.867826764457277 45.812731507947319 0 0 0 0 67.843864697861136 -72.450358558535299 0 -72.450358558535299 88.950373635125288 0 0 0 0 50.699388917477336 -81.782402250886662 0 -81.782402250886662 39.349023676737488 0 0 0 0 71.604131850799604 -57.42102986759528 0 -57.42102986759528 46.320586210800684 0 0 0 0 29.952373235253617 -68.491269904145156 0 -68.491269904145156 27.027328968608344 0 0 0 0 47.571885887882672 -89.617565158128855 0 -89.617565158128855 26.650822363631733 0 0 0 0 323.26764917603577 -73.101596357311792 0 -73.101596357311792 -18.734154779813252 0 0 0 0 -25.556689036195166 -103.55705961857348 0 -103.55705961857348 133.97812674315355 0 0 0 0 15.844486692155886 -69.242390757582072 0 -69.242390757582072 57.363912212264523 0 0 0 0 152.72811747554806 -35.683872579389572 0 -35.683872579389572 11.921967731974291 0 0 0 0 360.93359672406223 -112.6610140268167 0 -112.6610140268167 7.2879231224578689 0 0 0 0 236.88801169450744 -199.93468586643939 0 -199.93468586643939 -15.05230246894007 0 0 0 0 113.91751131113415 -200.18225967946091 0 -200.18225967946091 199.613369942188 0 0 0 0 -19.318391148421256 -11.36112972571452 0 -11.36112972571452 12.251545800614119 0 0 0 0 312.77338100914494 -571.52300632613697 0 -571.52300632613697 -1213.3265487633771 0 0 0 0 -390.76104838474566 -267.099288967951 0 -267.099288967951 91.998617914097849 0 0 0 0 -502.87042105539877 -514.12069120336128 0 -514.12069120336128 -273.34405315770709 0 0 0 0 10.644068902104486 -20.686383802321586 0 -20.686383802321586 -5.889693483673085 0 0 0 0 -256.92909581554704 -218.95452532771378 0 -218.95452532771378 136.24077663155913 0 0 0 0 -325.5414576746989 -234.63816120661795 0 -234.63816120661795 147.06343771909451 0 0 0 0 -273.51290114294716 -118.2547923222462 0 -118.2547923222462 131.33015403765603 0 0 0 0 -469.64463147809147 -199.91612998280834 0 -199.91612998280834 318.96745910158279 0 0 0 0 370.09193281756598 -1861.7298273827309 0 -1861.7298273827309 859.43176570605647 0 0 0 0 -385.47768257801727 188.02896780928404 0 188.02896780928404 2027.2396495224311 0 0 0 0 2331.9809941083076 497.59616535495297 0 497.59616535495297 616.54809939048027 0 0 0 0 -742.28201984713087 -93.338203123421408 0 -93.338203123421408 503.35803689585737 0 0 0 0 0.96469900601732661 -121.49031090147446 0 -121.49031090147446 -263.39518815778865 0 0 0 0 28.667616590028047 -168.77934722498321 0 -168.77934722498321 -187.33300563299053 0 0 0 0 52.987002800757182 -34.720386004788452 0 -34.720386004788452 -351.89825043529299 0 0 0 0 -289.86703626200324 32.824673132234238 0 32.824673132234238 468.26742768561417 0 0 0 0 28.829251299069199 3.0662705298554442 0 3.0662705298554442 -0.058744463809803804 0 0 0 0 255.09873864322435 588.43781698676776 0 588.43781698676776 -242.81484562675178 0 0 0 0 34.600364408316068 -13.608992503621522 0 -13.608992503621522 -4.5840236158607759 0 0 0 0 -99.338880956973298 -76.265249218273311 0 -76.265249218273311 120.86961231173336 0 0 0 0 44.610731613520329 -80.214732235804149 0 -80.214732235804149 16.806216217322799 0 0 0 0 -43.269925798729901 -62.564475065316536 0 -62.564475065316536 9.4097578073054144 0 0 0 0 -21.299716321736923 -154.44251279271703 0 -154.44251279271703 107.96634653269757 0 0 0 0 -60.346658302120034 -92.068968494776399 0 -92.068968494776399 -31.981640941730333 0 0 0 0 88.708360905100562 -298.42257175013947 0 -298.42257175013947 58.86632626424398 0 0 0 0 -154.3597384630375 -317.324319540852 0 -317.324319540852 223.53719981452741 0 0 0 0 54.948705545655685 -61.918550757802223 0 -61.918550757802223 -106.73780886676104 0 0 0 0 152.63811396245728 -105.07950422634713 0 -105.07950422634713 -139.05642741857355 0 0 0 0 82.684758225615951 -254.24823174845551 0 -254.24823174845551 -30.21434944590419 0 0 0 0 -53.494731232276273 -93.452060043039438 0 -93.452060043039438 -42.52987826277019 0 0 0 0 -463.25284152006498 -109.77857421868976 0 -109.77857421868976 179.50643503995707 0 0 0 0 341.05019589375297 -465.2093432188567 0 -465.2093432188567 -495.45089944740539 0 0 0 0 -216.60273289829456 72.801855120753999 0 72.801855120753999 -235.22759997493813 0 0 0 0 19.09385541996744 -205.4838855400958 0 -205.4838855400958 -166.27423088948035 0 0 0 0 34.528016008640407 -265.77032680490811 0 -265.77032680490811 -240.89808727863965 0 0 0 0 196.70091660268372 -321.9631841273258 0 -321.9631841273258 -234.5243764274619 0 0 0 0 149.98334025205986 -204.60662577706762 0 -204.60662577706762 -237.70684309500939 0 0 0 0 52.782248936622636 -179.16493671227818 0 -179.16493671227818 -217.35844915429698 0 0 0 0 204.71697246097028 -551.32068410684951 0 -551.32068410684951 -244.5823998368935 0 0 0 0 -632.87587709469517 -1174.4568358647821 0 -1174.4568358647821 -494.60481112734851 0 0 0 0 264.45474204617494 -401.59402162261722 0 -401.59402162261722 -814.26641601780284 0 0 0 0 151.17544969446681 -198.31033143487457 0 -198.31033143487457 -363.22630204487359 0 0 0 0 356.19360846777272 -123.80874441024571 0 -123.80874441024571 -343.61901934698835 0 0 0 0 72.108837375562871 -255.354876082396 0 -255.354876082396 -276.42512733622425 0 0 0 0 226.17861864077531 -150.41943271919558 0 -150.41943271919558 -208.02095806530997 0 0 0 0 72.452254618611732 -261.65687090074312 0 -261.65687090074312 -160.862851238031 0 0 0 0 -205.82258363688015 -447.75449936293444 0 -447.75449936293444 -251.33250617404724 0 0 0 0 -297.88976044059382 -273.90045383355027 0 -273.90045383355027 -102.97845708655586 0 0 0 0 -455.58347623436566 -338.19670485725419 0 -338.19670485725419 132.25957789774839 0 0 0 0 -391.55631632926088 -321.84200907252489 0 -321.84200907252489 -11.549109962714283 0 0 0 0 -449.45626728463685 -313.81775477910196 0 -313.81775477910196 0.7868850517043029 0 0 0 0 -452.29400574893225 -315.11328275621963 0 -315.11328275621963 26.359321198545331 0 0 0 0 -521.30373601159954 -276.40189758497399 0 -276.40189758497399 43.203364901179157 0 0 0 0 -547.08585533281439 -390.43006029217941 0 -390.43006029217941 -56.555870540792966 0 0 0 0 -1595.7551702244018 -756.0325531444214 0 -756.0325531444214 220.06576126712753 0 0 0 0 -742.20174281467916 -554.30019580083535 0 -554.30019580083535 92.289901806284888 0 0 0 0 -1346.6235715524817 -915.53155679300107 0 -915.53155679300107 -199.13259131160339 0 0 0 0 0.59544127093860766 -3.7821659050826213 0 -3.7821659050826213 -0.49689522512721851 0 0 0 0 161.53416215161997 -256.63414099349666 0 -256.63414099349666 -498.30288819554698 0 0 0 0 -457.94666011200752 -486.13906345773285 0 -486.13906345773285 -295.32352004602217 0 0 0 0 -789.4654313907231 -833.40959518933232 0 -833.40959518933232 -265.44943147526646 0 0 0 0 -2.9626766538032774 -1.8467980121718881 0 -1.8467980121718881 -15.60644241378057 0 0 0 0 -1438.1788172838424 -483.79225868436151 0 -483.79225868436151 -21.270654902073147 0 0 0 0 -1846.1380327984225 -694.13152966484085 0 -694.13152966484085 89.649368024751311 0 0 0 0 1084.2128309849904 -482.16115008502493 0 -482.16115008502493 59.554247098316409 0 0 0 0 421.90615525352769 -189.27343720532735 0 -189.27343720532735 593.40859178599931 0 0 0 0 1215.3870406416681 -1297.6495638592569 0 -1297.6495638592569 -1111.2944567266168 0 0 0 0 1319.5761404459336 -93.132115899634982 0 -93.132115899634982 -729.02664955745422 0 0 0 0 49.873346706448501 27.156353271220269 0 27.156353271220269 -392.88629510243481 0 0 0 0 485.20265756336448 236.25058500848536 0 236.25058500848536 -435.91325276244334 0 0 0 0 14.305297814183916 -2.5250388409880742 0 -2.5250388409880742 -0.88433521813120564 0 0 0 0 856.26407565730915 -935.4577934705776 0 -935.4577934705776 162.65234455840618 0 0 0 0 1456.5710118499119 -845.28822660334481 0 -845.28822660334481 10.046815755355965 0 0 0 0 20.61752779791442 -9.4831910628685705 0 -9.4831910628685705 6.3362893583620234 0 0 0 0 1433.5084792994166 -1201.6398218631793 0 -1201.6398218631793 284.18241568976373 0 0 0 0 240.76380703318864 -804.35516529186862 0 -804.35516529186862 796.78579500333217 0 0 0 0 178.59608232661958 90.595342090452164 0 90.595342090452164 -64.342858730651642 0 0 0 0 54.040693209937615 -37.965823497446067 0 -37.965823497446067 5.8574848887792541 0 0 0 0 919.6909648067849 328.26785576289831 0 328.26785576289831 145.48732079617912 0 0 0 0 107.92145921000338 -6.4498760980259249 0 -6.4498760980259249 -184.83496103665493 0 0 0 0 1061.2496479961701 -32.917537467212242 0 -32.917537467212242 -400.14165265161864 0 0 0 0 2333.6143641050003 1891.8508954886142 0 1891.8508954886142 200.82500420607175 0 0 0 0 800.90794761650614 -303.61991817580201 0 -303.61991817580201 -627.90485446839557 0 0 0 0 292.9434969288086 -364.16160122733072 0 -364.16160122733072 -230.7066992447435 0 0 0 0 612.05667532249936 -181.93873189697115 0 -181.93873189697115 -128.31336455862038 0 0 0 0 354.23525368575429 -138.86396317532581 0 -138.86396317532581 -63.315112400661747 0 0 0 0 603.92363682421637 -143.07732424635606 0 -143.07732424635606 -163.45260839581169 0 0 0 0 467.40149958161783 -5.5797259544779081 0 -5.5797259544779081 -95.566395325709891 0 0 0 0 708.12019383748702 -99.450999081713235 0 -99.450999081713235 -147.13036246227784 0 0 0 0 705.09349793634101 -123.55480997289146 0 -123.55480997289146 -154.94795808113122 0 0 0 0 787.95555025356589 -67.253271647256042 0 -67.253271647256042 -170.94829128671881 0 0 0 0 733.43702604340797 48.624022890926426 0 48.624022890926426 17.014567418154911 0 0 0 0 323.32439852097013 -76.374382188150776 0 -76.374382188150776 61.193972259359725 0 0 0 0 521.2066877205325 -49.083499638774811 0 -49.083499638774811 30.276929392974125 0 0 0 0 557.77873627783265 -90.903042040492437 0 -90.903042040492437 -52.775047387625818 0 0 0 0 558.07009759463836 -84.124618559388182 0 -84.124618559388182 -72.615129192054155 0 0 0 0 29.330031359218992 -47.366007710112171 0 -47.366007710112171 -27.452374983586196 0 0 0 0 50.508440639117907 -45.170431735197781 0 -45.170431735197781 -46.740354331283015 0 0 0 0 45.708138295027311 -40.965942632938095 0 -40.965942632938095 -35.273408863947225 0 0 0 0 3.3259695753359466 -25.126891535233341 0 -25.126891535233341 -20.342768448138088 0 0 0 0 77.259356999398733 -33.315179568175154 0 -33.315179568175154 -10.156842863565544 0 0 0 0 69.8151064136473 -41.927826134791758 0 -41.927826134791758 -19.884296437074227 0 0 0 0 16.251125001446528 -34.350472684850047 0 -34.350472684850047 -14.34900627037274 0 0 0 0 43.33236053313442 -26.274874606821548 0 -26.274874606821548 -17.329331977087271 0 0 0 0 -757.43277316827152 -304.46579341320466 0 -304.46579341320466 -94.050659815049585 0 0 0 0 35.516719605261983 -25.675600228614638 0 -25.675600228614638 9.4481820311720952 0 0 0 0 -1236.7024629152656 -661.2677350664635 0 -661.2677350664635 -458.32784745218669 0 0 0 0 -1198.093877267107 -711.3057041729553 0 -711.3057041729553 -395.02680272252837 0 0 0 0 10.222192655691885 -7.4009090528508352 0 -7.4009090528508352 -0.86084476248259989 0 0 0 0 41.576502807231009 24.203977568088703 0 24.203977568088703 -93.584770487024798 0 0 0 0 -255.48255415943277 -457.99517065263717 0 -457.99517065263717 -504.40208018593512 0 0 0 0 15.424677825505118 -8.0819022808724128 0 -8.0819022808724128 -48.849013563872262 0 0 0 0 -987.5952839320089 -443.13666939888572 0 -443.13666939888572 -18.438598660130083 0 0 0 0 -991.60600529419207 -412.47385403880298 0 -412.47385403880298 -232.86793733669765 0 0 0 0 -219.82906528798048 -415.62752857578744 0 -415.62752857578744 -229.48444785042193 0 0 0 0 40.269120394819765 -655.9015520514231 0 -655.9015520514231 -264.50931436543033 0 0 0 0 101.97415569095756 -785.22954123979798 0 -785.22954123979798 -404.30035690119257 0 0 0 0 -1474.799388743937 -1076.0274066285228 0 -1076.0274066285228 -429.89384627616528 0 0 0 0 583.56657998320588 -399.13185552084542 0 -399.13185552084542 -323.1105370825826 0 0 0 0 2.0258533978531545 -5.674435647085204 0 -5.674435647085204 -2.3030903504387652 0 0 0 0 -463.26344479403633 -905.4061622564368 0 -905.4061622564368 -636.367725685197 0 0 0 0 -248.17536706803367 -767.35983004667287 0 -767.35983004667287 -670.67891166485788 0 0 0 0 -251.35322008770891 -760.34249152548728 0 -760.34249152548728 -356.85534247382384 0 0 0 0 -302.90788694188814 -510.15016966499024 0 -510.15016966499024 -586.24993414092023 0 0 0 0 -59.430620430299314 -492.90076655076336 0 -492.90076655076336 -586.50491843640339 0 0 0 0 -320.84387186949607 -609.37825126781536 0 -609.37825126781536 -523.4836824782833 0 0 0 0 -322.46990769602417 -543.09651460070381 0 -543.09651460070381 -832.92600509982003 0 0 0 0 -522.49614844036114 -706.70345379975151 0 -706.70345379975151 -564.9724323029368 0 0 0 0 -313.49349212566449 -445.14878967630284 0 -445.14878967630284 -837.62835449400882 0 0 0 0 -713.09203289001016 -951.45195830154989 0 -951.45195830154989 -1257.0832574260276 0 0 0 0 4.5548546288980543 -9.6930548738153846 0 -9.6930548738153846 -1.0859661486744017 0 0 0 0 36.499222293793423 -28.319526405409341 0 -28.319526405409341 13.756806711959754 0 0 0 0 33.628558792117474 -91.543439703121294 0 -91.543439703121294 -21.916676316301164 0 0 0 0 -137.68034837977029 -448.10862225272285 0 -448.10862225272285 -1034.8961935258849 0 0 0 0 -367.62449032242876 -832.24548045240226 0 -832.24548045240226 -697.58914867534622 0 0 0 0 -9.4068533108802512 -456.23166814355136 0 -456.23166814355136 -812.18248427089202 0 0 0 0 0.12154972520511365 -505.60716940861676 0 -505.60716940861676 -714.27660922313953 0 0 0 0 -124.80217754309706 -412.68051904348613 0 -412.68051904348613 -692.75705357309198 0 0 0 0 -162.65959921562171 -579.34579186439805 0 -579.34579186439805 -865.97472669678973 0 0 0 0 -116.53336390845652 -576.20097046034061 0 -576.20097046034061 -383.69384880781581 0 0 0 0 9.9142054200783605 -422.79500625573928 0 -422.79500625573928 -530.10669488958774 0 0 0 0 -74.906946047631209 -510.945182280886 0 -510.945182280886 -580.57040335484635 0 0 0 0 -0.095347839735040907 -539.96318488914403 0 -539.96318488914403 -335.68082013725507 0 0 0 0 9.5257242758689245 -479.545215641288 0 -479.545215641288 -314.65751744912268 0 0 0 0 53.594182572211139 -605.99515671690824 0 -605.99515671690824 -256.1802390044395 0 0 0 0 79.545848518973798 -574.00116459748097 0 -574.00116459748097 -225.41690989692506 0 0 0 0 141.28117074028705 -446.95945985322032 0 -446.95945985322032 -182.47105016438377 0 0 0 0 -41.562509857234545 -486.71058170666765 0 -486.71058170666765 -185.91738001923659 0 0 0 0 0.22664486077063947 -492.5697626341709 0 -492.5697626341709 15.040153661509976 0 0 0 0 121.47475212173595 -267.55130418696353 0 -267.55130418696353 277.37700373849839 0 0 0 0 148.58453284803545 -346.67025508044753 0 -346.67025508044753 308.20332197418156 0 0 0 0 145.10027394935605 -474.01090000968179 0 -474.01090000968179 71.329698627796461 0 0 0 0 309.66308972070692 -223.51613984278083 0 -223.51613984278083 306.36050460924525 0 0 0 0 169.14373230357887 -392.54139965079958 0 -392.54139965079958 -72.899693160972674 0 0 0 0 85.502125705072103 -581.84242056404673 0 -581.84242056404673 -215.22232695166167 0 0 0 0 -181.12056098246831 -454.98765139521129 0 -454.98765139521129 -221.01719161808842 0 0 0 0 136.36177189202499 -660.28032840759852 0 -660.28032840759852 -135.30354388268461 0 0 0 0 3.0045975539495942 -8.3870857645760566 0 -8.3870857645760566 -2.2068614381809368 0 0 0 0 -280.58784267505689 -753.44602987929466 0 -753.44602987929466 -322.37898554789354 0 0 0 0 -822.04068151563843 -706.24003940557031 0 -706.24003940557031 -93.397711983518093 0 0 0 0 -1121.8253860469267 -160.85755757904917 0 -160.85755757904917 300.02517956346492 0 0 0 0 -437.08865493547637 -337.10710612992261 0 -337.10710612992261 -281.24494411132764 0 0 0 0 303.02327428720309 -429.4942431475065 0 -429.4942431475065 -79.469701991991315 0 0 0 0 -306.85446225923806 -659.54545117556154 0 -659.54545117556154 308.42032213923812 0 0 0 0 388.83711732903612 -789.04096964980272 0 -789.04096964980272 321.77126874163878 0 0 0 0 282.499399119808 -529.96824839436067 0 -529.96824839436067 133.19639395854028 0 0 0 0 675.33627492244705 -190.31292855010543 0 -190.31292855010543 364.60773124840125 0 0 0 0 358.93581466650221 -606.51876933727397 0 -606.51876933727397 742.97258134178992 0 0 0 0 0.83033149990244226 -2.7795442093755582 0 -2.7795442093755582 6.1369879467384436 0 0 0 0 -235.21027664349822 94.598834387468742 0 94.598834387468742 329.87448849999782 0 0 0 0 258.11281195984338 -275.80712745730125 0 -275.80712745730125 927.42833054365474 0 0 0 0 359.22224044385575 -544.0703424751556 0 -544.0703424751556 790.60734910755127 0 0 0 0 -512.49598901369609 -314.1909773063926 0 -314.1909773063926 974.75221209542724 0 0 0 0 -507.71328531986364 -379.89848137663648 0 -379.89848137663648 108.9978149006929 0 0 0 0 -514.78153133747401 26.022096378008428 0 26.022096378008428 307.15351345294948 0 0 0 0 -722.34281466274115 -258.1884801703618 0 -258.1884801703618 92.546702064340934 0 0 0 0 -370.51780290807073 -156.09005701094975 0 -156.09005701094975 4.188861060225463 0 0 0 0 -421.9686964142893 -154.13028263427259 0 -154.13028263427259 112.76421888634104 0 0 0 0 140.85653254025965 -25.702964943176994 0 -25.702964943176994 -82.667391712901008 0 0 0 0 -307.23970041461871 -59.975963048927952 0 -59.975963048927952 -1.4694685903450591 0 0 0 0 -292.37953807751182 -76.239678432835717 0 -76.239678432835717 -10.525243023752409 0 0 0 0 487.72368599149922 -74.114319998867359 0 -74.114319998867359 -62.309136522464541 0 0 0 0 391.71686899273482 -512.81281608608879 0 -512.81281608608879 662.73770122120914 0 0 0 0 -1.2617614242007562 -3.5812533095598553 0 -3.5812533095598553 3.3639892899773258 0 0 0 0 1.9275025516336939 -2.8114528851961893 0 -2.8114528851961893 -0.63771646996266895 0 0 0 0 401.28893643649644 -374.94271259150446 0 -374.94271259150446 230.57773518455906 0 0 0 0 98.133450529712718 -419.6382411329414 0 -419.6382411329414 638.21554549271968 0 0 0 0 98.520410324155819 -264.86955804628451 0 -264.86955804628451 664.57489546678835 0 0 0 0 -0.06039599977520993 -350.45279147789915 0 -350.45279147789915 593.51718723665545 0 0 0 0 140.54221082173171 -278.80083147554797 0 -278.80083147554797 591.03213634044369 0 0 0 0 235.62732304472593 -393.73058590270739 0 -393.73058590270739 433.93935989366946 0 0 0 0 264.4792463449412 -254.66829338838579 0 -254.66829338838579 662.85010496263567 0 0 0 0 310.2585583681248 -502.23300688467316 0 -502.23300688467316 669.39563439096673 0 0 0 0 293.69134246197063 -484.36541462961031 0 -484.36541462961031 764.96511167554127 0 0 0 0 338.34883236397582 -361.44075355674067 0 -361.44075355674067 555.02172764026182 0 0 0 0 -73.430110863002483 -228.33964800504327 0 -228.33964800504327 -3.2630646627440001 0 0 0 0 -134.19176901317769 -122.6677799785848 0 -122.6677799785848 64.706096316396724 0 0 0 0 97.991827325779013 -82.581839192112966 0 -82.581839192112966 -105.6374655193431 0 0 0 0 -16.878129063043161 -198.53124600940646 0 -198.53124600940646 8.8005799905622553 0 0 0 0 -32.478602618037257 -85.008376879290154 0 -85.008376879290154 74.685535591703228 0 0 0 0 -150.48088253091555 -96.695451574749313 0 -96.695451574749313 46.74418241109305 0 0 0 0 -144.69475984809105 23.458555728429928 0 23.458555728429928 45.446486954832039 0 0 0 0 -171.94624569219013 -51.453890510478232 0 -51.453890510478232 93.240062134762411 0 0 0 0 -217.58958035313844 -44.263388018982369 0 -44.263388018982369 37.648012699515675 0 0 0 0 -252.50402000295435 68.722175443312153 0 68.722175443312153 -8.0678309130598791 0 0 0 0 5.742851697243168 -29.49853452933894 0 -29.49853452933894 -14.123464553631493 0 0 0 0 111.96424802510592 -146.63394146033897 0 -146.63394146033897 -114.55269320739899 0 0 0 0 20.596995161848838 -18.369290331488344 0 -18.369290331488344 10.22103299209013 0 0 0 0 -0.8083336918238313 -68.747553845846028 0 -68.747553845846028 56.379056872036472 0 0 0 0 -44.109323873650283 -330.86791306392115 0 -330.86791306392115 17.233748171900515 0 0 0 0 -163.1753463804032 -45.928653235419347 0 -45.928653235419347 327.44970151098096 0 0 0 0 8.8489080171439696 -69.362099421810001 0 -69.362099421810001 57.676536206118357 0 0 0 0 -21.109782612297721 -4.5453802152898817 0 -4.5453802152898817 10.682762136226415 0 0 0 0 -278.91459657400264 9.3196533344889758 0 9.3196533344889758 81.739837293125674 0 0 0 0 -168.21082809445943 -45.862824692419963 0 -45.862824692419963 90.377260572982777 0 0 0 0 -287.53873423967252 -84.176872053429634 0 -84.176872053429634 186.2342914656183 0 0 0 0 -434.43808859886485 -306.57268053510052 0 -306.57268053510052 99.046444436597085 0 0 0 0 -265.27409770725535 -135.44306872214474 0 -135.44306872214474 21.231608558693551 0 0 0 0 -285.27009806966089 -79.042997614922569 0 -79.042997614922569 218.39216134516755 0 0 0 0 -91.207586526114028 -7.1073390789642872 0 -7.1073390789642872 104.72008730039306 0 0 0 0 -80.001556464529131 -138.91042886317518 0 -138.91042886317518 14.357480649552599 0 0 0 0 22.761171281454153 -86.403429495017917 0 -86.403429495017917 -106.57220407713612 0 0 0 0 -65.085983541838687 -17.428687641326633 0 -17.428687641326633 525.73222472672933 0 0 0 0 -0.072352683557255659 -93.187199756113841 0 -93.187199756113841 282.71424826711882 0 0 0 0 5.5168208348408712 -0.15038531115030196 0 -0.15038531115030196 -2.9117945908545835 0 0 0 0 -21.083999104695977 -236.13636853101343 0 -236.13636853101343 310.2092553252478 0 0 0 0 -199.91439345307299 -20.189766029347084 0 -20.189766029347084 169.75475441047456 0 0 0 0 95.684177431787248 -144.00815919592424 0 -144.00815919592424 5.4347101450621267 0 0 0 0 33.348367229220457 -140.15708541604545 0 -140.15708541604545 75.066966762977245 0 0 0 0 0.23686557454493595 -60.792686688631875 0 -60.792686688631875 2.8446330453261908 0 0 0 0 -71.493430393675226 -62.427598210520955 0 -62.427598210520955 30.745477678952739 0 0 0 0 -68.671428564768576 -60.494763693994173 0 -60.494763693994173 61.367397504036489 0 0 0 0 -18.613144176051719 -46.946073268460168 0 -46.946073268460168 4.7955762962847075 0 0 0 0 -22.579159287990478 -55.905911260645553 0 -55.905911260645553 83.043625577687635 0 0 0 0 2.2808719964845068 0.48179330549326949 0 0.48179330549326949 -2.8441355767733114 0 0 0 0 -13.769817748572677 34.287479053047718 0 34.287479053047718 139.69815564553937 0 0 0 0 -14.338326346393387 -19.171154771438907 0 -19.171154771438907 13.856146775811794 0 0 0 0 -215.31794973070646 -623.947484302671 0 -623.947484302671 -860.20477148193459 0 0 0 0 -0.54026260892715072 -390.99311474518618 0 -390.99311474518618 -802.44903285190594 0 0 0 0 -282.96919027189142 -485.39415150816149 0 -485.39415150816149 -802.29382743442693 0 0 0 0 -49.725245089939563 -72.469772019609081 0 -72.469772019609081 30.664671078404353 0 0 0 0 -5.3684367208335857 -2.5722267668666596 0 -2.5722267668666596 3.573720925655465 0 0 0 0 -56.106485106400214 -3.7719767905400658 0 -3.7719767905400658 44.715239163346268 0 0 0 0 5.0270932984724377 -33.39247595664051 0 -33.39247595664051 16.482857683266189 0 0 0 0 14.504222622665111 -117.34341600865446 0 -117.34341600865446 56.580001347465441 0 0 0 0 -3.3225404422264546 20.915823441922839 0 20.915823441922839 23.761892475460627 0 0 0 0 14.446212307525343 -101.5805830408695 0 -101.5805830408695 87.545340975397266 0 0 0 0 -80.507959624570503 -8.2474999760452192 0 -8.2474999760452192 33.051797942323901 0 0 0 0 -1.8552677702226674 -9.8126300813098553 0 -9.8126300813098553 5.308380808593995 0 0 0 0 -75.394102087724605 -44.201650703151245 0 -44.201650703151245 26.537197081030172 0 0 0 0 1.4736670649243742 -32.728254769440611 0 -32.728254769440611 13.485057520635138 0 0 0 0 13.014412821850149 -41.822261379053828 0 -41.822261379053828 17.40547072628334 0 0 0 0 -60.999971312587149 -96.330193075863463 0 -96.330193075863463 -25.794212506065378 0 0 0 0 -5.8476083421709291 -8.1662266456593713 0 -8.1662266456593713 3.4939730879165438 0 0 0 0 32.063382841208806 -46.701596022727266 0 -46.701596022727266 35.441099835270222 0 0 0 0 -23.088428786693612 -40.340759439624549 0 -40.340759439624549 5.6856515352264978 0 0 0 0 21.076819384325063 -84.306488511079806 0 -84.306488511079806 5.0502996532595716 0 0 0 0 -400.73206584328909 -108.60861033561923 0 -108.60861033561923 203.03147442408954 0 0 0 0 173.07698229316156 -487.95788263790018 0 -487.95788263790018 342.18728794917115 0 0 0 0 -104.42765794263687 -110.91311125145876 0 -110.91311125145876 -166.31837236895808 0 0 0 0 587.53084644606133 70.803266092945705 0 70.803266092945705 -19.287254214214045 0 0 0 0 904.1565774049086 -53.174076824143413 0 -53.174076824143413 80.757364862540271 0 0 0 0 169.45131939894054 -334.3850895143114 0 -334.3850895143114 -23.464151855921955 0 0 0 0 1500.5826901342371 -427.44950771360891 0 -427.44950771360891 298.45554485055618 0 0 0 0 238.89558487402974 -438.65217697389016 0 -438.65217697389016 -354.73062065550039 0 0 0 0 -10.254683616090915 -21.727462478535017 0 -21.727462478535017 146.24807256965141 0 0 0 0 68.620773716917029 104.74587422765762 0 104.74587422765762 294.42770094817388 0 0 0 0 172.48241024097661 -81.648208427257487 0 -81.648208427257487 223.65481083712075 0 0 0 0 144.8069052092178 -155.10638296599791 0 -155.10638296599791 -133.53783677465981 0 0 0 0 234.15762199650271 41.781759670944666 0 41.781759670944666 -140.15326049992291 0 0 0 0 95.087323751096847 -38.803184415317446 0 -38.803184415317446 -176.51166851307789 0 0 0 0 102.22906876570778 -52.66369880567072 0 -52.66369880567072 -187.86540048507959 0 0 0 0 8.2474427263295098 -15.87884759929284 0 -15.87884759929284 -32.349134323489579 0 0 0 0 21.078005938557226 -84.377490554110551 0 -84.377490554110551 -32.792856558531639 0 0 0 0 -9.7783662815345451 -565.87047016871657 0 -565.87047016871657 -249.58590661875496 0 0 0 0 58.344420845558659 -45.833583848566981 0 -45.833583848566981 31.07000418078951 0 0 0 0 -127.83243228646461 -89.62715162938548 0 -89.62715162938548 -119.94095435837517 0 0 0 0 7.1634555865221614 -0.65737462756093379 0 -0.65737462756093379 -3.1564615542237107 0 0 0 0 64.913747988815885 218.96428956478485 0 218.96428956478485 -223.70311032423342 0 0 0 0 89.531886772703729 -182.1513491321457 0 -182.1513491321457 169.9463121991721 0 0 0 0 1.7548401851709059 -14.725583862155418 0 -14.725583862155418 234.45445167153957 0 0 0 0 209.31009457881737 -158.96440373740552 0 -158.96440373740552 25.875249351302045 0 0 0 0 410.05301576236525 -99.86475985785728 0 -99.86475985785728 -31.22088261774843 0 0 0 0 51.942816832254948 -51.037414081371942 0 -51.037414081371942 28.058702446747247 0 0 0 0 56.80753569005401 -352.72835963540183 0 -352.72835963540183 386.60662618870265 0 0 0 0 8.5030408869114744 -3.0777368846957813 0 -3.0777368846957813 -0.28396945974250798 0 0 0 0 95.258143802901031 -33.859484745640657 0 -33.859484745640657 74.095436727846391 0 0 0 0 25.272574795813881 -41.207836315665254 0 -41.207836315665254 -25.422107049417463 0 0 0 0 184.41696007667633 -6.445664513099473 0 -6.445664513099473 -90.462777819935582 0 0 0 0 103.31456846751098 -42.030903865161235 0 -42.030903865161235 -12.103874983837159 0 0 0 0 5.4730294058718894 -32.943481693539724 0 -32.943481693539724 -9.1598953752034618 0 0 0 0 111.12978405423928 -33.530904595027096 0 -33.530904595027096 -8.3891226103296503 0 0 0 0 8.9710880090041627 -22.513079664167662 0 -22.513079664167662 -6.2098130707470887 0 0 0 0 9.1439644869678887 34.998120436777754 0 34.998120436777754 -37.72042021380912 0 0 0 0 80.953176751529099 -26.630580387936789 0 -26.630580387936789 -38.222429121846289 0 0 0 0 59.360732919332804 -59.700296551010979 0 -59.700296551010979 -38.21788928447495 0 0 0 0 139.83895810837566 -84.768816124364093 0 -84.768816124364093 -47.93326866121788 0 0 0 0 601.05649875974632 -84.920898291689809 0 -84.920898291689809 -31.961165986916967 0 0 0 0 430.88569176476449 -142.42174847259594 0 -142.42174847259594 114.4394315289901 0 0 0 0 533.31390007081791 -103.97633488489828 0 -103.97633488489828 260.09389032844047 0 0 0 0 116.36610135606611 -187.41260810223051 0 -187.41260810223051 177.52794655507023 0 0 0 0 899.99582749695401 -215.99939350647765 0 -215.99939350647765 74.389231201465009 0 0 0 0 1.6908514682233431 -6.1380752775182117 0 -6.1380752775182117 -5.8064351793591413 0 0 0 0 942.72643889853498 142.79922276351135 0 142.79922276351135 -1.6002452097600326 0 0 0 0 601.49539162858855 132.88944237986288 0 132.88944237986288 32.45732430924545 0 0 0 0 847.05852288883762 -102.59108482331794 0 -102.59108482331794 -63.88635558669921 0 0 0 0 606.01895291997062 -104.92872758737576 0 -104.92872758737576 36.520536234296742 0 0 0 0 619.84636729100021 -37.117608404703788 0 -37.117608404703788 -82.587575442219531 0 0 0 0 579.75204743634094 44.834976807462226 0 44.834976807462226 -55.954009590939677 0 0 0 0 142.70659984263602 -20.678726042016535 0 -20.678726042016535 -16.214245128910989 0 0 0 0 554.472709747919 -68.019208543031709 0 -68.019208543031709 -93.258691577058926 0 0 0 0 559.41144648569752 -94.477201926376438 0 -94.477201926376438 -86.01366435669479 0 0 0 0 595.72450458383537 -143.68474303463881 0 -143.68474303463881 -41.181235210150589 0 0 0 0 512.7217359963397 -85.470317207793414 0 -85.470317207793414 -74.434984723411617 0 0 0 0 513.10014251133907 -88.634745668848154 0 -88.634745668848154 -63.944536965340376 0 0 0 0 413.91969718234031 -48.706072988279629 0 -48.706072988279629 -61.462218008302443 0 0 0 0 415.55566201929469 -13.746531351658632 0 -13.746531351658632 -62.435012949805241 0 0 0 0 663.44041279316298 -76.540049056035059 0 -76.540049056035059 -111.79844331672575 0 0 0 0 535.79694585263496 -43.201346304189428 0 -43.201346304189428 -73.430876062600873 0 0 0 0 586.60609531308 -74.473372609139915 0 -74.473372609139915 -100.75005060716649 0 0 0 0 566.95975677702518 -18.997966643852124 0 -18.997966643852124 -72.751390978562995 0 0 0 0 429.32731390657864 -36.753808663284872 0 -36.753808663284872 -30.75641923652438 0 0 0 0 549.51656960164837 -188.71169335206105 0 -188.71169335206105 -17.607964859795175 0 0 0 0 688.370214514689 -62.372458769914374 0 -62.372458769914374 70.805502353356133 0 0 0 0 -4.4554846886741331 -6.1559166442959281 0 -6.1559166442959281 -9.2934397198422971 0 0 0 0 593.49130346251332 9.5010876781889237 0 9.5010876781889237 -59.986813311130391 0 0 0 0 961.88177552711568 -108.67822957624594 0 -108.67822957624594 -22.199968908942537 0 0 0 0 657.09237673049211 -24.3582083498477 0 -24.3582083498477 601.94580091297394 0 0 0 0 467.94666172180405 -603.53354455996146 0 -603.53354455996146 85.783724788678228 0 0 0 0 502.25573332530621 418.39545561275008 0 418.39545561275008 -248.27111612111912 0 0 0 0 673.60661049411829 -3.447875202031355 0 -3.447875202031355 -136.71426327602239 0 0 0 0 720.31945743472897 760.10184924748319 0 760.10184924748319 247.53232832693902 0 0 0 0 297.8624344061609 -456.86093788213111 0 -456.86093788213111 660.84116160495614 0 0 0 0 19.472496248323409 0.43690433013986762 0 0.43690433013986762 -0.99175333922329401 0 0 0 0 -52.057227541561588 -32.220139565179124 0 -32.220139565179124 215.29536657271092 0 0 0 0 1859.847321490699 484.06831721220078 0 484.06831721220078 562.77160100860056 0 0 0 0 1005.9452827096975 -793.38638676150003 0 -793.38638676150003 271.01631362120679 0 0 0 0 1055.4595686931862 909.42283615910856 0 909.42283615910856 -535.88011596497381 0 0 0 0 508.85581511959026 -314.43488346056256 0 -314.43488346056256 1987.0195734294248 0 0 0 0 1560.3883812010608 -779.99515134845569 0 -779.99515134845569 -481.80067576865258 0 0 0 0 649.74009965051664 -112.79094977492787 0 -112.79094977492787 -811.36966932658106 0 0 0 0 -141.43848370289561 229.29289469835931 0 229.29289469835931 -15.792979910998838 0 0 0 0 0.16027395735517302 0.22489978471165273 0 0.22489978471165273 6.2752884411543164 0 0 0 0 185.90311986290908 -373.48140496350243 0 -373.48140496350243 253.69682356755948 0 0 0 0 601.21664236887591 122.61412131116958 0 122.61412131116958 305.659829476499 0 0 0 0 199.8319449974224 -280.89398649474606 0 -280.89398649474606 470.37797492470418 0 0 0 0 338.29073072745814 -105.79824646578345 0 -105.79824646578345 606.24900612817146 0 0 0 0 188.6930944637279 -209.37826688686619 0 -209.37826688686619 18.143072400955134 0 0 0 0 138.24776132385887 -491.72755004213832 0 -491.72755004213832 80.218076084551285 0 0 0 0 255.25673198510776 -382.98578978936712 0 -382.98578978936712 178.26078445270832 0 0 0 0 322.19370439666091 -495.61472094172495 0 -495.61472094172495 31.350008112960495 0 0 0 0 63.020314421053627 -46.884704694217362 0 -46.884704694217362 156.16858025900729 0 0 0 0 126.96576197869217 -300.05690387045252 0 -300.05690387045252 815.99085221643327 0 0 0 0 1325.5329935590999 -460.76451246532815 0 -460.76451246532815 562.46929989058117 0 0 0 0 0.19490519539679241 -3.7992478502339964 0 -3.7992478502339964 3.8068048267695076 0 0 0 0 -111.95304115180625 -75.036167262049275 0 -75.036167262049275 387.18950898036564 0 0 0 0 -137.94304545217892 -194.35595571874001 0 -194.35595571874001 141.31866805168102 0 0 0 0 800.43849953133031 414.83357112966769 0 414.83357112966769 682.41484543198021 0 0 0 0 -100.20066841877997 -168.98279821770848 0 -168.98279821770848 200.88389499348705 0 0 0 0 840.5841223093812 -84.4725839728344 0 -84.4725839728344 -516.45465538138524 0 0 0 0 -0.86384872999676787 -3.7005335769585201 0 -3.7005335769585201 3.6699373023182034 0 0 0 0 -416.51058547112916 -3.0845858661487 0 -3.0845858661487 153.86233591528435 0 0 0 0 269.40716550445359 584.19709749024332 0 584.19709749024332 968.30919222924422 0 0 0 0 1320.1625358422643 -507.74311701829538 0 -507.74311701829538 193.37223365186946 0 0 0 0 199.70012427060283 -598.1570959493838 0 -598.1570959493838 -46.893032135616522 0 0 0 0 542.47376591223656 -501.69796627679898 0 -501.69796627679898 -355.7256423101062 0 0 0 0 650.24592302825477 -87.497608490361017 0 -87.497608490361017 -52.492180581553839 0 0 0 0 442.44454168108496 -109.44781187348417 0 -109.44781187348417 81.718299332889728 0 0 0 0 0.0076890894150380973 -4.933508151487132 0 -4.933508151487132 6.2055513168575089 0 0 0 0 3.3102418189966727 4.3434209970048414 0 4.3434209970048414 8.7020705132803187 0 0 0 0 530.11710204671726 -230.49101402609813 0 -230.49101402609813 125.41407118929783 0 0 0 0 640.36861164982929 -231.02143090795516 0 -231.02143090795516 26.116067432158161 0 0 0 0 489.03323655156419 -84.278918543452164 0 -84.278918543452164 33.952703603019472 0 0 0 0 465.64039548875735 -134.5273302589485 0 -134.5273302589485 28.177033336163731 0 0 0 0 392.85962090577232 -189.66701734960225 0 -189.66701734960225 153.41881764540449 0 0 0 0 -485.12528132678926 117.65175457737496 0 117.65175457737496 75.560865229912451 0 0 0 0 838.21383029533536 -108.11782905692053 0 -108.11782905692053 403.98300055053551 0 0 0 0 -266.25855566235259 1.6722586428804789 0 1.6722586428804789 -113.54830424149986 0 0 0 0 -138.56074719967728 -10.119217446466791 0 -10.119217446466791 -18.225842699655914 0 0 0 0 -2.1344586651800057 -7.8634397960914271 0 -7.8634397960914271 9.9514985872543207 0 0 0 0 -411.80304235449512 9.4703751673951047 0 9.4703751673951047 78.220557835957152 0 0 0 0 -331.36585151510371 -39.792005578347016 0 -39.792005578347016 46.442433261690894 0 0 0 0 -255.44148911449884 30.606077297787124 0 30.606077297787124 -39.076664875814458 0 0 0 0 -338.93834508938016 -65.09457465079322 0 -65.09457465079322 -27.28921685545356 0 0 0 0 1055.3132171241086 -179.02736984634248 0 -179.02736984634248 -183.5871804166527 0 0 0 0 349.82694815574359 -130.24772644126642 0 -130.24772644126642 97.211704675079091 0 0 0 0 421.38963973274804 -73.390156182933424 0 -73.390156182933424 -34.409486885939259 0 0 0 0 301.17229851262528 -46.354265489484533 0 -46.354265489484533 -20.201460066746222 0 0 0 0 348.76528142832103 -96.661656595519162 0 -96.661656595519162 4.2581250711227767 0 0 0 0 783.69369645776169 -206.96683179182583 0 -206.96683179182583 -213.11542875756277 0 0 0 0 4.2031809877512814 4.0564463128055763 0 4.0564463128055763 5.4901406720720161 0 0 0 0 353.54082301305607 -116.66529503442143 0 -116.66529503442143 8.727461336471606 0 0 0 0 346.81905441651179 -132.9201202190161 0 -132.9201202190161 -6.203679719066713 0 0 0 0 673.92628837863776 -55.318252229053542 0 -55.318252229053542 -73.420795593017829 0 0 0 0 746.50404511718079 -344.2646793163949 0 -344.2646793163949 249.51382682672556 0 0 0 0 771.21689560305094 -186.48025882426737 0 -186.48025882426737 44.080202138109598 0 0 0 0 591.86874840183009 -353.22371529837073 0 -353.22371529837073 -99.202426156669389 0 0 0 0 846.67398465928272 -462.99756176807568 0 -462.99756176807568 -66.238328996492783 0 0 0 0 537.46671925073315 -389.67046376839062 0 -389.67046376839062 192.24462534979102 0 0 0 0 525.85389882540039 -435.98617297163219 0 -435.98617297163219 18.429374379076762 0 0 0 0 309.01393998569984 -463.27384240684478 0 -463.27384240684478 71.223010807036189 0 0 0 0 940.95878760630148 -380.51570044668188 0 -380.51570044668188 -368.76285894594912 0 0 0 0 -8.27507506249394 -14.333575528483962 0 -14.333575528483962 33.841110245538857 0 0 0 0 -76.223576914890145 -61.479334918760287 0 -61.479334918760287 -10.482218937722791 0 0 0 0 -377.97099009216413 -181.00148301534199 0 -181.00148301534199 71.945178593698074 0 0 0 0 98.258879373883246 -55.381059474711947 0 -55.381059474711947 72.483704378304537 0 0 0 0 24.580861873299 -128.74049835225469 0 -128.74049835225469 61.799441663897596 0 0 0 0 7.0861344842542664 -29.734996102248559 0 -29.734996102248559 -1.4316450942072834 0 0 0 0 828.67122536664829 -161.66074742136698 0 -161.66074742136698 -32.598653892866423 0 0 0 0 -8.6297962038232754 -3.0858602492168927 0 -3.0858602492168927 3.6744965821096685 0 0 0 0 5.5367670300378506 -27.790704498939647 0 -27.790704498939647 30.744854345941121 0 0 0 0 -396.90582897362765 -137.57954058903852 0 -137.57954058903852 59.095512622283422 0 0 0 0 -378.31516103140166 -204.91790502072399 0 -204.91790502072399 -35.899456996281515 0 0 0 0 -287.36835702920507 -190.24444309432147 0 -190.24444309432147 173.95913706116698 0 0 0 0 -287.46632236158621 -193.9422441316492 0 -193.9422441316492 35.372624635012471 0 0 0 0 5.40877514364729 -404.22137903867315 0 -404.22137903867315 254.24431420920882 0 0 0 0 -112.35285928302619 -176.8699146450017 0 -176.8699146450017 274.65574349394501 0 0 0 0 -44.709456654043976 -48.654550166638217 0 -48.654550166638217 -51.526697923435904 0 0 0 0 -237.85984840498713 -188.57380148395896 0 -188.57380148395896 56.448065186035819 0 0 0 0 -29.155930829390854 -234.88734829165878 0 -234.88734829165878 34.567713689248194 0 0 0 0 -240.7840752532793 -238.09920834869263 0 -238.09920834869263 -124.14559022370668 0 0 0 0 105.74017723424186 -298.35069168185146 0 -298.35069168185146 -199.13139360040077 0 0 0 0 -45.540796733747072 -52.95423270047695 0 -52.95423270047695 -48.550218033837211 0 0 0 0 -270.39354919343896 -327.90227813876118 0 -327.90227813876118 7.6431949204634293 0 0 0 0 163.93567518105192 -267.89569546891289 0 -267.89569546891289 -111.3122657702188 0 0 0 0 138.80059635340149 -221.97523939576604 0 -221.97523939576604 -186.07755268242909 0 0 0 0 165.53163364200736 -294.94419676710095 0 -294.94419676710095 -217.80372422752771 0 0 0 0 208.2928763379532 -248.41678633838819 0 -248.41678633838819 -234.47787680990587 0 0 0 0 55.181706486509938 -200.77994337505515 0 -200.77994337505515 -290.30011854680197 0 0 0 0 705.02471772965509 -328.80575493443757 0 -328.80575493443757 -483.97555993119022 0 0 0 0 -39.268010465719271 -33.199200417264365 0 -33.199200417264365 609.87767025757057 0 0 0 0 201.40826307124007 -310.96496914614909 0 -310.96496914614909 -411.58872287235863 0 0 0 0 2.8419573921826498 0.85959163762876756 0 0.85959163762876756 -1.1238199407325737 0 0 0 0 213.42199954784701 -368.92378922680746 0 -368.92378922680746 -201.24761689660954 0 0 0 0 -16.351564455768766 -13.969231937784777 0 -13.969231937784777 -8.3199573733083128 0 0 0 0 -49.23633708667694 -132.94467773335055 0 -132.94467773335055 -84.047354569542222 0 0 0 0 -542.93708317933488 333.05321434012149 0 333.05321434012149 -24.598476913990453 0 0 0 0 -55.257139812681999 -320.29661045009561 0 -320.29661045009561 -198.20254911068423 0 0 0 0 0.46589125604077708 37.285769476671703 0 37.285769476671703 350.19129584787879 0 0 0 0 -20.987116822914686 -40.476101860243944 0 -40.476101860243944 74.116241431140224 0 0 0 0 -39.575624815421179 -65.355521674646297 0 -65.355521674646297 59.211543495141086 0 0 0 0 -5.602771860109641 -15.163423591786284 0 -15.163423591786284 -2.7612939216441674 0 0 0 0 -67.992727360484423 -67.320491095364559 0 -67.320491095364559 84.938433196628466 0 0 0 0 -63.416398988352739 -56.701736500355764 0 -56.701736500355764 -0.68862434625043534 0 0 0 0 5.2475407055770518 -49.826202873121446 0 -49.826202873121446 -3.9029755559085402 0 0 0 0 -17.966507059937157 -59.103574979459808 0 -59.103574979459808 -11.118749478813186 0 0 0 0 15.613706094798545 -57.014822559292952 0 -57.014822559292952 -7.8839817483094521 0 0 0 0 -39.037505160958972 -57.018783919265843 0 -57.018783919265843 18.94317609416612 0 0 0 0 -5.3282273047931881 -51.591212489750092 0 -51.591212489750092 -7.6284650771653162 0 0 0 0 -38.757768586074235 -58.16129491814354 0 -58.16129491814354 -9.2720995507843327 0 0 0 0 -50.943600347691202 -44.473641230923818 0 -44.473641230923818 -9.9132265042059089 0 0 0 0 -284.03162563296792 -381.16854090922425 0 -381.16854090922425 -118.38953278129839 0 0 0 0 -7.6813214391175109 -29.330424499213173 0 -29.330424499213173 24.513903109217409 0 0 0 0 -9.6624685056704038 -59.76208239875632 0 -59.76208239875632 -10.721523900981992 0 0 0 0 -54.521096526048495 -81.718696743555483 0 -81.718696743555483 -4.327702318871161 0 0 0 0 -33.375303998007439 -71.290157695708331 0 -71.290157695708331 -15.429826505416713 0 0 0 0 -35.128977183776442 -73.226789486026973 0 -73.226789486026973 5.8712132521322928 0 0 0 0 -53.471581932884874 -43.654860553069739 0 -43.654860553069739 -1.7109491368973977 0 0 0 0 17.505689502637214 -29.888538529032971 0 -29.888538529032971 -6.346602999278673 0 0 0 0 -63.280153640025674 -0.65040915811732702 0 -0.65040915811732702 -17.951318032952258 0 0 0 0 33.979592612362467 -7.2126185197557788 0 -7.2126185197557788 -133.2576697825134 0 0 0 0 39.60258957428232 -19.47717169261162 0 -19.47717169261162 -2.2735148672158232 0 0 0 0 -29.052360924921231 66.25685605063336 0 66.25685605063336 91.770883613731712 0 0 0 0 77.395288459520089 66.569707190108602 0 66.569707190108602 -77.176293671363965 0 0 0 0 108.45492697588634 -220.70544806042744 0 -220.70544806042744 -283.49657174504682 0 0 0 0 -241.05369388134932 -196.57842231114591 0 -196.57842231114591 161.87780578274396 0 0 0 0 755.54067966261937 321.91374436937622 0 321.91374436937622 84.896458552830154 0 0 0 0 33.077195441699587 -147.65375729283187 0 -147.65375729283187 -106.36528585659107 0 0 0 0 12.936740380385459 -1.5140400192693804 0 -1.5140400192693804 -8.0824911260590966 0 0 0 0 14.492179187829606 139.50803368200286 0 139.50803368200286 265.24086748985792 0 0 0 0 87.658074670122005 -542.45427350387217 0 -542.45427350387217 -957.57317514775787 0 0 0 0 -437.61410013042041 127.04330834154098 0 127.04330834154098 27.944624051626306 0 0 0 0 34.414555099400445 -15.181747674526406 0 -15.181747674526406 -10.561388167244047 0 0 0 0 174.73263862542808 -74.046688933201949 0 -74.046688933201949 -6.1965454744349699 0 0 0 0 -14.887445849476364 -25.647693413139365 0 -25.647693413139365 5.186502462138634 0 0 0 0 -637.95030168755329 -22.009918170340825 0 -22.009918170340825 742.78360983940365 0 0 0 0 155.42340287892148 119.80423709480965 0 119.80423709480965 61.34162628595368 0 0 0 0 22.352170007700256 -90.007019195239593 0 -90.007019195239593 -3.1202679773969635 0 0 0 0 -82.019923131570977 -141.56434878260916 0 -141.56434878260916 29.546406041859882 0 0 0 0 -78.513760990696028 -153.72587796089647 0 -153.72587796089647 52.804744866582041 0 0 0 0 -44.179245501116384 -168.82485255351639 0 -168.82485255351639 -77.88163646394969 0 0 0 0 -36.459533653687686 -245.70818510990648 0 -245.70818510990648 -68.272494739037938 0 0 0 0 106.70213371085993 -55.504532086904874 0 -55.504532086904874 57.49632491828379 0 0 0 0 49.498398834051329 -55.870786937145887 0 -55.870786937145887 21.204114435760886 0 0 0 0 249.13381760171615 7.2400556738066371 0 7.2400556738066371 12.858025252717198 0 0 0 0 449.05202481416927 115.55707744597021 0 115.55707744597021 -14.086811435554409 0 0 0 0 249.95218749437481 9.2461930434656097 0 9.2461930434656097 -16.532924059552897 0 0 0 0 411.58053759866743 -33.660034103042562 0 -33.660034103042562 -27.131338561448501 0 0 0 0 398.12618324154755 -101.8883206784576 0 -101.8883206784576 -11.282523735193536 0 0 0 0 236.91666706854812 -124.37247166891939 0 -124.37247166891939 2.3073274238558952 0 0 0 0 298.45556599055999 -65.907472015162057 0 -65.907472015162057 -1.0472614594891638 0 0 0 0 386.87396092117706 -132.17534913002601 0 -132.17534913002601 22.683649211496231 0 0 0 0 298.12978170308634 -96.892358100260026 0 -96.892358100260026 -35.70840895287256 0 0 0 0 263.06078885594616 -30.313757175259525 0 -30.313757175259525 -10.391123932313349 0 0 0 0 2.6971708169367048 -88.234210987443475 0 -88.234210987443475 -5.7226189951179549 0 0 0 0 27.080879259787238 -62.243370577404846 0 -62.243370577404846 1.3853339675684424 0 0 0 0 13.283795774820209 -61.59353895335974 0 -61.59353895335974 31.450122717846 0 0 0 0 65.241928591549367 -78.89526423726511 0 -78.89526423726511 20.335049650355359 0 0 0 0 64.617764418278966 -38.584097302539703 0 -38.584097302539703 51.40840889813262 0 0 0 0 214.3757581214013 -137.27780997120135 0 -137.27780997120135 52.803560112191917 0 0 0 0 363.68866795647773 -36.921597743010352 0 -36.921597743010352 -20.022790773873567 0 0 0 0 46.745152769464767 -88.434294565493474 0 -88.434294565493474 25.029033677914413 0 0 0 0 -204.87322214752203 -230.82381262126728 0 -230.82381262126728 63.626599077426363 0 0 0 0 48.632705340046115 -58.589920235706437 0 -58.589920235706437 38.519837303904751 0 0 0 0 46.585002340027131 -86.94459311949322 0 -86.94459311949322 18.288280067296 0 0 0 0 48.404063982336083 -90.380166915230802 0 -90.380166915230802 11.039645877172006 0 0 0 0 45.242103355820291 -90.579080492403591 0 -90.579080492403591 16.009336552364402 0 0 0 0 44.83138225149014 -90.019522512287949 0 -90.019522512287949 18.804677696418366 0 0 0 0 47.793506145011634 -88.097943866072455 0 -88.097943866072455 11.779177892880398 0 0 0 0 47.442473188042641 -86.50921501085395 0 -86.50921501085395 14.72169011970982 0 0 0 0 -51.14470128287212 -192.54996693939029 0 -192.54996693939029 -94.090343550866237 0 0 0 0 51.361410266952589 -88.488431913094246 0 -88.488431913094246 24.909409476895235 0 0 0 0 45.333575795884826 -85.93938741664897 0 -85.93938741664897 23.955415080185048 0 0 0 0 52.438086979134823 -70.839542139554396 0 -70.839542139554396 15.529477062074875 0 0 0 0 53.564071093394887 -78.92731681630994 0 -78.92731681630994 25.574855409911834 0 0 0 0 36.657624623505399 -89.649093021442241 0 -89.649093021442241 20.132291253728908 0 0 0 0 43.89848921225348 -83.633179561890756 0 -83.633179561890756 25.029951531818369 0 0 0 0 40.824518963301671 -91.925881397713965 0 -91.925881397713965 12.671417291188845 0 0 0 0 18.718088310881285 -68.782087054838485 0 -68.782087054838485 15.613847671975236 0 0 0 0 74.925607423161779 -49.652869485372335 0 -49.652869485372335 25.752197640240496 0 0 0 0 235.93694123844034 -90.833228765557578 0 -90.833228765557578 -145.68524007960514 0 0 0 0 -391.43986698384469 -206.15206561723971 0 -206.15206561723971 -8.4203882476140279 0 0 0 0 20.719170835891049 -4.2369560033210902 0 -4.2369560033210902 -6.4005570826319627 0 0 0 0 -104.56668832833384 -41.315017818160413 0 -41.315017818160413 -127.53023736464093 0 0 0 0 -113.72681583761005 -269.81335485934414 0 -269.81335485934414 -163.51564081615652 0 0 0 0 104.1761423431999 -171.49365531878357 0 -171.49365531878357 -246.01971865024825 0 0 0 0 46.576857052088599 -53.731307043504785 0 -53.731307043504785 -151.79139894976834 0 0 0 0 54.220039958090638 -128.17317051535792 0 -128.17317051535792 -41.630179783285712 0 0 0 0 -66.44345430782414 -204.85878882542238 0 -204.85878882542238 -44.533168236812344 0 0 0 0 -28.791062115589739 -154.45869848279108 0 -154.45869848279108 -141.54412984469673 0 0 0 0 4.5289737417060678 -225.32948945029784 0 -225.32948945029784 -46.532905718107941 0 0 0 0 -26.763289245165652 -171.80128378490917 0 -171.80128378490917 17.351715946970216 0 0 0 0 8.9855292624270078 -217.73412489287148 0 -217.73412489287148 -44.85626834105642 0 0 0 0 -38.676268682989758 -215.87108326144516 0 -215.87108326144516 69.910663174989168 0 0 0 0 90.362270850368077 -238.82911950374546 0 -238.82911950374546 55.039673722669249 0 0 0 0 27.504322780612711 -207.5524262387753 0 -207.5524262387753 231.62305996747455 0 0 0 0 -39.830934206096572 -143.60816115073976 0 -143.60816115073976 183.62863565557927 0 0 0 0 -51.452850082176155 -182.14795401596348 0 -182.14795401596348 149.27836295397719 0 0 0 0 -53.355991844917298 -43.325966071686707 0 -43.325966071686707 121.54992032982409 0 0 0 0 -62.764608666799177 -135.29986493350589 0 -135.29986493350589 43.274201345571782 0 0 0 0 231.81359252275433 -99.288193185493583 0 -99.288193185493583 -38.307598597633842 0 0 0 0 137.9401851878647 -80.088392299359839 0 -80.088392299359839 42.553826356728678 0 0 0 0 41.166103045688942 -147.2502770315441 0 -147.2502770315441 133.44200272965827 0 0 0 0 274.37935791607015 -353.57017053739401 0 -353.57017053739401 241.13273762546305 0 0 0 0 20.661130183929345 -202.12149955352652 0 -202.12149955352652 569.03125411696965 0 0 0 0 345.97178980093304 -125.81462241028566 0 -125.81462241028566 -17.829012287314981 0 0 0 0 200.24919977323589 -195.05420354020316 0 -195.05420354020316 -127.38142168877675 0 0 0 0 191.31162581465469 -0.97198486537308781 0 -0.97198486537308781 -81.767305736517301 0 0 0 0 200.70131416591539 -21.597699870035285 0 -21.597699870035285 -43.964301890460774 0 0 0 0 189.7266684163842 17.706433332157758 0 17.706433332157758 -24.047040846075106 0 0 0 0 275.00032098707379 -9.7693442423878878 0 -9.7693442423878878 -247.15313446357322 0 0 0 0 277.56834552934743 -133.98178778943839 0 -133.98178778943839 2.3979611863251193 0 0 0 0 162.60545493991231 -10.259356749753351 0 -10.259356749753351 17.039731408316584 0 0 0 0 156.01878891263914 -32.240668094324064 0 -32.240668094324064 -45.740721744683469 0 0 0 0 165.59736840114056 -13.016070010049589 0 -13.016070010049589 -105.60338643721479 0 0 0 0 -12.777126219130878 -72.994061582521681 0 -72.994061582521681 -66.577222785796039 0 0 0 0 122.10193873106618 -88.528515563237306 0 -88.528515563237306 -126.65738175534352 0 0 0 0 -60.360057622423483 -34.542783893870364 0 -34.542783893870364 -59.804277318413369 0 0 0 0 -54.851461978425505 -135.0036736241309 0 -135.0036736241309 -24.92251824925188 0 0 0 0 37.648656918550842 -130.94384601464844 0 -130.94384601464844 -82.968510434540804 0 0 0 0 104.481558245825 -80.396714941380196 0 -80.396714941380196 -74.423972545220749 0 0 0 0 284.0818851365475 -105.64091332828684 0 -105.64091332828684 -93.51972476010269 0 0 0 0 104.08997599869326 -80.58035212388495 0 -80.58035212388495 -0.21144779853057116 0 0 0 0 128.88187987494894 -47.895069258824151 0 -47.895069258824151 -26.447516749380156 0 0 0 0 -485.05249853857822 205.37559757623239 0 205.37559757623239 123.35347485452075 0 0 0 0 -4.9786293754443847 -8.0116156952550455 0 -8.0116156952550455 -7.8598964127343436 0 0 0 0 415.67495470556605 -132.82819219728844 0 -132.82819219728844 -83.785370508296182 0 0 0 0 344.89742843071144 -17.600698268801352 0 -17.600698268801352 -35.798862060240936 0 0 0 0 326.76101089069562 -193.04001487386267 0 -193.04001487386267 82.005743857793277 0 0 0 0 321.22646567104675 -207.74610801738163 0 -207.74610801738163 48.699919078557286 0 0 0 0 -14.242023353501281 201.03065129330207 0 201.03065129330207 -190.55762306021643 0 0 0 0 -446.12270363799507 24.82000785164837 0 24.82000785164837 78.479102702287491 0 0 0 0 230.31700461913715 -238.61754067451693 0 -238.61754067451693 59.763251907046651 0 0 0 0 93.212782533228165 -138.19391785591142 0 -138.19391785591142 121.70647665139404 0 0 0 0 257.03662948172132 -83.96796114280005 0 -83.96796114280005 46.288874033416505 0 0 0 0 -175.46560685063014 -77.752341084284126 0 -77.752341084284126 104.11489540874027 0 0 0 0 79.649695760461327 -177.96949109276102 0 -177.96949109276102 54.040898777340772 0 0 0 0 0.59403423467301764 -107.88544801797252 0 -107.88544801797252 61.415463984118105 0 0 0 0 99.630956962661003 -109.43322845571674 0 -109.43322845571674 -24.425913186772959 0 0 0 0 -64.293278983837808 -169.53387374844169 0 -169.53387374844169 25.603082880930742 0 0 0 0 -0.69326164634549059 -70.679875517016626 0 -70.679875517016626 -6.6799048893735744 0 0 0 0 45.923253824672429 -163.44728456356097 0 -163.44728456356097 -51.23566217609914 0 0 0 0 236.23481989902211 -82.549408610531827 0 -82.549408610531827 105.59285952948267 0 0 0 0 106.94027449501664 -141.5265169355589 0 -141.5265169355589 73.649150331737474 0 0 0 0 236.29512295346649 -80.534460314345779 0 -80.534460314345779 -36.754575697501423 0 0 0 0 31.324029669063748 -99.020418084508492 0 -99.020418084508492 125.8575220209168 0 0 0 0 1.9985224728079629 -38.759867163862509 0 -38.759867163862509 110.87384748688783 0 0 0 0 16.374680550252378 -54.993263366290194 0 -54.993263366290194 87.047610428409826 0 0 0 0 37.996314422460273 -43.982966694897186 0 -43.982966694897186 67.837407204176998 0 0 0 0 -4.545605744671775 -20.52241768327076 0 -20.52241768327076 78.998685225333247 0 0 0 0 -7.100743123955823 -5.4238498818347978 0 -5.4238498818347978 -1.942326900080019 0 0 0 0 -17.531820212762312 -186.01922429071217 0 -186.01922429071217 74.044352672935929 0 0 0 0 -350.33130817128767 -37.83125241257585 0 -37.83125241257585 164.1534811322781 0 0 0 0 -3.9393283450190211 27.090782606770517 0 27.090782606770517 6.3595160560817021 0 0 0 0 -0.34700406398815176 -72.411222206998445 0 -72.411222206998445 54.566689431783743 0 0 0 0 -6.2247387373845697 -5.5709581836675852 0 -5.5709581836675852 -3.6176621531164415 0 0 0 0 71.222066501878544 -289.1000136059638 0 -289.1000136059638 15.004922943058773 0 0 0 0 -29.712491690559546 116.21179956353444 0 116.21179956353444 -118.43813747209788 0 0 0 0 -535.63804348504345 104.86041380737515 0 104.86041380737515 -30.168375400393415 0 0 0 0 -1.8846969765221786 -3.0296415212696814 0 -3.0296415212696814 -2.1811179123787383 0 0 0 0 -171.32241624689414 -117.18053128409883 0 -117.18053128409883 -434.62237258792447 0 0 0 0 -117.43382098707298 65.887882919043477 0 65.887882919043477 29.743497687013587 0 0 0 0 66.07609952681014 -37.519142114109854 0 -37.519142114109854 -513.62123644461099 0 0 0 0 -126.42077865260217 -192.93213772506715 0 -192.93213772506715 -428.00195228827943 0 0 0 0 -76.342797612909635 -157.68063140874074 0 -157.68063140874074 -404.0749838580814 0 0 0 0 -138.22202647439917 -180.00232358509311 0 -180.00232358509311 -401.31217172837933 0 0 0 0 -186.6716304591464 -144.48568962483841 0 -144.48568962483841 -225.73799042552128 0 0 0 0 -77.019898339625797 -133.67517849904834 0 -133.67517849904834 -222.87012528464584 0 0 0 0 108.77753799169295 -226.15245642092123 0 -226.15245642092123 -296.49824088487367 0 0 0 0 -5.1520848131040111 28.421388558665058 0 28.421388558665058 -485.63781801043842 0 0 0 0 -201.77696038717841 -75.881309933567536 0 -75.881309933567536 -280.3738934002613 0 0 0 0 217.48809497620823 -158.66851800169752 0 -158.66851800169752 -226.99776807069429 0 0 0 0 144.22588416423241 -266.86448082522838 0 -266.86448082522838 -327.586088693497 0 0 0 0 201.99218913099321 -169.25658974651742 0 -169.25658974651742 113.24608291110781 0 0 0 0 305.08910651534825 -283.07696779879188 0 -283.07696779879188 -282.23239226009719 0 0 0 0 279.2899899338081 -307.20443410302323 0 -307.20443410302323 -204.52667552359344 0 0 0 0 122.43161553505342 -182.19346161098292 0 -182.19346161098292 -184.42529686989292 0 0 0 0 308.52560245080986 -200.97262302242689 0 -200.97262302242689 39.06019666075008 0 0 0 0 244.03577439767105 -334.65035656261898 0 -334.65035656261898 -162.67840287076797 0 0 0 0 402.60832854549517 -464.91063715330893 0 -464.91063715330893 -18.442306268978427 0 0 0 0 407.96501736764912 -625.20310005666761 0 -625.20310005666761 287.96779638176668 0 0 0 0 181.2856612981559 -386.87229135070083 0 -386.87229135070083 -45.352666818147554 0 0 0 0 295.53991296791355 -263.5318123707184 0 -263.5318123707184 68.487134853261523 0 0 0 0 -88.675801005689209 -132.14183883883379 0 -132.14183883883379 -72.979409224761184 0 0 0 0 -579.21551819200977 -308.10222353161953 0 -308.10222353161953 -82.994605376210529 0 0 0 0 -443.07458707443584 -75.960449781574425 0 -75.960449781574425 -101.09855275916925 0 0 0 0 -358.85152901758556 -257.37904632398568 0 -257.37904632398568 -100.39477416418958 0 0 0 0 -117.65972795341077 -243.66590285750135 0 -243.66590285750135 -203.4546979432198 0 0 0 0 -131.06697329743201 -183.23868969023169 0 -183.23868969023169 -219.59973616962088 0 0 0 0 -134.10273966613477 -209.67181040078822 0 -209.67181040078822 -109.17814005448599 0 0 0 0 -288.22529668148491 -143.79033996660291 0 -143.79033996660291 -123.84910714199941 0 0 0 0 -267.45694434754841 -231.21134998874186 0 -231.21134998874186 -213.06300627528981 0 0 0 0 73.355854716777685 -223.24635716150806 0 -223.24635716150806 -252.06389121018219 0 0 0 0 7.4402448669134174 -126.47794822097057 0 -126.47794822097057 -72.920231906895424 0 0 0 0 186.44597331917248 -132.15476647353717 0 -132.15476647353717 -209.18298680250882 0 0 0 0 -32.382552498304193 -35.978310847269398 0 -35.978310847269398 -36.192022269810366 0 0 0 0 180.30113810762123 -551.71240354631664 0 -551.71240354631664 612.45140216457366 0 0 0 0 276.98905121952703 -542.41027715845121 0 -542.41027715845121 306.4102841190761 0 0 0 0 268.62646935661905 -400.17246743627038 0 -400.17246743627038 666.37980778471683 0 0 0 0 379.9596263817366 -458.28549323652987 0 -458.28549323652987 406.83865493783378 0 0 0 0 405.3300315100787 -262.50284789399302 0 -262.50284789399302 218.63366320433852 0 0 0 0 218.15393952660088 -252.41367023679777 0 -252.41367023679777 553.70809457811993 0 0 0 0 210.05077250981412 -423.96061674840166 0 -423.96061674840166 860.08104789958452 0 0 0 0 20.798145301821933 -142.74042135877971 0 -142.74042135877971 857.21057113808865 0 0 0 0 2.3256089672168798 -2.093641417331348 0 -2.093641417331348 0.99737355235754421 0 0 0 0 27.206416974922831 -647.07548174391377 0 -647.07548174391377 102.18438101874199 0 0 0 0 -21.941823463857872 -461.36659667334061 0 -461.36659667334061 -267.7990872344235 0 0 0 0 57.700256237898429 -492.06567728309165 0 -492.06567728309165 626.37764947506366 0 0 0 0 69.61519353492713 -604.23909354258012 0 -604.23909354258012 590.52740283370076 0 0 0 0 -40.83460683993313 -44.910755580449376 0 -44.910755580449376 -45.59164347718081 0 0 0 0 173.18574123494182 -425.09448397328015 0 -425.09448397328015 313.80663203960285 0 0 0 0 99.293645556414049 -133.71901345490369 0 -133.71901345490369 53.53850836334459 0 0 0 0 -32.236213866453909 -229.50957223455771 0 -229.50957223455771 -17.566699878050713 0 0 0 0 75.095556947300793 -105.4989311805839 0 -105.4989311805839 122.68319045966928 0 0 0 0 340.46563177842472 -281.95141177311598 0 -281.95141177311598 -3.7054328963567968 0 0 0 0 165.22533382693655 22.795308856933843 0 22.795308856933843 -312.04330806236248 0 0 0 0 205.25605964747228 -248.64897401635244 0 -248.64897401635244 -192.66039680448011 0 0 0 0 -44.299785942741437 -139.27633945840353 0 -139.27633945840353 20.042185906886516 0 0 0 0 63.35044706057306 -52.564284082789527 0 -52.564284082789527 -295.13020511655486 0 0 0 0 -122.1762916095031 -136.23599736474716 0 -136.23599736474716 -328.33086806439678 0 0 0 0 -191.74775545255397 -78.966951121888997 0 -78.966951121888997 -800.97599608680321 0 0 0 0 -100.4421414727276 204.49872861404037 0 204.49872861404037 -1141.6481966605061 0 0 0 0 17.830884033090115 -195.39846084548572 0 -195.39846084548572 -516.03650277545967 0 0 0 0 58.916062896387302 64.848242108520935 0 64.848242108520935 -743.58965460232866 0 0 0 0 -51.397754431847716 -181.94749388389027 0 -181.94749388389027 -593.68687219211279 0 0 0 0 -14.030097327362455 190.16940912068821 0 190.16940912068821 -828.66908049146878 0 0 0 0 225.28367036719283 -82.678343277613749 0 -82.678343277613749 -563.62146735687566 0 0 0 0 379.56594289375789 -58.760837427198567 0 -58.760837427198567 -113.00578151320224 0 0 0 0 75.406272403721232 -130.81726262877055 0 -130.81726262877055 295.04039144835451 0 0 0 0 116.5906414315541 -293.15755983570125 0 -293.15755983570125 -308.79919132801297 0 0 0 0 309.00681151028311 -387.41412935280459 0 -387.41412935280459 -216.93229491024977 0 0 0 0 -19.622304467471693 -22.972259051241082 0 -22.972259051241082 -24.817650955270892 0 0 0 0 192.01020928344951 -199.58683401269082 0 -199.58683401269082 263.04894320762469 0 0 0 0 96.211242305995256 -246.17962431542946 0 -246.17962431542946 -175.89670058047341 0 0 0 0 263.57576643201901 9.5069181579165161 0 9.5069181579165161 -667.54909585775749 0 0 0 0 194.18140844833397 -103.61043641260039 0 -103.61043641260039 -69.299615277341218 0 0 0 0 16.246681646618981 -18.083244055448318 0 -18.083244055448318 -2.9866258856897936 0 0 0 0 308.30637894908068 -172.75483408114451 0 -172.75483408114451 -1036.4474400274339 0 0 0 0 69.725248752634798 -144.50759811200987 0 -144.50759811200987 -5.5700247962377034 0 0 0 0 1.7413175351612153 -52.284729340659396 0 -52.284729340659396 -15.265076427567692 0 0 0 0 295.64770237020912 6.1583679654277148 0 6.1583679654277148 -10.375023136410164 0 0 0 0 620.09392700703211 138.12171763334845 0 138.12171763334845 18.273025540649542 0 0 0 0 24.769782209179539 18.688436254538829 0 18.688436254538829 65.6489195733011 0 0 0 0 505.87004068969691 -318.61191021116974 0 -318.61191021116974 -38.121172484388808 0 0 0 0 553.35041824978543 -349.83329073397181 0 -349.83329073397181 -27.296102324937237 0 0 0 0 294.85367097784911 -683.35562777908126 0 -683.35562777908126 37.455471377339563 0 0 0 0 335.52848949053077 -274.3514633660061 0 -274.3514633660061 56.4892945765896 0 0 0 0 645.8720491469594 -522.17732185495788 0 -522.17732185495788 38.460982807489927 0 0 0 0 1187.0040045577189 -310.39992695583351 0 -310.39992695583351 -38.653513549128547 0 0 0 0 625.17502475545552 -571.53871677715142 0 -571.53871677715142 553.02221853163792 0 0 0 0 1052.132427289107 -242.81829643612582 0 -242.81829643612582 0.23669815682660555 0 0 0 0 -57.964006574242376 -74.766890735241759 0 -74.766890735241759 56.324142691750239 0 0 0 0 2.6787364123453585 -3.3088375904842167 0 -3.3088375904842167 3.1598851244529271 0 0 0 0 850.530881436247 132.84145139254906 0 132.84145139254906 18.236165833441191 0 0 0 0 0.6492960353409245 -1.1868642026983309 0 -1.1868642026983309 -1.0670525874535315 0 0 0 0 894.69710908270281 -964.31274638896139 0 -964.31274638896139 0.17920865231280914 0 0 0 0 -742.32380200163607 -345.1054885718404 0 -345.1054885718404 269.5617250414216 0 0 0 0 57.081133016952663 -756.73212642027647 0 -756.73212642027647 0.56216806400735297 0 0 0 0 -33.127534621980885 -531.26425232266411 0 -531.26425232266411 236.12190256729082 0 0 0 0 196.61854677351221 -476.24998496675107 0 -476.24998496675107 429.904308678917 0 0 0 0 118.563814658708 -346.93631630817981 0 -346.93631630817981 218.64340844298931 0 0 0 0 192.73231520150512 -218.22484560587691 0 -218.22484560587691 477.41631089990551 0 0 0 0 98.110463990466087 -301.04645146230177 0 -301.04645146230177 349.78239824711636 0 0 0 0 16.147371343925357 -13.620926663988143 0 -13.620926663988143 -2.3352720431015435 0 0 0 0 111.2882574075702 -347.06184838643821 0 -347.06184838643821 418.20520610587846 0 0 0 0 144.86548579346709 14.46039313529036 0 14.46039313529036 -1275.1991290533115 0 0 0 0 251.89976433498668 -118.47342021233635 0 -118.47342021233635 -1656.8239876534572 0 0 0 0 93.511000753438566 -858.92860699107405 0 -858.92860699107405 1605.7866139076032 0 0 0 0 554.77327431868616 -873.84154920963192 0 -873.84154920963192 1606.247866687836 0 0 0 0 6.8559828564385441 -6.1546060869540042 0 -6.1546060869540042 -0.73446942679751359 0 0 0 0 116.57744308128895 -600.04423697944003 0 -600.04423697944003 -1126.5300583073695 0 0 0 0 -141.69225004742475 -470.67875191669009 0 -470.67875191669009 212.57233487971826 0 0 0 0 -38.988706182106398 -234.41575781405845 0 -234.41575781405845 665.75429596207687 0 0 0 0 197.59710680600256 -889.55057973859948 0 -889.55057973859948 -205.26982945672353 0 0 0 0 264.9975946428458 -266.65675962546084 0 -266.65675962546084 221.56135584122967 0 0 0 0 128.28392328605696 -1010.717823720508 0 -1010.717823720508 1506.391601659132 0 0 0 0 -151.21553029419738 -171.71457058933447 0 -171.71457058933447 410.66309846669901 0 0 0 0 59.342036238173023 -294.41432561520196 0 -294.41432561520196 374.97248173793196 0 0 0 0 -214.83428642334184 -268.67902967246482 0 -268.67902967246482 291.47215131560051 0 0 0 0 -149.91261143721931 -114.97986304643564 0 -114.97986304643564 285.25592338158458 0 0 0 0 -112.55380389625498 -193.7502131779911 0 -193.7502131779911 329.9626163833309 0 0 0 0 -109.40582657606865 -183.81644651664828 0 -183.81644651664828 354.25912470359981 0 0 0 0 80.436854932384449 -189.79374361461669 0 -189.79374361461669 323.83692742964195 0 0 0 0 -0.074188186634273734 -0.87158226531894911 0 -0.87158226531894911 0.86892363792412652 0 0 0 0 -732.00042060163833 -88.520431584292965 0 -88.520431584292965 571.82601679484651 0 0 0 0 203.11745449020236 -593.68608590671283 0 -593.68608590671283 509.02376953783096 0 0 0 0 -1.1908550857718581 -2.6080889899640738 0 -2.6080889899640738 0.82636988712744142 0 0 0 0 100.36871220896137 -114.7141907766345 0 -114.7141907766345 455.81564085811988 0 0 0 0 -151.47375253588689 -161.37438484925224 0 -161.37438484925224 464.70579946777434 0 0 0 0 -416.28106072858827 4.151352853354183 0 4.151352853354183 429.59472102967266 0 0 0 0 -3.1741022250813558 -4.8092378016712019 0 -4.8092378016712019 -5.0857609595422844 0 0 0 0 144.73833450528036 -50.447612754258444 0 -50.447612754258444 0.16557257687370658 0 0 0 0 -603.51072822159767 -481.9228401408327 0 -481.9228401408327 591.64326545759468 0 0 0 0 190.03444714930811 -117.84315710890951 0 -117.84315710890951 -0.064879435114562511 0 0 0 0 153.01131678127422 -80.429462978296215 0 -80.429462978296215 106.00078478040814 0 0 0 0 10.599331369565334 -671.52071923049516 0 -671.52071923049516 610.7505603407335 0 0 0 0 322.33326366163965 -393.72283612850151 0 -393.72283612850151 385.33541674277512 0 0 0 0 672.83201818262751 -449.59812470832549 0 -449.59812470832549 -3.5833572811170598 0 0 0 0 -10.477486401518007 -12.375500686135155 0 -12.375500686135155 -10.345552598122993 0 0 0 0 228.34948149434058 -245.03761410905281 0 -245.03761410905281 182.47567772182083 0 0 0 0 335.51735468022525 45.364354791603546 0 45.364354791603546 25.916173172590788 0 0 0 0 -717.99699644705106 32.428927419554384 0 32.428927419554384 110.20711204998952 0 0 0 0 1493.1394988080792 1314.8200535204523 0 1314.8200535204523 -239.8382239715429 0 0 0 0 49.324219095753506 -427.8263184458483 0 -427.8263184458483 563.84371549770003 0 0 0 0 -257.8714661153499 -532.272174390484 0 -532.272174390484 679.34494501919835 0 0 0 0 518.92851165482716 -588.08618373017089 0 -588.08618373017089 204.30573481525062 0 0 0 0 -356.73135213911883 -593.42807518062909 0 -593.42807518062909 506.55145511135925 0 0 0 0 -109.83565108192124 -914.6508080676067 0 -914.6508080676067 -20.165049950766843 0 0 0 0 -271.95398945474881 -471.73428925623739 0 -471.73428925623739 451.17722139254329 0 0 0 0 -698.73693202386494 -556.02015658711025 0 -556.02015658711025 440.1603936561296 0 0 0 0 491.26364061157801 -668.80527836919646 0 -668.80527836919646 62.711420012186863 0 0 0 0 152.39234644651879 -762.53821335174143 0 -762.53821335174143 124.25993897157605 0 0 0 0 -95.056508253859647 -351.7006482476645 0 -351.7006482476645 443.01485090723145 0 0 0 0 -121.21861713666294 -313.98783064146119 0 -313.98783064146119 396.50995816162322 0 0 0 0 -223.17960959274205 -597.50661498859699 0 -597.50661498859699 553.01666824196582 0 0 0 0 -300.0554257336189 -349.06422390646185 0 -349.06422390646185 392.74834924470633 0 0 0 0 -372.88317820598604 -230.12683543520689 0 -230.12683543520689 200.0129896926228 0 0 0 0 -131.91735347163922 -169.53499085597286 0 -169.53499085597286 299.82541055910406 0 0 0 0 -222.89440451281553 -324.97667419017307 0 -324.97667419017307 236.66617639150354 0 0 0 0 -299.88206828740658 -239.33908589783823 0 -239.33908589783823 150.48619678945397 0 0 0 0 -569.13005159277236 -218.11948412325 0 -218.11948412325 -50.230835362002836 0 0 0 0 -339.0318404068239 -402.36883780465723 0 -402.36883780465723 94.974394898919854 0 0 0 0 -288.84342351490341 -463.19797028976609 0 -463.19797028976609 -210.69998961925739 0 0 0 0 -325.67427715145459 -492.26335029912298 0 -492.26335029912298 56.456448814940813 0 0 0 0 -201.63106097600394 -349.83798863703123 0 -349.83798863703123 -29.549860899482155 0 0 0 0 2.2240888142022932 -6.1478299167534942 0 -6.1478299167534942 3.1631837634200792 0 0 0 0 -1993.0390717567789 -651.2537927234298 0 -651.2537927234298 339.33807312507997 0 0 0 0 -1100.3656680766362 -1006.3306371280523 0 -1006.3306371280523 115.95495550738997 0 0 0 0 -781.19764224649407 -202.45042905834998 0 -202.45042905834998 -349.39238030243723 0 0 0 0 4.7252426856480625 -17.730193756465937 0 -17.730193756465937 11.57544881315323 0 0 0 0 -620.03345327852003 -182.78809333361278 0 -182.78809333361278 -89.701180080199265 0 0 0 0 -885.24488276655757 -408.61332136037527 0 -408.61332136037527 -117.28270669997437 0 0 0 0 -473.3780288582202 -371.40614278951762 0 -371.40614278951762 -302.4127919098828 0 0 0 0 -291.73295461798989 -199.9002522714145 0 -199.9002522714145 -191.89117864728905 0 0 0 0 -210.12121542436216 -330.09805478102317 0 -330.09805478102317 -420.73459975488367 0 0 0 0 -661.52450120690264 -489.27816170748883 0 -489.27816170748883 -117.15787829388864 0 0 0 0 -202.32598075228452 -360.99381768797321 0 -360.99381768797321 -338.04693151918036 0 0 0 0 110.33690069406293 -561.16613795612648 0 -561.16613795612648 -272.58587056629767 0 0 0 0 -27.636544813482033 -319.86662856901967 0 -319.86662856901967 -646.70815054370905 0 0 0 0 -69.594315975627978 -175.53686151372676 0 -175.53686151372676 -568.56011814843805 0 0 0 0 24.627181406161981 -228.42493577933783 0 -228.42493577933783 -540.15991327387746 0 0 0 0 -52.990639222087339 -239.69452306126186 0 -239.69452306126186 -391.64099549337698 0 0 0 0 -96.689061087774462 -146.04369449207297 0 -146.04369449207297 -705.52601330842299 0 0 0 0 -3.9968758573231753 -62.087100178134278 0 -62.087100178134278 -1001.5425630759382 0 0 0 0 -72.803301006086258 56.112186841373841 0 56.112186841373841 -605.95260705697001 0 0 0 0 -134.93246971371263 -53.622244651953224 0 -53.622244651953224 -404.24916777695762 0 0 0 0 -150.6306028750696 -124.70397219964798 0 -124.70397219964798 -254.28729569696588 0 0 0 0 -190.88739311796235 -96.98764420801308 0 -96.98764420801308 -183.34254891432647 0 0 0 0 -248.9791478064144 -211.47788323399436 0 -211.47788323399436 -392.64496506504656 0 0 0 0 -173.45899536598881 -74.186742063677229 0 -74.186742063677229 -56.193400178613956 0 0 0 0 -251.91419009088531 -163.48912173936515 0 -163.48912173936515 -155.20476632211648 0 0 0 0 -277.98487118399498 -108.72178364792489 0 -108.72178364792489 -99.469859765056754 0 0 0 0 -55.514797654176618 -23.071138001726013 0 -23.071138001726013 -186.18105774455762 0 0 0 0 -145.43422607257526 -193.06033416235005 0 -193.06033416235005 80.325286396015144 0 0 0 0 -107.19399947646343 -167.28848226408809 0 -167.28848226408809 55.466675823932746 0 0 0 0 -292.91182114704202 -116.18671708155875 0 -116.18671708155875 0.56649684728472494 0 0 0 0 -290.89901472610654 -164.16440669364965 0 -164.16440669364965 100.96501882224402 0 0 0 0 -397.10120662624831 -145.62531710360054 0 -145.62531710360054 91.545639385352843 0 0 0 0 -477.15909934713272 -90.595311747543747 0 -90.595311747543747 19.994983986244563 0 0 0 0 -394.29684465392802 -120.54666619490581 0 -120.54666619490581 19.822879589701188 0 0 0 0 -104.18463102785245 -12.59013450898783 0 -12.59013450898783 202.99837498835404 0 0 0 0 998.06636502548645 -307.13878183501947 0 -307.13878183501947 -210.99810582627833 0 0 0 0 627.39563215912494 -319.57613911830231 0 -319.57613911830231 139.65152193920221 0 0 0 0 5.2408872576119663 -22.839459726847892 0 -22.839459726847892 23.147007110695938 0 0 0 0 -545.05477909132969 -151.76331045300867 0 -151.76331045300867 -15.458768950164085 0 0 0 0 -468.24607338526403 -152.26859259234334 0 -152.26859259234334 -87.249977269174451 0 0 0 0 -464.35197565054114 -140.94937031398877 0 -140.94937031398877 -54.362747169070644 0 0 0 0 -378.22040150263638 -204.57092413726787 0 -204.57092413726787 -190.3886971861466 0 0 0 0 -396.67940441364772 -156.44116499714437 0 -156.44116499714437 -12.725269857633975 0 0 0 0 -392.38342971613019 -142.44895039381845 0 -142.44895039381845 -57.397583690326428 0 0 0 0 374.23312598832126 -109.22760684911191 0 -109.22760684911191 10.141726610570913 0 0 0 0 368.43051386526804 -204.88822636168197 0 -204.88822636168197 86.936744494043523 0 0 0 0 551.41664855169074 -216.99574335273792 0 -216.99574335273792 36.133215220761485 0 0 0 0 828.90777872462058 14.323861942029907 0 14.323861942029907 -54.753064417487622 0 0 0 0 941.32913493743399 -143.17536542071321 0 -143.17536542071321 -42.643846477440093 0 0 0 0 700.022826046501 -191.170220272812 0 -191.170220272812 135.29876254912233 0 0 0 0 1448.7997763742751 -411.6739673046759 0 -411.6739673046759 57.285073256469332 0 0 0 0 1.2242294992348519 0.43900359590017501 0 0.43900359590017501 2.4830461133977337 0 0 0 0 267.24771951052219 106.74667579560354 0 106.74667579560354 -67.887034063576721 0 0 0 0 1148.4813281555107 -20.687991873681312 0 -20.687991873681312 29.873179690250254 0 0 0 0 267.19772973315071 -125.389254966937 0 -125.389254966937 52.718104948668042 0 0 0 0 306.51116344830371 -151.67961116036167 0 -151.67961116036167 41.871082478028256 0 0 0 0 292.23308963757881 -137.62573044191595 0 -137.62573044191595 56.549131903448142 0 0 0 0 298.07589865292539 -121.86888113887107 0 -121.86888113887107 10.153708377329167 0 0 0 0 293.18278480703884 -138.19659760661307 0 -138.19659760661307 10.056659698602743 0 0 0 0 305.02026539825602 -130.93686035588325 0 -130.93686035588325 -5.8960855069453828 0 0 0 0 249.53575358601665 -71.748939346762199 0 -71.748939346762199 30.214332401345018 0 0 0 0 1056.2616751399255 -195.36480455776837 0 -195.36480455776837 -192.55782517034095 0 0 0 0 0.068043492764729763 -3.5246098521120643 0 -3.5246098521120643 3.0425639318646063 0 0 0 0 257.59617527213413 -94.577086389646865 0 -94.577086389646865 25.180005644062476 0 0 0 0 293.26901094340428 -137.1447152820183 0 -137.1447152820183 60.060945598699618 0 0 0 0 -315.45693179969749 139.41639038929134 0 139.41639038929134 -61.014419638522668 0 0 0 0 -352.38179012258479 67.67705810321786 0 67.67705810321786 127.79844770312775 0 0 0 0 -8.4125130058971536 -0.95106896595871149 0 -0.95106896595871149 -1.3633901030941615 0 0 0 0 86.803930430993205 -130.54595791264001 0 -130.54595791264001 -118.33056318056867 0 0 0 0 -501.43069563902827 250.33071891598956 0 250.33071891598956 62.865703588568067 0 0 0 0 -448.87921659428685 302.49947806767523 0 302.49947806767523 -0.98560981365153566 0 0 0 0 -512.6563259938921 -194.98534746124506 0 -194.98534746124506 -529.41846730740508 0 0 0 0 265.02025514410343 -203.30363157243119 0 -203.30363157243119 175.3102942800906 0 0 0 0 -2.3011029552259501 -8.9154987133537986 0 -8.9154987133537986 14.837176850553135 0 0 0 0 297.78965449187672 -133.54570139394491 0 -133.54570139394491 317.91400373587385 0 0 0 0 277.09985373582458 -162.41933658235939 0 -162.41933658235939 140.28682674001902 0 0 0 0 311.48982418424566 -183.22422402410302 0 -183.22422402410302 97.619778894237243 0 0 0 0 284.59324700554134 -215.46718824320124 0 -215.46718824320124 126.67614119720747 0 0 0 0 353.00741598114837 47.365790157055017 0 47.365790157055017 716.98318467364879 0 0 0 0 311.8021596421604 -224.03876510329428 0 -224.03876510329428 104.33394119470131 0 0 0 0 313.39950408090954 -226.52798848274688 0 -226.52798848274688 104.26425789346104 0 0 0 0 346.33289769125986 -252.74665233401174 0 -252.74665233401174 -20.1924288723676 0 0 0 0 285.84412466743379 -261.91744270172785 0 -261.91744270172785 49.458425298304064 0 0 0 0 -665.73721621793084 -151.58510044984359 0 -151.58510044984359 402.68798769440036 0 0 0 0 -100.3126645154407 64.828768088409561 0 64.828768088409561 314.81545780380475 0 0 0 0 194.25944413093384 37.337838085317344 0 37.337838085317344 -64.996048801753204 0 0 0 0 -8.6792539699017652 -186.09948722639456 0 -186.09948722639456 53.857031830048072 0 0 0 0 -199.46178443043027 -367.89046959082043 0 -367.89046959082043 -112.50873177954054 0 0 0 0 -43.924303760788462 -16.295022836420685 0 -16.295022836420685 131.86175869992803 0 0 0 0 -194.7177899435701 -69.682498838985339 0 -69.682498838985339 176.11762063085916 0 0 0 0 10.514216419847799 37.519504939569742 0 37.519504939569742 161.27159254167054 0 0 0 0 -9.632856325572142 -11.949194107193648 0 -11.949194107193648 20.711017285086598 0 0 0 0 -1.2023979485893506 21.424540631218406 0 21.424540631218406 142.99857719511783 0 0 0 0 53.756334268291539 -14.776316614661482 0 -14.776316614661482 72.669734637034708 0 0 0 0 294.96076422806073 -458.23403874375799 0 -458.23403874375799 377.3889190730988 0 0 0 0 23.464339555161132 0.54742380574316485 0 0.54742380574316485 191.03719549649395 0 0 0 0 270.46819038936519 -218.49595474814123 0 -218.49595474814123 292.60935318355769 0 0 0 0 474.59583333366027 -135.19143795491254 0 -135.19143795491254 75.861862650082912 0 0 0 0 532.75140556451151 -296.79276393795772 0 -296.79276393795772 212.20819245241 0 0 0 0 580.15680222577066 -172.14059721627564 0 -172.14059721627564 55.698802500963211 0 0 0 0 416.06327481201515 -295.32459933075734 0 -295.32459933075734 116.5539006323379 0 0 0 0 382.14090683139511 -207.55218281585258 0 -207.55218281585258 34.14972591647529 0 0 0 0 1021.2257458211388 -60.795955589441292 0 -60.795955589441292 -28.138058825816188 0 0 0 0 1582.4937859526271 -262.18273890604542 0 -262.18273890604542 -63.8564894401934 0 0 0 0 920.76605980058957 -330.64937701211602 0 -330.64937701211602 24.620302291150438 0 0 0 0 929.64999625527707 -330.1771230723898 0 -330.1771230723898 339.7317373726255 0 0 0 0 909.61426351436239 -260.77145572075096 0 -260.77145572075096 114.83960188709898 0 0 0 0 2120.2743620240362 85.565863704046933 0 85.565863704046933 106.37571508125257 0 0 0 0 3297.0565088431467 -143.61604934283241 0 -143.61604934283241 -727.56966891791672 0 0 0 0 2287.4942250726453 -957.14350601821934 0 -957.14350601821934 -482.98576578226493 0 0 0 0 433.65960382593039 -1044.3514103072594 0 -1044.3514103072594 -15.437690028964425 0 0 0 0 -22.351754190273937 -19.585379966447789 0 -19.585379966447789 -6.8948804262613237 0 0 0 0 172.12217031288145 -428.62071081111537 0 -428.62071081111537 -245.58334818021103 0 0 0 0 2.5094835436029825 145.70256379261627 0 145.70256379261627 -169.0229161701136 0 0 0 0 -488.26137509700493 -145.01915684877895 0 -145.01915684877895 314.66847750827947 0 0 0 0 -57.068141038347676 -39.927822814541287 0 -39.927822814541287 1.1670548660404165 0 0 0 0 -55.947833338119381 1.567242486984469 0 1.567242486984469 121.73915201626369 0 0 0 0 78.468155806112918 27.766541980978218 0 27.766541980978218 -103.79510324756848 0 0 0 0 -126.57295735212392 -154.82705089681258 0 -154.82705089681258 -189.80407162622578 0 0 0 0 -0.095199201241484843 -12.574064267617359 0 -12.574064267617359 -39.591806610202184 0 0 0 0 -8.2014553533661001 -6.2140282133754852 0 -6.2140282133754852 -4.1801676543057624 0 0 0 0 750.76303838998138 -224.90186505133534 0 -224.90186505133534 300.72875791029946 0 0 0 0 952.32542019634275 -78.739366932364646 0 -78.739366932364646 401.63730041548843 0 0 0 0 -1065.3342138387088 -925.15596744880895 0 -925.15596744880895 870.47284567117458 0 0 0 0 170.72776877363731 -334.82752468849895 0 -334.82752468849895 691.35360703594051 0 0 0 0 -73.597904597518209 -193.69279365790862 0 -193.69279365790862 -323.30799525167095 0 0 0 0 -7.4618122987627373 -7.5791171278146123 0 -7.5791171278146123 -4.9943661363665512 0 0 0 0 -230.38046552659944 -355.07856706620078 0 -355.07856706620078 -331.8560053187939 0 0 0 0 -403.15454231794865 -437.64731306010799 0 -437.64731306010799 -196.85940381963155 0 0 0 0 -162.79194736402133 -167.53319620709226 0 -167.53319620709226 22.151673771804781 0 0 0 0 -317.36286798905348 -335.47390090762201 0 -335.47390090762201 -107.77355913619976 0 0 0 0 -74.621406142250635 -212.30694550821499 0 -212.30694550821499 -206.30923834780697 0 0 0 0 -343.21111226922221 -161.0469123586372 0 -161.0469123586372 -25.73762161344348 0 0 0 0 1.5158224924832382 3.3011989443969298 0 3.3011989443969298 -0.79470555058247783 0 0 0 0 -270.78381810315477 -138.70824780223484 0 -138.70824780223484 -97.088776629767381 0 0 0 0 -275.11228323361138 -222.77483672114613 0 -222.77483672114613 -4.6616946018039016 0 0 0 0 -166.24632532197575 -195.58188099003019 0 -195.58188099003019 -75.861546509171603 0 0 0 0 -115.68553847291332 -167.70591864673042 0 -167.70591864673042 0.1853066366238636 0 0 0 0 44.006597518309718 -238.05558557450422 0 -238.05558557450422 -3.9314029426750494 0 0 0 0 -101.62350132603751 -17.019049263137276 0 -17.019049263137276 101.18573462164204 0 0 0 0 -112.09568455760018 -167.13335241092136 0 -167.13335241092136 -2.9754334039171226 0 0 0 0 -53.757490983894968 -57.313808218790655 0 -57.313808218790655 0.02125557727413252 0 0 0 0 33.773457031691578 -196.99403088749841 0 -196.99403088749841 41.629747443686938 0 0 0 0 79.443706226200447 -184.59549672220601 0 -184.59549672220601 -0.12918014957290694 0 0 0 0 448.67648290394573 -207.82808902415127 0 -207.82808902415127 -46.353938884138188 0 0 0 0 -116.5276358790943 -184.84163817712397 0 -184.84163817712397 55.54667264490854 0 0 0 0 91.747977578973405 -109.64089987963234 0 -109.64089987963234 3.7090598168433644 0 0 0 0 170.5944136557373 -151.03518842464109 0 -151.03518842464109 20.155774129321799 0 0 0 0 90.755314068578627 -118.55262726360434 0 -118.55262726360434 88.8130506673333 0 0 0 0 -6.5284880884786389 -4.0951587801094433 0 -4.0951587801094433 2.8872862829356336 0 0 0 0 -27.532125415164245 -30.471955348872143 0 -30.471955348872143 -25.776686532870372 0 0 0 0 49.328743928708718 -130.95260191430498 0 -130.95260191430498 87.952585025777807 0 0 0 0 -2.9229686836188193 -194.24718429600762 0 -194.24718429600762 58.642614959608181 0 0 0 0 1.866687168039789 -1521.4564725619475 0 -1521.4564725619475 1077.7058288466869 0 0 0 0 -53.216843135320232 -54.30149909647298 0 -54.30149909647298 44.483387859967479 0 0 0 0 3.3623240374245995 -20.545557754978432 0 -20.545557754978432 47.260636392253787 0 0 0 0 2204.4102035129204 -925.48811550762662 0 -925.48811550762662 220.22794885197072 0 0 0 0 -261.42757741375681 -119.49237716747302 0 -119.49237716747302 91.092907314072363 0 0 0 0 -157.75783369807868 -45.914433464791728 0 -45.914433464791728 -25.77415678818943 0 0 0 0 5903.3683514738877 -1423.6766173857209 0 -1423.6766173857209 -332.88081842249085 0 0 0 0 5.1735507660261169 -9.000798927998261 0 -9.000798927998261 14.725635506862318 0 0 0 0 -504.44173489630339 -91.795262506824656 0 -91.795262506824656 93.385925935908745 0 0 0 0 -228.33746484635776 -184.14785749153816 0 -184.14785749153816 -0.021718108160712291 0 0 0 0 3258.6397494395933 -2771.1203659522726 0 -2771.1203659522726 -3.1858126245431237 0 0 0 0 1221.2895471128068 -2762.602101099299 0 -2762.602101099299 929.66391967288655 0 0 0 0 2132.5265735941284 -785.47275597147382 0 -785.47275597147382 442.8866116397985 0 0 0 0 815.19563670830394 -477.1268590713662 0 -477.1268590713662 198.74405171973922 0 0 0 0 901.88295996830129 -748.84048185502252 0 -748.84048185502252 329.84205921085959 0 0 0 0 296.26462729566265 -713.22085212083766 0 -713.22085212083766 601.54656470777263 0 0 0 0 493.48734263904271 -280.13971340414867 0 -280.13971340414867 190.20392056104902 0 0 0 0 484.5922617471515 -654.55188699396967 0 -654.55188699396967 539.62412941903676 0 0 0 0 -5.648407911789521 -31.033292390197659 0 -31.033292390197659 81.680315234404418 0 0 0 0 691.16979754653585 -461.68727098650197 0 -461.68727098650197 346.35094641945761 0 0 0 0 -77.969011078035692 -131.24281183046696 0 -131.24281183046696 138.14164999355853 0 0 0 0 -34.47387064751868 -50.039635139250919 0 -50.039635139250919 -18.06754664272421 0 0 0 0 2.071665142004349 -158.74071425278635 0 -158.74071425278635 93.466920538019622 0 0 0 0 15.120207881843214 -13.980569228935281 0 -13.980569228935281 15.201430102223839 0 0 0 0 -2.4390968942049955 -64.49212220644749 0 -64.49212220644749 42.707159279120106 0 0 0 0 82.113961455674144 -64.712647292821202 0 -64.712647292821202 46.877626619843795 0 0 0 0 71.933815548611165 -48.548989243528922 0 -48.548989243528922 54.909032779636618 0 0 0 0 54.171299430483487 -91.59308897261144 0 -91.59308897261144 -6.3546497691058903 0 0 0 0 95.597756673100889 -99.38464247835293 0 -99.38464247835293 81.92214450618485 0 0 0 0 6.9161512675760548 -20.69750977536907 0 -20.69750977536907 3.1493418927933021 0 0 0 0 -1.6188894631371387 -61.906198318136489 0 -61.906198318136489 56.108862970491089 0 0 0 0 43.809032736785298 -88.539919572124802 0 -88.539919572124802 48.97961933339684 0 0 0 0 18.364841119822813 -118.16641545030143 0 -118.16641545030143 -17.318171428458299 0 0 0 0 20.918453624180984 -101.61635421593382 0 -101.61635421593382 41.66749799932586 0 0 0 0 58.366597838241432 -157.61388671351233 0 -157.61388671351233 10.418357568225474 0 0 0 0 0.60051581179347491 -296.38704024979842 0 -296.38704024979842 295.04368002025876 0 0 0 0 51.286206402801326 -39.958514932121034 0 -39.958514932121034 27.943231947021559 0 0 0 0 46.791796082630754 -62.539516772601928 0 -62.539516772601928 -57.445811730511195 0 0 0 0 -2.058759745646114 2.2564664641896286 0 2.2564664641896286 2.9272454832230892 0 0 0 0 -223.79593831769307 -200.97453000477981 0 -200.97453000477981 -15.696587515478313 0 0 0 0 -109.66611219846527 -109.33849171856855 0 -109.33849171856855 -38.370329951409076 0 0 0 0 40.985061728264554 -77.601504186779493 0 -77.601504186779493 5.9904686625613977 0 0 0 0 60.276797015110787 -101.09954810178169 0 -101.09954810178169 -1.5351498646268738 0 0 0 0 58.149211234832762 -48.59287583221171 0 -48.59287583221171 -5.7075951490120929 0 0 0 0 79.575389248464489 -26.886105564168247 0 -26.886105564168247 40.402340933855157 0 0 0 0 70.410194535250412 -66.675442203348211 0 -66.675442203348211 -36.146211246552411 0 0 0 0 33.239874163032766 -46.277484472607441 0 -46.277484472607441 -8.099038779789808 0 0 0 0 13.33751144312555 -42.317286897770828 0 -42.317286897770828 -7.9981771864113398 0 0 0 0 -6.0753850777531682 -61.969320479063924 0 -61.969320479063924 27.397199591875761 0 0 0 0 -41.694288275747766 -54.392437139055886 0 -54.392437139055886 -10.981207700080809 0 0 0 0 -32.265572332973534 -85.000981603090622 0 -85.000981603090622 29.165902842303694 0 0 0 0 -377.94717667702935 -168.51654912747836 0 -168.51654912747836 -21.933188101247652 0 0 0 0 -235.06761748727877 -185.05598432089027 0 -185.05598432089027 46.37225607315122 0 0 0 0 18.469628209763655 -7.8265798257945676 0 -7.8265798257945676 2.0455582492715507 0 0 0 0 62.061361833184492 -170.14409527815587 0 -170.14409527815587 -86.550278648501262 0 0 0 0 -62.607804738669074 -27.828650217667018 0 -27.828650217667018 110.01155950554676 0 0 0 0 44.227555595323793 14.844427696589264 0 14.844427696589264 -1.4633205486752558 0 0 0 0 -8.8183064642580291 -16.502831257376066 0 -16.502831257376066 11.185433279111777 0 0 0 0 -41.47065336900414 -50.636554764314496 0 -50.636554764314496 14.401800309669852 0 0 0 0 -77.802910747857823 19.728278305781714 0 19.728278305781714 131.84332970457035 0 0 0 0 -30.833757342697936 -6.1584423661406618 0 -6.1584423661406618 6.5212213797949516 0 0 0 0 -80.30955698795151 -129.42897689906385 0 -129.42897689906385 43.244323081399671 0 0 0 0 -53.125893662960152 0.88344044836776447 0 0.88344044836776447 52.823840163764544 0 0 0 0 -136.46335805513081 -94.995790309214499 0 -94.995790309214499 -16.537030621325357 0 0 0 0 -171.70411294402402 -58.29649347888153 0 -58.29649347888153 -2.7522043325734558 0 0 0 0 436.35642501829716 -397.53605899412651 0 -397.53605899412651 -23.377570817800006 0 0 0 0 -84.986848654216828 -165.42281711620581 0 -165.42281711620581 375.02618337966851 0 0 0 0 -59.465719378611539 -139.89533820975703 0 -139.89533820975703 -150.68837383666687 0 0 0 0 -11.295447763921402 -316.42324742312485 0 -316.42324742312485 -172.61180483165117 0 0 0 0 -12.433388495934196 -61.1261872301111 0 -61.1261872301111 -49.924220461165532 0 0 0 0 7.3015038187004393 -63.713693086916464 0 -63.713693086916464 -70.280204701877665 0 0 0 0 26.912253690998185 -30.734784803901391 0 -30.734784803901391 11.163303395177394 0 0 0 0 1.9787302256881958 -64.959016696364415 0 -64.959016696364415 -48.367944891775551 0 0 0 0 24.913984082545412 -20.150867817061823 0 -20.150867817061823 9.3500225791088383 0 0 0 0 27.910411851511071 -27.12865307654306 0 -27.12865307654306 11.142005334866752 0 0 0 0 29.197086710424628 -50.765533174431766 0 -50.765533174431766 -29.617589217617933 0 0 0 0 14.197386263411317 -45.516555711525143 0 -45.516555711525143 -4.5424207621836103 0 0 0 0 10.385635689930496 -53.83797406944359 0 -53.83797406944359 -8.581222878608969 0 0 0 0 26.181998885004418 -26.981224334457885 0 -26.981224334457885 19.687467445170654 0 0 0 0 3.1241378632039414 -47.034892848983873 0 -47.034892848983873 -3.6939077218266902 0 0 0 0 -5.7818938298045168 -37.127211387388897 0 -37.127211387388897 -2.6508880838923687 0 0 0 0 68.535936398602644 -138.0581104282428 0 -138.0581104282428 80.922240981686627 0 0 0 0 17.867849077210849 -51.488577601576253 0 -51.488577601576253 -8.088992496705032 0 0 0 0 -5.4875153647845281 -6.4734196305172844 0 -6.4734196305172844 -2.8997809063578188 0 0 0 0 7.9716442561695828 -15.591475502232882 0 -15.591475502232882 -13.700973785477117 0 0 0 0 23.052041910036678 -43.967596270615104 0 -43.967596270615104 4.9601793799811276 0 0 0 0 88.000376374227926 -65.846025728769746 0 -65.846025728769746 -3.4072672781157394 0 0 0 0 3.0255486961748375 -55.971402369690622 0 -55.971402369690622 21.877182294352679 0 0 0 0 4.6274661683037221 -49.904235883145631 0 -49.904235883145631 20.453664981821362 0 0 0 0 -3.9608831582519652 -45.546673511700185 0 -45.546673511700185 16.062158921825812 0 0 0 0 8.2497319377089298 -55.684468990679306 0 -55.684468990679306 36.917002812449937 0 0 0 0 185.59407589194052 -13.121423431424773 0 -13.121423431424773 -68.317903126138845 0 0 0 0 240.28886680933101 -124.70130211710784 0 -124.70130211710784 -37.44272123092378 0 0 0 0 133.71153504762333 -72.860113322916732 0 -72.860113322916732 -6.1195289434326696 0 0 0 0 243.98790293480852 -79.732682943693362 0 -79.732682943693362 -3.2969664036936592 0 0 0 0 89.00957306755663 -24.006460336764576 0 -24.006460336764576 24.232214536270476 0 0 0 0 -5.7974226797274433 -49.540980341832977 0 -49.540980341832977 21.767077892983536 0 0 0 0 -50.629598304058163 -32.289772392017767 0 -32.289772392017767 6.2832510062435176 0 0 0 0 -25.483612782770482 -53.3652956567026 0 -53.3652956567026 12.781415153042531 0 0 0 0 160.4253265367006 20.376593405104359 0 20.376593405104359 38.914129459299147 0 0 0 0 -115.31231730036961 -157.03866734818439 0 -157.03866734818439 15.59855958085609 0 0 0 0 137.95331582119252 -41.424670494408929 0 -41.424670494408929 84.613301239878638 0 0 0 0 17.563708241066614 -62.061432149137275 0 -62.061432149137275 15.136869917925139 0 0 0 0 -366.98897546031071 -280.36394264566843 0 -280.36394264566843 65.733557644023676 0 0 0 0 5.3234146699805009 -8.5527544566576665 0 -8.5527544566576665 4.8882677698873067 0 0 0 0 5.9637023442105175 -125.75947803331337 0 -125.75947803331337 -95.205972336028935 0 0 0 0 -236.87554650140282 -163.99084132293501 0 -163.99084132293501 59.939820008054085 0 0 0 0 33.980618616415086 12.536396269639226 0 12.536396269639226 -49.250866338888954 0 0 0 0 5.7085560248518945 -8.6175426346845754 0 -8.6175426346845754 4.061976556288073 0 0 0 0 -191.10033283870916 -154.6492222590532 0 -154.6492222590532 2.6864431809372036 0 0 0 0 43.095503939723734 -34.186809368399906 0 -34.186809368399906 31.629828482608815 0 0 0 0 -0.54726399624360056 -71.696702357643517 0 -71.696702357643517 -3.5210783870279556 0 0 0 0 -106.19907595563654 57.629167725852312 0 57.629167725852312 43.861715633922358 0 0 0 0 62.270893045487355 -107.71550253013083 0 -107.71550253013083 -14.316145072036306 0 0 0 0 36.041809864017154 -54.15115573232363 0 -54.15115573232363 -4.3265313436935173 0 0 0 0 98.837376270991172 -78.637535582263808 0 -78.637535582263808 -21.091654363830457 0 0 0 0 62.725706968907616 -54.546089746596408 0 -54.546089746596408 1.1620197934535099 0 0 0 0 2.7948456188403874 -35.404184572743105 0 -35.404184572743105 -12.386272878183235 0 0 0 0 98.840027026304597 -122.96215366850811 0 -122.96215366850811 -31.555482230294729 0 0 0 0 32.925621355759176 8.5192482464008208 0 8.5192482464008208 58.460681245447631 0 0 0 0 -57.833638863562101 -76.865185424940137 0 -76.865185424940137 -5.6662894880864769 0 0 0 0 21.435151143019919 -35.395100820224911 0 -35.395100820224911 26.481446767471994 0 0 0 0 -89.263364551119594 -134.90025866307042 0 -134.90025866307042 32.994188683820539 0 0 0 0 -25.102533111591356 -84.499881814066612 0 -84.499881814066612 -8.2192299075932169 0 0 0 0 25.743457090472639 -49.808621191415625 0 -49.808621191415625 2.621044747460644 0 0 0 0 -51.976824956136625 -19.719745223104837 0 -19.719745223104837 40.897316346876323 0 0 0 0 15.70123550046992 -46.869080469274195 0 -46.869080469274195 -9.8116720125544816 0 0 0 0 89.447926001266751 -13.638781065055809 0 -13.638781065055809 -6.2133205511781853 0 0 0 0 10.112865682429401 -55.604663665333646 0 -55.604663665333646 -3.4962412714230595 0 0 0 0 5.093103849052568 3.8397636726294877 0 3.8397636726294877 27.070669524022378 0 0 0 0 124.80632637461713 -142.53039574204195 0 -142.53039574204195 38.870674813806545 0 0 0 0 138.38776186279756 -46.617368756291398 0 -46.617368756291398 -6.9149495803867467 0 0 0 0 10.58627337034725 -19.872812370751035 0 -19.872812370751035 -6.8871827178881944 0 0 0 0 15.441955634582342 -50.963552303716014 0 -50.963552303716014 1.3182923591770361 0 0 0 0 49.780254077493737 -80.661671524547273 0 -80.661671524547273 -12.145135986716923 0 0 0 0 26.877224388172181 -97.468578698957572 0 -97.468578698957572 -7.5379146721825236 0 0 0 0 15.192673060817469 -95.645558503002576 0 -95.645558503002576 -16.36699587503972 0 0 0 0 34.120946523900784 -65.189549703096418 0 -65.189549703096418 -2.1827881432400318 0 0 0 0 61.823843626578984 -60.434669733152575 0 -60.434669733152575 20.501221877109387 0 0 0 0 14.060641223011771 -49.061430221423507 0 -49.061430221423507 -5.1163466614380013 0 0 0 0 19.103569419975429 -49.870221307098291 0 -49.870221307098291 -7.3022515798802488 0 0 0 0 300.65639292403648 -311.970069677016 0 -311.970069677016 -41.966504560958128 0 0 0 0 14.338328748921413 -49.559768249077024 0 -49.559768249077024 -4.5648176489048637 0 0 0 0 77.621511097968323 -97.911625577518862 0 -97.911625577518862 0.62483953266882963 0 0 0 0 12.285809279385234 -11.892539364527771 0 -11.892539364527771 -3.4735020252503546 0 0 0 0 -218.36443761625924 140.6937366508937 0 140.6937366508937 -61.770421343380121 0 0 0 0 49.775629099821103 -45.5610573834132 0 -45.5610573834132 21.167820629006371 0 0 0 0 -31.988683867057262 -60.138580102382548 0 -60.138580102382548 21.457116416480858 0 0 0 0 -21.22168041384748 -69.366243847060105 0 -69.366243847060105 -0.050994059958611615 0 0 0 0 -238.08359402638098 -109.38355628901127 0 -109.38355628901127 19.561925769827212 0 0 0 0 26.111127024277234 -51.078447010074498 0 -51.078447010074498 2.518154612211049 0 0 0 0 -46.478209108232839 -17.533299604687457 0 -17.533299604687457 12.959598467003872 0 0 0 0 5.4177916023691068 -81.47675152431475 0 -81.47675152431475 3.4559100115484398 0 0 0 0 22.198486029279593 -70.577740229702613 0 -70.577740229702613 -11.402925839800446 0 0 0 0 -4.8403392272707606 -60.160635943449961 0 -60.160635943449961 -9.3607530714798486 0 0 0 0 12.11831431162409 -47.985778212270816 0 -47.985778212270816 -17.897475715857581 0 0 0 0 20.905390801127169 -83.102639446244211 0 -83.102639446244211 12.386072038076236 0 0 0 0 20.903836577872084 -83.077498888026525 0 -83.077498888026525 19.041366534562258 0 0 0 0 25.159726545952253 -89.38085951901212 0 -89.38085951901212 33.959660051164974 0 0 0 0 28.693458327410553 -85.687585096515249 0 -85.687585096515249 10.160763017913268 0 0 0 0 30.909883790488038 -64.323067681706107 0 -64.323067681706107 23.661696193623357 0 0 0 0 23.253364562638957 -47.453693978719315 0 -47.453693978719315 9.7704948603857815 0 0 0 0 -177.12461115073938 -91.157585675096925 0 -91.157585675096925 145.09697092792339 0 0 0 0 58.05325885756065 -18.033553422843397 0 -18.033553422843397 69.352845425928535 0 0 0 0 27.286793416285946 -81.816221068875166 0 -81.816221068875166 -26.251500009762822 0 0 0 0 37.808991268190766 -117.16512176548713 0 -117.16512176548713 78.424212858648389 0 0 0 0 46.119847740908881 -85.527330938792147 0 -85.527330938792147 -12.242847174538838 0 0 0 0 -16.21370675033458 -8.5390510110689704 0 -8.5390510110689704 -0.10278379044069652 0 0 0 0 87.269151273139869 -66.818909246074327 0 -66.818909246074327 -91.274342851087567 0 0 0 0 1.2995625666799242 -142.57376661177295 0 -142.57376661177295 -50.159059990706737 0 0 0 0 7.7762113612261601 -58.92564273878088 0 -58.92564273878088 -31.468355335114325 0 0 0 0 17.452508647240847 -94.604278644956139 0 -94.604278644956139 -7.2269420223747147 0 0 0 0 30.101464426166526 -55.231075280713085 0 -55.231075280713085 4.0206262023114192 0 0 0 0 23.397630874485912 -91.315460220535897 0 -91.315460220535897 -8.9251255615411651 0 0 0 0 21.670034370417397 -87.372454024774925 0 -87.372454024774925 -0.065232299835770391 0 0 0 0 81.33438209918063 -71.01099137626079 0 -71.01099137626079 -10.715835020939267 0 0 0 0 -32.807264950530239 -37.112472833112996 0 -37.112472833112996 -6.6726770884045408 0 0 0 0 -16.639102724591794 -109.49140989875923 0 -109.49140989875923 -17.449376044722158 0 0 0 0 3.7855801676341798 -112.6151959018971 0 -112.6151959018971 -29.704879956785589 0 0 0 0 19.876793197458028 -72.337306932526189 0 -72.337306932526189 -10.080284037328965 0 0 0 0 -21.754092113340448 -29.957047905230866 0 -29.957047905230866 -20.579443121838267 0 0 0 0 24.73797653368328 -43.197612942435228 0 -43.197612942435228 8.672638569227729 0 0 0 0 -73.091339717779192 -101.11497789277928 0 -101.11497789277928 -11.646990177159296 0 0 0 0 -82.506328317835141 -114.4442635194755 0 -114.4442635194755 -30.500117594550829 0 0 0 0 3.0952400320347806 -70.006961098208194 0 -70.006961098208194 12.803228821343509 0 0 0 0 -65.819295512286772 -55.105082649093674 0 -55.105082649093674 -32.65009220300999 0 0 0 0 20.012716077835105 -38.393994256178885 0 -38.393994256178885 -8.1177429885091215 0 0 0 0 -127.43245984394889 -99.283541625263751 0 -99.283541625263751 -34.257040649295959 0 0 0 0 -82.932962371058238 -135.66711895075787 0 -135.66711895075787 -52.357190247894323 0 0 0 0 -41.536090456684178 -140.39912571603418 0 -140.39912571603418 -53.530060675468121 0 0 0 0 -44.313052449513634 -141.07182986048429 0 -141.07182986048429 -41.115509726630989 0 0 0 0 2.9656944199450663 -148.10230992414654 0 -148.10230992414654 -67.606737802118005 0 0 0 0 -10.347230337822111 -159.5791538827325 0 -159.5791538827325 -59.86116484626973 0 0 0 0 26.503322135893541 -163.31773944802808 0 -163.31773944802808 -62.718848668486316 0 0 0 0 22.746522700295827 -128.96669320055366 0 -128.96669320055366 -3.0509969529812224 0 0 0 0 -2.7549602241342654 -133.86302509444067 0 -133.86302509444067 -74.352154122341744 0 0 0 0 -14.153423866193407 -111.07370057244952 0 -111.07370057244952 -9.1079390444792807 0 0 0 0 -6.5394759222690482 -100.18489268374469 0 -100.18489268374469 -49.772175204025189 0 0 0 0 -23.3334562901764 -115.42529464219115 0 -115.42529464219115 -41.981762582952797 0 0 0 0 -22.624665428462322 -78.370522789813549 0 -78.370522789813549 -24.431981553349033 0 0 0 0 16.748402949593583 -74.866431733789796 0 -74.866431733789796 0.39605227347055916 0 0 0 0 4.8205237907641276 -77.741592072476124 0 -77.741592072476124 27.996558809532871 0 0 0 0 -3.3570156117275474 -96.936159937013144 0 -96.936159937013144 -12.817659176776942 0 0 0 0 -51.954843385847198 -76.988437031479407 0 -76.988437031479407 -55.604954231635929 0 0 0 0 -43.561507662510849 -74.087327906585415 0 -74.087327906585415 -58.606462981017103 0 0 0 0 -38.076128333221277 -62.774991110285555 0 -62.774991110285555 -38.832646151829977 0 0 0 0 -35.256635106023168 -93.906954887461325 0 -93.906954887461325 -41.936141491978105 0 0 0 0 -52.937585674950938 -50.49075452760971 0 -50.49075452760971 -24.096566927153859 0 0 0 0 -20.937777860144706 -109.91640144694156 0 -109.91640144694156 -89.807101897265966 0 0 0 0 -42.274769712872512 -77.06975648298976 0 -77.06975648298976 -68.985314971414482 0 0 0 0 11.053250997214867 -40.471226729117184 0 -40.471226729117184 -66.014644388740408 0 0 0 0 31.036143720542896 -55.148664603420002 0 -55.148664603420002 -54.928347115317592 0 0 0 0 -14.687024234732235 -97.799506492852743 0 -97.799506492852743 -11.141974784564809 0 0 0 0 3.279542094816545 -39.34054213141232 0 -39.34054213141232 -50.958402038480159 0 0 0 0 22.233638957924995 -39.234621314462856 0 -39.234621314462856 -164.33092627423866 0 0 0 0 1.3674296278278035 -2.3373532581121168 0 -2.3373532581121168 -7.8076123063034188 0 0 0 0 80.877425545037113 -64.522404499977711 0 -64.522404499977711 -13.096179862157442 0 0 0 0 50.18126453424702 -92.918027955365687 0 -92.918027955365687 44.181238341749122 0 0 0 0 -6.3121874070631776 -5.9654069847388485 0 -5.9654069847388485 -23.047202616941007 0 0 0 0 -60.693619375182919 -23.850141284928057 0 -23.850141284928057 -11.084173822149182 0 0 0 0 18.559191239405664 79.834826921209242 0 79.834826921209242 115.04621635779768 0 0 0 0 0.73943891363160219 -121.56816336310294 0 -121.56816336310294 9.3921136900098645 0 0 0 0 50.645440697051527 -163.43653112572065 0 -163.43653112572065 15.376692227786407 0 0 0 0 23.420152507424064 -99.1034488014011 0 -99.1034488014011 -101.51062301255297 0 0 0 0 15.991481179702532 -103.12887394840072 0 -103.12887394840072 23.251866057755251 0 0 0 0 -171.9694642206523 -175.32884950595326 0 -175.32884950595326 241.47429438419931 0 0 0 0 -121.85368281134288 -287.1394042568536 0 -287.1394042568536 -44.293081272153358 0 0 0 0 -217.91822054731892 -555.121820899878 0 -555.121820899878 101.57720074900863 0 0 0 0 -133.01503530049376 -141.32613342991317 0 -141.32613342991317 222.99295482610614 0 0 0 0 -44.664194546876786 -11.922245200971048 0 -11.922245200971048 -2.751277013433004 0 0 0 0 -12.474767469280778 -32.176379591017394 0 -32.176379591017394 96.219534348929301 0 0 0 0 -619.71661588372081 257.29675087071882 0 257.29675087071882 107.59615270913855 0 0 0 0 -1169.2008059452528 -279.49296425412467 0 -279.49296425412467 164.97362032655656 0 0 0 0 262.96912495288416 -965.84664541470192 0 -965.84664541470192 -1715.2966181554948 0 0 0 0 -396.24306022407109 -7.0216725159189082 0 -7.0216725159189082 203.17791362747721 0 0 0 0 -710.91253121176851 -160.49168257748534 0 -160.49168257748534 422.71145169901138 0 0 0 0 -503.41010371466109 84.690489828833961 0 84.690489828833961 688.88355490240792 0 0 0 0 -460.87400329009688 -17.053672412614105 0 -17.053672412614105 641.84750459987845 0 0 0 0 705.24795573062147 63.021089725705679 0 63.021089725705679 317.52453362593951 0 0 0 0 262.05773373476404 -127.13649790642376 0 -127.13649790642376 421.74894348154885 0 0 0 0 -493.16655023682688 -10.792457245079277 0 -10.792457245079277 157.70203622915506 0 0 0 0 -534.5208515662016 -7.9589103571233863 0 -7.9589103571233863 463.89144341421343 0 0 0 0 -651.22999506196356 -108.78337607161666 0 -108.78337607161666 436.00104243033638 0 0 0 0 -615.51895673285799 -349.92472662131286 0 -349.92472662131286 193.72631109759095 0 0 0 0 -604.70834238225007 -200.14059410195932 0 -200.14059410195932 546.56741015092121 0 0 0 0 -840.6876635531371 -197.74292981413782 0 -197.74292981413782 709.25763696023205 0 0 0 0 -772.95277325798816 -338.54103383469919 0 -338.54103383469919 440.23122765797598 0 0 0 0 -770.63309522797317 -784.03509906592353 0 -784.03509906592353 -21.997189467641874 0 0 0 0 -863.07271037745522 -444.5024298620192 0 -444.5024298620192 525.66426698768191 0 0 0 0 -955.23594012084504 -321.54381331906916 0 -321.54381331906916 601.74526041308491 0 0 0 0 -20.551820383380786 -19.577269885943494 0 -19.577269885943494 -17.503176688710397 0 0 0 0 324.73783733717573 241.39191858535196 0 241.39191858535196 637.46275286236778 0 0 0 0 -409.53494795595179 126.90328922598565 0 126.90328922598565 818.36915055258578 0 0 0 0 1296.4565777640119 -45.362411295463971 0 -45.362411295463971 -1873.8291444286588 0 0 0 0 1293.2852180563268 45.03586568832452 0 45.03586568832452 -1358.6393657749577 0 0 0 0 842.65519544557537 -387.08736081637835 0 -387.08736081637835 -1088.0242489494995 0 0 0 0 437.65186415794597 85.743909120319586 0 85.743909120319586 -647.01300627068849 0 0 0 0 1116.412584948499 350.67042125195439 0 350.67042125195439 -823.09130963614734 0 0 0 0 360.76011245660629 -546.06446363618124 0 -546.06446363618124 -1019.557462229568 0 0 0 0 -1525.5434500004176 -726.34347293337851 0 -726.34347293337851 -529.54750678734854 0 0 0 0 -46.141005150944693 -993.16406251024455 0 -993.16406251024455 -1013.6789950029313 0 0 0 0 558.09027075004997 -3.7171764135728154 0 -3.7171764135728154 -626.09554808006214 0 0 0 0 -115.99925359417102 -416.37029852381966 0 -416.37029852381966 -343.76222906222392 0 0 0 0 -847.06855644418829 -1487.1626952290826 0 -1487.1626952290826 -1178.7818800860259 0 0 0 0 -183.95223539380095 -638.07918519253872 0 -638.07918519253872 -112.83044665453781 0 0 0 0 158.11352056189207 -844.54560719628353 0 -844.54560719628353 -1354.6262350698526 0 0 0 0 -1323.3634460581961 -912.06720707585191 0 -912.06720707585191 116.79359770150768 0 0 0 0 -10.474572575850029 -10.932761964357965 0 -10.932761964357965 4.3267863966924551 0 0 0 0 974.90552557792398 -2050.5400626786795 0 -2050.5400626786795 -1033.5605707839641 0 0 0 0 -2099.1806396915345 1250.2343403685227 0 1250.2343403685227 803.13102866034023 0 0 0 0 511.74320677915239 -427.49140025966335 0 -427.49140025966335 -2420.8615040075238 0 0 0 0 -99.708619089695276 226.99193277223094 0 226.99193277223094 -268.51320980246965 0 0 0 0 164.23331040491394 -1.3358222665319772 0 -1.3358222665319772 -182.65747860944248 0 0 0 0 -48.791237326746341 -630.26002136558964 0 -630.26002136558964 -693.4362730856883 0 0 0 0 249.03279163184925 -537.74738356170565 0 -537.74738356170565 187.53379013749509 0 0 0 0 127.21208676157403 -319.13442683813992 0 -319.13442683813992 -163.06925967423012 0 0 0 0 731.80034689875902 43.135550876468187 0 43.135550876468187 -207.90067562919648 0 0 0 0 8.0607280202949596 -6.0511995217238734 0 -6.0511995217238734 -11.44180242786841 0 0 0 0 547.84774164731789 -353.59359452098579 0 -353.59359452098579 157.16291996708242 0 0 0 0 245.00245866837213 108.45318123704783 0 108.45318123704783 -58.664911782572744 0 0 0 0 716.9636064254737 -161.02104033052819 0 -161.02104033052819 -216.51216745679267 0 0 0 0 138.4697149132262 -214.13344957305526 0 -214.13344957305526 -219.24265094102884 0 0 0 0 232.46142703563964 -91.089803538627166 0 -91.089803538627166 -110.76907741684045 0 0 0 0 200.37331426065066 -328.16166087744932 0 -328.16166087744932 -42.018472810017556 0 0 0 0 -317.09146307090123 -440.46627303749847 0 -440.46627303749847 220.92229074289207 0 0 0 0 -165.76902699986022 -605.75105051946593 0 -605.75105051946593 -144.91623746376717 0 0 0 0 26.556901075771748 -66.339315961033208 0 -66.339315961033208 77.380739853193518 0 0 0 0 -5.4036906983455992 -6.4087440254625108 0 -6.4087440254625108 86.939936106064124 0 0 0 0 -75.227857982172281 -76.770932308550982 0 -76.770932308550982 270.11812440194626 0 0 0 0 80.657545316389587 -353.29481688625356 0 -353.29481688625356 421.68047252633551 0 0 0 0 112.14465322782053 -162.36123403043166 0 -162.36123403043166 173.87099122456129 0 0 0 0 44.277991715040116 -94.395520122005109 0 -94.395520122005109 154.25277293637191 0 0 0 0 -162.10693981105578 -82.111141534878698 0 -82.111141534878698 176.43017325030814 0 0 0 0 -85.491468387786881 -98.022030228021322 0 -98.022030228021322 489.46310917496885 0 0 0 0 676.89681837863463 -207.47848396482004 0 -207.47848396482004 50.604480927002442 0 0 0 0 -46.73717457626195 -44.872015101023379 0 -44.872015101023379 -40.04571131787462 0 0 0 0 415.13519001272289 -703.58609773562057 0 -703.58609773562057 -14.782159070778562 0 0 0 0 64.974701612423814 730.65510960854226 0 730.65510960854226 -576.69364709329602 0 0 0 0 -0.76729886190621244 -2.2819743277396185 0 -2.2819743277396185 -2.7155062274780164 0 0 0 0 -173.74775989701448 -1076.773604601869 0 -1076.773604601869 783.65088739118073 0 0 0 0 -46.476275588548191 -44.172474667798241 0 -44.172474667798241 -37.085765670172492 0 0 0 0 543.37806336308927 -1189.2923800911178 0 -1189.2923800911178 195.84433121579059 0 0 0 0 -192.05895103225612 -1243.7742393789149 0 -1243.7742393789149 252.42229358518671 0 0 0 0 -1119.818593174874 -248.38524483334913 0 -248.38524483334913 1345.793786586044 0 0 0 0 -52.233068390843982 -613.42982260376448 0 -613.42982260376448 -484.18054725963157 0 0 0 0 1177.7103021292423 364.27380581911711 0 364.27380581911711 -1233.1317353567283 0 0 0 0 -954.75579132072744 1145.6338467423193 0 1145.6338467423193 732.21715712740843 0 0 0 0 123.33476693375269 177.06376470037503 0 177.06376470037503 -1891.2398761591321 0 0 0 0 748.92433690803591 756.8911892867618 0 756.8911892867618 28.0782984657817 0 0 0 0 -618.54844831141963 -1266.4563404699365 0 -1266.4563404699365 -1309.9522958122452 0 0 0 0 -2.3733018539197843 5.9981930447121101 0 5.9981930447121101 -13.059933783811545 0 0 0 0 1256.7945482980285 955.60714720287797 0 955.60714720287797 -481.4698154075304 0 0 0 0 -134.23516943257709 -592.7133571972372 0 -592.7133571972372 -733.55554862169083 0 0 0 0 -659.7134645456083 -472.10199123271013 0 -472.10199123271013 -560.73425722509273 0 0 0 0 -132.39857400086476 -397.35496670661814 0 -397.35496670661814 6.8169040833745385 0 0 0 0 -271.14449145609615 -66.331377459106079 0 -66.331377459106079 -370.45144523688941 0 0 0 0 68.266856679270859 -88.852502899433603 0 -88.852502899433603 -344.21771782435826 0 0 0 0 -220.85762945305396 -391.41977870394112 0 -391.41977870394112 -683.05098947616352 0 0 0 0 -301.17933725578041 -344.41744467586432 0 -344.41744467586432 -285.77403815215803 0 0 0 0 -3.4785030447204264 -2.6075634803951289 0 -2.6075634803951289 -1.3794987397870386 0 0 0 0 -393.9215620360701 -182.28936788673309 0 -182.28936788673309 -32.424886491447978 0 0 0 0 206.6390529163109 40.306742474855128 0 40.306742474855128 -603.75507673380343 0 0 0 0 -49.507487627284718 83.328146684806597 0 83.328146684806597 -75.752120428434864 0 0 0 0 -491.08800356321444 -291.72586316256275 0 -291.72586316256275 -181.31634825695073 0 0 0 0 -273.8040026507515 -267.83138922024227 0 -267.83138922024227 -395.67198342044139 0 0 0 0 -341.04459067524294 -238.59596209238225 0 -238.59596209238225 -226.641917914445 0 0 0 0 -392.70995280946227 -326.66352499744244 0 -326.66352499744244 -376.46279283439799 0 0 0 0 -411.90872079176188 -251.74059169123211 0 -251.74059169123211 -373.846636921764 0 0 0 0 -70.45686916194245 -222.47110501251154 0 -222.47110501251154 -703.81504138268792 0 0 0 0 -245.10043659974326 -302.56246628092049 0 -302.56246628092049 -524.52664144142182 0 0 0 0 -397.1459584410477 -319.57091838678025 0 -319.57091838678025 -525.60657344240826 0 0 0 0 -457.50973858929865 -232.23583268147195 0 -232.23583268147195 -519.59062219719635 0 0 0 0 -507.62945215679065 -191.31554618217342 0 -191.31554618217342 -528.30080580322101 0 0 0 0 -348.66197327058035 -275.56667168236891 0 -275.56667168236891 -672.64087905593624 0 0 0 0 -421.68830384629837 -292.15654449204158 0 -292.15654449204158 -476.57834653212922 0 0 0 0 -447.86916669463244 -164.68935708160279 0 -164.68935708160279 -683.72739738572272 0 0 0 0 -346.16090861160774 -245.86004999869328 0 -245.86004999869328 -761.73736541612016 0 0 0 0 -410.14292512189422 -261.06705269045779 0 -261.06705269045779 -535.66365138112451 0 0 0 0 -5.576724318278977 18.277315923417792 0 18.277315923417792 -51.573857107569495 0 0 0 0 -154.29523386270012 -23.557483620606945 0 -23.557483620606945 220.10897457700048 0 0 0 0 -1.5457645871426138 2.2151941937185704 0 2.2151941937185704 -0.38660472178457894 0 0 0 0 212.95466574189777 181.02095093592288 0 181.02095093592288 -448.90160924151132 0 0 0 0 -502.13980339573754 -341.43699795490102 0 -341.43699795490102 -386.72285865958111 0 0 0 0 -220.20173840454299 -226.77071280281962 0 -226.77071280281962 379.94677733867138 0 0 0 0 560.73206416508765 439.65767373698327 0 439.65767373698327 -277.28845531196566 0 0 0 0 -4.6033204666268972 16.123524551831114 0 16.123524551831114 -34.769133882877838 0 0 0 0 -349.52781627335935 -424.00044677438564 0 -424.00044677438564 -553.45554126389652 0 0 0 0 -197.40126126240648 -269.76732434371661 0 -269.76732434371661 -919.46161359141115 0 0 0 0 603.83866592942923 115.60675791361064 0 115.60675791361064 -498.24436014387175 0 0 0 0 -233.36369275638572 -165.95139414354344 0 -165.95139414354344 348.86920886370172 0 0 0 0 -2.171489324416342 -33.351065636824003 0 -33.351065636824003 42.940286676218449 0 0 0 0 287.15828969192444 -475.71843193736277 0 -475.71843193736277 -793.97323513645097 0 0 0 0 -31.69828865081945 -139.02497908317309 0 -139.02497908317309 -68.329578056029277 0 0 0 0 -49.67336938538574 -115.34030658033043 0 -115.34030658033043 -12.645725058973767 0 0 0 0 -26.018066034516323 -82.250023983521032 0 -82.250023983521032 9.1993032408208819 0 0 0 0 -28.346930895102105 -122.49099463309312 0 -122.49099463309312 10.45419089886127 0 0 0 0 -47.655385241301701 -115.56972549413513 0 -115.56972549413513 95.542476919203182 0 0 0 0 -54.826883786477993 -98.190051583042077 0 -98.190051583042077 58.192788132349961 0 0 0 0 -66.68411453824956 -95.579651068430394 0 -95.579651068430394 57.721574991301168 0 0 0 0 -64.839911795395892 -92.786679245036794 0 -92.786679245036794 22.017017880556523 0 0 0 0 -90.865314943839621 -92.27213516835036 0 -92.27213516835036 102.34714554373932 0 0 0 0 -102.51204618524935 -66.853243562596617 0 -66.853243562596617 64.517970467786654 0 0 0 0 -68.695037192417658 -76.576815825916128 0 -76.576815825916128 67.146089287285577 0 0 0 0 -37.043264387801173 -85.005150922967005 0 -85.005150922967005 -45.218495064586023 0 0 0 0 -59.247217290263507 -88.014463000852629 0 -88.014463000852629 22.108480302296812 0 0 0 0 -60.051656432849995 -85.159372029558654 0 -85.159372029558654 16.691986485326197 0 0 0 0 -6.7409818127052858 -189.9162372386636 0 -189.9162372386636 -140.35261458848254 0 0 0 0 10.162113255559774 -39.28998783167787 0 -39.28998783167787 37.845412682776185 0 0 0 0 -44.1164302698744 -84.935840741643915 0 -84.935840741643915 -20.117399843948078 0 0 0 0 1.9319103556626942 -6.87308142814436 0 -6.87308142814436 -14.330707553774118 0 0 0 0 4.4027122675538948 -1.4153912414627499 0 -1.4153912414627499 -21.013715912789849 0 0 0 0 -0.20087846922820063 9.2728809352250394 0 9.2728809352250394 -56.464016417924881 0 0 0 0 -60.774717534914089 -43.095114784460748 0 -43.095114784460748 62.228888824087335 0 0 0 0 -69.104480123947724 -66.142336896529741 0 -66.142336896529741 10.423378301522462 0 0 0 0 -95.094537027704064 -32.788954831805313 0 -32.788954831805313 59.420027276511973 0 0 0 0 -8.5994110956817167 -1.4393728501017904 0 -1.4393728501017904 13.780110478983261 0 0 0 0 -35.417887512972811 -30.769533766637323 0 -30.769533766637323 36.843815079453634 0 0 0 0 -48.536599497820134 -47.178884343273239 0 -47.178884343273239 19.012310641759541 0 0 0 0 -37.1169741016638 -43.802312851577881 0 -43.802312851577881 7.9453484438345185 0 0 0 0 3.7778106652184391 -9.2293879614768812 0 -9.2293879614768812 -1.1873309708984721 0 0 0 0 1.0299297336288333 -5.1225222373869101 0 -5.1225222373869101 1.6582971293651951 0 0 0 0 -561.98301396865281 -340.38029476633528 0 -340.38029476633528 -204.70027086397749 0 0 0 0 -47.029969851311762 -19.536371572306962 0 -19.536371572306962 -35.562516392732505 0 0 0 0 -37.369417224163954 -45.431180533855695 0 -45.431180533855695 10.528728534991387 0 0 0 0 10.279537590700784 -106.14932391321054 0 -106.14932391321054 -4.7197261471010279 0 0 0 0 0.18502410673806935 -0.18042290552433826 0 -0.18042290552433826 -1.6620710859192229 0 0 0 0 -28.94924433282722 -41.12303988358326 0 -41.12303988358326 -2.908960137021495 0 0 0 0 -557.12956550285162 -366.01633991327253 0 -366.01633991327253 -132.05837246555893 0 0 0 0 -422.82431231591909 -204.68434452908696 0 -204.68434452908696 -105.33892362318875 0 0 0 0 -428.09925370298151 -300.42673126234149 0 -300.42673126234149 -259.22254844922281 0 0 0 0 -417.78368110960582 -218.78349782603618 0 -218.78349782603618 -180.33478508163535 0 0 0 0 -402.3656622293056 -239.8618974642086 0 -239.8618974642086 -162.5179385750962 0 0 0 0 -495.87076590553625 -208.03153686656151 0 -208.03153686656151 -178.20320923432882 0 0 0 0 -562.62617636403593 -376.29216757205722 0 -376.29216757205722 -244.51430423615966 0 0 0 0 -351.53084126097383 -200.42407780935173 0 -200.42407780935173 -147.3968618462095 0 0 0 0 -385.60888751267339 -282.72586173188756 0 -282.72586173188756 -195.24827262763574 0 0 0 0 4.7869143930556675 -7.2310368470793378 0 -7.2310368470793378 -11.339501610885009 0 0 0 0 -462.96805428201333 -253.36283616963192 0 -253.36283616963192 -134.26435253780801 0 0 0 0 -438.89655751587998 -237.46014335298969 0 -237.46014335298969 -128.02859103234368 0 0 0 0 -443.59525356860104 -270.07026602172846 0 -270.07026602172846 -142.17155273485696 0 0 0 0 -393.48336721783562 -269.93772551382426 0 -269.93772551382426 -230.22675173820062 0 0 0 0 -317.18288127406413 -189.98989441752929 0 -189.98989441752929 -165.16285556496587 0 0 0 0 47.937485153954185 -136.45078471284069 0 -136.45078471284069 183.30250022201653 0 0 0 0 -268.06508668988317 -113.82218341738189 0 -113.82218341738189 -4.1382617189519806 0 0 0 0 -18.355530680591983 87.554878003888916 0 87.554878003888916 -1.9783387428615242 0 0 0 0 1.0710385875142023 -1.4080340148080097 0 -1.4080340148080097 4.9363242598892327 0 0 0 0 931.19268871910754 -66.981145954596286 0 -66.981145954596286 -99.686783352051862 0 0 0 0 505.58907174396154 -280.84501169415307 0 -280.84501169415307 158.02172870400682 0 0 0 0 358.28659564110967 -155.92908861563683 0 -155.92908861563683 -25.475834226119332 0 0 0 0 528.28985252373241 -30.080932322500303 0 -30.080932322500303 -185.60011315978772 0 0 0 0 531.28430100243713 -56.861667902885529 0 -56.861667902885529 8.6185157449217513 0 0 0 0 250.45598862145562 -43.195148626411537 0 -43.195148626411537 -269.74523433862487 0 0 0 0 242.75871918947087 -39.297144969787041 0 -39.297144969787041 -62.785295611029142 0 0 0 0 -169.00247296120506 -38.235669727473578 0 -38.235669727473578 3.0817789686261676 0 0 0 0 -371.09354560237261 -26.249093281272508 0 -26.249093281272508 34.644304721885419 0 0 0 0 -8.6872818161184036 -32.807116192378658 0 -32.807116192378658 -48.937755823409304 0 0 0 0 -673.25656743324271 -242.54188231028456 0 -242.54188231028456 -103.07205735048046 0 0 0 0 -498.50650434268755 -171.35744151310064 0 -171.35744151310064 -98.969289932029824 0 0 0 0 -4.976681544031976 -10.720085957472904 0 -10.720085957472904 -5.999252952949945 0 0 0 0 -713.7149614263908 43.339205894677434 0 43.339205894677434 -48.406832875625696 0 0 0 0 -332.75042757480696 110.82331531513773 0 110.82331531513773 -56.047773220248928 0 0 0 0 -23.139676705206938 -26.267687391201008 0 -26.267687391201008 34.214718859069691 0 0 0 0 4.1351126425979601 -685.2305764270277 0 -685.2305764270277 -654.87619089987129 0 0 0 0 -159.04487788020924 -614.31583971124201 0 -614.31583971124201 -551.89446354075335 0 0 0 0 -12.191442964976886 -91.567710411021835 0 -91.567710411021835 -85.593803383089835 0 0 0 0 3.5981146836857079 -38.258472651745251 0 -38.258472651745251 -37.223628695486696 0 0 0 0 13.119495578022907 -64.640120187490538 0 -64.640120187490538 -75.978884154712432 0 0 0 0 -32.274519544022041 -73.481090822755505 0 -73.481090822755505 -63.770623808493838 0 0 0 0 3.3672458998667025 -2.5364707378934099 0 -2.5364707378934099 -7.1742037985260509 0 0 0 0 33.186365628607746 -30.352794336413353 0 -30.352794336413353 -88.653417746027117 0 0 0 0 -11.129958502041717 -29.518932104093423 0 -29.518932104093423 -44.991071812260401 0 0 0 0 -329.43468981400656 139.06913198064285 0 139.06913198064285 58.494892331346819 0 0 0 0 61.867979419796029 -119.05684908539843 0 -119.05684908539843 23.725335209819605 0 0 0 0 59.874406706649097 -117.74675178612688 0 -117.74675178612688 63.740085164870834 0 0 0 0 85.436394307549563 -81.795032693751637 0 -81.795032693751637 53.013044050399913 0 0 0 0 -8.7157885317236783 -6.8056869028346938 0 -6.8056869028346938 7.2901843240831568 0 0 0 0 125.96268249390414 -122.85594173127902 0 -122.85594173127902 51.328034306643531 0 0 0 0 -52.224016790220048 258.46291038221534 0 258.46291038221534 -250.87252881186214 0 0 0 0 -67.243133822412346 -30.073675886043929 0 -30.073675886043929 65.770887097954983 0 0 0 0 -35.943928046559506 -30.449347740865051 0 -30.449347740865051 -20.882185057464866 0 0 0 0 -49.660400735985604 -40.450111933540029 0 -40.450111933540029 15.931107314594556 0 0 0 0 8.5472932106349617 -37.073312395830726 0 -37.073312395830726 15.209643335023429 0 0 0 0 -38.027559998430661 15.802635896416177 0 15.802635896416177 -124.17574366841291 0 0 0 0 -68.362868091775454 79.474548395184684 0 79.474548395184684 335.68105801109778 0 0 0 0 416.08630362556869 170.51930000574066 0 170.51930000574066 -75.863656015164452 0 0 0 0 -27.719619135232051 -35.150310288133426 0 -35.150310288133426 -13.592797877063163 0 0 0 0 172.91568980082957 19.833975838104379 0 19.833975838104379 -412.62951983270614 0 0 0 0 -80.062568486173404 -47.213580593750521 0 -47.213580593750521 -167.9397806235138 0 0 0 0 -27.631986088563281 -78.366617400555697 0 -78.366617400555697 15.365985703858314 0 0 0 0 -53.816903172697494 -106.27414614988083 0 -106.27414614988083 26.184927854206762 0 0 0 0 -192.83834175959055 -114.47925531452347 0 -114.47925531452347 14.562461510504363 0 0 0 0 -73.165309086849447 -152.51311938800791 0 -152.51311938800791 -53.073733788885875 0 0 0 0 -66.610880086270299 -66.277605232599853 0 -66.277605232599853 18.467851683526533 0 0 0 0 -73.250353679566615 -130.93589793466253 0 -130.93589793466253 -40.034481206646888 0 0 0 0 -34.932380195125006 -129.11086115147918 0 -129.11086115147918 -39.947728802100755 0 0 0 0 -18.341291660368114 -12.341762420183159 0 -12.341762420183159 15.551137503224709 0 0 0 0 -132.8811653048906 -223.337292834447 0 -223.337292834447 -114.76708724431228 0 0 0 0 30.283589452599699 -76.502362792751228 0 -76.502362792751228 -3.4614418624987593 0 0 0 0 47.588305615184055 -40.015683432876415 0 -40.015683432876415 22.761960870509114 0 0 0 0 -248.13320458823364 -112.89313618118103 0 -112.89313618118103 44.106193125713617 0 0 0 0 -229.83738146688847 -200.24643776343146 0 -200.24643776343146 -18.147059122187784 0 0 0 0 48.907806710762088 -57.270431847558939 0 -57.270431847558939 -5.2139376409031684 0 0 0 0 -165.22623574535828 -215.1652500887576 0 -215.1652500887576 -181.47054344545177 0 0 0 0 44.968914305063663 -401.22000341926469 0 -401.22000341926469 -16.787023959623184 0 0 0 0 3.1615280223086302 -275.2860350962801 0 -275.2860350962801 180.7943977380055 0 0 0 0 -112.26375182780612 -350.51213104373892 0 -350.51213104373892 -158.21174685855021 0 0 0 0 -120.70593411382288 -192.63944717838604 0 -192.63944717838604 36.87255119823385 0 0 0 0 -147.98365065979306 -104.09226111491444 0 -104.09226111491444 -133.84732116961277 0 0 0 0 -116.07357163800407 -160.45013773467144 0 -160.45013773467144 201.00021343969274 0 0 0 0 365.6205255202658 -140.53185087814927 0 -140.53185087814927 135.86805370956426 0 0 0 0 6.0010386981448391 -295.38558640993142 0 -295.38558640993142 339.06595582864247 0 0 0 0 -111.66259147312667 32.266334294188709 0 32.266334294188709 77.828141037025489 0 0 0 0 -106.6339639427606 -15.665540661284467 0 -15.665540661284467 211.88489149992529 0 0 0 0 -158.45083888163208 -103.75448728929041 0 -103.75448728929041 3.0239967456000159 0 0 0 0 -103.91883419540318 -23.502752186457656 0 -23.502752186457656 33.788160072959727 0 0 0 0 -174.24001475519617 -35.390093933965545 0 -35.390093933965545 120.12439685133722 0 0 0 0 -53.500624573367531 -1.4094911181891803 0 -1.4094911181891803 37.680477456902736 0 0 0 0 -101.79892230305995 -51.967053265791037 0 -51.967053265791037 16.253059750029934 0 0 0 0 -63.148767568847688 20.305528125591081 0 20.305528125591081 7.034130987332901 0 0 0 0 0.081549009129780359 -0.040983388090452877 0 -0.040983388090452877 1.8352996572086795 0 0 0 0 334.18115550423317 -258.40923019017646 0 -258.40923019017646 235.3665605285496 0 0 0 0 255.27067666860239 -129.56529452466202 0 -129.56529452466202 62.346808263204366 0 0 0 0 154.98039810009504 -220.13291393843974 0 -220.13291393843974 228.24420649671811 0 0 0 0 19.395085948577616 -154.47464247171774 0 -154.47464247171774 132.60239764401922 0 0 0 0 39.274781085550785 -114.84289419633569 0 -114.84289419633569 96.09045119365328 0 0 0 0 18.518862166602048 -153.67724949719559 0 -153.67724949719559 234.35761477347114 0 0 0 0 108.4771273866063 -141.19630446670635 0 -141.19630446670635 105.98120967544673 0 0 0 0 -8.0262060104068951 -95.362098614481511 0 -95.362098614481511 109.89939011764363 0 0 0 0 -36.077208022659761 -7.8745357259322191 0 -7.8745357259322191 275.70530228225834 0 0 0 0 55.963760414946591 -136.88932995421055 0 -136.88932995421055 212.25037127725955 0 0 0 0 142.82321829826105 -87.748128792329226 0 -87.748128792329226 -631.63469392139814 0 0 0 0 2.1016024494332157 -0.24863735143404142 0 -0.24863735143404142 -0.229036919532696 0 0 0 0 34.419314536258753 -100.33451650015922 0 -100.33451650015922 381.46154709081748 0 0 0 0 332.08125647214183 -132.11072484258693 0 -132.11072484258693 299.91082336520776 0 0 0 0 181.7635521889315 -188.08173139143037 0 -188.08173139143037 331.54496721837495 0 0 0 0 58.18853631427919 -119.39609534569536 0 -119.39609534569536 295.64881838776637 0 0 0 0 107.8438483417267 -43.680445759033319 0 -43.680445759033319 -555.22517882240936 0 0 0 0 148.46762649854645 -177.24665982657461 0 -177.24665982657461 -539.58405215290259 0 0 0 0 209.6863847055356 -279.96818283270113 0 -279.96818283270113 -381.97402116356534 0 0 0 0 -21.087463946219941 -172.50105035220622 0 -172.50105035220622 331.5896136450101 0 0 0 0 117.38181815398275 -55.844908319217211 0 -55.844908319217211 -544.90029971116019 0 0 0 0 3.2613281147922351 -3.0513652067388932 0 -3.0513652067388932 2.9202895256026693 0 0 0 0 98.19846324948594 -31.626896287372801 0 -31.626896287372801 198.50718016011524 0 0 0 0 102.22323176072678 -46.869687712402083 0 -46.869687712402083 -536.6116320643996 0 0 0 0 -174.05062059930788 -177.16311157518066 0 -177.16311157518066 106.60112544009462 0 0 0 0 95.228330987432855 -37.571040844166419 0 -37.571040844166419 -542.3087719399191 0 0 0 0 94.590219516787329 -2.6499872107378906 0 -2.6499872107378906 -601.90619747887831 0 0 0 0 156.57023634773213 -236.03638603561558 0 -236.03638603561558 117.73819257199648 0 0 0 0 179.60918291441703 -183.96886014808115 0 -183.96886014808115 54.336331621365389 0 0 0 0 97.868219896212395 -110.67118070853758 0 -110.67118070853758 59.3624794917705 0 0 0 0 95.773963531777554 -117.57438541563533 0 -117.57438541563533 -47.919035807528417 0 0 0 0 88.934525139804464 -96.768463627769961 0 -96.768463627769961 40.585531861726849 0 0 0 0 103.07592013034446 -162.01377600498381 0 -162.01377600498381 112.4151442808643 0 0 0 0 101.95398486863269 -96.373187049430271 0 -96.373187049430271 -41.977101140568266 0 0 0 0 96.545680779992836 -90.763801434295601 0 -90.763801434295601 -25.808267267711926 0 0 0 0 71.926253467288916 -132.18462791953061 0 -132.18462791953061 -29.682760804953432 0 0 0 0 66.078023902991845 -80.249801932892296 0 -80.249801932892296 -16.993082324697752 0 0 0 0 -81.545893027199781 -90.096686911500001 0 -90.096686911500001 224.03782848578703 0 0 0 0 21.010806623686221 -104.95522125442221 0 -104.95522125442221 21.426674218353583 0 0 0 0 87.685562109072634 -101.08994368606363 0 -101.08994368606363 1.8045209005504148 0 0 0 0 49.774126297565772 -62.949479799920084 0 -62.949479799920084 56.893182651948564 0 0 0 0 0.30117761222027184 -147.10601535924798 0 -147.10601535924798 53.648250250647834 0 0 0 0 95.064564125641482 -90.038573374011321 0 -90.038573374011321 -46.844284187143785 0 0 0 0 20.583932341713535 -109.37587180029914 0 -109.37587180029914 85.034452454623533 0 0 0 0 2.7221914153125795 0.098616056820304721 0 0.098616056820304721 -3.5937672260084241 0 0 0 0 46.511295812653032 -43.698166797487374 0 -43.698166797487374 2.3379916893666923 0 0 0 0 6.863919611527308 -60.223106277659099 0 -60.223106277659099 27.237173880232149 0 0 0 0 -69.740102418945753 -129.84986155274964 0 -129.84986155274964 -27.291257179836975 0 0 0 0 29.92208202281472 -74.015982847973646 0 -74.015982847973646 -21.426773684681393 0 0 0 0 -19.684609227391775 -189.52108420891454 0 -189.52108420891454 72.92763923612074 0 0 0 0 33.628494236485224 -31.341241730434206 0 -31.341241730434206 13.712058539904177 0 0 0 0 -45.898230875436667 -44.377651613566371 0 -44.377651613566371 42.642838953456845 0 0 0 0 -23.333618677643244 -32.693129024773953 0 -32.693129024773953 -383.79130835196895 0 0 0 0 -56.397497216414195 -38.485906046553282 0 -38.485906046553282 -51.866373798940913 0 0 0 0 -6.4030329696537933 -0.47725251884009623 0 -0.47725251884009623 4.6838619345841721 0 0 0 0 100.31011619418859 -141.52437739878951 0 -141.52437739878951 -104.27995186802582 0 0 0 0 -199.506540735405 -295.02277536901966 0 -295.02277536901966 499.24274879360019 0 0 0 0 231.77396789676641 -372.27186558056928 0 -372.27186558056928 464.2822817635606 0 0 0 0 -77.685694150888594 -116.32276564893436 0 -116.32276564893436 232.37464720630669 0 0 0 0 -75.681696638945141 -170.89931428941782 0 -170.89931428941782 756.81099743010418 0 0 0 0 -20.820044576188593 92.394923733321775 0 92.394923733321775 -60.664235203963472 0 0 0 0 0.6961674146538428 -0.68404482766340635 0 -0.68404482766340635 2.0600504946511364 0 0 0 0 59.856908583948098 171.66590420238936 0 171.66590420238936 422.42410578441923 0 0 0 0 33.88289672398605 73.22414692311213 0 73.22414692311213 58.761487641866552 0 0 0 0 -11.934881848472287 -16.369250975374598 0 -16.369250975374598 -19.563992239440267 0 0 0 0 -98.255298190590111 42.579773013618251 0 42.579773013618251 376.29274314668146 0 0 0 0 -113.73355303074641 -21.749712894008553 0 -21.749712894008553 122.85191283028507 0 0 0 0 -60.074905903260515 17.438705877866596 0 17.438705877866596 126.08668965974357 0 0 0 0 -130.14624162779364 -14.072047496167215 0 -14.072047496167215 137.9278577194782 0 0 0 0 -51.350872278751922 -201.0551972628582 0 -201.0551972628582 -368.98184234406654 0 0 0 0 -185.50189908185712 -345.80344873853755 0 -345.80344873853755 108.21606002793351 0 0 0 0 -79.064087216014741 -113.8073627360136 0 -113.8073627360136 77.966205211220768 0 0 0 0 -101.02587414046866 -96.95810345429345 0 -96.95810345429345 80.250463355550892 0 0 0 0 -171.09518624247721 -51.562777282677416 0 -51.562777282677416 125.37260091974167 0 0 0 0 -95.486226705193985 -43.786446793819778 0 -43.786446793819778 117.02929999752087 0 0 0 0 -98.626736721998896 -89.058838713855948 0 -89.058838713855948 101.15253579066484 0 0 0 0 -149.03386529632917 -102.20654401980573 0 -102.20654401980573 110.10612214179127 0 0 0 0 -27.193875453711371 -102.933006166415 0 -102.933006166415 88.708412976113323 0 0 0 0 -92.943511092656991 -79.862998499258538 0 -79.862998499258538 115.52825563908118 0 0 0 0 -76.635282602823281 -121.40816794752755 0 -121.40816794752755 119.88286913432239 0 0 0 0 -54.018808362969139 -113.46199389699177 0 -113.46199389699177 125.94893432101526 0 0 0 0 -32.653663487334597 11.065839872514061 0 11.065839872514061 80.168659578615916 0 0 0 0 2.5540712298444532 -1.8635717848391096 0 -1.8635717848391096 0.42437723053578225 0 0 0 0 -36.570193636449403 -93.938297461645561 0 -93.938297461645561 -39.845563927628973 0 0 0 0 12.02061607889118 -272.7682555578067 0 -272.7682555578067 -56.603285518023768 0 0 0 0 68.669285635794949 -213.40366986393929 0 -213.40366986393929 -19.401290021676687 0 0 0 0 20.452012447887682 -162.17877530085389 0 -162.17877530085389 37.977664913778426 0 0 0 0 94.142134859168436 -80.034631037786312 0 -80.034631037786312 -38.299469739053166 0 0 0 0 167.66697386396118 -115.89484694246494 0 -115.89484694246494 -182.04968362274667 0 0 0 0 140.31191101079457 -49.779816076341376 0 -49.779816076341376 -37.999971376848407 0 0 0 0 70.166787911359279 -242.19938666792586 0 -242.19938666792586 -118.82175779293357 0 0 0 0 80.638439457166896 -294.32562754244464 0 -294.32562754244464 135.05576047730574 0 0 0 0 -373.1707757246113 -476.79045345252234 0 -476.79045345252234 839.37440979351231 0 0 0 0 0.98068267224209649 -0.3054615418138269 0 -0.3054615418138269 0.18203477095030962 0 0 0 0 -414.55921387439594 -926.30440457547957 0 -926.30440457547957 -282.55462048813934 0 0 0 0 -6.6354344503571383 -7.6421387482069179 0 -7.6421387482069179 -9.677512746126979 0 0 0 0 420.02514221699857 480.31903635071376 0 480.31903635071376 -1304.1550716995116 0 0 0 0 -611.96622046575067 -256.35679027744482 0 -256.35679027744482 164.37108486790385 0 0 0 0 -97.320226958037892 -126.62445961330741 0 -126.62445961330741 195.36429097341897 0 0 0 0 144.40736710672354 -292.35355330757011 0 -292.35355330757011 307.8370618899753 0 0 0 0 -18.134099673989112 -206.81178205381002 0 -206.81178205381002 358.61994900674472 0 0 0 0 -6.8399359586728679 48.105757030321911 0 48.105757030321911 -23.970817578228889 0 0 0 0 15.880362450115058 -17.906318400467512 0 -17.906318400467512 -2.7527525202040053 0 0 0 0 575.37081104331446 -386.29361422001239 0 -386.29361422001239 -1085.3932312391262 0 0 0 0 -1568.7883052302423 -216.47758638764935 0 -216.47758638764935 -179.32859469534014 0 0 0 0 43.53166053215682 5.3547022071870742 0 5.3547022071870742 -108.10727115902409 0 0 0 0 -0.26754701340541942 -21.402497993578436 0 -21.402497993578436 25.412357724817412 0 0 0 0 15.824517806970107 28.510944564332021 0 28.510944564332021 8.5414265205527045 0 0 0 0 14.377323874304864 -10.551640509071291 0 -10.551640509071291 7.2496653483820808 0 0 0 0 -24.558262225968065 -23.799475129810162 0 -23.799475129810162 -2.5394737515634915 0 0 0 0 474.13705831879179 -3.6965819857123279 0 -3.6965819857123279 -147.35242704788106 0 0 0 0 154.20662564603845 6.7939182661866653 0 6.7939182661866653 -77.026090230356203 0 0 0 0 26.615474100189289 -18.668867889419488 0 -18.668867889419488 0.49251515280855074 0 0 0 0 69.954811719624558 -45.864450896246126 0 -45.864450896246126 -28.750798698078142 0 0 0 0 -9.047095279340283 -37.316840572733781 0 -37.316840572733781 -18.630561096128076 0 0 0 0 47.59434632068951 4.3621388409956126 0 4.3621388409956126 -54.025005473384226 0 0 0 0 140.48187613314076 -66.660513482507668 0 -66.660513482507668 -116.97803250476136 0 0 0 0 25.976314969561344 -8.6129597873736827 0 -8.6129597873736827 -0.5589731885525282 0 0 0 0 119.52585746155091 -43.147101805865532 0 -43.147101805865532 -121.80121345681982 0 0 0 0 -31.939734732077341 47.657352972535591 0 47.657352972535591 54.730915105814347 0 0 0 0 289.7009849847891 161.10531133454788 0 161.10531133454788 -23.784638184704818 0 0 0 0 -3.033726628381487 0.18783510339496701 0 0.18783510339496701 4.3653947377831059 0 0 0 0 -68.965752775512556 -72.940455160101919 0 -72.940455160101919 -20.225386681297095 0 0 0 0 150.20801462572126 8.9023876480969193 0 8.9023876480969193 -0.08563777849485632 0 0 0 0 -51.868779718432052 -69.63615799346735 0 -69.63615799346735 -25.807412889836996 0 0 0 0 59.70217462187793 -48.619843794316694 0 -48.619843794316694 -23.866059946099995 0 0 0 0 180.36575730818731 -102.17968562749593 0 -102.17968562749593 -51.062930189043982 0 0 0 0 66.702631949789065 -10.026980816626747 0 -10.026980816626747 119.76791629959189 0 0 0 0 60.641350446814613 -9.4727213015939924 0 -9.4727213015939924 -103.51971623461577 0 0 0 0 50.414904861610012 -164.15006499255105 0 -164.15006499255105 -173.91945297962229 0 0 0 0 -68.782386293190939 -133.07231897673864 0 -133.07231897673864 -97.858981131663313 0 0 0 0 -86.030553449621948 -76.132630586696905 0 -76.132630586696905 -6.952563372818986 0 0 0 0 -43.762796314891602 -62.250461909708974 0 -62.250461909708974 0.087144213357532863 0 0 0 0 -18.572509120924224 -37.330866988908383 0 -37.330866988908383 -59.29657387676707 0 0 0 0 10.180335889413584 -7.2067285897247757 0 -7.2067285897247757 4.7600531423611017 0 0 0 0 22.187552976894949 -8.9497922144073527 0 -8.9497922144073527 31.371682923272601 0 0 0 0 11.314878137804044 -98.572553044614324 0 -98.572553044614324 -51.193631449212262 0 0 0 0 24.777922308156121 -58.297908669759636 0 -58.297908669759636 33.305984086204262 0 0 0 0 9.8501702078510789 -90.238317948405893 0 -90.238317948405893 81.692082196866977 0 0 0 0 109.72130976505287 -71.491677967431315 0 -71.491677967431315 4.9928709283849457 0 0 0 0 -2.6483555829126999 -99.025749151272976 0 -99.025749151272976 117.46641611610539 0 0 0 0 0.49028963025934047 -8.8565928729893528 0 -8.8565928729893528 5.3966666134147445 0 0 0 0 56.652452132492726 -49.770295974284544 0 -49.770295974284544 42.543623660013566 0 0 0 0 -10.426695782913157 -71.440143934130901 0 -71.440143934130901 93.4567144937173 0 0 0 0 22.691927158506587 -134.84720931280754 0 -134.84720931280754 -13.947261835943209 0 0 0 0 116.81973330433539 -125.91648665405228 0 -125.91648665405228 -31.4445104465849 0 0 0 0 35.656474201074161 -105.43221550751332 0 -105.43221550751332 -26.274185231653973 0 0 0 0 125.26698768313508 -95.440783852391178 0 -95.440783852391178 -41.940976510994005 0 0 0 0 35.709228942921982 -53.089331875013158 0 -53.089331875013158 -9.4867729576944839 0 0 0 0 -39.258855771156959 -168.84985717761447 0 -168.84985717761447 -9.2003856696537696 0 0 0 0 66.994818703093728 -31.946997528676377 0 -31.946997528676377 6.3586182534361733 0 0 0 0 191.46653881919337 -69.195177359477384 0 -69.195177359477384 -73.745349417498801 0 0 0 0 18.033758526927159 8.983620944431749 0 8.983620944431749 -21.468317894969005 0 0 0 0 -7.0694588359256159 -52.672018356723129 0 -52.672018356723129 -46.77925535212853 0 0 0 0 159.47677122400637 23.818753574643779 0 23.818753574643779 -69.956549011112656 0 0 0 0 6.7504366630745096 -2.1723691103070237 0 -2.1723691103070237 1.6556514581902775 0 0 0 0 -0.046568205114454031 -11.940363993926439 0 -11.940363993926439 0.029979851067764685 0 0 0 0 -7.2801602066901978 -54.489172890411282 0 -54.489172890411282 -62.428360120087746 0 0 0 0 20.022681285328872 -69.80710405773425 0 -69.80710405773425 -105.29699441314733 0 0 0 0 -5.2348693153471686 -74.771219720147201 0 -74.771219720147201 -47.995177214805153 0 0 0 0 -18.811077404432581 -57.59379431346315 0 -57.59379431346315 -21.676021111838054 0 0 0 0 -64.974854255900937 -48.478647166254632 0 -48.478647166254632 -23.51835715121706 0 0 0 0 -20.730875989109336 -49.057986882595287 0 -49.057986882595287 -47.641058219436673 0 0 0 0 -24.843391752896423 -45.48809136365162 0 -45.48809136365162 -26.149887640731322 0 0 0 0 0.078265330637805164 -60.593123201084381 0 -60.593123201084381 -23.681255982170114 0 0 0 0 -24.53076261428032 -52.324231202188457 0 -52.324231202188457 0.014606973541958723 0 0 0 0 12.29685518264796 -40.595020138118343 0 -40.595020138118343 -10.640151706204051 0 0 0 0 -7.9598087768963524 -68.552284250456978 0 -68.552284250456978 -7.4480048454861389 0 0 0 0 98.138777262885924 -71.554442033891974 0 -71.554442033891974 -18.176771757673123 0 0 0 0 39.917497244175138 -69.779822774051354 0 -69.779822774051354 -0.013178052773582749 0 0 0 0 104.48071535061172 -78.929791718277556 0 -78.929791718277556 -11.798846248813788 0 0 0 0 74.703762194018054 -49.626437533657736 0 -49.626437533657736 -11.455504536177614 0 0 0 0 69.057799719033937 -96.199839479355433 0 -96.199839479355433 -7.6661962844664231 0 0 0 0 85.74242991509891 -84.599496757444285 0 -84.599496757444285 -0.053119589203561191 0 0 0 0 131.86838476675985 -83.145060581431608 0 -83.145060581431608 -21.888565331686095 0 0 0 0 2.9164305985040642 0.19410133825346065 0 0.19410133825346065 -3.5213152053070758 0 0 0 0 90.209694699775355 -92.091189373222733 0 -92.091189373222733 -22.251883022807306 0 0 0 0 188.13586824965182 -82.951277827354716 0 -82.951277827354716 50.356161401810823 0 0 0 0 -148.53130441963822 -165.73939424093987 0 -165.73939424093987 6.8284664075035835 0 0 0 0 -81.845847091111864 -118.83068230228309 0 -118.83068230228309 -0.042288881006243173 0 0 0 0 94.994097992799652 -144.88470522435819 0 -144.88470522435819 -44.285269818821689 0 0 0 0 79.827517340778286 -126.96357785352666 0 -126.96357785352666 -40.550366195267998 0 0 0 0 -0.89778997250477133 1.377369760095057 0 1.377369760095057 1.8505587144981064 0 0 0 0 -253.52875418430995 -157.69551637920813 0 -157.69551637920813 -24.753709153374075 0 0 0 0 332.16316489172641 -105.23964216258537 0 -105.23964216258537 -3.1429975506907795 0 0 0 0 226.67673760045091 -274.72883944421483 0 -274.72883944421483 -29.982844033977017 0 0 0 0 -149.95202927766877 -191.58726598950307 0 -191.58726598950307 -31.351247193895688 0 0 0 0 -143.12309359362143 -125.22513471623279 0 -125.22513471623279 -71.025944381312001 0 0 0 0 -177.76969613005531 -81.30882495197875 0 -81.30882495197875 -41.668284270679578 0 0 0 0 -122.8201394664502 -121.09780999914801 0 -121.09780999914801 -70.496914301067591 0 0 0 0 244.16385265397548 -79.523923154738441 0 -79.523923154738441 37.92164279804274 0 0 0 0 96.537804533739745 -27.307502875670252 0 -27.307502875670252 4.4627363966865232 0 0 0 0 -72.779897939361035 -64.339737612142926 0 -64.339737612142926 -56.295363266293862 0 0 0 0 -82.11696427807874 -61.41638149884966 0 -61.41638149884966 -15.088390271528624 0 0 0 0 -1.7545659295332037 2.3438645861282197 0 2.3438645861282197 4.2770179798059758 0 0 0 0 123.52023934629324 -127.82832331283134 0 -127.82832331283134 55.446658759374259 0 0 0 0 105.45489113305484 -46.967231153059402 0 -46.967231153059402 35.038314733770676 0 0 0 0 137.63574684539526 -94.874608219339279 0 -94.874608219339279 42.619303928790032 0 0 0 0 78.180031392625096 -21.77446034418972 0 -21.77446034418972 36.902467023061376 0 0 0 0 2.8901522505669419 -0.31947289827670033 0 -0.31947289827670033 -4.5009401973468357 0 0 0 0 101.00277657216429 -6.4822325170971453 0 -6.4822325170971453 -49.559601431334158 0 0 0 0 46.672548085964081 -36.504066385285114 0 -36.504066385285114 47.980381264489552 0 0 0 0 107.88542944424262 -43.208127464415156 0 -43.208127464415156 -123.45385806742706 0 0 0 0 41.080105130959979 -38.897404408314543 0 -38.897404408314543 -4.4564176842629255 0 0 0 0 32.261862952567753 -49.506637074460741 0 -49.506637074460741 53.934880804618842 0 0 0 0 50.165464687101121 -75.118954007128195 0 -75.118954007128195 -35.989372384065064 0 0 0 0 34.69538836056563 6.836158161808271 0 6.836158161808271 0.72851312890452391 0 0 0 0 51.044126984079412 -13.994011956965551 0 -13.994011956965551 -58.303254554542946 0 0 0 0 5.694441110190656 -6.1902582929175374 0 -6.1902582929175374 0.99429864777630428 0 0 0 0 20.894360638481885 -19.177055805910641 0 -19.177055805910641 -17.387910767109133 0 0 0 0 39.13184206198639 -50.778753955244611 0 -50.778753955244611 26.067487097490812 0 0 0 0 16.61186015199047 -25.640563555813923 0 -25.640563555813923 18.535532088142304 0 0 0 0 35.076661966338506 -40.9332694842183 0 -40.9332694842183 1.0663098498458723 0 0 0 0 22.549889445923327 -39.91199137577496 0 -39.91199137577496 60.916603597608628 0 0 0 0 40.190533238085663 -30.228693011660653 0 -30.228693011660653 35.973163533344632 0 0 0 0 17.582726037784596 -41.827849655746832 0 -41.827849655746832 31.066685324512946 0 0 0 0 33.610060018370859 -51.61088554008893 0 -51.61088554008893 11.547392493230291 0 0 0 0 31.382001472593402 -26.094061462150421 0 -26.094061462150421 14.449777264260774 0 0 0 0 20.67068715529912 -20.053105460260781 0 -20.053105460260781 -16.676021619395243 0 0 0 0 38.790099804078636 -36.22513855012221 0 -36.22513855012221 8.2508763455844019 0 0 0 0 22.253863305511913 -46.66999878905699 0 -46.66999878905699 37.716280778942746 0 0 0 0 20.782390787469922 -29.577591642926564 0 -29.577591642926564 1.3805426942490158 0 0 0 0 14.064739784576432 -52.453592119235509 0 -52.453592119235509 35.65984965430107 0 0 0 0 14.849799182629795 -36.226994551776443 0 -36.226994551776443 1.1588765393971698 0 0 0 0 8.7180034513963847 -19.66579026351252 0 -19.66579026351252 -18.873318259345126 0 0 0 0 12.131614489862187 -22.265252583344051 0 -22.265252583344051 -9.5248080687884453 0 0 0 0 -2.2466962408850861 -13.548832192370554 0 -13.548832192370554 3.3076263868144338 0 0 0 0 14.208916384751888 -54.676288391242679 0 -54.676288391242679 2.9188842889561784 0 0 0 0 35.059321449582058 -49.520332712156232 0 -49.520332712156232 10.371812793666322 0 0 0 0 15.412729655654402 -40.736911077343393 0 -40.736911077343393 73.534089029359166 0 0 0 0 35.882156789128203 -52.044356745522236 0 -52.044356745522236 11.354375755487126 0 0 0 0 13.880147494899575 -40.996288547874428 0 -40.996288547874428 80.627400523982942 0 0 0 0 1.2014408272527675 -3.6962807588657824 0 -3.6962807588657824 9.3960791066689353 0 0 0 0 2.3941015920431425 -35.677624123538308 0 -35.677624123538308 -15.992335478104962 0 0 0 0 -72.385107444992173 -118.90029606940516 0 -118.90029606940516 54.37238291365793 0 0 0 0 6.56313061675624 -62.649289100021832 0 -62.649289100021832 23.561316904577097 0 0 0 0 33.676318306527321 -26.230282875193303 0 -26.230282875193303 -12.183891875779352 0 0 0 0 -2.4443749779893551 -52.589358039869694 0 -52.589358039869694 -38.278116872388637 0 0 0 0 19.876837761577647 -39.077514512175512 0 -39.077514512175512 15.851547765681659 0 0 0 0 29.431147944778786 -66.76765599049395 0 -66.76765599049395 5.5493567901576171 0 0 0 0 24.069333854415163 -56.426032214534644 0 -56.426032214534644 12.440456928510685 0 0 0 0 42.795731832433376 -54.26576447255502 0 -54.26576447255502 12.380232631734543 0 0 0 0 49.481100612365481 -37.843496019758845 0 -37.843496019758845 18.914694164428511 0 0 0 0 32.037856668484892 -59.782681521937775 0 -59.782681521937775 16.037098238230101 0 0 0 0 37.123771031139768 -59.631386947701685 0 -59.631386947701685 9.4973744279850507 0 0 0 0 47.036466272869802 -50.908093950691182 0 -50.908093950691182 25.511234119374421 0 0 0 0 30.446978874766501 -52.082620128436247 0 -52.082620128436247 25.435313836267596 0 0 0 0 38.190937698807829 -46.5414834395051 0 -46.5414834395051 15.719910290441476 0 0 0 0 -371.9306411039102 -48.139281348892723 0 -48.139281348892723 296.58384979522089 0 0 0 0 -372.1959673215033 -20.961480130259588 0 -20.961480130259588 276.24328301569926 0 0 0 0 3.9782075628314768 -5.3889829080220295 0 -5.3889829080220295 0.4721852945914975 0 0 0 0 -344.13055480699222 -56.683656872657593 0 -56.683656872657593 275.28991499144786 0 0 0 0 127.56258616339483 -186.97621424333192 0 -186.97621424333192 147.88353625452146 0 0 0 0 8.478583149101496 -259.45631769458123 0 -259.45631769458123 175.71580342029665 0 0 0 0 -253.69788271783773 0.43487788752827328 0 0.43487788752827328 4.7019452673121123 0 0 0 0 -25.010037350554747 -37.246664931815019 0 -37.246664931815019 18.482351382624358 0 0 0 0 136.77313559807408 -179.61060530295072 0 -179.61060530295072 47.740915823691466 0 0 0 0 78.595259938068011 -57.018957556923851 0 -57.018957556923851 -127.22649212252145 0 0 0 0 33.634479555724283 -55.120379228574166 0 -55.120379228574166 14.58862616794795 0 0 0 0 8.0420663999683892 -29.202525973068152 0 -29.202525973068152 19.966893586254344 0 0 0 0 22.825645047973921 -48.787960471570841 0 -48.787960471570841 29.791682259223307 0 0 0 0 -7.2513465846930032 -27.483010891800078 0 -27.483010891800078 10.854001488107144 0 0 0 0 33.530495787366817 -37.201380634460293 0 -37.201380634460293 16.536125181082753 0 0 0 0 16.624674683577794 -22.250730501324483 0 -22.250730501324483 -1.7409818345387578 0 0 0 0 -29.951403067437504 -36.916820725273453 0 -36.916820725273453 25.178634963629065 0 0 0 0 85.028137099365267 -134.05231664042367 0 -134.05231664042367 -21.087349824447301 0 0 0 0 32.854154367935735 -55.980876463476307 0 -55.980876463476307 20.962741612645914 0 0 0 0 0.56138636970717926 -42.539769408132997 0 -42.539769408132997 615.45766609138809 0 0 0 0 10.094192678894622 -19.666741347154328 0 -19.666741347154328 3.2295845740298716 0 0 0 0 6.6703846538503058 -38.554529278240807 0 -38.554529278240807 31.552192642819136 0 0 0 0 -4.3965443496381731 -22.195750412282848 0 -22.195750412282848 20.581066637285005 0 0 0 0 0.61960737741134686 -8.9198123901784072 0 -8.9198123901784072 7.7128517520968671 0 0 0 0 3.9974301600628976 -24.693463982536031 0 -24.693463982536031 2.8207399276927347 0 0 0 0 -9.3475174750165024 -39.84754401241662 0 -39.84754401241662 29.941630471130338 0 0 0 0 4.2551637742144521 -28.642446248617489 0 -28.642446248617489 25.557749892053835 0 0 0 0 47.780239634005738 -58.59263794029539 0 -58.59263794029539 -19.555276750237681 0 0 0 0 -2.4704413194565262 -6.8311190455481778 0 -6.8311190455481778 4.3384241251261528 0 0 0 0 -54.858113082247655 -31.733307876449544 0 -31.733307876449544 34.026857273187488 0 0 0 0 0.10145818798279649 -0.80216275263683201 0 -0.80216275263683201 3.7813822586934904 0 0 0 0 10.178645586209313 -25.727025574014988 0 -25.727025574014988 89.405393836670555 0 0 0 0 -30.601547148635607 -13.379432231937784 0 -13.379432231937784 47.686683916416655 0 0 0 0 23.490361676507746 -38.972288581891917 0 -38.972288581891917 9.3589788156696159 0 0 0 0 24.578357018230236 -44.645205790697219 0 -44.645205790697219 14.357136700913543 0 0 0 0 -19.328202748056356 -39.784751338200294 0 -39.784751338200294 44.909691079647018 0 0 0 0 17.607646489188824 -27.843830540461965 0 -27.843830540461965 0.5081318135614552 0 0 0 0 19.920418103189149 -44.435695517051499 0 -44.435695517051499 22.329613192385295 0 0 0 0 14.573841055251251 -34.315736287062464 0 -34.315736287062464 17.294960811705096 0 0 0 0 -15.700925947161522 -64.021143162775843 0 -64.021143162775843 8.2650831308128545 0 0 0 0 41.094812391947926 -29.101926169081707 0 -29.101926169081707 -9.2987192512082402 0 0 0 0 1.558752343256856 -58.416392871986318 0 -58.416392871986318 -58.293060012889327 0 0 0 0 -19.14804553527938 -54.964699473814107 0 -54.964699473814107 -13.684139386634342 0 0 0 0 17.43097912630401 -127.57081565013505 0 -127.57081565013505 -54.756474528534454 0 0 0 0 -30.011518779407197 -91.583209257296403 0 -91.583209257296403 -60.883993216615636 0 0 0 0 -17.69406451485338 -70.182185043289792 0 -70.182185043289792 -5.322363673360087 0 0 0 0 0.2862480760741164 -72.216509209261858 0 -72.216509209261858 -73.269308306567837 0 0 0 0 -4.1558815575353947 -51.177599861897761 0 -51.177599861897761 3.054240787983872 0 0 0 0 -22.902857068591402 -56.272836654883577 0 -56.272836654883577 13.652376541867852 0 0 0 0 78.500994915344563 -103.1682104172578 0 -103.1682104172578 -1.8700628626975231 0 0 0 0 24.231654258088383 -50.855709033756284 0 -50.855709033756284 -42.772312218294246 0 0 0 0 -16.022477222253656 -104.39302004355704 0 -104.39302004355704 -92.965557527990313 0 0 0 0 14.9178611720954 -100.30463491843693 0 -100.30463491843693 -104.58716677420307 0 0 0 0 -39.653502117585958 -194.26463269047963 0 -194.26463269047963 -178.66807477839757 0 0 0 0 14.257195882470114 -78.751676486150245 0 -78.751676486150245 -143.07049152313266 0 0 0 0 -1.7363212019990897 -72.693985067278845 0 -72.693985067278845 -207.6291271110822 0 0 0 0 -112.16675583491633 -318.64637518343807 0 -318.64637518343807 -347.43252898862556 0 0 0 0 -32.574726446297063 -194.36674799794855 0 -194.36674799794855 -466.0453027861513 0 0 0 0 5.2040992460329107 -22.903283069346799 0 -22.903283069346799 -177.04711499001132 0 0 0 0 -14.71489809643208 -74.828960885875858 0 -74.828960885875858 -61.316588839341421 0 0 0 0 -94.622632507152957 -128.62359875660331 0 -128.62359875660331 -10.656348265372799 0 0 0 0 -24.518767078734527 -112.96069421473658 0 -112.96069421473658 -88.265671579807531 0 0 0 0 -14.319530793849481 -69.747092399804387 0 -69.747092399804387 0.51757839205674827 0 0 0 0 -106.78414071895531 -23.729625666805077 0 -23.729625666805077 -285.41469342100027 0 0 0 0 -18.448712526122108 -74.822436622460373 0 -74.822436622460373 17.076019904226996 0 0 0 0 -35.599797501191048 -27.269868424767594 0 -27.269868424767594 1.4418199823477948 0 0 0 0 -132.11292059288235 26.600181468893425 0 26.600181468893425 4.664006409002468 0 0 0 0 -338.80238633087902 -97.364565068492084 0 -97.364565068492084 346.91671129538736 0 0 0 0 133.64251826148279 -450.96335844876921 0 -450.96335844876921 -134.47152262099553 0 0 0 0 -1347.8991986769483 -12.143742617477983 0 -12.143742617477983 306.492207380943 0 0 0 0 -611.80184137880519 -312.9396493007298 0 -312.9396493007298 401.09721244763932 0 0 0 0 -431.57066497026426 97.492067728286202 0 97.492067728286202 58.882206175272586 0 0 0 0 -14.688297762388489 -6.2782914128647462 0 -6.2782914128647462 -3.6011753094770143 0 0 0 0 -855.05445170957773 481.22013948381937 0 481.22013948381937 -278.947826174277 0 0 0 0 -86.336036908850758 -388.58488129740363 0 -388.58488129740363 -1242.6829816644313 0 0 0 0 -932.95324170564959 -984.54013997760194 0 -984.54013997760194 -562.23841020943655 0 0 0 0 11.877828912346558 -72.415950791473733 0 -72.415950791473733 30.962898019555723 0 0 0 0 -1723.8825850699827 -38.603044158531702 0 -38.603044158531702 123.97454184590606 0 0 0 0 -51.301167381049254 -356.70251228444977 0 -356.70251228444977 159.17866058851359 0 0 0 0 -609.4764838576541 -153.9179340536939 0 -153.9179340536939 260.7610253841267 0 0 0 0 -647.69002530598993 -489.32652066006267 0 -489.32652066006267 28.716077966499142 0 0 0 0 -400.48950864467633 -483.82477430067956 0 -483.82477430067956 -109.2183281477046 0 0 0 0 -63.936311098403166 -382.81657016491226 0 -382.81657016491226 -516.13297557071928 0 0 0 0 -399.88878315997044 -492.38772057213646 0 -492.38772057213646 -195.57110413827468 0 0 0 0 -260.96172938899508 -280.79661837274034 0 -280.79661837274034 -84.444882299751043 0 0 0 0 -283.17255001644753 -359.74184634153789 0 -359.74184634153789 -84.595068326569162 0 0 0 0 -468.1755922385521 -327.09249635739252 0 -327.09249635739252 18.765890128663159 0 0 0 0 -346.31329538577256 -218.54368761900696 0 -218.54368761900696 -21.644705654296558 0 0 0 0 -389.25057015735547 -245.84545451920712 0 -245.84545451920712 64.626548364569317 0 0 0 0 -437.04182653028693 -188.70141356093518 0 -188.70141356093518 -2.9917656217294279 0 0 0 0 -468.852218669016 -199.42641123170324 0 -199.42641123170324 116.33587574687772 0 0 0 0 -411.96072688116874 -227.88872490678477 0 -227.88872490678477 213.309642675129 0 0 0 0 -427.52503252106516 -271.52545924572041 0 -271.52545924572041 100.80448531443108 0 0 0 0 -455.80035715005698 -283.64708017144949 0 -283.64708017144949 171.28211084066425 0 0 0 0 -56.260769778662052 -115.26198320866752 0 -115.26198320866752 -91.836107779032318 0 0 0 0 -54.302797066437051 -88.117479095395538 0 -88.117479095395538 -47.926944926530268 0 0 0 0 -100.1842889269119 -169.71384236276208 0 -169.71384236276208 -105.40465819998644 0 0 0 0 -37.816392578477007 -157.50903159752488 0 -157.50903159752488 -144.86353248433443 0 0 0 0 -45.328682110161935 -196.40598631704779 0 -196.40598631704779 -168.59915423215716 0 0 0 0 -127.51505604581143 -281.12574927449168 0 -281.12574927449168 -206.28847818669601 0 0 0 0 -210.37529294232854 -190.53837926844244 0 -190.53837926844244 -74.291321927783429 0 0 0 0 -240.42028564871816 -262.43333143136988 0 -262.43333143136988 -74.307054822842474 0 0 0 0 -99.726942005112505 -186.6181205555622 0 -186.6181205555622 -121.86867113093467 0 0 0 0 -129.91604331452254 -146.50548309129226 0 -146.50548309129226 -93.405541368192644 0 0 0 0 -114.77081719533089 -119.91365807916736 0 -119.91365807916736 -71.537487894849619 0 0 0 0 -173.52359342125692 -137.13564992105603 0 -137.13564992105603 -46.847317493564333 0 0 0 0 -275.52800498460851 -168.77832687613773 0 -168.77832687613773 -53.820100838740473 0 0 0 0 -208.46475331031888 -201.24070191140345 0 -201.24070191140345 -82.574781783237995 0 0 0 0 -308.35667985711734 -222.41317674252423 0 -222.41317674252423 -51.729299867161899 0 0 0 0 -150.47011801691156 -152.69599360429766 0 -152.69599360429766 -62.945088102191221 0 0 0 0 -239.58405946966286 -148.06067125441041 0 -148.06067125441041 -0.013107673068589065 0 0 0 0 -493.74811296705491 -138.88939987125923 0 -138.88939987125923 -80.465797386830673 0 0 0 0 -685.49159735002695 -206.51742819637002 0 -206.51742819637002 25.58436617985717 0 0 0 0 -390.3916706916325 -265.77573745801055 0 -265.77573745801055 25.216656211821828 0 0 0 0 -380.59633889877387 -211.02952463524707 0 -211.02952463524707 -34.47337986198545 0 0 0 0 -380.4776990274886 -202.75524390568899 0 -202.75524390568899 -20.829075170552187 0 0 0 0 -407.69633135024225 -184.75933885448831 0 -184.75933885448831 -0.12715541457873769 0 0 0 0 -547.80959935603676 -322.69641729188152 0 -322.69641729188152 -127.54071802781255 0 0 0 0 -611.82870094137263 -276.05079193414713 0 -276.05079193414713 -11.481869642288075 0 0 0 0 -655.45309130103033 -271.18621536353021 0 -271.18621536353021 -0.00077447150397347286 0 0 0 0 -761.0747049397587 -314.33451007980329 0 -314.33451007980329 -26.542712117705378 0 0 0 0 -712.1056777153251 -396.41741340829867 0 -396.41741340829867 109.59518927559839 0 0 0 0 -549.3280941166031 -629.49279314536398 0 -629.49279314536398 162.15482509951107 0 0 0 0 -5.0390569649951393 2.0312631730515989 0 2.0312631730515989 1.0952142146863935 0 0 0 0 -677.11074312420715 -330.39114619995235 0 -330.39114619995235 -35.205972245712474 0 0 0 0 -738.23472198475338 -234.38349876027132 0 -234.38349876027132 58.539479686252889 0 0 0 0 -672.70031374891892 -255.44922600824066 0 -255.44922600824066 -89.420093402528437 0 0 0 0 -779.50053450644918 -295.72355514804076 0 -295.72355514804076 34.134945635094482 0 0 0 0 -576.65333251135417 -225.48428131845867 0 -225.48428131845867 3.7644542068592273 0 0 0 0 -187.35909395395902 -120.74458881535975 0 -120.74458881535975 -26.663470315092127 0 0 0 0 -550.86508591149004 -268.62166805000015 0 -268.62166805000015 0.23677840520394966 0 0 0 0 -145.30425825069915 -6.4048105444089742 0 -6.4048105444089742 38.222280470523401 0 0 0 0 -93.703917583670773 -211.33649206265545 0 -211.33649206265545 69.273579052314744 0 0 0 0 -675.04677941925274 -223.92102269871248 0 -223.92102269871248 10.812923331757702 0 0 0 0 -401.06794398471538 -209.38056363869691 0 -209.38056363869691 -118.10620510746958 0 0 0 0 -793.71281228939006 -278.34889166151697 0 -278.34889166151697 -186.71592953949585 0 0 0 0 -807.96619386224302 -307.30514236840827 0 -307.30514236840827 -13.223922062214115 0 0 0 0 -327.5872579335728 -42.251536385461804 0 -42.251536385461804 75.101513441477437 0 0 0 0 -214.78135091027434 -231.96060958644375 0 -231.96060958644375 -143.87534398208663 0 0 0 0 -88.585442787003558 -5.464587996735645 0 -5.464587996735645 116.37155789794633 0 0 0 0 36.76714126578554 -417.27996288370196 0 -417.27996288370196 -89.059439324693813 0 0 0 0 -195.39475014457366 -113.1768482511543 0 -113.1768482511543 -194.70373638390447 0 0 0 0 -1267.0593766555858 -361.37708602398925 0 -361.37708602398925 -38.754575590115564 0 0 0 0 -440.61471866555257 -77.692445474836859 0 -77.692445474836859 -122.02045777559397 0 0 0 0 -536.66413891365846 -405.95472185028484 0 -405.95472185028484 -109.3496668919488 0 0 0 0 -846.19758658281989 -20.729605727188755 0 -20.729605727188755 -517.34289412712678 0 0 0 0 -1180.8310244356535 -628.18097469482746 0 -628.18097469482746 -189.26666699450288 0 0 0 0 -2136.6723825810195 -1263.1205693857737 0 -1263.1205693857737 -1514.0711583636294 0 0 0 0 -9.0833718268223098 3.1948349404741094 0 3.1948349404741094 -0.55346522753393401 0 0 0 0 1.9869980772679885 -8.7322457085200611 0 -8.7322457085200611 -2.7504957372199215 0 0 0 0 -3965.4645735539702 -642.14696000703771 0 -642.14696000703771 137.64039491128642 0 0 0 0 1297.437223112669 559.00312916944677 0 559.00312916944677 -632.17586181628576 0 0 0 0 1061.8870714755071 291.74235493772721 0 291.74235493772721 -710.58657419123119 0 0 0 0 3072.7330497928615 594.38923342473754 0 594.38923342473754 -1256.8341846190451 0 0 0 0 230.5250790821292 -321.74725529531133 0 -321.74725529531133 54.620112501521362 0 0 0 0 188.45619586600696 -118.29007418255787 0 -118.29007418255787 138.37470148588181 0 0 0 0 2678.6500087778641 -829.88148080834071 0 -829.88148080834071 -728.24360788255581 0 0 0 0 664.7550150141542 -1554.2336339491594 0 -1554.2336339491594 341.06001582351746 0 0 0 0 -102.86806116002117 -1151.2403812073462 0 -1151.2403812073462 25.130774103454314 0 0 0 0 -940.41205568139412 -1218.6306147673167 0 -1218.6306147673167 316.10707885749434 0 0 0 0 -2150.3950286423642 -434.45076884407899 0 -434.45076884407899 357.19889049348421 0 0 0 0 -867.16987994483679 -676.85421708339709 0 -676.85421708339709 308.78398261382245 0 0 0 0 63.659660953676394 -491.16696736248559 0 -491.16696736248559 91.687576277094195 0 0 0 0 1007.2199109746682 -564.24170322596547 0 -564.24170322596547 -29.682310665259138 0 0 0 0 -31.27557661524952 -574.610864800954 0 -574.610864800954 28.926337315017008 0 0 0 0 -532.38390765446297 -468.57027227992512 0 -468.57027227992512 93.567263908975292 0 0 0 0 -755.49385243873257 -252.09102876119869 0 -252.09102876119869 -130.99527441838291 0 0 0 0 -748.03744027584844 -336.20808950295032 0 -336.20808950295032 -350.2947862111323 0 0 0 0 -805.41219031502624 -234.68854558153544 0 -234.68854558153544 -67.404684958688449 0 0 0 0 -898.35029485704763 -442.10559249967628 0 -442.10559249967628 -196.50908257185074 0 0 0 0 -792.5456456517577 -515.08656367572257 0 -515.08656367572257 -413.60930539065157 0 0 0 0 -15.108722556382418 4.5791676123262732 0 4.5791676123262732 6.1198001879602089 0 0 0 0 -74.789286870655815 -57.826389114021367 0 -57.826389114021367 -48.559289497468853 0 0 0 0 1.0791526188130796 2.0950035228649107 0 2.0950035228649107 0.53837322838722912 0 0 0 0 511.92209602132425 -287.97445416185656 0 -287.97445416185656 0.1128150641816319 0 0 0 0 732.41673142485934 -230.61748282510143 0 -230.61748282510143 -71.502597168582724 0 0 0 0 499.09309980268154 -240.68912450732023 0 -240.68912450732023 -46.160077857050055 0 0 0 0 415.46140090924791 -78.658722944037436 0 -78.658722944037436 -53.901068914972711 0 0 0 0 177.25755020527686 -265.95541597054398 0 -265.95541597054398 -0.20833276212943019 0 0 0 0 255.5406348567617 -23.056710834833211 0 -23.056710834833211 268.93436708778609 0 0 0 0 216.69079199925363 -179.31121976142458 0 -179.31121976142458 -111.82119171190425 0 0 0 0 356.31118481789053 -533.03115915435046 0 -533.03115915435046 246.41524816876336 0 0 0 0 138.34885149324873 -246.75663215110399 0 -246.75663215110399 122.91423737192235 0 0 0 0 830.00335349810484 -117.8558336550559 0 -117.8558336550559 -134.87107376253698 0 0 0 0 782.05147623318771 -441.53923758579913 0 -441.53923758579913 3.1262273955653654 0 0 0 0 686.94605201913691 -197.8177944173367 0 -197.8177944173367 -102.24391407452276 0 0 0 0 621.61157723453198 -399.95189122161355 0 -399.95189122161355 99.894656710268464 0 0 0 0 287.15250329609989 -349.75291153111175 0 -349.75291153111175 395.49406304055447 0 0 0 0 176.27562683011092 -200.04843672212883 0 -200.04843672212883 261.6461974325357 0 0 0 0 -1.7554320571234712 -7.8691154214066046 0 -7.8691154214066046 20.566588455054443 0 0 0 0 2.4225010138425525 0.23323279631489235 0 0.23323279631489235 3.2435066500340781 0 0 0 0 3.4058405995335193 -4.5875387092978599 0 -4.5875387092978599 3.2356705198689042 0 0 0 0 431.56611931518091 95.252762086398434 0 95.252762086398434 15.05512228430598 0 0 0 0 -178.48517445356265 18.824624993605539 0 18.824624993605539 34.403851681054221 0 0 0 0 429.69282465227298 81.469801375817042 0 81.469801375817042 1.7103754383788328 0 0 0 0 7.6232825868828513 -6.7487283479713369 0 -6.7487283479713369 1.7026541141312919 0 0 0 0 -313.75747715899342 5.9453356185258599 0 5.9453356185258599 156.86802663808339 0 0 0 0 3.0192732974349656 -4.7207267535360078 0 -4.7207267535360078 3.0158699606064374 0 0 0 0 10.786926140476929 -4.2577922288823657 0 -4.2577922288823657 -4.0941572921732359 0 0 0 0 5.2473990869155784 -9.2765413891611956 0 -9.2765413891611956 3.5558700892254649 0 0 0 0 13.376125346156186 -4.4185687719582347 0 -4.4185687719582347 -2.1520336108951597 0 0 0 0 -2.5013952011067886 -23.92184386329609 0 -23.92184386329609 1.7817838635819498 0 0 0 0 -8.0681338599388255 -21.445603983855108 0 -21.445603983855108 3.379852800804656 0 0 0 0 2.9972150484052094 -4.3373334342623906 0 -4.3373334342623906 -3.8520103624333615 0 0 0 0 14.372387189347549 -11.98320064835832 0 -11.98320064835832 4.9221141511833366 0 0 0 0 1.0128784387252381 -12.545773016587191 0 -12.545773016587191 21.55539991792466 0 0 0 0 9.8637946023013683 -18.270349027137854 0 -18.270349027137854 20.018688333118916 0 0 0 0 193.05157549131491 -253.60621506764483 0 -253.60621506764483 531.1528308467532 0 0 0 0 -40.383249553127825 68.312002659891732 0 68.312002659891732 796.6943566489208 0 0 0 0 153.65494051472706 -120.67353042088507 0 -120.67353042088507 -208.16167086879432 0 0 0 0 172.50896934503589 65.115940017762568 0 65.115940017762568 288.8490075385198 0 0 0 0 -59.901462961010111 92.562712894061406 0 92.562712894061406 -105.3400858839741 0 0 0 0 78.487495646026218 -199.21838959834713 0 -199.21838959834713 131.01617649216496 0 0 0 0 334.41050453257049 -85.331382746691816 0 -85.331382746691816 -25.978926861425862 0 0 0 0 -36.687376265654166 -127.6052513478644 0 -127.6052513478644 109.28015385210165 0 0 0 0 29.521330365016183 179.35596720944886 0 179.35596720944886 -323.84528453915846 0 0 0 0 5.6435650717776298 4.6293797143734992 0 4.6293797143734992 -258.90303015970858 0 0 0 0 -122.05541750188968 -145.09996733102162 0 -145.09996733102162 -11.558173899451504 0 0 0 0 -65.974733674201161 -118.99456426421057 0 -118.99456426421057 637.72148049130919 0 0 0 0 -159.61333612235467 18.898196070222184 0 18.898196070222184 895.5151629907341 0 0 0 0 92.802929817911263 25.534377465271973 0 25.534377465271973 -247.10588891848238 0 0 0 0 67.354499715041797 -6.189700961847393 0 -6.189700961847393 1.0825460286103521 0 0 0 0 -62.407842699986759 -44.888843460794305 0 -44.888843460794305 -271.99649835334094 0 0 0 0 35.861410858552674 -6.3945719755423056 0 -6.3945719755423056 -0.30891167518492324 0 0 0 0 -86.531824574361963 -266.92596072083688 0 -266.92596072083688 833.75155719796021 0 0 0 0 122.52337583290773 137.12698418815853 0 137.12698418815853 625.61326448319596 0 0 0 0 2.4553002553971339 -1.6086870016545163 0 -1.6086870016545163 -1.6255242922174489 0 0 0 0 273.95194483086743 22.574657756573288 0 22.574657756573288 53.463922195864143 0 0 0 0 438.61658416046225 -153.61893510531695 0 -153.61893510531695 -37.27348200394772 0 0 0 0 345.29998804829665 -88.318420384588535 0 -88.318420384588535 -43.718593532626983 0 0 0 0 503.56456001450169 -289.05418211920914 0 -289.05418211920914 176.03338028254802 0 0 0 0 183.91931374026171 -107.30084322582115 0 -107.30084322582115 289.96871503922739 0 0 0 0 443.46817274539353 -402.59823821223108 0 -402.59823821223108 6.7636951368840528 0 0 0 0 421.31648167853382 -342.91600065492094 0 -342.91600065492094 -1.1596068008511793 0 0 0 0 83.412517036867939 -577.62015766024706 0 -577.62015766024706 349.91986957176414 0 0 0 0 420.64174382753345 -79.967614004797724 0 -79.967614004797724 656.7814888068533 0 0 0 0 327.61623411335131 -375.83322876782768 0 -375.83322876782768 713.0065660867258 0 0 0 0 -89.762764528215484 -314.15364811844483 0 -314.15364811844483 -1147.8020820175007 0 0 0 0 -43.945587707130926 -131.40842514088581 0 -131.40842514088581 -859.11760559576214 0 0 0 0 3.4259818694492878 21.906428489970494 0 21.906428489970494 -489.78735575731844 0 0 0 0 -214.88943932111852 -314.91038825439864 0 -314.91038825439864 -475.94020146765979 0 0 0 0 -347.49876390374629 -468.20085456808738 0 -468.20085456808738 -661.83593546823249 0 0 0 0 -208.49972569592114 -340.38362825545846 0 -340.38362825545846 -551.27403025966487 0 0 0 0 -363.19296053123071 -477.54166457568499 0 -477.54166457568499 -414.06682309829921 0 0 0 0 -344.94307330167692 -387.40085859308601 0 -387.40085859308601 -206.8985173948895 0 0 0 0 -275.63747202266586 -399.63733253178361 0 -399.63733253178361 -277.77563391653894 0 0 0 0 -94.569752525006152 -194.61345680111845 0 -194.61345680111845 -356.14337352283474 0 0 0 0 -121.46529098530686 -192.47442737031815 0 -192.47442737031815 -287.31845949729905 0 0 0 0 38.467455087924463 -27.587164711847436 0 -27.587164711847436 -322.70252633087512 0 0 0 0 38.836760448771884 29.703683446205105 0 29.703683446205105 -207.06815438487683 0 0 0 0 41.629194943804578 3.4365573132508871 0 3.4365573132508871 -97.283790878660511 0 0 0 0 29.118752869390391 -42.77852398075629 0 -42.77852398075629 -253.92592335629161 0 0 0 0 -60.84360025103291 -65.449657946493971 0 -65.449657946493971 -94.688796519825701 0 0 0 0 -28.305162807223496 -177.73924117293791 0 -177.73924117293791 -191.22034641633945 0 0 0 0 -51.003076539229369 -188.66927819717239 0 -188.66927819717239 129.52861193915305 0 0 0 0 111.67514248659791 -33.146782413015899 0 -33.146782413015899 -132.38213165184425 0 0 0 0 71.51220537771519 -112.10434709789115 0 -112.10434709789115 -49.561383840366034 0 0 0 0 187.72294099057945 -311.33229291840689 0 -311.33229291840689 290.57965798504665 0 0 0 0 159.12031341892543 85.371572754957015 0 85.371572754957015 154.71711515188144 0 0 0 0 140.68173592617404 62.594524415813794 0 62.594524415813794 -218.8518063530064 0 0 0 0 392.43019468880266 -28.125818917291326 0 -28.125818917291326 -146.04579723750066 0 0 0 0 116.91376180902864 -60.225395956274042 0 -60.225395956274042 -141.12914549082052 0 0 0 0 7.94095434234052 -29.685594321307612 0 -29.685594321307612 -4.1459876660714485 0 0 0 0 -2790.5743555680783 -808.79193816454062 0 -808.79193816454062 424.02275905301212 0 0 0 0 1554.9599564310561 -323.44221153699618 0 -323.44221153699618 -299.18965596073394 0 0 0 0 -1926.9428976580439 83.552944882711017 0 83.552944882711017 304.43273665162269 0 0 0 0 40.790216647759962 -1128.0821300733514 0 -1128.0821300733514 -1213.3837284869223 0 0 0 0 201.91064511322088 -454.10060077790513 0 -454.10060077790513 922.08828072674805 0 0 0 0 48.82425982089876 1241.2349583738178 0 1241.2349583738178 -710.81946598374634 0 0 0 0 1996.7784457362022 1510.8689812184894 0 1510.8689812184894 -476.25537658750545 0 0 0 0 -683.85482022319411 -1029.7767322275395 0 -1029.7767322275395 -875.44119844936358 0 0 0 0 -987.1589973867267 -1170.1845150854788 0 -1170.1845150854788 -223.98606150280102 0 0 0 0 -515.56356144246274 -506.1045756645326 0 -506.1045756645326 -57.449498813250102 0 0 0 0 -547.57441882111743 -667.79901237902232 0 -667.79901237902232 -816.49644243379589 0 0 0 0 -461.28289510178365 -594.13696090053418 0 -594.13696090053418 82.027752903377404 0 0 0 0 -314.74067480957456 -724.54398828554258 0 -724.54398828554258 -50.624647754884791 0 0 0 0 -334.58094941469244 -652.44410458584025 0 -652.44410458584025 -211.9827626409824 0 0 0 0 -42.977218440611068 -314.00414729151817 0 -314.00414729151817 567.77724740220583 0 0 0 0 10.355838219520098 -1.8112645223750405 0 -1.8112645223750405 0.32614811392237186 0 0 0 0 -612.41796925135714 -893.79215940673021 0 -893.79215940673021 1931.7518023618686 0 0 0 0 -238.0882575454707 -215.38077554109623 0 -215.38077554109623 1642.4978952154779 0 0 0 0 -56.336272232867486 -601.81732714938698 0 -601.81732714938698 -1355.4335725747187 0 0 0 0 -461.33700981600123 -883.30206469939731 0 -883.30206469939731 658.98709961169152 0 0 0 0 -693.05866468149543 -841.01419380834704 0 -841.01419380834704 1203.6811745097511 0 0 0 0 -650.74962661496102 -602.17750867616269 0 -602.17750867616269 853.79284429119434 0 0 0 0 -651.28407829054595 -590.95905593354109 0 -590.95905593354109 934.99176475510467 0 0 0 0 -412.70167473462061 -1043.7152135557844 0 -1043.7152135557844 -782.47174880665261 0 0 0 0 84.287595808686092 -1042.3287396095111 0 -1042.3287396095111 980.43200751196127 0 0 0 0 -581.19400776732618 -416.7816802102825 0 -416.7816802102825 1020.7208823612891 0 0 0 0 -665.14233997031988 -544.3068000395433 0 -544.3068000395433 1018.5551243858645 0 0 0 0 590.2871640259109 42.098005526117049 0 42.098005526117049 286.13399319339078 0 0 0 0 -524.31157763265583 -963.38877453259192 0 -963.38877453259192 -462.79466304823291 0 0 0 0 -1583.4998835338265 -1122.3622643915005 0 -1122.3622643915005 687.78033038368449 0 0 0 0 -4.0303954796377504 1.396161092351079 0 1.396161092351079 -1.3857723131829403 0 0 0 0 -699.12479673857365 226.40501016015486 0 226.40501016015486 13.195350771842641 0 0 0 0 -1037.5422578095313 -849.82635112068965 0 -849.82635112068965 735.03894037526334 0 0 0 0 -1257.8491182735597 -908.52933204505825 0 -908.52933204505825 875.62796622816313 0 0 0 0 -1785.1889976221719 583.09472890492179 0 583.09472890492179 1244.0819931041915 0 0 0 0 -1876.3828530183455 -202.34377359086648 0 -202.34377359086648 1498.2304914982524 0 0 0 0 -538.49729066415603 1533.3261917922064 0 1533.3261917922064 369.17668943840545 0 0 0 0 -325.49248937885932 -441.27775972377276 0 -441.27775972377276 -717.79987258138135 0 0 0 0 253.78020251018461 -797.80841978674289 0 -797.80841978674289 -757.66385301318951 0 0 0 0 -1609.7007685939752 -446.9691680653923 0 -446.9691680653923 1124.9216968866822 0 0 0 0 -1026.5016443984932 -834.90625011658994 0 -834.90625011658994 205.95002382257371 0 0 0 0 -1127.9048993912161 -471.09558162776557 0 -471.09558162776557 -488.02300374268088 0 0 0 0 -893.90616802883414 -819.78384331593406 0 -819.78384331593406 -419.15630312466237 0 0 0 0 -571.2396332018252 -1393.7058023876161 0 -1393.7058023876161 716.17729279551713 0 0 0 0 -373.2831467016058 -768.58505787709146 0 -768.58505787709146 -374.32049075880786 0 0 0 0 -472.54169308487326 -705.72767712292261 0 -705.72767712292261 -348.10071407716168 0 0 0 0 280.3991535717505 -1210.3934300598339 0 -1210.3934300598339 -478.78117262746673 0 0 0 0 -117.96710728705511 -1017.1462826766365 0 -1017.1462826766365 -250.55835990916239 0 0 0 0 -929.83162038231239 -677.86459513005684 0 -677.86459513005684 -370.23593985370098 0 0 0 0 -364.06524830925264 -597.10326895239996 0 -597.10326895239996 -786.62981159996707 0 0 0 0 -352.57560505310994 -552.35088499000631 0 -552.35088499000631 -641.33688781934325 0 0 0 0 -367.31517681378318 -793.75588508951478 0 -793.75588508951478 -833.45080185480037 0 0 0 0 -128.97324616148398 -1059.8463191063784 0 -1059.8463191063784 -546.29608910751995 0 0 0 0 -375.71689453785075 -802.5628258343786 0 -802.5628258343786 -414.84686943773704 0 0 0 0 -433.29385932959485 -561.21070231686463 0 -561.21070231686463 -619.9112675817305 0 0 0 0 -417.39314621589438 -479.16066356662486 0 -479.16066356662486 -517.21109967348457 0 0 0 0 -340.92111940888572 -459.04189171672624 0 -459.04189171672624 -700.17401052931382 0 0 0 0 -564.16859901564385 -473.96740231819422 0 -473.96740231819422 -402.8302207897359 0 0 0 0 -614.29081134101398 -554.99977925520943 0 -554.99977925520943 -377.65008223393852 0 0 0 0 -446.44700665168602 -453.11534914519871 0 -453.11534914519871 -385.00555680436082 0 0 0 0 -474.2861224248627 -513.27442880926537 0 -513.27442880926537 -505.41212841235392 0 0 0 0 -1503.5136940805023 -681.70044107481954 0 -681.70044107481954 -141.9579618990756 0 0 0 0 11.973832475727654 -41.271563467808321 0 -41.271563467808321 -2.8861414058564492 0 0 0 0 553.27365099429608 -57.07101529985448 0 -57.07101529985448 -60.52270554981078 0 0 0 0 30.94652831472149 -160.83625951883005 0 -160.83625951883005 232.45494287449856 0 0 0 0 130.18493267983081 -78.751274030844797 0 -78.751274030844797 240.00145060001523 0 0 0 0 22.723042140556203 -23.03457822745986 0 -23.03457822745986 -112.72350154386368 0 0 0 0 85.701652014456215 -144.49982022895711 0 -144.49982022895711 60.297840275627095 0 0 0 0 400.34047726003246 1.4092384336363466 0 1.4092384336363466 -53.415707711974392 0 0 0 0 14.115992114482019 -46.54326450550824 0 -46.54326450550824 -4.3968251559053328 0 0 0 0 -178.24102387388555 -272.67009455852349 0 -272.67009455852349 -10.342617329704808 0 0 0 0 211.85225981853773 -180.91140314641962 0 -180.91140314641962 -89.761301034885037 0 0 0 0 45.918216025065703 -112.01142945044921 0 -112.01142945044921 -69.595592985191615 0 0 0 0 92.529065804480524 -366.31431038858136 0 -366.31431038858136 -73.821422219203669 0 0 0 0 54.536734327440172 -171.18170809046933 0 -171.18170809046933 200.79139896392007 0 0 0 0 -12.499831094198271 -14.542665612869314 0 -14.542665612869314 -230.44259802943634 0 0 0 0 -573.99983253706705 486.32757414646039 0 486.32757414646039 388.36662307896768 0 0 0 0 202.57327787990369 -245.24087050999788 0 -245.24087050999788 -333.21288239721616 0 0 0 0 -6.5136959855947865 -4.0439127749801997 0 -4.0439127749801997 0.19078639961821864 0 0 0 0 -258.02342978445705 -174.4036185668665 0 -174.4036185668665 43.528626410188735 0 0 0 0 4.4130833904357178 -5.4924723054385325 0 -5.4924723054385325 -0.39439156629583749 0 0 0 0 401.91900497860513 -140.89386077820382 0 -140.89386077820382 -214.27653048701177 0 0 0 0 -189.73610116166671 -250.68372743497497 0 -250.68372743497497 -286.40336011655745 0 0 0 0 -187.08971306365856 -36.103153605370608 0 -36.103153605370608 -118.35969590375316 0 0 0 0 209.52970491865381 37.781785682389454 0 37.781785682389454 -80.332533268148836 0 0 0 0 73.57607399016706 17.74427839267446 0 17.74427839267446 -899.39042838232126 0 0 0 0 -412.14276222101398 34.210071190573217 0 34.210071190573217 19.185011413075699 0 0 0 0 -520.18529405262416 -91.125861092601554 0 -91.125861092601554 -14.607037070003571 0 0 0 0 -630.42777691852552 275.0175189510046 0 275.0175189510046 1318.7781222515041 0 0 0 0 16.339124588193659 -48.018241050335703 0 -48.018241050335703 -0.61156835128485909 0 0 0 0 -386.37901988346312 -142.00816989460873 0 -142.00816989460873 -153.02398523737793 0 0 0 0 -449.9363203414614 -199.00079222724889 0 -199.00079222724889 -90.823940830683568 0 0 0 0 -326.01204102247721 -342.6379855191044 0 -342.6379855191044 -242.12005514961493 0 0 0 0 -552.78114299381195 -408.62215420254506 0 -408.62215420254506 -188.76654407318347 0 0 0 0 -374.21327227224538 -349.53428872537188 0 -349.53428872537188 -173.90174891854986 0 0 0 0 -669.28184343128896 -333.67016435319874 0 -333.67016435319874 -141.4897348794766 0 0 0 0 -563.54451942435117 -250.56733474441717 0 -250.56733474441717 -110.89494875782111 0 0 0 0 -848.69097091385538 -299.0438596447093 0 -299.0438596447093 -141.07498066049448 0 0 0 0 -541.96054063945621 -442.21514967213079 0 -442.21514967213079 -245.45443801672081 0 0 0 0 -383.92976937350613 -451.75473570588656 0 -451.75473570588656 -255.60229735870962 0 0 0 0 -412.82622200816536 -373.86414496039833 0 -373.86414496039833 -76.513069979817374 0 0 0 0 -167.59217109476276 -293.91407538651038 0 -293.91407538651038 -241.46822575849365 0 0 0 0 -384.42979378641849 -491.0663383925712 0 -491.0663383925712 -261.71697566447256 0 0 0 0 -407.61395334841473 -488.20817028327838 0 -488.20817028327838 -244.83403919314151 0 0 0 0 -64.86349772631138 -276.05720148520049 0 -276.05720148520049 34.588704414643871 0 0 0 0 198.83635047491953 -130.91565066467592 0 -130.91565066467592 -126.56027987203561 0 0 0 0 -211.40859942398549 -252.77299137500813 0 -252.77299137500813 -14.798380945867393 0 0 0 0 -49.983211761101302 -322.79064023974206 0 -322.79064023974206 -185.14029513920104 0 0 0 0 -232.94263816669036 -380.29931135003426 0 -380.29931135003426 -206.036445786478 0 0 0 0 -239.2053304900121 -273.69909370703681 0 -273.69909370703681 -159.65535265763174 0 0 0 0 -135.67482794987495 -144.91094356878602 0 -144.91094356878602 -321.14255689801212 0 0 0 0 35.726798624665207 -288.87968990579975 0 -288.87968990579975 -201.05117484552102 0 0 0 0 162.03775816973757 -221.60372051002196 0 -221.60372051002196 -434.85684610688259 0 0 0 0 -708.59141853656274 -610.13495002122727 0 -610.13495002122727 -211.19258327041462 0 0 0 0 -186.14209405137439 -426.68495957250298 0 -426.68495957250298 -703.50058345783327 0 0 0 0 -168.82928529158073 -292.93418543447751 0 -292.93418543447751 -231.13606078768498 0 0 0 0 -190.09691908982268 -477.49078708702837 0 -477.49078708702837 -341.11497520803823 0 0 0 0 -235.56229263453588 -505.52244144034194 0 -505.52244144034194 -245.30441150841978 0 0 0 0 -696.1210584724754 -132.99625178809947 0 -132.99625178809947 -318.05457931293495 0 0 0 0 -556.30269193160166 -712.75438558053429 0 -712.75438558053429 -332.42363570586895 0 0 0 0 -11.78309282717521 -3.4825813105838819 0 -3.4825813105838819 0.27542667129981169 0 0 0 0 147.20025649418949 -513.07393128316107 0 -513.07393128316107 -434.31295181522728 0 0 0 0 -721.53051071423397 2.2908890597936988 0 2.2908890597936988 85.769141447279253 0 0 0 0 -261.36974955681444 -289.89952288409768 0 -289.89952288409768 -63.124975130325765 0 0 0 0 -201.82052800930251 -54.755258373275865 0 -54.755258373275865 60.553525701317994 0 0 0 0 -23.746889757005192 -42.99476676962513 0 -42.99476676962513 -15.955283847943065 0 0 0 0 3.6033188212368259 -222.20087899310602 0 -222.20087899310602 -38.347046641049019 0 0 0 0 -419.86289749128287 -327.14389410364674 0 -327.14389410364674 48.180891676427564 0 0 0 0 -295.60083505326901 -324.76564562697604 0 -324.76564562697604 47.73950053446697 0 0 0 0 -291.34804811202457 -352.25201916628612 0 -352.25201916628612 -73.686391830240609 0 0 0 0 -200.69942483754357 -444.43932620708074 0 -444.43932620708074 -81.107748155045556 0 0 0 0 -261.0811484569918 -302.42297743008749 0 -302.42297743008749 -100.14986363016214 0 0 0 0 87.333626217263372 -647.27479442671756 0 -647.27479442671756 -301.36195626860354 0 0 0 0 79.497763052050459 -639.65676236320814 0 -639.65676236320814 -190.03636309972353 0 0 0 0 -36.806101647870037 -58.072068998998382 0 -58.072068998998382 -51.444345393417734 0 0 0 0 -18.120985185402276 -46.887406750922267 0 -46.887406750922267 21.133026583198628 0 0 0 0 -256.03190037170236 -319.22171593559187 0 -319.22171593559187 -99.409621749015059 0 0 0 0 37.213120982468354 -180.62818399146977 0 -180.62818399146977 -197.33186729950467 0 0 0 0 -10.495804979671973 -4.1054450146090993 0 -4.1054450146090993 10.378921112494183 0 0 0 0 0.58733261204129761 -6.7860441247942234 0 -6.7860441247942234 -15.185783091921074 0 0 0 0 41.403519124496711 -119.90639319709612 0 -119.90639319709612 679.02881540256931 0 0 0 0 324.53611125970019 -526.86417160063684 0 -526.86417160063684 -68.93054473016673 0 0 0 0 363.18278758477572 -129.0604014585715 0 -129.0604014585715 -412.36138281163949 0 0 0 0 -301.48654640040422 -52.09086673177444 0 -52.09086673177444 92.40124334878783 0 0 0 0 -105.97048633647501 -212.5018965881718 0 -212.5018965881718 -90.214307755175469 0 0 0 0 -10.897120190188616 -43.226656583566921 0 -43.226656583566921 39.145901980152502 0 0 0 0 -31.20065823188088 -15.534835950087654 0 -15.534835950087654 40.237967316214053 0 0 0 0 -400.01212581953587 -136.57253469370517 0 -136.57253469370517 9.38139571114516 0 0 0 0 -20.557970983354608 -296.48598848386246 0 -296.48598848386246 -162.56872599540657 0 0 0 0 -277.49968926883412 -293.99758162616581 0 -293.99758162616581 -127.3598403518954 0 0 0 0 6.8796445367937622 -223.49023184404791 0 -223.49023184404791 -87.028121941342761 0 0 0 0 -28.538598778623054 -166.49848970841231 0 -166.49848970841231 -104.67468410514857 0 0 0 0 47.028942027362653 -51.14025593365632 0 -51.14025593365632 27.463746710064704 0 0 0 0 -111.93169548266872 -70.473843985666917 0 -70.473843985666917 -102.85972639777174 0 0 0 0 -105.63680664919127 -235.89924524987381 0 -235.89924524987381 -303.49082289563376 0 0 0 0 -183.9880383605414 -338.88709754575029 0 -338.88709754575029 -362.03404127880458 0 0 0 0 -231.67336812623034 -268.52555208339982 0 -268.52555208339982 -129.01341253934879 0 0 0 0 -235.54639760597638 -301.72687216001032 0 -301.72687216001032 -257.45216893080942 0 0 0 0 18.344271021276384 -57.097612951091968 0 -57.097612951091968 -42.193323454009757 0 0 0 0 3.9726263501793255 -67.178232109490637 0 -67.178232109490637 -15.111347090547497 0 0 0 0 24.137029625294677 -33.77490826305597 0 -33.77490826305597 -17.206715999062254 0 0 0 0 11.619599589750578 -58.402847580204252 0 -58.402847580204252 -80.152967985637588 0 0 0 0 -20.327665012768502 -56.879539049325899 0 -56.879539049325899 -13.512307723594432 0 0 0 0 -8.3013127180483934 -75.740614576154258 0 -75.740614576154258 -47.625799208273747 0 0 0 0 8.80224025798816 -67.590390969788132 0 -67.590390969788132 -76.864085240042186 0 0 0 0 34.675398473510796 -24.398355275158956 0 -24.398355275158956 -85.603538945920107 0 0 0 0 -55.304006699085676 -83.350810419487971 0 -83.350810419487971 -34.57377033346711 0 0 0 0 -131.39445965899722 -65.764510873850668 0 -65.764510873850668 -19.974073387356839 0 0 0 0 36.715644351211267 -33.396805024993228 0 -33.396805024993228 -32.624188750784015 0 0 0 0 -48.384188332918711 -129.30904392479715 0 -129.30904392479715 -102.11302299602903 0 0 0 0 6.7192335278186874 -39.312364352299483 0 -39.312364352299483 39.785384170518228 0 0 0 0 28.636325237678648 -27.869882798457184 0 -27.869882798457184 -43.248866077148705 0 0 0 0 3.7310940437473619 -151.35360460710399 0 -151.35360460710399 -17.198536822374535 0 0 0 0 -26.860267883926785 -46.02072775287759 0 -46.02072775287759 -14.553325982659956 0 0 0 0 -68.840083661089352 -54.830147077998845 0 -54.830147077998845 41.770233602157532 0 0 0 0 -2.0531950633346163 -6.549237352893833 0 -6.549237352893833 15.972596631763821 0 0 0 0 22.217140017355632 -67.488188059367531 0 -67.488188059367531 -165.46448154895552 0 0 0 0 -155.73952504005001 -80.106377196330868 0 -80.106377196330868 41.099576016767514 0 0 0 0 6.5982050419661782 -40.759677894487751 0 -40.759677894487751 38.338943263128016 0 0 0 0 -44.65272740660339 -62.372998121814817 0 -62.372998121814817 42.587323839848978 0 0 0 0 -20.820292101773703 -119.93102799558983 0 -119.93102799558983 17.135474572278326 0 0 0 0 41.147064616996431 -94.167050411320815 0 -94.167050411320815 1.3137134377029724 0 0 0 0 33.170613713728017 -91.739496216046973 0 -91.739496216046973 16.135969000468322 0 0 0 0 41.474779497062897 -48.744510159535821 0 -48.744510159535821 34.251627565711686 0 0 0 0 -98.846509688076821 148.03160497637691 0 148.03160497637691 137.88260806527978 0 0 0 0 69.243757706494193 -263.84796554288187 0 -263.84796554288187 66.613310021537472 0 0 0 0 -93.666490935632737 -213.59549264845737 0 -213.59549264845737 -89.08453189273132 0 0 0 0 -5.4287276706351699 -24.223741295299405 0 -24.223741295299405 5.9521523513986949 0 0 0 0 150.38058236262805 -284.02786253773229 0 -284.02786253773229 79.937289692388731 0 0 0 0 22.701401474179875 -114.57595849283098 0 -114.57595849283098 -233.40296438721271 0 0 0 0 87.012220067390444 -282.42581436612818 0 -282.42581436612818 104.6449193048029 0 0 0 0 150.31414729561038 -150.50601840385025 0 -150.50601840385025 -106.23933010315523 0 0 0 0 -419.52954854185737 -302.04948378783956 0 -302.04948378783956 256.5740887056163 0 0 0 0 7.3716498457349289 -62.837246808214189 0 -62.837246808214189 7.9076022187285275 0 0 0 0 -289.91873704821774 -190.79875362109306 0 -190.79875362109306 -102.90477170286249 0 0 0 0 -19.628951564740476 -14.538985954046709 0 -14.538985954046709 7.1806285131047503 0 0 0 0 -261.0256572110593 -385.04632941412274 0 -385.04632941412274 317.8835586784262 0 0 0 0 -300.80459230477027 -157.54025609784003 0 -157.54025609784003 427.96200502961437 0 0 0 0 -7.4090564168178759 -54.050433626729685 0 -54.050433626729685 21.530084866530785 0 0 0 0 -24.541643907014077 -48.390172633642351 0 -48.390172633642351 48.461549077022937 0 0 0 0 -525.70546291811479 -14.534898110563518 0 -14.534898110563518 151.09590210090391 0 0 0 0 -341.4696117744752 -260.2229407698178 0 -260.2229407698178 -237.933349553874 0 0 0 0 1.2287529625890912 0.67180689731156917 0 0.67180689731156917 -8.6244509689275191 0 0 0 0 -869.63568026188295 -1377.2839662220504 0 -1377.2839662220504 -1216.5545314752671 0 0 0 0 33.762032379461573 -100.56776644655091 0 -100.56776644655091 -45.292785987279828 0 0 0 0 -5.6295226422989799 -91.149817246339808 0 -91.149817246339808 35.396017378865508 0 0 0 0 43.644874979288943 -71.346872941758193 0 -71.346872941758193 8.2594827294524293 0 0 0 0 135.03121053328505 339.16802153459867 0 339.16802153459867 189.26734989276156 0 0 0 0 84.703698834719034 -50.803797938842763 0 -50.803797938842763 -63.012776292736817 0 0 0 0 1681.3946551989611 325.41084073283037 0 325.41084073283037 46.962732973447146 0 0 0 0 81.521430597085782 -36.136471219648229 0 -36.136471219648229 -54.984668692872219 0 0 0 0 75.75623142553377 -64.28875357869947 0 -64.28875357869947 -60.85906662024172 0 0 0 0 54.820617278539444 -47.962210124565175 0 -47.962210124565175 -28.199641092054826 0 0 0 0 51.689950493149809 -59.47150331488956 0 -59.47150331488956 -61.054200997772568 0 0 0 0 43.891679363217918 -66.378684736244395 0 -66.378684736244395 -25.730989061966284 0 0 0 0 26.800980484160007 -30.825549631392526 0 -30.825549631392526 -34.914121516211431 0 0 0 0 -6.4748926664416944 -25.724419532585902 0 -25.724419532585902 3.6140701027938746 0 0 0 0 46.123345721483929 -8.360558996679174 0 -8.360558996679174 -68.996520325061283 0 0 0 0 -11.222769000387578 -55.798068967658708 0 -55.798068967658708 -28.863646940919352 0 0 0 0 19.459632837262816 -33.537617595413316 0 -33.537617595413316 -22.353531645723223 0 0 0 0 40.74122042764202 -55.738609159519001 0 -55.738609159519001 -55.342524808402231 0 0 0 0 0.17899447566378512 -88.793988676145091 0 -88.793988676145091 -53.488291993523717 0 0 0 0 -8.9698009513231227 -60.245053349019145 0 -60.245053349019145 -35.381744961749064 0 0 0 0 10.538459676595314 -50.227393924953098 0 -50.227393924953098 -46.152456707679875 0 0 0 0 914.75092010483786 479.11161770372019 0 479.11161770372019 -150.77052298974741 0 0 0 0 71.114234318288183 -25.27736454020625 0 -25.27736454020625 -49.194169247877653 0 0 0 0 82.757770930784005 -47.095041581880793 0 -47.095041581880793 -82.485927756746719 0 0 0 0 35.194474354842043 -25.274611431805297 0 -25.274611431805297 -26.357025143039088 0 0 0 0 751.58490042706399 455.18590856064293 0 455.18590856064293 302.11414179998246 0 0 0 0 945.27197950107802 897.54925182264196 0 897.54925182264196 693.93816965427322 0 0 0 0 428.03931505579385 20.913705565915734 0 20.913705565915734 -977.28697480627079 0 0 0 0 252.31779549289422 -48.994094927164042 0 -48.994094927164042 724.28355466331232 0 0 0 0 1557.6356190198203 -318.97306579910583 0 -318.97306579910583 -490.01739886198629 0 0 0 0 56.967645311657201 -42.166223221707092 0 -42.166223221707092 4.4092061007557248 0 0 0 0 -1460.6703683735232 -1244.4855360864294 0 -1244.4855360864294 -480.45850274668373 0 0 0 0 852.91528170019046 -293.95416800544081 0 -293.95416800544081 -1223.1426817557367 0 0 0 0 1569.7255929701569 631.99234147302786 0 631.99234147302786 -623.59329852432984 0 0 0 0 330.96503440364359 -157.05884595526823 0 -157.05884595526823 348.49254899519292 0 0 0 0 2163.8019618879334 955.34001212593967 0 955.34001212593967 -145.5650167774379 0 0 0 0 31.011597573342442 -71.941842836592514 0 -71.941842836592514 -50.375074013336416 0 0 0 0 52.600772775356745 -28.405297710433793 0 -28.405297710433793 -46.102272967637049 0 0 0 0 1974.476159369653 1258.0004195373685 0 1258.0004195373685 563.63673621819544 0 0 0 0 2407.9947327797599 1411.018940333144 0 1411.018940333144 311.30245350203995 0 0 0 0 968.77106789127174 -412.94502251016115 0 -412.94502251016115 -219.35917418629288 0 0 0 0 -3.3750359368090486 -40.879570376020816 0 -40.879570376020816 -57.817208729619864 0 0 0 0 45.296457537438982 -120.71282201281366 0 -120.71282201281366 5.2206880047242521 0 0 0 0 10.69854446549801 -47.408937012282195 0 -47.408937012282195 17.586762453548371 0 0 0 0 47.139808060037467 -78.669496262465145 0 -78.669496262465145 -49.089648743912221 0 0 0 0 49.06006745135528 -75.171058841504419 0 -75.171058841504419 -54.801572538418441 0 0 0 0 46.671064014060903 -76.553321208179113 0 -76.553321208179113 -55.399146907035174 0 0 0 0 59.626823241877446 -60.055297097347648 0 -60.055297097347648 -55.997179538651835 0 0 0 0 56.989373416246963 -69.92985845453768 0 -69.92985845453768 -73.188466335584963 0 0 0 0 54.078084877872243 -55.204294895735075 0 -55.204294895735075 -45.176778231158096 0 0 0 0 49.114318302905303 -83.850140945956809 0 -83.850140945956809 -139.74175012427804 0 0 0 0 -39.503629094073403 -108.3903479622204 0 -108.3903479622204 -77.751297631457419 0 0 0 0 60.90034149808389 -67.243620902180737 0 -67.243620902180737 -84.638336643685761 0 0 0 0 35.331453879862238 -92.135073223751533 0 -92.135073223751533 -76.137333404042693 0 0 0 0 31.130451036831801 -79.041888601761457 0 -79.041888601761457 -65.613196430300377 0 0 0 0 18.814147505201618 -63.547501592968729 0 -63.547501592968729 -0.87830638924788218 0 0 0 0 -30.397479597138954 -79.783931221601961 0 -79.783931221601961 -32.522937616033232 0 0 0 0 27.334398771115957 -52.270636439478039 0 -52.270636439478039 -19.434581918843833 0 0 0 0 -210.18067882826335 -46.089549732632804 0 -46.089549732632804 9.3066328474560578 0 0 0 0 -275.08954998206173 -187.65303309729461 0 -187.65303309729461 -30.91078215534435 0 0 0 0 -83.72204407005276 -98.164289726380957 0 -98.164289726380957 8.6388699537237699 0 0 0 0 -57.940105156118236 -58.692895047004583 0 -58.692895047004583 -36.40952504304525 0 0 0 0 -209.67693582606944 -83.136713317722752 0 -83.136713317722752 136.75995267596954 0 0 0 0 -186.14534594115366 -82.146121191453858 0 -82.146121191453858 43.779625105606101 0 0 0 0 7.3630830528707474 -44.759538837859722 0 -44.759538837859722 -17.99120664983478 0 0 0 0 -25.982480210898757 -79.413645565895422 0 -79.413645565895422 -58.642558763483976 0 0 0 0 -40.403005245474361 -59.124050757642522 0 -59.124050757642522 -82.016111830052978 0 0 0 0 -668.95128103768093 -748.74280670775624 0 -748.74280670775624 30.128209659627828 0 0 0 0 -585.89773260274706 -705.16005184205278 0 -705.16005184205278 -410.57400816029258 0 0 0 0 -1215.8078260522252 -882.40185531289171 0 -882.40185531289171 -313.69826159650984 0 0 0 0 -677.86535932793231 -539.88796452604583 0 -539.88796452604583 -424.90934841264971 0 0 0 0 -955.67591399415869 -345.34321185834779 0 -345.34321185834779 -372.18975320360914 0 0 0 0 -1279.7498126642895 -987.46833237287501 0 -987.46833237287501 -897.48425863566354 0 0 0 0 -875.55162844181177 -170.23633222334684 0 -170.23633222334684 -723.82900333846737 0 0 0 0 -6.022441107560633 -11.798690243653166 0 -11.798690243653166 -3.2912494370129224 0 0 0 0 -966.04490773759881 -3.7758206871585571 0 -3.7758206871585571 -118.86914059335686 0 0 0 0 -2754.5567454378997 -645.4344960186063 0 -645.4344960186063 58.845167697603756 0 0 0 0 -1663.6813851621148 -64.758701885382834 0 -64.758701885382834 -67.962011245908798 0 0 0 0 269.10006182748486 -42.693363151233484 0 -42.693363151233484 -160.99336618150483 0 0 0 0 -374.95693024826596 -545.32265980751981 0 -545.32265980751981 -462.32779699779167 0 0 0 0 -114.24387265544988 -179.57103169676338 0 -179.57103169676338 -190.13037648614409 0 0 0 0 -140.90530249779272 -65.930606420595268 0 -65.930606420595268 45.689249398958054 0 0 0 0 -197.73370514298699 -263.9956438113586 0 -263.9956438113586 128.36413598032414 0 0 0 0 -50.232038601755207 -34.427042728987814 0 -34.427042728987814 -15.649818884692856 0 0 0 0 -202.78112710195273 -106.08928385213221 0 -106.08928385213221 81.865587519248948 0 0 0 0 -687.19944805246803 -396.37143647676749 0 -396.37143647676749 219.62870960574219 0 0 0 0 -611.99764916396236 -329.98856020559288 0 -329.98856020559288 93.771609635299683 0 0 0 0 -8.6300731779221405 -4.0557820748684481 0 -4.0557820748684481 63.378153785748779 0 0 0 0 -85.845482233472467 -204.44752523214265 0 -204.44752523214265 -5.4445334150732378 0 0 0 0 -38.249186036439767 -53.992126092019348 0 -53.992126092019348 -59.133929333448009 0 0 0 0 -106.39079102377036 -171.10762482457358 0 -171.10762482457358 3.6902830094913952 0 0 0 0 -533.6517290322372 17.424713311909727 0 17.424713311909727 95.732123027468333 0 0 0 0 -8.4101215634766042 0.012990414265047434 0 0.012990414265047434 10.564700727120567 0 0 0 0 -284.37794257969836 -251.4465694002829 0 -251.4465694002829 -26.995363511348842 0 0 0 0 -281.51884916945346 -257.4747256453993 0 -257.4747256453993 -91.213258825591765 0 0 0 0 -558.78699220146245 -185.76598625981933 0 -185.76598625981933 -53.662275901449902 0 0 0 0 -556.72423099544358 -186.86338632203842 0 -186.86338632203842 -69.041735986626009 0 0 0 0 -6.0414307709432009 -22.59421805275176 0 -22.59421805275176 -25.234842373599832 0 0 0 0 -529.5013168268506 -129.34030780470493 0 -129.34030780470493 38.473961837677052 0 0 0 0 -254.22578832280124 -192.64250488979451 0 -192.64250488979451 -137.70102165227581 0 0 0 0 -246.75335071023437 -234.74640900962549 0 -234.74640900962549 -153.45334206012194 0 0 0 0 9.1111122592747051 -253.88799605293025 0 -253.88799605293025 126.20807409071858 0 0 0 0 227.95334021192264 -284.24400754708768 0 -284.24400754708768 -114.24447249496006 0 0 0 0 9.8248987463548474 -83.094655630993657 0 -83.094655630993657 -35.796800400876236 0 0 0 0 -70.48385181679896 -133.88052144365565 0 -133.88052144365565 -68.324747011600266 0 0 0 0 -25.383704761619718 -59.119843619465009 0 -59.119843619465009 -37.110956682052837 0 0 0 0 -131.22463979924214 -227.54733696427866 0 -227.54733696427866 -62.179467381283757 0 0 0 0 20.175100442471894 -73.106391688978192 0 -73.106391688978192 -46.039085852372494 0 0 0 0 -53.075785372620885 -243.50829673352928 0 -243.50829673352928 -75.185637141999905 0 0 0 0 -256.83535929687787 -185.76721567472123 0 -185.76721567472123 -69.842730947311793 0 0 0 0 -160.41708208165801 -316.11561408579655 0 -316.11561408579655 17.297688552731415 0 0 0 0 -165.45018173120843 -46.757188864889031 0 -46.757188864889031 141.29292075210469 0 0 0 0 1.8549338927841745 -63.579486989736324 0 -63.579486989736324 -42.320521185863072 0 0 0 0 10.715263204543817 -79.924295306981548 0 -79.924295306981548 -41.392663699480181 0 0 0 0 37.124978253562404 -79.930930954433279 0 -79.930930954433279 -51.170942754208227 0 0 0 0 31.181037266906944 -35.421087106432509 0 -35.421087106432509 -2.760355034226194 0 0 0 0 -0.60789855158560613 -71.665291712415637 0 -71.665291712415637 -51.77358471036132 0 0 0 0 -9.9005239335047008 -76.646189687915466 0 -76.646189687915466 -45.610381114078336 0 0 0 0 443.60584687082519 16.743739126846776 0 16.743739126846776 -533.03900336763763 0 0 0 0 31.767246912791165 -57.759002985687573 0 -57.759002985687573 -49.073763861110535 0 0 0 0 375.12086166774679 -21.151367677786766 0 -21.151367677786766 200.30869134140084 0 0 0 0 2.0042474053097479 -8.8129761106840405 0 -8.8129761106840405 -3.8804415678486066 0 0 0 0 -1.7734749824494429 -66.33871776246815 0 -66.33871776246815 -60.436874750281277 0 0 0 0 -27.277119717422465 -64.669206612808921 0 -64.669206612808921 -47.232338119851192 0 0 0 0 50.092962499737133 -51.90000325489779 0 -51.90000325489779 -53.371155209804101 0 0 0 0 22.995890699180435 -20.790247490392957 0 -20.790247490392957 -6.0227091107063302 0 0 0 0 387.29828886908217 124.91064114625624 0 124.91064114625624 -85.660674586615642 0 0 0 0 -47.509104321455197 -140.71506773510919 0 -140.71506773510919 -158.44466115476098 0 0 0 0 -59.795108884739648 -84.748731934364514 0 -84.748731934364514 -85.775025004724739 0 0 0 0 -19.234993125865003 -130.25812122465868 0 -130.25812122465868 -77.870248147094571 0 0 0 0 711.55086783365914 -116.89151401662821 0 -116.89151401662821 -473.2200015996641 0 0 0 0 -1.1569588431179385 -8.1802658586847166 0 -8.1802658586847166 -8.8148971306681005 0 0 0 0 -1677.3670406822948 -542.18007638042036 0 -542.18007638042036 17.871792681675288 0 0 0 0 157.23591077204401 -368.41884819311235 0 -368.41884819311235 -678.27022853994276 0 0 0 0 -646.38766830477107 -6.7996650155182579 0 -6.7996650155182579 -157.61371934264025 0 0 0 0 -640.04680500870745 -260.83049361324083 0 -260.83049361324083 -78.763724930948229 0 0 0 0 -455.5978422778735 -1008.5406926001669 0 -1008.5406926001669 -562.20903913889197 0 0 0 0 -147.1593190814674 506.32359895168338 0 506.32359895168338 -146.32842181223896 0 0 0 0 -739.40736730527169 -281.34611962782219 0 -281.34611962782219 -52.936710681286058 0 0 0 0 125.40569830157619 -429.62244839957566 0 -429.62244839957566 -637.25657519363449 0 0 0 0 194.78802136298009 -338.20897585983039 0 -338.20897585983039 -557.16072285850532 0 0 0 0 -138.59735486781028 -587.51025096045487 0 -587.51025096045487 -555.9519150715787 0 0 0 0 4.3056011584594671 -385.6604245124181 0 -385.6604245124181 -299.55465049113536 0 0 0 0 46.149810293137762 -162.83190127040962 0 -162.83190127040962 -13.6097792625078 0 0 0 0 -97.304291429067234 -133.03149380858667 0 -133.03149380858667 119.16562435924425 0 0 0 0 20.570886844330744 -283.96537741836801 0 -283.96537741836801 -304.60812511547147 0 0 0 0 -226.74583754118612 -182.51015465804812 0 -182.51015465804812 113.34088025882374 0 0 0 0 197.86107570387685 -196.83138869899267 0 -196.83138869899267 66.828272328377352 0 0 0 0 365.873654572546 25.163194200144062 0 25.163194200144062 20.536715586262289 0 0 0 0 396.79004786818041 241.550860915464 0 241.550860915464 -182.77943749364931 0 0 0 0 26.398791383983813 -3.0189378830751661 0 -3.0189378830751661 2.0340514701465509 0 0 0 0 9.845170234230828 -7.4623229542691263 0 -7.4623229542691263 -1.5625921276127883 0 0 0 0 13.696984498907113 -27.290152962581487 0 -27.290152962581487 375.13115938482224 0 0 0 0 27.349507108950093 1.4078306816791155 0 1.4078306816791155 256.35237090740702 0 0 0 0 124.44839787899764 -35.465872754837619 0 -35.465872754837619 8.0651510689931456 0 0 0 0 32.744948394720268 70.449589367752196 0 70.449589367752196 299.17605344725598 0 0 0 0 41.619100822124892 -44.912776696364745 0 -44.912776696364745 69.445930034969933 0 0 0 0 208.90945130469481 40.209538575363695 0 40.209538575363695 -10.453928851944511 0 0 0 0 59.45049212312167 -60.811559453210478 0 -60.811559453210478 -67.270191792024576 0 0 0 0 62.270072925890418 18.81004520948045 0 18.81004520948045 264.92129736300558 0 0 0 0 43.043694574556866 -34.335413894354133 0 -34.335413894354133 -24.159021540894173 0 0 0 0 80.363997275049499 -35.615630218498339 0 -35.615630218498339 -52.308335904483897 0 0 0 0 27.715728926496283 -36.255691968481443 0 -36.255691968481443 -19.180075697947757 0 0 0 0 226.37817709854426 -30.0022901014745 0 -30.0022901014745 -164.68930018370156 0 0 0 0 17.718533356228363 -121.90253065534125 0 -121.90253065534125 -14.92214117074036 0 0 0 0 14.918445849517784 -62.694821005047046 0 -62.694821005047046 -4.2914822275132565 0 0 0 0 -69.749331720615373 -79.898616580496309 0 -79.898616580496309 -0.57368707829300547 0 0 0 0 26.280109223566015 -73.281883320557313 0 -73.281883320557313 -11.932087964918793 0 0 0 0 -50.229004365304718 -51.548117411119165 0 -51.548117411119165 -42.546106016983686 0 0 0 0 136.34041028945649 -13.595019058593607 0 -13.595019058593607 -1.1252860860622604 0 0 0 0 1.5624034851587041 -9.9589958632682567 0 -9.9589958632682567 -1.6461010955769666 0 0 0 0 558.8690856510093 73.301987744212965 0 73.301987744212965 -20.63353130237374 0 0 0 0 85.302736928582817 -24.051511920715711 0 -24.051511920715711 -19.019485029479256 0 0 0 0 126.40394459292474 8.1901928353472613 0 8.1901928353472613 5.4940087140712421 0 0 0 0 28.435854751592458 -47.446757746966554 0 -47.446757746966554 -30.569880648551077 0 0 0 0 55.897726351264282 -74.698881061340217 0 -74.698881061340217 -141.81835352416965 0 0 0 0 -76.621808340627467 -109.6320528480137 0 -109.6320528480137 11.581270291819237 0 0 0 0 17.034683387513184 -4.3233792385580614 0 -4.3233792385580614 -1.5110073097017676 0 0 0 0 -82.982189991722407 -140.45329375033907 0 -140.45329375033907 -16.050033068750054 0 0 0 0 -46.685988397941401 -151.15205140303442 0 -151.15205140303442 -120.15208530024393 0 0 0 0 -70.250080620768131 -178.18344867342967 0 -178.18344867342967 -96.08805086571374 0 0 0 0 -79.550958351959707 -129.47396307837334 0 -129.47396307837334 -125.41738972998428 0 0 0 0 23.903171083294225 6.2331190807415027 0 6.2331190807415027 1.1589929726288233 0 0 0 0 -119.04189780334855 -150.01852483781113 0 -150.01852483781113 -59.802476315759122 0 0 0 0 -168.33567480278361 -126.15683790608819 0 -126.15683790608819 -68.402106743567856 0 0 0 0 -21.449929408423486 -117.18491038175125 0 -117.18491038175125 -43.794622947316384 0 0 0 0 -26.20113898688578 -162.79124226680142 0 -162.79124226680142 -108.6754656182311 0 0 0 0 77.671195858878491 -51.613408037970657 0 -51.613408037970657 -24.124425162692205 0 0 0 0 5.0262920678142109 -120.94057690481714 0 -120.94057690481714 -67.439643287701983 0 0 0 0 23.672693957655561 -38.485386727333065 0 -38.485386727333065 -34.251884453785493 0 0 0 0 -61.143882536945966 -103.24653401422256 0 -103.24653401422256 11.942630676807312 0 0 0 0 34.283749177346181 -62.962909657089767 0 -62.962909657089767 -8.689467536736629 0 0 0 0 49.857126365510339 -51.125895514924196 0 -51.125895514924196 -12.979349714156342 0 0 0 0 46.686130844231229 -15.354777097207261 0 -15.354777097207261 -19.93920449288089 0 0 0 0 23.471388436364538 -35.618189766012733 0 -35.618189766012733 2.8114956908480053 0 0 0 0 3.3257997320561401 -33.158100205354934 0 -33.158100205354934 -28.51974555819487 0 0 0 0 45.890376622832264 -42.591123985683225 0 -42.591123985683225 -19.515247204966727 0 0 0 0 -22.145490378238204 -53.062596053164661 0 -53.062596053164661 -4.8370534407272316 0 0 0 0 1.124997828275994 -20.922208050005992 0 -20.922208050005992 -12.063840405732549 0 0 0 0 61.056336705936701 -59.262603322458745 0 -59.262603322458745 -7.9695118275994901 0 0 0 0 -1131.9374578003844 433.42306037437447 0 433.42306037437447 545.00505926868937 0 0 0 0 -325.61994389382016 -361.43945058331155 0 -361.43945058331155 81.82048486750864 0 0 0 0 399.14259170132573 838.97417727924767 0 838.97417727924767 -539.74821368345874 0 0 0 0 171.28634994557069 62.007197909224487 0 62.007197909224487 537.82940444839187 0 0 0 0 816.43129721320292 -675.49175314459717 0 -675.49175314459717 307.74718264226976 0 0 0 0 1256.9878511092393 -467.75350669623003 0 -467.75350669623003 391.21222262617084 0 0 0 0 345.8494120088144 -302.52592585531966 0 -302.52592585531966 572.71075095547712 0 0 0 0 449.55713472882053 138.16747143914108 0 138.16747143914108 164.3686065186921 0 0 0 0 845.39096208658884 -203.3021620088839 0 -203.3021620088839 354.0180337350339 0 0 0 0 673.79441961772682 -357.30004065489629 0 -357.30004065489629 308.33161344961263 0 0 0 0 1271.7579779041407 -620.45663556442014 0 -620.45663556442014 589.1839698983822 0 0 0 0 1226.2684755745813 74.304389447301219 0 74.304389447301219 -116.51491353777237 0 0 0 0 1414.9885886310367 -580.53282803672482 0 -580.53282803672482 346.738351261356 0 0 0 0 1265.6174995800829 -887.1765998687697 0 -887.1765998687697 751.60627806087723 0 0 0 0 1148.1371077136282 -987.62750460729148 0 -987.62750460729148 1090.0951401730999 0 0 0 0 1204.0247240303142 -719.2888785279647 0 -719.2888785279647 490.84919930167962 0 0 0 0 933.84764538958552 -630.046701696323 0 -630.046701696323 723.3959096147737 0 0 0 0 1026.9814585439599 -448.41388503802591 0 -448.41388503802591 338.5454002172919 0 0 0 0 1224.0418997748584 -502.27452187444578 0 -502.27452187444578 615.74363956670277 0 0 0 0 912.17832660113345 -555.32594890597102 0 -555.32594890597102 843.82179067231482 0 0 0 0 1146.6610889620497 -715.59682030236581 0 -715.59682030236581 510.36278547422262 0 0 0 0 1183.1506701880135 -447.61290376866236 0 -447.61290376866236 956.63803777784051 0 0 0 0 1104.9876647306373 -741.1534837904328 0 -741.1534837904328 670.64397741595167 0 0 0 0 988.15685074868088 -816.53593649822142 0 -816.53593649822142 1516.6212866531569 0 0 0 0 1159.141565739119 -1272.7216839218745 0 -1272.7216839218745 1372.2106149967804 0 0 0 0 1192.4177163237473 -1112.321243678598 0 -1112.321243678598 876.04777476371964 0 0 0 0 1183.1506701880135 -447.61290376872057 0 -447.61290376872057 956.63803777773865 0 0 0 0 1183.1506701880135 -447.61290376889519 0 -447.61290376889519 956.63803777797148 0 0 0 0 -24.933993503575039 -55.292105582313525 0 -55.292105582313525 -97.626389387376548 0 0 0 0 -12.258440130831275 -49.349125900214155 0 -49.349125900214155 -45.406671698977561 0 0 0 0 1297.3867059102049 -1320.3943880419247 0 -1320.3943880419247 1190.6724899944384 0 0 0 0 1689.5139098019863 -2429.1530461489456 0 -2429.1530461489456 2356.8107317219255 0 0 0 0 8.6075517519156364 -6.5265460709147476 0 -6.5265460709147476 -11.895820572947969 0 0 0 0 1469.0935794420075 -1374.543336183764 0 -1374.543336183764 1106.2749952982995 0 0 0 0 1364.0125902528816 -1258.0765998187853 0 -1258.0765998187853 1215.2201363869826 0 0 0 0 1356.2841239260742 -1341.2750212432875 0 -1341.2750212432875 1130.2027373956516 0 0 0 0 1987.7425000570947 -1380.4340979685367 0 -1380.4340979685367 889.34286115394207 0 0 0 0 1573.5499207983958 -1066.8950747639756 0 -1066.8950747639756 653.59411868682946 0 0 0 0 2763.3804164805915 -837.34189197779051 0 -837.34189197779051 394.55091205736971 0 0 0 0 1798.3041164986644 -581.70677629450802 0 -581.70677629450802 331.74831099674338 0 0 0 0 1711.6629226723744 -108.44719451630954 0 -108.44719451630954 1161.8487671179464 0 0 0 0 1137.6014719312661 -1302.7734830629634 0 -1302.7734830629634 1769.2066028240733 0 0 0 0 3347.2700021112687 -947.33930473176588 0 -947.33930473176588 729.59410551493056 0 0 0 0 14.696577546964956 -54.250241206200847 0 -54.250241206200847 -31.840655945606045 0 0 0 0 613.15254109277157 -1637.7631050034324 0 -1637.7631050034324 541.38062452949816 0 0 0 0 28.215773411269765 -64.159363084228971 0 -64.159363084228971 -25.804402677988037 0 0 0 0 692.72978471513488 -1500.7526234541438 0 -1500.7526234541438 -100.70072506189172 0 0 0 0 1062.043215629732 -541.81311778747477 0 -541.81311778747477 -1229.8700146117044 0 0 0 0 1252.6562094357214 -678.90338770311791 0 -678.90338770311791 457.07000031427015 0 0 0 0 953.08491050111479 -461.07999854430818 0 -461.07999854430818 841.29785535554402 0 0 0 0 1128.8684568447061 -1424.7911675513897 0 -1424.7911675513897 265.35151090401632 0 0 0 0 898.70761689466599 -1369.6025354209924 0 -1369.6025354209924 715.48181134312108 0 0 0 0 -0.21964631607426099 5.5796783284050804 0 5.5796783284050804 -1.8829399709960626 0 0 0 0 590.58709285144869 -1684.5597150897447 0 -1684.5597150897447 749.87702409616031 0 0 0 0 698.8132435586158 -1380.6543238893319 0 -1380.6543238893319 920.06172970548505 0 0 0 0 58.012380735039187 -3.2250777784211095 0 -3.2250777784211095 596.16019159462303 0 0 0 0 741.5011510126642 238.0558412991777 0 238.0558412991777 -606.97791471624805 0 0 0 0 1007.9682500698545 1.0109687826115987 0 1.0109687826115987 -584.99758668711729 0 0 0 0 -27.680234362148262 -277.5575322929929 0 -277.5575322929929 -580.10875060565013 0 0 0 0 252.32096243809065 -206.99564821106651 0 -206.99564821106651 -694.6593224114331 0 0 0 0 40.538028399723231 -8.6371771959805983 0 -8.6371771959805983 -58.116455493774311 0 0 0 0 -26.932834145889501 126.34449530158599 0 126.34449530158599 -569.87703505737591 0 0 0 0 545.94304178875973 182.33713717891624 0 182.33713717891624 -630.74195133387548 0 0 0 0 508.2670810459822 -75.119971749059914 0 -75.119971749059914 88.047264327193261 0 0 0 0 39.957654675647163 -52.256731790315769 0 -52.256731790315769 -48.930026793383419 0 0 0 0 572.98119293048512 126.17336305478966 0 126.17336305478966 -611.46505554803298 0 0 0 0 21.297180129215121 -69.167876890744083 0 -69.167876890744083 -60.426477101776982 0 0 0 0 -20.183997821237426 -69.661725937588926 0 -69.661725937588926 -57.063457846350502 0 0 0 0 48.943681028889301 -49.084724497110287 0 -49.084724497110287 -59.886887821689811 0 0 0 0 31.9778702293479 -68.848543326850631 0 -68.848543326850631 -69.131117731049017 0 0 0 0 53.626595604134394 -29.285864368306378 0 -29.285864368306378 -21.983404747601483 0 0 0 0 -427.22163369283953 -421.40078710313901 0 -421.40078710313901 -149.00402654294521 0 0 0 0 -322.44138064904109 -1483.185920532007 0 -1483.185920532007 -660.22494752906005 0 0 0 0 -1.643690882177907 -56.072766219560435 0 -56.072766219560435 -98.48592050519801 0 0 0 0 -6.6923595875332467 -68.283720877135693 0 -68.283720877135693 -67.714930545698735 0 0 0 0 4.8679423739595222 -44.861154285779776 0 -44.861154285779776 -94.898137973712437 0 0 0 0 5.6750436159236415 -64.964966036381156 0 -64.964966036381156 -125.28149442957874 0 0 0 0 -9.8040915968907996 -0.66163903400500601 0 -0.66163903400500601 27.217731684065882 0 0 0 0 1205.8474753707103 -1195.308309395321 0 -1195.308309395321 517.91206616829732 0 0 0 0 -7.3627140148641672 -57.666831546341967 0 -57.666831546341967 0.75463660849632674 0 0 0 0 -102.87955248619255 -28.706208352821704 0 -28.706208352821704 107.2356224182713 0 0 0 0 -16.733011262522268 -106.00967936348025 0 -106.00967936348025 84.124534187925747 0 0 0 0 -415.6865497878498 -22.225244802721136 0 -22.225244802721136 76.854752133403963 0 0 0 0 -1.8510220507073853 -0.61378462641806664 0 -0.61378462641806664 3.4381302201480537 0 0 0 0 1175.9617399969429 -1150.9783287152823 0 -1150.9783287152823 209.98027105351866 0 0 0 0 216.49842832566355 -539.60935594250623 0 -539.60935594250623 567.7720982440369 0 0 0 0 -8.2905867807130562 222.04047666263068 0 222.04047666263068 -362.43563315147912 0 0 0 0 520.09285550152708 -212.52708547312795 0 -212.52708547312795 -87.952805875858758 0 0 0 0 273.27383639813343 -732.28480796745862 0 -732.28480796745862 -395.09675091087502 0 0 0 0 -689.2024933531211 148.71829516081198 0 148.71829516081198 378.64827020200028 0 0 0 0 1072.3386919719414 -90.964943946775747 0 -90.964943946775747 79.638519796862965 0 0 0 0 547.66649342764867 -1107.7350328334433 0 -1107.7350328334433 941.00084665237227 0 0 0 0 -49.211579115042696 -249.47947987414955 0 -249.47947987414955 989.00897628659732 0 0 0 0 660.51085187928402 -274.24715482034662 0 -274.24715482034662 50.632816238292435 0 0 0 0 308.47866502491524 -451.04282219370361 0 -451.04282219370361 5.7349464330181945 0 0 0 0 194.71989231148473 -0.92925240821386978 0 -0.92925240821386978 -510.1207135260338 0 0 0 0 282.30487473371613 35.569382170986501 0 35.569382170986501 -487.5804833220609 0 0 0 0 2.787443716195412 209.42380116561253 0 209.42380116561253 -77.7632172497797 0 0 0 0 525.024325513441 -276.48749806464184 0 -276.48749806464184 179.47318692790577 0 0 0 0 -8.1349653964134632 -60.710527670613374 0 -60.710527670613374 -141.78520785103319 0 0 0 0 -850.5055634638411 230.01822862069821 0 230.01822862069821 -445.59383020587848 0 0 0 0 -151.51009502829402 -87.863164862494159 0 -87.863164862494159 107.16578672872856 0 0 0 0 -8.1986046873204685 -15.075613952887799 0 -15.075613952887799 2.1585544842668014 0 0 0 0 -10.745909166621914 -48.922425534228204 0 -48.922425534228204 -8.9038422409818452 0 0 0 0 18.730026152190419 -56.732206653928984 0 -56.732206653928984 -50.49671754043311 0 0 0 0 67.671157209246303 -67.130746306891524 0 -67.130746306891524 9.5555434684501961 0 0 0 0 -47.81354357885273 -50.254802145533077 0 -50.254802145533077 21.197785345332591 0 0 0 0 5.2693569943076 -92.861033079650952 0 -92.861033079650952 -58.555968772940105 0 0 0 0 28.748907109657921 -24.768227585644127 0 -24.768227585644127 -45.101964588684496 0 0 0 0 1.178507152295424 -96.174208977128728 0 -96.174208977128728 -21.238585490908008 0 0 0 0 -19.200618704366207 -74.74946131004981 0 -74.74946131004981 14.722606083450955 0 0 0 0 6.5930237508873688 -81.9021003824746 0 -81.9021003824746 -20.85473756200372 0 0 0 0 -19.946092418773333 -103.99577301063982 0 -103.99577301063982 -23.983466546837008 0 0 0 0 -38.382137819599635 -42.120607348240306 0 -42.120607348240306 -31.792506286619044 0 0 0 0 -407.52359663698371 306.3828743618833 0 306.3828743618833 487.85564366207109 0 0 0 0 0.69614217008162882 -8.8903094882465012 0 -8.8903094882465012 -5.8899780587467205 0 0 0 0 64.102922317099001 516.29530388838248 0 516.29530388838248 -399.56066998597817 0 0 0 0 448.69669061859895 -331.11310725612566 0 -331.11310725612566 -771.4332939980668 0 0 0 0 -84.529544333287049 -234.15927893234766 0 -234.15927893234766 -137.16634441242786 0 0 0 0 -220.93469927000115 -6.9024891499866499 0 -6.9024891499866499 -106.98012873355765 0 0 0 0 -4.8486912124039918 -1.5743620938383387 0 -1.5743620938383387 0.30117417431711146 0 0 0 0 28.420299069955945 -141.31851601643575 0 -141.31851601643575 76.847549186612014 0 0 0 0 4.5748233970844012 -73.230632572685863 0 -73.230632572685863 64.005142759611772 0 0 0 0 15.950927298758913 -53.747007859637478 0 -53.747007859637478 -6.1326407507054626 0 0 0 0 -34.081246803063422 -38.463095436952997 0 -38.463095436952997 1.8583676999516001 0 0 0 0 18.433372324005177 -52.8115289435882 0 -52.8115289435882 13.861521240061847 0 0 0 0 -59.583856045727771 -151.52381064639485 0 -151.52381064639485 101.17366427578963 0 0 0 0 84.949892678494507 -96.450845974446565 0 -96.450845974446565 29.850713035644731 0 0 0 0 -6.8741014184633968 -96.818598103498516 0 -96.818598103498516 156.36081048157212 0 0 0 0 79.671511262523836 -193.71737948348255 0 -193.71737948348255 -40.660128942166921 0 0 0 0 -0.76162196296780849 -10.201069162316386 0 -10.201069162316386 10.327327998038641 0 0 0 0 -247.16426145369769 -60.809378863421443 0 -60.809378863421443 103.01640780275102 0 0 0 0 -50.674267435812084 -56.758945005128545 0 -56.758945005128545 -34.993715611407396 0 0 0 0 -72.047356611743453 -211.09901763078597 0 -211.09901763078597 76.310639559786068 0 0 0 0 -81.899425482024526 -261.50986811773328 0 -261.50986811773328 -142.47823782771593 0 0 0 0 79.877898322527471 -199.39328133455638 0 -199.39328133455638 221.06851505592203 0 0 0 0 59.027742336997903 -12.24119879289583 0 -12.24119879289583 -12.117459149200489 0 0 0 0 27.680242823320441 -212.26393000141979 0 -212.26393000141979 355.45137810346205 0 0 0 0 -39.414948903649929 -79.386021875441656 0 -79.386021875441656 56.905727774790648 0 0 0 0 -17.424660061950675 -56.036059106784052 0 -56.036059106784052 -16.854741167984258 0 0 0 0 -6.0358527059075584 -14.797635574994416 0 -14.797635574994416 10.182165667865746 0 0 0 0 164.93487864971576 164.80264421076572 0 164.80264421076572 -135.03218214929802 0 0 0 0 41.848766658737986 -124.7811823067168 0 -124.7811823067168 -66.690117894489958 0 0 0 0 219.69782309167476 -236.56808925082805 0 -236.56808925082805 3.0955530053324765 0 0 0 0 -74.421750831622376 -41.479486185755377 0 -41.479486185755377 141.65966111903981 0 0 0 0 6.7697629145201326 -1.372830411352524 0 -1.372830411352524 -3.3750094148645076 0 0 0 0 114.52872035899054 -135.95077456407307 0 -135.95077456407307 -86.081277386158035 0 0 0 0 -158.20040640951265 -118.33054178506791 0 -118.33054178506791 296.30787785549182 0 0 0 0 32.103260238276746 -51.540948881364116 0 -51.540948881364116 -40.050210893979568 0 0 0 0 428.35727341757411 180.63664404329757 0 180.63664404329757 -175.43893971490616 0 0 0 0 -48.451428776879766 -108.72252367518377 0 -108.72252367518377 24.840349957419676 0 0 0 0 -50.827127038573963 -126.02281286142534 0 -126.02281286142534 97.955528483911621 0 0 0 0 -3.4031908820390768 1.2771582714020155 0 1.2771582714020155 6.0892958266069286 0 0 0 0 -73.738644799181202 -51.057294215788716 0 -51.057294215788716 64.023627970946109 0 0 0 0 -3.1618541951938823 -52.360226707460242 0 -52.360226707460242 -27.923901313217357 0 0 0 0 212.72780776827494 -34.028607853972062 0 -34.028607853972062 -58.68873890148825 0 0 0 0 1.7672513710362594 -11.624555447210213 0 -11.624555447210213 -2.4771499499786955 0 0 0 0 -53.266840999713168 -31.636147526813147 0 -31.636147526813147 -13.564244463515934 0 0 0 0 2.7516867274922987 -33.101919784077552 0 -33.101919784077552 -28.392342206968067 0 0 0 0 -6.1750602866277404 -66.08951312928275 0 -66.08951312928275 -17.457363982248353 0 0 0 0 31.575883240700932 -42.191306346328929 0 -42.191306346328929 -2.4609987114963587 0 0 0 0 -8.5113469215721125 -68.581023446007748 0 -68.581023446007748 -20.052292459848104 0 0 0 0 13.320181243090701 -89.838447947563509 0 -89.838447947563509 -6.9854887868714286 0 0 0 0 -8.4206637775860145 -86.082099506536906 0 -86.082099506536906 -21.994958708746708 0 0 0 0 -26.783612480772717 -71.710612205672078 0 -71.710612205672078 -17.483407374914179 0 0 0 0 -33.837459611146187 -63.045927903542179 0 -63.045927903542179 36.666996646410553 0 0 0 0 -3.8208550969811768 -101.08556247342494 0 -101.08556247342494 -12.436244406562764 0 0 0 0 19.942443662236002 -48.074088117636194 0 -48.074088117636194 -5.035921632291263 0 0 0 0 -16.603013933599868 -117.42863879662764 0 -117.42863879662764 -28.71313310705591 0 0 0 0 997.15912437622319 -275.71663401392289 0 -275.71663401392289 528.43955114357232 0 0 0 0 -42.776885228418905 -213.35100433358275 0 -213.35100433358275 237.89927404772607 0 0 0 0 229.32075681482092 -280.39068879459228 0 -280.39068879459228 25.969902650009317 0 0 0 0 101.62338554092275 -468.18590682851209 0 -468.18590682851209 591.246072341728 0 0 0 0 80.895913480708259 -119.32578091639152 0 -119.32578091639152 -63.31638897855737 0 0 0 0 318.82306693633291 -309.8928863422625 0 -309.8928863422625 -3.7427376754058059 0 0 0 0 166.4528355885559 -130.16338998182619 0 -130.16338998182619 -179.08174350323679 0 0 0 0 1.9080877453192358 -5.7153330322811087 0 -5.7153330322811087 4.5942436808099671 0 0 0 0 -52.772504149870656 -32.763654367052368 0 -32.763654367052368 -72.508812804182526 0 0 0 0 -775.5362194238005 75.645613083084754 0 75.645613083084754 1327.746306392808 0 0 0 0 -58.563244148426747 -4.11000350600807 0 -4.11000350600807 955.41842930619168 0 0 0 0 222.49281368974152 -100.20202658449125 0 -100.20202658449125 -264.22527288143465 0 0 0 0 20.180812985471462 -55.974596916430414 0 -55.974596916430414 -3.6590481493671163 0 0 0 0 141.88799104460031 45.449402711179573 0 45.449402711179573 821.15699149927241 0 0 0 0 12.542526402134389 -16.871661242846315 0 -16.871661242846315 -6.0432701630555243 0 0 0 0 282.96684802649906 -256.48663877679064 0 -256.48663877679064 168.21382276112854 0 0 0 0 -79.903099426352128 -76.422599425117369 0 -76.422599425117369 -19.3109522382656 0 0 0 0 9.3048452699412962 -10.600658583232104 0 -10.600658583232104 6.7879534067205896 0 0 0 0 -86.101403685235709 8.8650446916508372 0 8.8650446916508372 662.42902030239929 0 0 0 0 -12.937997628599987 192.38540594962251 0 192.38540594962251 78.046736007381696 0 0 0 0 103.97951830232907 -14.187039120487754 0 -14.187039120487754 -15.80421406557808 0 0 0 0 -140.20235606005735 -137.54433267851709 0 -137.54433267851709 861.40616337979191 0 0 0 0 180.03514686556628 -73.806220430327812 0 -73.806220430327812 -197.55799403441779 0 0 0 0 325.53809327693034 -237.94727477546985 0 -237.94727477546985 802.67428656556876 0 0 0 0 -192.48162324492296 -4.3933665171643952 0 -4.3933665171643952 20.874708760522481 0 0 0 0 1.5887953565942041 -0.70771073331374623 0 -0.70771073331374623 -3.906502656055693 0 0 0 0 -10.9959991563328 -13.957776312183341 0 -13.957776312183341 0.53642250364646316 0 0 0 0 -4.2620679325318633 -16.344902840070972 0 -16.344902840070972 -1.2203596622857731 0 0 0 0 -87.363637579797796 -64.497578775000875 0 -64.497578775000875 -14.788353665644536 0 0 0 0 -167.78196968502016 -163.18339192889835 0 -163.18339192889835 -33.692007311423367 0 0 0 0 -6.5831160003835976 -99.843232812643691 0 -99.843232812643691 -12.905256997852121 0 0 0 0 -48.648520235965407 -91.01441216742387 0 -91.01441216742387 -14.361041341733653 0 0 0 0 89.793117704663018 -102.31319824064849 0 -102.31319824064849 -45.292140146935708 0 0 0 0 60.154986396300956 -179.45927478971862 0 -179.45927478971862 -29.022715189268638 0 0 0 0 12.828867787606214 -193.25828191028268 0 -193.25828191028268 -30.040127377054887 0 0 0 0 29.464901870807807 -170.26567276877904 0 -170.26567276877904 -60.603098543302622 0 0 0 0 -40.423701391633585 -156.62967723027396 0 -156.62967723027396 -42.680331351744826 0 0 0 0 -43.583500369157264 -151.42924682684679 0 -151.42924682684679 -0.078349992763833143 0 0 0 0 -119.76483643853135 -72.22792098577338 0 -72.22792098577338 -72.158813535817899 0 0 0 0 -22.0187118480344 -141.69979981424694 0 -141.69979981424694 -103.31701423921913 0 0 0 0 -203.31922730261613 -97.754838437369472 0 -97.754838437369472 0.024256987089756876 0 0 0 0 -166.77768998146439 -147.49858599548679 0 -147.49858599548679 -48.791798078455031 0 0 0 0 -82.859196278623131 -72.208247382943227 0 -72.208247382943227 -0.025568773997244311 0 0 0 0 5.0146842258000106 -89.763655906172062 0 -89.763655906172062 -107.21234302676748 0 0 0 0 -56.138213551497756 -212.59102760551468 0 -212.59102760551468 57.813688438211102 0 0 0 0 -132.47603391768644 -281.47939860675251 0 -281.47939860675251 24.328814713750035 0 0 0 0 -39.157272012715111 -199.81699583871523 0 -199.81699583871523 61.155693387569045 0 0 0 0 -89.343289093805652 -185.93505652771455 0 -185.93505652771455 108.59432637901045 0 0 0 0 2.4264976480305052 -1.3895540249426972 0 -1.3895540249426972 -3.949248136367089 0 0 0 0 -51.639631479816671 -125.80843023270882 0 -125.80843023270882 135.6940062729991 0 0 0 0 -3.053534849153948 -104.37880017111456 0 -104.37880017111456 -127.37801784488693 0 0 0 0 -264.53790176159237 -189.56767702411162 0 -189.56767702411162 -64.802889891405357 0 0 0 0 -265.96441851181407 -197.59342454335638 0 -197.59342454335638 -63.087828808376798 0 0 0 0 -37.43453313176542 -285.74054993620121 0 -285.74054993620121 -75.36274827492889 0 0 0 0 -41.005972642684355 -255.30523088530754 0 -255.30523088530754 -135.46140995860333 0 0 0 0 -65.404862305251299 -275.11558756472368 0 -275.11558756472368 -73.402646497575915 0 0 0 0 23.445137940201676 -184.98189456578984 0 -184.98189456578984 -11.423490523637156 0 0 0 0 35.256679073776468 -179.19973091092106 0 -179.19973091092106 -75.089672800968401 0 0 0 0 31.114846516451507 -181.00830760321696 0 -181.00830760321696 -18.561841208516853 0 0 0 0 20.909971139779373 -250.76084025510499 0 -250.76084025510499 -13.450586229881083 0 0 0 0 76.758850533934492 -247.0915283033446 0 -247.0915283033446 2.180985904589761 0 0 0 0 21.551899719714129 -193.07522331368818 0 -193.07522331368818 117.2388074062037 0 0 0 0 27.86902047581134 -214.13492340705875 0 -214.13492340705875 -28.250119480813737 0 0 0 0 49.268830853572581 -211.69754762183584 0 -211.69754762183584 -29.216637101191736 0 0 0 0 -21.869735098480305 -243.64854319744336 0 -243.64854319744336 -18.640243719564751 0 0 0 0 7.0520901863419567 -235.46439750659192 0 -235.46439750659192 -21.383397503144806 0 0 0 0 9.6781496413168497 -213.5181340076233 0 -213.5181340076233 9.8252469721628586 0 0 0 0 -15.259283527680964 -194.94814406376099 0 -194.94814406376099 -3.5529589194629807 0 0 0 0 6.9037906767844106 -188.2760423692016 0 -188.2760423692016 -28.739620690350421 0 0 0 0 5.1197139871292165 -196.48652591221617 0 -196.48652591221617 -40.761825006782601 0 0 0 0 -23.684424640909128 -150.55048156708654 0 -150.55048156708654 -31.713976046237804 0 0 0 0 -4.9940915397310164 -174.94835582252199 0 -174.94835582252199 -0.017056906101061031 0 0 0 0 7.2996124550518289 -163.21691033305251 0 -163.21691033305251 7.7596730388468131 0 0 0 0 17.097626037248119 -170.28665969260328 0 -170.28665969260328 0.074089003697736189 0 0 0 0 40.364257615954557 -154.65036015546866 0 -154.65036015546866 10.099674236407736 0 0 0 0 0.41519942916056607 -160.63502314460857 0 -160.63502314460857 63.434178000199609 0 0 0 0 130.80807957498473 -83.430308833121671 0 -83.430308833121671 57.954965070835897 0 0 0 0 57.961299932827387 -107.0466570387398 0 -107.0466570387398 56.48262795402843 0 0 0 0 232.25539756660146 -72.829103099131316 0 -72.829103099131316 20.923689762450522 0 0 0 0 143.24295699752838 -135.98906989439274 0 -135.98906989439274 -0.022612669040522698 0 0 0 0 -1.3163479364429804 -6.2884348122734082 0 -6.2884348122734082 0.0041777386431931518 0 0 0 0 -2.3889189204223769 1.9297693268939042 0 1.9297693268939042 2.317833788035216 0 0 0 0 57.277874203453393 -64.662180499304668 0 -64.662180499304668 30.564778732776176 0 0 0 0 -2.1963280157973486 1.3698088166698881 0 1.3698088166698881 3.3874484666881131 0 0 0 0 2.11548472970631 -2.8831731634417679 0 -2.8831731634417679 -5.1384174796160664 0 0 0 0 129.80108996146009 -97.441820576699683 0 -97.441820576699683 28.680313388898867 0 0 0 0 -7.3559566556068603 -8.7460799051332287 0 -8.7460799051332287 33.65811336725892 0 0 0 0 22.558999823031627 -33.874799629855261 0 -33.874799629855261 47.176445651319227 0 0 0 0 4.7634896695853968 26.215733855360668 0 26.215733855360668 124.74514765240019 0 0 0 0 -93.322933679679409 -207.87841205834411 0 -207.87841205834411 227.01360121304606 0 0 0 0 -352.45154533159075 -534.40377876626371 0 -534.40377876626371 242.1635039820394 0 0 0 0 19.408122557779279 -114.21692736386103 0 -114.21692736386103 21.765577160527755 0 0 0 0 -31.369105468919486 -29.199326955541082 0 -29.199326955541082 -28.15092826376582 0 0 0 0 171.83245963932131 -2775.9772613258247 0 -2775.9772613258247 3661.9790273208637 0 0 0 0 1159.8127796277986 -860.93546543821867 0 -860.93546543821867 -382.36371972192137 0 0 0 0 -507.48253248000401 -641.70303486174453 0 -641.70303486174453 829.48118269906263 0 0 0 0 21.990587716943992 -130.93829755864135 0 -130.93829755864135 -108.29490166067262 0 0 0 0 -186.20743803402729 -49.552421465574298 0 -49.552421465574298 542.72082117211539 0 0 0 0 50.050311896375206 -97.71632470638724 0 -97.71632470638724 -234.49551816665917 0 0 0 0 21.845058259032726 -10.244636583390701 0 -10.244636583390701 4.4974486713957731 0 0 0 0 6.2939699967100751 -397.76574297262414 0 -397.76574297262414 993.24329042514728 0 0 0 0 819.00680774197099 133.60283680813154 0 133.60283680813154 -735.57759454158077 0 0 0 0 1530.2865644820122 -1081.094290723413 0 -1081.094290723413 -337.37943335168529 0 0 0 0 -13.398684975365825 -17.540637026404085 0 -17.540637026404085 -17.568427810714354 0 0 0 0 104.39529873828724 10.297367136903631 0 10.297367136903631 228.68135633331258 0 0 0 0 439.89871606319502 -789.68900695315824 0 -789.68900695315824 805.36331037026321 0 0 0 0 2204.2651612295522 -318.65001545284031 0 -318.65001545284031 -427.95704053649388 0 0 0 0 13.618061384746397 -102.73230123946996 0 -102.73230123946996 126.07015638305165 0 0 0 0 -174.99987947582849 -28.453587910422357 0 -28.453587910422357 799.92777027346165 0 0 0 0 470.1298849966679 -306.52495823010577 0 -306.52495823010577 469.75449813093292 0 0 0 0 22.069873611995718 -513.72722958424129 0 -513.72722958424129 653.59548206972249 0 0 0 0 -120.92158208822366 -424.59034157911083 0 -424.59034157911083 672.91441028920235 0 0 0 0 -123.86654504426406 -708.39938171920949 0 -708.39938171920949 418.15061035729013 0 0 0 0 -367.28023484684672 -649.13083023838772 0 -649.13083023838772 624.82040072215023 0 0 0 0 -167.23892874346348 -769.5388651914036 0 -769.5388651914036 679.78238454663187 0 0 0 0 -8.7628099455426991 -11.235120875981757 0 -11.235120875981757 -10.444278413554741 0 0 0 0 23.346792358230232 -191.35104888857313 0 -191.35104888857313 115.10300017464033 0 0 0 0 63.682354813172424 -95.332524306380947 0 -95.332524306380947 39.695515921208425 0 0 0 0 2.3913430928429023 -1.2915238677698113 0 -1.2915238677698113 -3.4239414050858841 0 0 0 0 -64.868138806217758 55.312530924027669 0 55.312530924027669 -16.24263712586253 0 0 0 0 -121.3720132316048 -82.334940891210863 0 -82.334940891210863 107.96800139962579 0 0 0 0 94.507423227856634 -63.364305288851028 0 -63.364305288851028 94.578694923067815 0 0 0 0 -0.57857453136602999 -158.47266750625931 0 -158.47266750625931 -0.15155771496938542 0 0 0 0 -0.95595127302073024 -3.7053242081990874 0 -3.7053242081990874 -4.4919035075684235 0 0 0 0 815.0397814992466 396.19045551566523 0 396.19045551566523 611.95688559132395 0 0 0 0 110.37505191497621 -107.24577453645179 0 -107.24577453645179 0.22261371447844183 0 0 0 0 -1.7995293984266141 -4.0084267901477233 0 -4.0084267901477233 -1.8907529675213652 0 0 0 0 -461.36170665404643 -586.63895949813013 0 -586.63895949813013 766.54406929777542 0 0 0 0 -744.66681665504439 -1161.2576165299906 0 -1161.2576165299906 6.6762172966264188 0 0 0 0 419.02921490609879 -272.74407641233847 0 -272.74407641233847 833.27538780865143 0 0 0 0 459.99101219502336 -356.43261234514648 0 -356.43261234514648 582.78806072185398 0 0 0 0 530.86106961610494 -242.16781942466332 0 -242.16781942466332 567.14160232065115 0 0 0 0 671.42136110692081 -285.30296454112977 0 -285.30296454112977 188.02407383912941 0 0 0 0 586.39282585785259 -401.83418629220978 0 -401.83418629220978 304.95053132413886 0 0 0 0 -2.3334958260928147 -3.6956354946291725 0 -3.6956354946291725 -1.5369144784341131 0 0 0 0 107.3952079564333 -654.34377594175749 0 -654.34377594175749 416.23370417175465 0 0 0 0 386.53354957187548 -611.91039589681895 0 -611.91039589681895 417.9466879552856 0 0 0 0 -28.404258701717481 -737.10525962593965 0 -737.10525962593965 553.40681621991098 0 0 0 0 448.72170023919898 -429.63326191586384 0 -429.63326191586384 389.36036115887691 0 0 0 0 445.37499158235732 -386.25095647582202 0 -386.25095647582202 372.70645871575107 0 0 0 0 454.12967860993558 -588.84205198194832 0 -588.84205198194832 346.5186202749901 0 0 0 0 766.34167658229126 -256.93094639746414 0 -256.93094639746414 473.89105018605187 0 0 0 0 -2286.6789068146609 -1859.263097441908 0 -1859.263097441908 2.8347455826296937 0 0 0 0 -2226.4155145720542 -1803.9325018009913 0 -1803.9325018009913 -178.42439488407399 0 0 0 0 -2335.8375278268359 -1887.8692477372824 0 -1887.8692477372824 656.87782122730277 0 0 0 0 549.6430508861813 -745.80367172858314 0 -745.80367172858314 887.60729978972813 0 0 0 0 0.34736837117358732 -7.5387493059031385 0 -7.5387493059031385 -2.7653284450956903 0 0 0 0 -3823.8792062797074 -1310.9236049459578 0 -1310.9236049459578 129.78275840306014 0 0 0 0 938.65484362765346 -261.1793914483078 0 -261.1793914483078 174.16282011865405 0 0 0 0 856.12930242047878 -540.53592055002082 0 -540.53592055002082 512.61090147052892 0 0 0 0 -2157.5656180114165 -1297.3198898846458 0 -1297.3198898846458 -679.35024040244753 0 0 0 0 -3008.2922543986351 -1883.3074975835843 0 -1883.3074975835843 60.104995643756411 0 0 0 0 -1736.8679512628296 -1936.3306551933492 0 -1936.3306551933492 -1465.06099882735 0 0 0 0 -2203.4752117151802 -693.4025171086796 0 -693.4025171086796 -673.35503781362786 0 0 0 0 -1865.1609044630459 -1541.4121040687896 0 -1541.4121040687896 -520.20890054296615 0 0 0 0 171.91017667844426 -1012.5752237534325 0 -1012.5752237534325 -802.13270922304946 0 0 0 0 665.07243152102455 16.571226887725061 0 16.571226887725061 -106.51550645318639 0 0 0 0 241.15430591316544 145.57878119328961 0 145.57878119328961 -41.565028270531911 0 0 0 0 201.49045271332398 66.725341033003133 0 66.725341033003133 -55.822703639278188 0 0 0 0 162.45318993965338 79.815636490202451 0 79.815636490202451 -9.6928619251266355 0 0 0 0 3.0912218995481169 -12.808949920894918 0 -12.808949920894918 -11.579861755509171 0 0 0 0 193.63790412418894 22.165151832483389 0 22.165151832483389 -70.310794835793786 0 0 0 0 -311.3459881624658 95.121076349820214 0 95.121076349820214 41.352837055863347 0 0 0 0 -787.66287600411306 -563.32940109536139 0 -563.32940109536139 -39.437859389698133 0 0 0 0 3.5332276087834771 -3.6272886127243282 0 -3.6272886127243282 -6.7201663715135851 0 0 0 0 -2094.7327886339772 -2422.1069063494942 0 -2422.1069063494942 -1273.0095248670805 0 0 0 0 302.49186354540234 148.10500830487717 0 148.10500830487717 -302.67781183154148 0 0 0 0 188.80588723343681 -280.88617250144307 0 -280.88617250144307 197.99041655230394 0 0 0 0 325.91812406983081 -305.49347948281502 0 -305.49347948281502 178.1601170769427 0 0 0 0 -118.44076425322373 -335.33860294162378 0 -335.33860294162378 317.28539950217237 0 0 0 0 147.85831600322854 -503.25477084191516 0 -503.25477084191516 418.92247587544261 0 0 0 0 78.515446121135028 -544.40096100696246 0 -544.40096100696246 397.04502424172824 0 0 0 0 183.13941560019157 -600.79763067807653 0 -600.79763067807653 348.32359528483357 0 0 0 0 412.18219180195592 -494.40989127953071 0 -494.40989127953071 314.15263470157515 0 0 0 0 125.77198029615829 -455.58387923443661 0 -455.58387923443661 318.69026278448291 0 0 0 0 326.02445390433422 -432.97080345760332 0 -432.97080345760332 354.60506754661037 0 0 0 0 450.23835785899428 -328.4639895260043 0 -328.4639895260043 266.27338973994483 0 0 0 0 333.88926369766705 -358.60612568772922 0 -358.60612568772922 260.28294844451011 0 0 0 0 458.18881307757692 -206.70916841672442 0 -206.70916841672442 211.10069135420781 0 0 0 0 518.59570666110085 -184.71125641615799 0 -184.71125641615799 63.504077667254023 0 0 0 0 424.89943181684066 -23.752748860337306 0 -23.752748860337306 -25.809847196011106 0 0 0 0 282.74498027117806 -120.44739715043397 0 -120.44739715043397 80.536127979037701 0 0 0 0 288.40904766450694 -89.217818865887239 0 -89.217818865887239 12.067389313451713 0 0 0 0 238.52796368545387 -120.58696985758434 0 -120.58696985758434 -2.9646001682194765 0 0 0 0 198.58722748051514 39.705850725717028 0 39.705850725717028 -41.347048103751149 0 0 0 0 113.9238813536067 -37.302182189945597 0 -37.302182189945597 -58.509513081080513 0 0 0 0 143.97777935798513 -177.90256275284628 0 -177.90256275284628 -56.091481406692765 0 0 0 0 44.370580750488443 -159.64543562028848 0 -159.64543562028848 97.044697813282255 0 0 0 0 101.27913955581607 -311.92736114181025 0 -311.92736114181025 285.93673953046527 0 0 0 0 -8.0680159934854601 -79.257635502595804 0 -79.257635502595804 37.247819304873701 0 0 0 0 46.963296907459153 -310.29141400250955 0 -310.29141400250955 -288.97421093643425 0 0 0 0 -33.659836297326819 -58.278985656090981 0 -58.278985656090981 -122.51985251170117 0 0 0 0 -40.957763721089577 -299.89732860503136 0 -299.89732860503136 -116.04370108260628 0 0 0 0 -534.66999911371477 457.90480503754043 0 457.90480503754043 -90.015577926009428 0 0 0 0 97.139775483199628 -34.816392874592566 0 -34.816392874592566 -231.7079629390937 0 0 0 0 91.087657207623124 -208.94757028651657 0 -208.94757028651657 -308.77550405251532 0 0 0 0 135.78872117765422 -105.74708514552913 0 -105.74708514552913 -175.90504803114163 0 0 0 0 99.979999228031375 6.3973293242015643 0 6.3973293242015643 -43.676352817041334 0 0 0 0 -768.92741515423404 -629.57186417553748 0 -629.57186417553748 -157.91007211137912 0 0 0 0 -167.74520491254225 -288.20249667459575 0 -288.20249667459575 -190.34782675617953 0 0 0 0 73.81300967502375 -42.093934924029554 0 -42.093934924029554 24.447260325058437 0 0 0 0 -308.87527386854708 118.25810469615135 0 118.25810469615135 143.70298140204977 0 0 0 0 947.65852752276987 1.8522015951893991 0 1.8522015951893991 -82.068985064135632 0 0 0 0 -11.311218767696118 -140.80311663364409 0 -140.80311663364409 -122.76737612801662 0 0 0 0 39.309036716327682 -87.971033207742948 0 -87.971033207742948 -63.317202935679234 0 0 0 0 152.75231545841234 48.726162890729029 0 48.726162890729029 -28.570659175034962 0 0 0 0 71.962493377104607 -60.630005696288833 0 -60.630005696288833 20.903162466516648 0 0 0 0 144.31268098434521 -67.923695348923502 0 -67.923695348923502 -151.76167526712379 0 0 0 0 -73.692917375905381 -139.63882017449214 0 -139.63882017449214 -77.38007992101484 0 0 0 0 14.265785706952485 -20.968108041850513 0 -20.968108041850513 -29.548741501215204 0 0 0 0 -53.506473950401414 -108.73128378891124 0 -108.73128378891124 -30.949331416661153 0 0 0 0 30.071419927768147 -131.24426296231832 0 -131.24426296231832 -58.995489528220787 0 0 0 0 -39.408564957617273 -128.00006527437381 0 -128.00006527437381 -70.539044650184223 0 0 0 0 37.593021612549563 -69.285306464501147 0 -69.285306464501147 -37.873317923327704 0 0 0 0 -17.635971549207056 -39.2713203743142 0 -39.2713203743142 25.721042804952774 0 0 0 0 -145.07503162312059 -136.39239637407445 0 -136.39239637407445 -17.596299651733716 0 0 0 0 -96.590934783336706 -194.48281095529819 0 -194.48281095529819 -64.482718493818538 0 0 0 0 -67.649120807109284 -137.52190559628434 0 -137.52190559628434 -95.120378892868757 0 0 0 0 -81.870636174629908 -129.72561953012337 0 -129.72561953012337 -39.406392240547575 0 0 0 0 17.013700689189136 -172.96678939789126 0 -172.96678939789126 36.260801577558595 0 0 0 0 -109.01669352720637 -185.01301875436184 0 -185.01301875436184 -97.297746591655596 0 0 0 0 19.434543689082215 -81.707546542065856 0 -81.707546542065856 -25.618200927749655 0 0 0 0 -61.126243913469807 70.855598755897518 0 70.855598755897518 124.25317530275788 0 0 0 0 -137.10717949082027 -108.44096540438477 0 -108.44096540438477 -7.7086512181631406 0 0 0 0 399.74657763746654 77.328836630862497 0 77.328836630862497 43.791965974793129 0 0 0 0 -112.00765932074137 -126.54326293071063 0 -126.54326293071063 -28.044323748734314 0 0 0 0 -124.00921388549614 -106.46613611187786 0 -106.46613611187786 -14.035901676281355 0 0 0 0 -63.036842723937298 -117.27919932963778 0 -117.27919932963778 -28.692109316325514 0 0 0 0 -88.545733180710158 -71.170684979224461 0 -71.170684979224461 16.791961417460698 0 0 0 0 -36.711997960934241 -75.546882172006008 0 -75.546882172006008 -117.80166066666425 0 0 0 0 66.210078536401852 -70.505001141922548 0 -70.505001141922548 -124.17801662818238 0 0 0 0 13.342432077610283 -7.9332811456333729 0 -7.9332811456333729 -27.163796196084149 0 0 0 0 181.14626488682279 -196.28774131623913 0 -196.28774131623913 54.101100790023338 0 0 0 0 146.64915347765054 17.78489754430484 0 17.78489754430484 -37.718309066724032 0 0 0 0 323.37952389934799 -99.471655297515099 0 -99.471655297515099 -10.604529473574075 0 0 0 0 238.61943001484906 -83.638774215432932 0 -83.638774215432932 93.058191363830701 0 0 0 0 603.55876430292847 -370.49892292213917 0 -370.49892292213917 238.41361713800143 0 0 0 0 349.21841709236833 -229.56440490429668 0 -229.56440490429668 48.984927450132091 0 0 0 0 136.95279902377661 -199.5628269655499 0 -199.5628269655499 406.73524448336684 0 0 0 0 150.66172302841005 -89.989030083706893 0 -89.989030083706893 -92.273672491653997 0 0 0 0 39.819553397363052 -170.42914281623962 0 -170.42914281623962 118.62158753908443 0 0 0 0 132.48666293702991 -278.64838612565654 0 -278.64838612565654 13.738470111849892 0 0 0 0 -76.479167798686831 -342.74185489978117 0 -342.74185489978117 232.67920942662749 0 0 0 0 188.20153201021458 -305.25781099834421 0 -305.25781099834421 226.22953593818966 0 0 0 0 20.873735395023687 -124.75044792378685 0 -124.75044792378685 456.66105379017245 0 0 0 0 134.39061750568362 -291.92123032110976 0 -291.92123032110976 627.09640918263085 0 0 0 0 39.634160337942831 -1.9810892684955093 0 -1.9810892684955093 0.30852449103791457 0 0 0 0 102.47667432751769 -190.709205586194 0 -190.709205586194 195.13790647455789 0 0 0 0 218.73316165657889 -464.23692834405665 0 -464.23692834405665 -417.31316166219312 0 0 0 0 -100.27801154270128 -50.246884278392827 0 -50.246884278392827 372.98605170116934 0 0 0 0 315.49689476810818 -183.54232085101467 0 -183.54232085101467 -1175.0870629166748 0 0 0 0 129.48875519995636 -390.98043363767647 0 -390.98043363767647 -484.86242430963648 0 0 0 0 -4.2319011049694382 454.15547759864421 0 454.15547759864421 -645.38873626431268 0 0 0 0 14.140736001032025 0.95859896597292504 0 0.95859896597292504 -0.03335419503289927 0 0 0 0 1255.1562823043787 -1271.4576837986097 0 -1271.4576837986097 -1140.8598385254008 0 0 0 0 -189.1841107412547 23.282656676768966 0 23.282656676768966 -1327.0501871993183 0 0 0 0 54.467450791110593 -31.336269932632916 0 -31.336269932632916 15.474011739193543 0 0 0 0 154.92763542744797 -198.46993984200162 0 -198.46993984200162 771.76042259087262 0 0 0 0 530.2403640786506 -910.61154027866723 0 -910.61154027866723 1353.282478215132 0 0 0 0 226.05313707924506 -127.11330300036207 0 -127.11330300036207 370.93848764378345 0 0 0 0 -1848.8033874630055 -1536.0658658253669 0 -1536.0658658253669 -1047.0400019677982 0 0 0 0 -744.43996906807297 -1706.1294466603649 0 -1706.1294466603649 -1688.6406417391263 0 0 0 0 -1825.7358136778203 -1523.1364264017466 0 -1523.1364264017466 -1302.2848789515156 0 0 0 0 -10.945574743780298 -1.9140031179192079 0 -1.9140031179192079 2.4214962137363329 0 0 0 0 -238.09297773989965 117.57360043450899 0 117.57360043450899 -69.763613422812341 0 0 0 0 5.2264680479162848 -16.182700581590581 0 -16.182700581590581 7.9391023428023004 0 0 0 0 -900.80431759926432 -829.35146329979034 0 -829.35146329979034 -795.97971220801992 0 0 0 0 -1925.3574732614361 -1304.6604461991592 0 -1304.6604461991592 -549.58381398956408 0 0 0 0 -2635.5261312241491 -1728.2794552759442 0 -1728.2794552759442 -619.57364694647549 0 0 0 0 0.91662493666089517 -7.5311598152891861 0 -7.5311598152891861 -2.7056898292593132 0 0 0 0 -3.2020210197370034 -666.61922414967557 0 -666.61922414967557 -1123.9714837483043 0 0 0 0 -1928.4057743819067 -3297.6605444524757 0 -3297.6605444524757 1.7127259049593704 0 0 0 0 -0.029459052060545332 -6.9320955744625223 0 -6.9320955744625223 -2.1753096392211546 0 0 0 0 121.25163766142941 -1319.6754761819539 0 -1319.6754761819539 -948.35426539307809 0 0 0 0 -2218.3732856555944 -2748.8561654434743 0 -2748.8561654434743 -0.38356828204996418 0 0 0 0 -1994.4934123304411 -1253.460497829481 0 -1253.460497829481 -363.90617467540142 0 0 0 0 -2124.4817932670267 -1230.3032205042618 0 -1230.3032205042618 -348.27359102758055 0 0 0 0 0.53271165709361412 -12.887051875554818 0 -12.887051875554818 -9.892281152078283 0 0 0 0 -1638.5058290857414 -1063.8322155016212 0 -1063.8322155016212 -362.18049913954746 0 0 0 0 -1996.1150366049033 -1246.879353131329 0 -1246.879353131329 -112.08394109907385 0 0 0 0 -25.820681241857528 -29.207135971766547 0 -29.207135971766547 -23.869209125987254 0 0 0 0 2.5958052890572105 -13.697698199163668 0 -13.697698199163668 -19.430202675543455 0 0 0 0 -19.489804666387499 -41.455843761625147 0 -41.455843761625147 -0.017516783744213171 0 0 0 0 -5104.4416839835176 -973.46078569041856 0 -973.46078569041856 314.81767006615337 0 0 0 0 -5.7267042714566685 -6.9316117560838961 0 -6.9316117560838961 -11.038233593927885 0 0 0 0 -5.978825857642434 -1.1256172772006607 0 -1.1256172772006607 0.9320840177459786 0 0 0 0 43.869092751046992 19.822043150561512 0 19.822043150561512 -71.243196559691569 0 0 0 0 -44.090874223606079 -176.38008828827878 0 -176.38008828827878 -0.083069876971421763 0 0 0 0 -0.0030870575772041775 -0.7224882584709178 0 -0.7224882584709178 4.5608558431044912 0 0 0 0 311.85224968930561 -223.99738737018197 0 -223.99738737018197 33.539819983474445 0 0 0 0 -24.343725554586854 -53.717199139951845 0 -53.717199139951845 6.4886958754068473 0 0 0 0 -1.2593377245710542 -7.9526578835919963 0 -7.9526578835919963 5.0919122371166168 0 0 0 0 3.1843300508634087 -24.691584626563866 0 -24.691584626563866 -26.951003283457055 0 0 0 0 -34.749180255497777 -25.934290961889928 0 -25.934290961889928 26.955181459037703 0 0 0 0 4.3919116466650507 -18.108299599719345 0 -18.108299599719345 -1.2429131974532197 0 0 0 0 -39.075620520699886 -33.558692956714367 0 -33.558692956714367 -13.314901541903964 0 0 0 0 -4.7556886145721364 -36.002288521369337 0 -36.002288521369337 -12.860581758388435 0 0 0 0 -36.47553125853301 -48.499073987462907 0 -48.499073987462907 -9.7283404016634449 0 0 0 0 6.318397837430922 -19.596324058820244 0 -19.596324058820244 -7.9927984271283776 0 0 0 0 -1.6937679339095268 -15.748962650490171 0 -15.748962650490171 20.887610869767173 0 0 0 0 -5.1766789986485264 -34.275746920202522 0 -34.275746920202522 5.9927269294742871 0 0 0 0 346.74501924462675 155.51171956760663 0 155.51171956760663 -188.51280595228309 0 0 0 0 -367.68989791595959 195.00582853009837 0 195.00582853009837 472.56454280092294 0 0 0 0 -68.713424366622348 -50.080310173470934 0 -50.080310173470934 -5.6961492961490876 0 0 0 0 -30.236267371271595 -21.137188332441781 0 -21.137188332441781 27.505386994505045 0 0 0 0 349.96473128546495 161.1747291844913 0 161.1747291844913 -389.22574294894002 0 0 0 0 324.85954379911709 83.50209071939571 0 83.50209071939571 -506.31112893394311 0 0 0 0 -126.91029159259051 237.57712288309267 0 237.57712288309267 -1006.354144442812 0 0 0 0 -0.69757437315028881 -15.784193439108577 0 -15.784193439108577 -26.535310007536395 0 0 0 0 -1090.4217330503452 -728.18258967511065 0 -728.18258967511065 -519.77649130664213 0 0 0 0 -2252.4799599898761 -1701.9559022972899 0 -1701.9559022972899 -1231.6886247160583 0 0 0 0 -651.30905937416537 -1583.1533582536795 0 -1583.1533582536795 -2007.733615154677 0 0 0 0 147.24358580682019 -229.94436922552995 0 -229.94436922552995 232.29717311028799 0 0 0 0 11.874026917572735 -26.425296724964255 0 -26.425296724964255 -0.016471135317530639 0 0 0 0 339.69874127555522 -336.74127720004617 0 -336.74127720004617 76.749322783289244 0 0 0 0 260.50894107048225 -269.62864172093032 0 -269.62864172093032 22.715613024702179 0 0 0 0 1559.1738450109988 -502.37249433746183 0 -502.37249433746183 -37.843850776478575 0 0 0 0 571.4542407585468 -1136.6345605120987 0 -1136.6345605120987 0.96502759784925729 0 0 0 0 125.22772251356218 -1207.5466301858978 0 -1207.5466301858978 645.20193888754875 0 0 0 0 168.08249622700896 -553.64216140689678 0 -553.64216140689678 712.68498767302663 0 0 0 0 -1170.7393877599316 -1779.9204412109393 0 -1779.9204412109393 1004.8384852796298 0 0 0 0 -504.01386624304723 -672.00664900499032 0 -672.00664900499032 2410.6645272201131 0 0 0 0 12.67441993013199 -1520.8859902276217 0 -1520.8859902276217 -0.97464720176503761 0 0 0 0 -2161.3941856413112 -1429.2594760569154 0 -1429.2594760569154 78.606385000952287 0 0 0 0 -1337.781917243683 -1297.3306649956503 0 -1297.3306649956503 -377.44820156232163 0 0 0 0 -1109.5305143454316 -2037.7121432409731 0 -2037.7121432409731 -1398.0397047350853 0 0 0 0 -1784.0149748007971 -2282.5191532737445 0 -2282.5191532737445 -234.61735661844796 0 0 0 0 -828.43199781799922 -2177.7353608129924 0 -2177.7353608129924 -2963.8137968128431 0 0 0 0 1.6582236260545642 -10.130647735975515 0 -10.130647735975515 5.5314800227263419 0 0 0 0 -1723.9925704196212 -1672.178169843588 0 -1672.178169843588 -1612.7679874761234 0 0 0 0 10.497885444599035 -6.6437966288970927 0 -6.6437966288970927 -14.475357840754555 0 0 0 0 -930.85249759626458 -1204.7867765089977 0 -1204.7867765089977 -1442.0977398401665 0 0 0 0 6.5116049829084659 -91.0256579474717 0 -91.0256579474717 -103.3791270176298 0 0 0 0 -1063.5136917014061 -1316.2316359328379 0 -1316.2316359328379 -1104.522278465316 0 0 0 0 -132.48549084162096 -165.71073374795378 0 -165.71073374795378 -89.065302509290632 0 0 0 0 -165.31730162700114 -421.29795807726623 0 -421.29795807726623 -1034.7886935225106 0 0 0 0 15.923559160812033 -6.8225583612148171 0 -6.8225583612148171 -14.181412562276137 0 0 0 0 -120.86530995716748 -95.988625076977769 0 -95.988625076977769 -43.376231422560522 0 0 0 0 -58.305362250612234 -88.428846552058531 0 -88.428846552058531 -103.32170444617805 0 0 0 0 -49.793350542502594 -39.361792480412987 0 -39.361792480412987 0.97428061141181388 0 0 0 0 -6.1543444211274618 -80.673510030217585 0 -80.673510030217585 -88.708305347463465 0 0 0 0 -57.291282902719104 -135.38472142162937 0 -135.38472142162937 -55.77396525349468 0 0 0 0 67.205676125755417 -135.75234561308025 0 -135.75234561308025 -4.5568159337926772 0 0 0 0 -75.500656848642393 -66.791020648022823 0 -66.791020648022823 1.0799033021030482 0 0 0 0 -28.448854850262677 5.5671277265328101 0 5.5671277265328101 19.535698321199391 0 0 0 0 -84.824902119475951 -22.418612809325239 0 -22.418612809325239 9.1218475699550883 0 0 0 0 -70.529487828724086 -75.010831527179107 0 -75.010831527179107 -27.982808394299354 0 0 0 0 -184.75099532924651 -53.876571637301822 0 -53.876571637301822 32.816206997435074 0 0 0 0 -83.272921968833543 -7.4175633929262403 0 -7.4175633929262403 48.761344683414791 0 0 0 0 -78.740599696029676 -88.203276700267452 0 -88.203276700267452 43.65350849259994 0 0 0 0 -185.25936219874711 -134.81599386370362 0 -134.81599386370362 -7.0433812937553739 0 0 0 0 -79.632387507881504 -222.46524476640479 0 -222.46524476640479 -246.15758582373655 0 0 0 0 -177.77663778544229 -159.80959159238409 0 -159.80959159238409 -51.09730849382322 0 0 0 0 -21.520834379399446 -22.25619089207342 0 -22.25619089207342 29.031569744024992 0 0 0 0 -225.74183351756074 -87.970053158933297 0 -87.970053158933297 60.26426169660408 0 0 0 0 -73.481299309263221 -56.240042112124826 0 -56.240042112124826 1.9114234232389435 0 0 0 0 2.798733664887834 3.8947077544811748 0 3.8947077544811748 4.7825583691946463 0 0 0 0 -4.434504695547389 -8.6553117900011785 0 -8.6553117900011785 -14.42407622878784 0 0 0 0 -123.13869898265693 -72.428612114512362 0 -72.428612114512362 -19.98454387889069 0 0 0 0 -139.21260422118939 -44.091098561846593 0 -44.091098561846593 -68.992274982709205 0 0 0 0 -81.234285975500825 -93.824409774955711 0 -93.824409774955711 -125.51907033351017 0 0 0 0 8.5172260349791031 295.57129817544046 0 295.57129817544046 -279.29803999164869 0 0 0 0 -536.77082247051294 -9.4774500581261236 0 -9.4774500581261236 21.031576663386659 0 0 0 0 -393.49947321207947 -402.33614199258045 0 -402.33614199258045 -953.45192252536071 0 0 0 0 -637.3961731204472 12.522451305136201 0 12.522451305136201 -332.08594930298568 0 0 0 0 -3.7756676929927551 -23.125462166374319 0 -23.125462166374319 -14.531082671798401 0 0 0 0 -178.14282253601414 -157.17638324872678 0 -157.17638324872678 -66.980940118373837 0 0 0 0 -104.25223671061212 -299.80798362517544 0 -299.80798362517544 -149.13425266434206 0 0 0 0 -4.0784014458968443 -47.619989000804395 0 -47.619989000804395 -12.023090868690645 0 0 0 0 -59.904381430067588 -57.810394219573936 0 -57.810394219573936 -32.249713423414505 0 0 0 0 -43.608198016547902 -24.029928273256161 0 -24.029928273256161 18.507966453377662 0 0 0 0 -108.27662899770075 -67.304334600092261 0 -67.304334600092261 -108.49011669977335 0 0 0 0 -79.546074977019998 -38.773750353985292 0 -38.773750353985292 31.581286521063582 0 0 0 0 -714.04174846078968 -311.87056210756418 0 -311.87056210756418 218.55500468465289 0 0 0 0 -79.845296951272758 -2.9367570639005862 0 -2.9367570639005862 -469.10439163306728 0 0 0 0 -95.896141400940905 -31.344740175769601 0 -31.344740175769601 0.063804077305626095 0 0 0 0 -380.31300685246242 -172.59109326218459 0 -172.59109326218459 153.92771590537632 0 0 0 0 -1590.9215685434101 -1075.5717477474791 0 -1075.5717477474791 -1026.2248566874914 0 0 0 0 -439.1180020777465 -649.32956854575241 0 -649.32956854575241 -1098.2961117010709 0 0 0 0 -606.26861523983825 -273.80766514877905 0 -273.80766514877905 -1029.4338337357185 0 0 0 0 -1112.6716193056491 -439.74218619176099 0 -439.74218619176099 -2035.8977398000934 0 0 0 0 -514.04534083933686 -1023.783153686265 0 -1023.783153686265 -1583.0676921468548 0 0 0 0 -578.96485745008977 -680.55104738288355 0 -680.55104738288355 -536.29382780093147 0 0 0 0 -532.39500065379252 -1493.1808319288684 0 -1493.1808319288684 -2024.1980504754365 0 0 0 0 -626.29043878836092 -1757.023461897159 0 -1757.023461897159 -2700.8028039536293 0 0 0 0 -711.37987081398023 -2416.0529508033069 0 -2416.0529508033069 -2838.4970235463206 0 0 0 0 -1.5942712112155277 -805.48765008894406 0 -805.48765008894406 -2886.5642921838298 0 0 0 0 -27.956896764968405 -152.98682518023998 0 -152.98682518023998 -465.22908066751552 0 0 0 0 163.90965922997566 -232.76199548176373 0 -232.76199548176373 -483.07914591864937 0 0 0 0 142.10966068133712 -149.45090377112501 0 -149.45090377112501 -131.61190971713222 0 0 0 0 170.0131736604817 -51.691892858689243 0 -51.691892858689243 156.54814926825929 0 0 0 0 -3.3269844994300399 -2.563585689167013 0 -2.563585689167013 5.7435083477197963 0 0 0 0 -222.6271118410059 -779.04434770127864 0 -779.04434770127864 -1255.5541596019466 0 0 0 0 -124.5996464487107 -1398.4064239317668 0 -1398.4064239317668 -2014.3680246613949 0 0 0 0 -985.93453231253079 -2086.4244423695127 0 -2086.4244423695127 -1952.9986118911947 0 0 0 0 -504.19888192832877 -1850.5055281777495 0 -1850.5055281777495 -2046.2368530561216 0 0 0 0 -327.70687508332776 -1584.0940211098932 0 -1584.0940211098932 -1799.6395250085188 0 0 0 0 -1076.46056719443 -1351.1951007627322 0 -1351.1951007627322 -1163.9659006313886 0 0 0 0 -2912.3406646638177 -2038.9795344764207 0 -2038.9795344764207 -1691.3304740094027 0 0 0 0 -677.332925066803 -1357.1352017462195 0 -1357.1352017462195 -1514.6668045256301 0 0 0 0 -1136.3758396804478 -1895.6515212620361 0 -1895.6515212620361 -2058.7306993763486 0 0 0 0 -467.88653365217033 -836.78476804312959 0 -836.78476804312959 -1617.8074462592049 0 0 0 0 -609.60338699929707 -936.36389147561749 0 -936.36389147561749 -1312.3687288720539 0 0 0 0 -68.650084215916308 -20.512502674115879 0 -20.512502674115879 -3.7903663711887638 0 0 0 0 -237.61121984024066 -329.74153600624413 0 -329.74153600624413 779.47957989148563 0 0 0 0 -60.967259888304397 -50.90813571853505 0 -50.90813571853505 321.82105138045154 0 0 0 0 -749.59546228047111 -2700.6220024337381 0 -2700.6220024337381 -5853.9597743830818 0 0 0 0 -1010.6699330955744 137.06169006981509 0 137.06169006981509 1058.3191617936118 0 0 0 0 -25.658368526468905 -9.2551365184538668 0 -9.2551365184538668 -3.9198705036991548 0 0 0 0 -443.53553132720936 -1367.1424491612829 0 -1367.1424491612829 -3265.3520054295077 0 0 0 0 -1337.1546099756233 -2496.778822731183 0 -2496.778822731183 -2405.7062525113724 0 0 0 0 -1627.3781941204943 -1554.4974425157416 0 -1554.4974425157416 -1511.4351988289127 0 0 0 0 -1746.3912790068571 -1756.3029333753002 0 -1756.3029333753002 -1156.9515302682412 0 0 0 0 -1323.0743709691887 -1795.8034554119695 0 -1795.8034554119695 -2331.606776130764 0 0 0 0 -2896.8647365558427 -2492.8844408765071 0 -2492.8844408765071 -2334.1965918111346 0 0 0 0 -0.94132503787113819 -1466.3409333330419 0 -1466.3409333330419 -3105.4840809003144 0 0 0 0 -1020.0154998846992 -859.20216203683231 0 -859.20216203683231 -2195.8465658184286 0 0 0 0 -1938.600915066123 -962.63037948574311 0 -962.63037948574311 -2158.019080490616 0 0 0 0 -1032.9935641379561 -1262.9488846646855 0 -1262.9488846646855 -1520.1286368926521 0 0 0 0 4.6815850838600284 -5.0055016313544627 0 -5.0055016313544627 -4.9715635202363728 0 0 0 0 0.82452573976479471 -216.75512024476484 0 -216.75512024476484 -133.57730256354989 0 0 0 0 -383.03420626641309 -115.69174585461587 0 -115.69174585461587 23.602561634397716 0 0 0 0 2.5529333559202598 -2.4974417624632395 0 -2.4974417624632395 -1.4622174156563119 0 0 0 0 -1610.5285800796992 -1244.8763037958997 0 -1244.8763037958997 -898.61620894937369 0 0 0 0 -1091.1356496076914 -1149.6678407546715 0 -1149.6678407546715 -993.49819517062861 0 0 0 0 5.5896945018676831 -6.4910800802595645 0 -6.4910800802595645 -13.29616488522305 0 0 0 0 -1301.9151178481989 -1651.6411962675629 0 -1651.6411962675629 -1504.6186845653574 0 0 0 0 -907.95417569411802 -1322.2924582297273 0 -1322.2924582297273 -1465.0089353351304 0 0 0 0 -13.920297035947442 -39.666488506452879 0 -39.666488506452879 15.407146847166587 0 0 0 0 -1137.5514059735578 -939.8939967698534 0 -939.8939967698534 -1053.6526740604822 0 0 0 0 -2.9382329940364116 -8.3136971365266277 0 -8.3136971365266277 10.074494464496468 0 0 0 0 -66.221385011274833 -54.614197857583349 0 -54.614197857583349 -10.130470295553096 0 0 0 0 7.1470088799542282 17.965853655005048 0 17.965853655005048 -46.609829654713394 0 0 0 0 -93.607591129373759 -42.336602450406644 0 -42.336602450406644 -8.6340289697982371 0 0 0 0 -3.4446651075048749 -2.1542983001321829 0 -2.1542983001321829 9.2118432782872333 0 0 0 0 10.030741061970502 -8.9286255518849202 0 -8.9286255518849202 -1.8858874702995081 0 0 0 0 -317.64283801903366 -25.938080202929996 0 -25.938080202929996 131.64459483184328 0 0 0 0 26.291359655704582 -127.21498221083311 0 -127.21498221083311 132.87711218517506 0 0 0 0 -620.95062269826303 -640.73824913545104 0 -640.73824913545104 -408.21671646327013 0 0 0 0 -1133.103446912748 -388.11572923494532 0 -388.11572923494532 39.547146653843811 0 0 0 0 -5.5651026815103251 -731.66982722949251 0 -731.66982722949251 -678.04407280216401 0 0 0 0 -10.739099461075966 143.18584333240869 0 143.18584333240869 657.84835971962866 0 0 0 0 3.8484194101120579 -3.3495469365876716 0 -3.3495469365876716 3.4022816442062833 0 0 0 0 -390.19597787346538 -466.44976112101631 0 -466.44976112101631 -259.67096354885143 0 0 0 0 0.057377960212761536 -336.95000398945922 0 -336.95000398945922 -152.12776189859142 0 0 0 0 -413.84270194124838 -515.80460137215414 0 -515.80460137215414 627.58016470421876 0 0 0 0 -420.89309997546661 -621.86651162547423 0 -621.86651162547423 -309.42500999498952 0 0 0 0 -1.37510755300813 -545.66838752316971 0 -545.66838752316971 -554.42491035498824 0 0 0 0 -1573.5921301867202 -2038.1466377559882 0 -2038.1466377559882 -1673.9275300906993 0 0 0 0 -1508.4913854455413 -305.51445583135228 0 -305.51445583135228 694.9007225012756 0 0 0 0 -585.53788185639496 -250.46333923739439 0 -250.46333923739439 -216.30935296596726 0 0 0 0 -246.97512391018972 -120.03100576448196 0 -120.03100576448196 -414.5802673248927 0 0 0 0 29.646236787579255 89.514960698026698 0 89.514960698026698 210.82739288912853 0 0 0 0 98.714626575843795 -459.84491129697335 0 -459.84491129697335 257.19991547145764 0 0 0 0 -672.5838899116934 -487.5915879182794 0 -487.5915879182794 -251.86920559486316 0 0 0 0 -239.82936995288765 -387.4530987656799 0 -387.4530987656799 58.284399693045998 0 0 0 0 -40.255664500713465 -118.75638619417805 0 -118.75638619417805 -247.90671032441605 0 0 0 0 -220.97083439611015 -281.44499461850137 0 -281.44499461850137 -373.82786430412671 0 0 0 0 10.141258267162584 -12.05381844593262 0 -12.05381844593262 14.049149054481461 0 0 0 0 23.550527531522675 324.54040036351944 0 324.54040036351944 741.82019203596428 0 0 0 0 51.807752061926294 608.28239596671665 0 608.28239596671665 1109.9158576320879 0 0 0 0 -253.27351090722004 -212.4331681614467 0 -212.4331681614467 -117.10243498670025 0 0 0 0 4.9250486545674335 -6.9502197333735296 0 -6.9502197333735296 7.2128268492853636 0 0 0 0 -104.40898318612744 -139.78587497638364 0 -139.78587497638364 259.74624334136752 0 0 0 0 -273.06595823112002 -265.39008190324603 0 -265.39008190324603 -257.86047481558126 0 0 0 0 -510.26665588187461 -463.89941277504295 0 -463.89941277504295 242.80144154165464 0 0 0 0 -383.66757782515197 -368.92975373209629 0 -368.92975373209629 -271.14399284791079 0 0 0 0 -522.61234254502051 137.88280728146492 0 137.88280728146492 353.9031713767763 0 0 0 0 -85.565133711148519 150.79291285545332 0 150.79291285545332 785.53410168775736 0 0 0 0 -34.109653581275779 134.30581099675146 0 134.30581099675146 539.93512438290054 0 0 0 0 2.039377321415202 -2.5976874491984461 0 -2.5976874491984461 2.6722105846940281 0 0 0 0 53.728753321815475 -6.9677712539471486 0 -6.9677712539471486 253.01594554321491 0 0 0 0 54.568435824068729 25.507880727680458 0 25.507880727680458 416.22991181296675 0 0 0 0 -141.03826790522726 -508.3535309803774 0 -508.3535309803774 -158.51359956656233 0 0 0 0 57.738180165877566 77.871955144102685 0 77.871955144102685 366.80348400886578 0 0 0 0 12.524769844440812 -24.642463057251092 0 -24.642463057251092 22.404274487183045 0 0 0 0 3.5140561844374076 -9.6913575597029649 0 -9.6913575597029649 -13.324558294698022 0 0 0 0 -57.389059267611401 -245.29933151894045 0 -245.29933151894045 -178.84530979889678 0 0 0 0 -183.44676755173714 12.39706182777536 0 12.39706182777536 162.73592749207455 0 0 0 0 -106.67494857011479 -32.75860089098569 0 -32.75860089098569 149.21241065540926 0 0 0 0 -0.4572400763281621 135.02162821678212 0 135.02162821678212 346.57880169176497 0 0 0 0 -212.74732497120567 42.997031436290854 0 42.997031436290854 243.51871310351999 0 0 0 0 -95.394104290859104 -18.878990893661921 0 -18.878990893661921 190.91249914868968 0 0 0 0 -107.28145948643214 -97.464993373978359 0 -97.464993373978359 529.85263171853876 0 0 0 0 -480.39876526732405 -70.134636592854804 0 -70.134636592854804 345.04628245540516 0 0 0 0 -928.8301432756416 -443.04337660877536 0 -443.04337660877536 310.19409429275402 0 0 0 0 -777.99976826168131 -186.7157276552316 0 -186.7157276552316 308.61920406176091 0 0 0 0 -526.56137363627204 2.0356441644253209 0 2.0356441644253209 303.07730068554474 0 0 0 0 -522.57596609689062 -140.54915072497533 0 -140.54915072497533 175.33995390452037 0 0 0 0 -335.76305038842838 -392.21038015201884 0 -392.21038015201884 287.42483150502085 0 0 0 0 -168.25420228265648 -63.099164243514679 0 -63.099164243514679 130.8826443838916 0 0 0 0 -24.405876440189672 -77.238587774758827 0 -77.238587774758827 -21.14895142293318 0 0 0 0 55.094246226433825 572.23455389468745 0 572.23455389468745 -208.72270672523882 0 0 0 0 204.97862523033109 -505.93690925442934 0 -505.93690925442934 -12.204891449619026 0 0 0 0 1144.3988916906092 132.36719289256871 0 132.36719289256871 -191.98999871242268 0 0 0 0 1.8307411790176502 -7.3157437810914701 0 -7.3157437810914701 8.6762966615634696 0 0 0 0 -1415.846423360781 -237.28810436568165 0 -237.28810436568165 515.01765772200451 0 0 0 0 402.44070130235923 -830.86243721274332 0 -830.86243721274332 438.08015795974643 0 0 0 0 -552.78484115446918 -307.95003351460036 0 -307.95003351460036 -307.92141435539088 0 0 0 0 -1050.8157209245255 112.78413284225462 0 112.78413284225462 177.2545123823802 0 0 0 0 -871.9664907376573 -381.99956225249844 0 -381.99956225249844 -64.685633078926912 0 0 0 0 4.1458359459802594 -16.801707240662324 0 -16.801707240662324 24.076508005669751 0 0 0 0 529.64931022519886 -136.74564492676109 0 -136.74564492676109 51.459179819366909 0 0 0 0 45.801545731116477 -130.8900137907836 0 -130.8900137907836 88.096549289528042 0 0 0 0 -724.95004397233788 -359.96980805687326 0 -359.96980805687326 294.47103710551892 0 0 0 0 516.46971948676219 -142.32389824681923 0 -142.32389824681923 130.78827552400617 0 0 0 0 442.35536445847538 135.96146771010353 0 135.96146771010353 -93.126334047175988 0 0 0 0 -272.62259658816583 103.80514436234171 0 103.80514436234171 98.761570170812774 0 0 0 0 -532.22214389301371 -165.90028328030166 0 -165.90028328030166 -76.34544867418299 0 0 0 0 -431.51850924550672 -176.96865023931605 0 -176.96865023931605 -78.129824384952371 0 0 0 0 208.9705818847724 -157.15256466763276 0 -157.15256466763276 199.14469949519844 0 0 0 0 -479.04636462860799 -194.45655331885428 0 -194.45655331885428 -1.5623457235196838 0 0 0 0 6.0677332835189972 -21.944281820655249 0 -21.944281820655249 34.63478313324535 0 0 0 0 43.419622517818169 -124.90361225436101 0 -124.90361225436101 59.095028821083929 0 0 0 0 -548.99491713697898 -450.53271598359788 0 -450.53271598359788 347.89441305933724 0 0 0 0 -1.6631615805372562 0.6450355733252735 0 0.6450355733252735 4.972989100720838 0 0 0 0 32.338049173187521 -113.6250331702407 0 -113.6250331702407 27.242920363738392 0 0 0 0 -167.36095147198648 149.13824232119805 0 149.13824232119805 -313.10429978768298 0 0 0 0 -558.52957015543871 -141.79898783606041 0 -141.79898783606041 127.26808166837509 0 0 0 0 -67.637036154960697 -188.45004928470644 0 -188.45004928470644 3.8503933733954909 0 0 0 0 -438.1144022061344 -203.01753089210615 0 -203.01753089210615 -42.278186054347316 0 0 0 0 -39.764985568883276 -41.030012826021903 0 -41.030012826021903 -69.80995529628126 0 0 0 0 -9.8878614859193874 -15.476524980077471 0 -15.476524980077471 4.2370588620226357 0 0 0 0 -10.409223851968122 -45.379423805359451 0 -45.379423805359451 48.612998050725302 0 0 0 0 4.5396951155389758 -4.1804914520380763 0 -4.1804914520380763 -7.8702356359089833 0 0 0 0 -443.64156655514671 -86.682720333585166 0 -86.682720333585166 -117.7400480802462 0 0 0 0 -185.66195239569151 -52.49017877750417 0 -52.49017877750417 91.143090992014422 0 0 0 0 -496.14025703627885 -416.4750577969703 0 -416.4750577969703 -2.6227502400179219 0 0 0 0 3.063872233426352 -21.934330026483906 0 -21.934330026483906 42.41047773873035 0 0 0 0 59.592912078427617 -64.893077174062455 0 -64.893077174062455 95.754185004399915 0 0 0 0 -119.56307333098084 -161.90825966017655 0 -161.90825966017655 6.5519037156773265 0 0 0 0 -55.346648224766057 -16.246202077243595 0 -16.246202077243595 5.760577345364311 0 0 0 0 187.2464690173183 97.323180387219509 0 97.323180387219509 -65.133899242013285 0 0 0 0 -175.59994564554654 -134.96034990329281 0 -134.96034990329281 13.298045644090962 0 0 0 0 -230.77243603248644 -263.71292202079167 0 -263.71292202079167 2.3438748301996384 0 0 0 0 -204.51469509743765 -299.61425088096439 0 -299.61425088096439 13.991527426827815 0 0 0 0 -69.047687251339084 -120.04502327190858 0 -120.04502327190858 -41.218505281955004 0 0 0 0 98.921305339230457 -298.87667353369034 0 -298.87667353369034 6.0728907470092963 0 0 0 0 -328.36300591396866 -397.55545836046076 0 -397.55545836046076 120.57437274835866 0 0 0 0 -98.662845439183002 -551.3323436990031 0 -551.3323436990031 124.84694605034019 0 0 0 0 -337.28012956827297 -399.40702979018533 0 -399.40702979018533 121.58562909848297 0 0 0 0 -320.80920034853625 -289.95556448740172 0 -289.95556448740172 40.874669016535336 0 0 0 0 -268.61062065957231 -368.07311434930125 0 -368.07311434930125 134.85763072332338 0 0 0 0 -287.95551424293808 -296.95543592778995 0 -296.95543592778995 3.5635774057664094 0 0 0 0 -422.18518032331485 -138.58632976416993 0 -138.58632976416993 21.111894802024835 0 0 0 0 -334.11326881306013 -256.6133603661583 0 -256.6133603661583 26.278415530562597 0 0 0 0 -307.91695426458318 -238.4395267625805 0 -238.4395267625805 -35.494902000398724 0 0 0 0 -321.6937823395856 -258.52043477965344 0 -258.52043477965344 -114.91477786584437 0 0 0 0 -485.89829205452043 -291.85629087101643 0 -291.85629087101643 -119.45453586595977 0 0 0 0 -449.59909297470585 -228.16758017777465 0 -228.16758017777465 -26.572221842525323 0 0 0 0 -312.31104443444201 -222.10876314732923 0 -222.10876314732923 -15.912705671100412 0 0 0 0 -213.76545611623442 -248.63798389632939 0 -248.63798389632939 -116.50084651937402 0 0 0 0 6.2419845601240809 -7.0081479282115424 0 -7.0081479282115424 6.3319793577014991 0 0 0 0 -184.19887474908865 -127.94144258886877 0 -127.94144258886877 213.96892924507119 0 0 0 0 -178.01969257678138 -168.99166780675478 0 -168.99166780675478 5.4162585355988995 0 0 0 0 -316.08602993711611 -256.56377267430571 0 -256.56377267430571 233.37414989084209 0 0 0 0 -372.0064090667438 -358.70151375584283 0 -358.70151375584283 178.3162133244914 0 0 0 0 -331.19508320349269 -391.33294981415384 0 -391.33294981415384 121.73800028564074 0 0 0 0 -323.49582733235729 -390.29701433009905 0 -390.29701433009905 119.77550383567723 0 0 0 0 -295.71030480497575 -283.52557342876025 0 -283.52557342876025 153.12476376808468 0 0 0 0 -295.28946502414328 -351.58987360050378 0 -351.58987360050378 535.22577316697425 0 0 0 0 -101.22196354350308 -99.199219745558366 0 -99.199219745558366 214.43723746993783 0 0 0 0 -52.432739228926948 -504.50706584950603 0 -504.50706584950603 96.264929389260942 0 0 0 0 -53.313845645621768 -387.77944600257251 0 -387.77944600257251 174.13464821478919 0 0 0 0 0.35908363909402397 -638.51923544750025 0 -638.51923544750025 529.42857282398836 0 0 0 0 -140.7430836300191 80.041152192156005 0 80.041152192156005 1160.6842980266429 0 0 0 0 0.10228655481478199 -193.40969623653291 0 -193.40969623653291 -342.56252414697519 0 0 0 0 4.2173914158538537 -2.2640330031063627 0 -2.2640330031063627 1.3932993514509207 0 0 0 0 304.76051612454467 -279.57107844839265 0 -279.57107844839265 -117.64244055922609 0 0 0 0 -243.31837661814643 -400.61100781537971 0 -400.61100781537971 -105.25018037047266 0 0 0 0 171.8862617581326 68.424646763298369 0 68.424646763298369 -178.20019421933102 0 0 0 0 -0.286942540622523 -117.38434242561544 0 -117.38434242561544 64.298810595806572 0 0 0 0 44.217268313866953 -42.684167625799091 0 -42.684167625799091 -64.015545822248896 0 0 0 0 7.8625112410809379 -99.136926419341762 0 -99.136926419341762 10.753304536285214 0 0 0 0 27.497040316710809 -104.19415560873267 0 -104.19415560873267 -1.3734017259048414 0 0 0 0 90.33920036283962 -64.338821041819756 0 -64.338821041819756 19.969368159236183 0 0 0 0 32.48637043402141 -123.16772564187931 0 -123.16772564187931 112.22109327416183 0 0 0 0 64.090085411649852 -79.509899660787596 0 -79.509899660787596 17.552431187697948 0 0 0 0 -17.459995225013699 -138.60702435948406 0 -138.60702435948406 78.910602375863164 0 0 0 0 58.196140737003589 -127.6582442193212 0 -127.6582442193212 -17.815668256473145 0 0 0 0 23.953757842878986 -72.026079506495989 0 -72.026079506495989 -37.871671251959924 0 0 0 0 37.164424985283404 -78.845977813183708 0 -78.845977813183708 -67.039273251706618 0 0 0 0 6.6879320468360675 -63.275498256192805 0 -63.275498256192805 -59.60016079378147 0 0 0 0 29.009325775441539 -79.749193662060861 0 -79.749193662060861 -127.04185749011594 0 0 0 0 14.281239667192722 -59.636149904652584 0 -59.636149904652584 9.0036778614267394 0 0 0 0 -33.819568386294122 -149.90282772498176 0 -149.90282772498176 8.4347850761769223 0 0 0 0 -21.669363472497935 -149.98530638964803 0 -149.98530638964803 -61.707029220240656 0 0 0 0 33.347567322591203 -161.94455170642323 0 -161.94455170642323 -119.68254847357821 0 0 0 0 141.49396499854993 -148.2758995893746 0 -148.2758995893746 -264.91519146716746 0 0 0 0 35.493134114264109 -61.013353272858666 0 -61.013353272858666 7.3363822443967841 0 0 0 0 47.330348135263193 -86.591446346569683 0 -86.591446346569683 -136.72534841534434 0 0 0 0 80.45741239367635 16.414529506645977 0 16.414529506645977 -162.45286848074466 0 0 0 0 70.428644709340006 -71.230323664727621 0 -71.230323664727621 -268.14486993343598 0 0 0 0 -16.115447282689274 -96.290720565790252 0 -96.290720565790252 -127.52631792478132 0 0 0 0 58.773941236140672 -46.399095557913824 0 -46.399095557913824 -187.3063051840727 0 0 0 0 101.12890108689317 -118.85727347312059 0 -118.85727347312059 -34.025718218159454 0 0 0 0 29.522110547237389 -110.98409812608224 0 -110.98409812608224 -266.68184877303429 0 0 0 0 69.944157371919502 -62.923273259098295 0 -62.923273259098295 -13.70995729937459 0 0 0 0 103.19299417812726 -80.130817888017191 0 -80.130817888017191 -136.05664181637803 0 0 0 0 54.022016462767311 -61.896867010600573 0 -61.896867010600573 10.764828963019266 0 0 0 0 -53.024025029990298 -163.07450135116233 0 -163.07450135116233 -177.14706728114106 0 0 0 0 -20.792761466676893 -143.61779165633925 0 -143.61779165633925 -178.31213909179132 0 0 0 0 57.122171574445318 -83.339283212781126 0 -83.339283212781126 -98.49202738741063 0 0 0 0 -45.114585293791606 -136.84243344515562 0 -136.84243344515562 -95.840086610714934 0 0 0 0 -18.710252260163543 -107.23612466777377 0 -107.23612466777377 -173.32128463646222 0 0 0 0 -22.129096388889593 -138.65559672437666 0 -138.65559672437666 -186.13125268806834 0 0 0 0 202.37983789790087 -324.594639873907 0 -324.594639873907 46.583760412595439 0 0 0 0 -25.447095423567312 -34.752167057281497 0 -34.752167057281497 -13.814182681190715 0 0 0 0 -284.99860071868534 -501.46483984703264 0 -501.46483984703264 238.51768042876211 0 0 0 0 35.458080832418084 -151.81032852494718 0 -151.81032852494718 101.7506760720604 0 0 0 0 -240.65456801711844 -318.79088435899939 0 -318.79088435899939 331.06705040916859 0 0 0 0 -19.039650846912991 -193.98264053605817 0 -193.98264053605817 -281.54220075163175 0 0 0 0 0.4844719550674057 -6.1710911627562055 0 -6.1710911627562055 -31.5853687811951 0 0 0 0 86.674897229851922 -400.31886136105095 0 -400.31886136105095 898.1965992413634 0 0 0 0 104.0241607978387 -655.27940826256963 0 -655.27940826256963 71.209746972337598 0 0 0 0 -558.83906671097793 -88.27570184979777 0 -88.27570184979777 253.57267723764016 0 0 0 0 -18.787919379225059 -171.76355753816279 0 -171.76355753816279 -380.83134104156125 0 0 0 0 285.2938367197421 -309.57269645406268 0 -309.57269645406268 18.72974006860386 0 0 0 0 -110.22525889300232 -424.47959918992728 0 -424.47959918992728 100.02832877409674 0 0 0 0 343.23046825093843 -485.958012514644 0 -485.958012514644 -62.420073542518367 0 0 0 0 219.56039764141315 -446.57844890665183 0 -446.57844890665183 -62.169019613476848 0 0 0 0 171.66732270104694 -573.48610981211459 0 -573.48610981211459 158.02939057524054 0 0 0 0 -65.147859444583446 -461.17908842251563 0 -461.17908842251563 950.45913978233511 0 0 0 0 -170.44422051948641 -182.47142246866861 0 -182.47142246866861 396.82263909007816 0 0 0 0 -283.96192729299946 -372.23979273907207 0 -372.23979273907207 102.86118464111496 0 0 0 0 122.58773560789268 -178.74396541414717 0 -178.74396541414717 75.337530099302057 0 0 0 0 28.188106552677709 -64.822339773530985 0 -64.822339773530985 36.819861812753516 0 0 0 0 -20.128901601436354 -16.582849905683556 0 -16.582849905683556 -15.824671231338669 0 0 0 0 337.66008484614076 492.20953257146971 0 492.20953257146971 465.43754265765165 0 0 0 0 581.57172320808604 -843.3105575021691 0 -843.3105575021691 345.41877074857985 0 0 0 0 39.182283135703983 -352.83331603611487 0 -352.83331603611487 24.885712271556258 0 0 0 0 198.72911837774518 -630.75244461495276 0 -630.75244461495276 412.02276708658138 0 0 0 0 671.67248542812195 -358.4603312577774 0 -358.4603312577774 -194.74237632809309 0 0 0 0 154.98600606995387 -236.27527493611979 0 -236.27527493611979 -169.43958586454755 0 0 0 0 271.20156067325297 -198.30223753286373 0 -198.30223753286373 -19.465912619023584 0 0 0 0 364.78974919665598 -447.4154122369705 0 -447.4154122369705 -387.41678162441895 0 0 0 0 413.68869861637359 -355.13884380874242 0 -355.13884380874242 -266.47947129815293 0 0 0 0 -260.19031276534224 -155.17090708239994 0 -155.17090708239994 -290.42099050297838 0 0 0 0 -234.18674756689143 21.659680173852394 0 21.659680173852394 373.7771500305189 0 0 0 0 -39.891795727882709 -23.814026259689854 0 -23.814026259689854 88.814450030302396 0 0 0 0 93.203678531266632 262.36042660627572 0 262.36042660627572 681.95891648289853 0 0 0 0 5.1453495957041255 -6.1204861886051987 0 -6.1204861886051987 7.8977480464471768 0 0 0 0 -103.06724451090849 -228.2303838757025 0 -228.2303838757025 125.47066511605954 0 0 0 0 -173.36825841850805 -436.53893178573526 0 -436.53893178573526 -268.26766109635355 0 0 0 0 -216.67784151286469 29.169965932185733 0 29.169965932185733 103.13298659588827 0 0 0 0 11.324724049104042 -16.789127104680475 0 -16.789127104680475 25.289818361156826 0 0 0 0 -225.22936466111059 -5.7739513008418726 0 -5.7739513008418726 346.5316336056494 0 0 0 0 17.779235605369976 -28.521025928747605 0 -28.521025928747605 31.948720493553907 0 0 0 0 -135.58354108624917 -97.90090408551805 0 -97.90090408551805 115.92544507076673 0 0 0 0 -4.4202438123293177 210.05285104019845 0 210.05285104019845 84.55716892908822 0 0 0 0 -9.5326809978058549 0.1166129035264305 0 0.1166129035264305 6.0125962999878624 0 0 0 0 357.15757591517104 -128.84932427423155 0 -128.84932427423155 -197.43255285264604 0 0 0 0 -290.54900562778857 -741.76931066218185 0 -741.76931066218185 -880.81783187510155 0 0 0 0 -412.51854106323935 -486.79139206702484 0 -486.79139206702484 -150.29267046073801 0 0 0 0 0.37954373412975428 0.99393195966450776 0 0.99393195966450776 -2.5962350345970151 0 0 0 0 -333.55211858875919 -361.22350166978867 0 -361.22350166978867 152.47593973067706 0 0 0 0 -496.44728626814322 -368.02036448377658 0 -368.02036448377658 -240.42979928146997 0 0 0 0 -231.55240466387477 -383.64744492321006 0 -383.64744492321006 -257.75297887101078 0 0 0 0 -360.43763389012747 -328.19997009476356 0 -328.19997009476356 -334.56276642782541 0 0 0 0 -461.25696745037931 -432.72508843202104 0 -432.72508843202104 41.833564245296657 0 0 0 0 -418.2348177300446 -617.02700578486292 0 -617.02700578486292 -462.86264546467464 0 0 0 0 460.98680443008016 -223.26343274085775 0 -223.26343274085775 -197.69232209848997 0 0 0 0 524.34744248862262 -437.43930549867582 0 -437.43930549867582 -306.69222250525036 0 0 0 0 210.31216882706212 -391.51722988405163 0 -391.51722988405163 -281.61776531611758 0 0 0 0 155.31931937109766 -251.74274248714391 0 -251.74274248714391 -309.44679175988063 0 0 0 0 141.18462832829755 -354.99163032556135 0 -354.99163032556135 -298.02172496592266 0 0 0 0 120.72442085143848 -298.5149872474658 0 -298.5149872474658 -18.868177960299363 0 0 0 0 404.42066466142933 -513.46011833462171 0 -513.46011833462171 138.37263754134983 0 0 0 0 880.63287686843978 -242.41831870350052 0 -242.41831870350052 -208.3159589617203 0 0 0 0 356.05490925050435 39.108320001736502 0 39.108320001736502 82.281930465267578 0 0 0 0 452.26237638508246 154.64238883761845 0 154.64238883761845 152.99332973779974 0 0 0 0 34.182174637638198 -34.538359754687079 0 -34.538359754687079 25.064594585069006 0 0 0 0 -189.50087189488477 -207.31139835553313 0 -207.31139835553313 146.14859894544679 0 0 0 0 445.84715084842173 -242.42416885753073 0 -242.42416885753073 -504.51194459877115 0 0 0 0 376.75821540885227 -326.79099490316548 0 -326.79099490316548 -287.64926914435637 0 0 0 0 162.57447553100064 44.025186801040036 0 44.025186801040036 -482.8708513725677 0 0 0 0 -7.1475679140154256 -3.6819783888200917 0 -3.6819783888200917 -0.39803666992905562 0 0 0 0 -105.88536744267185 -209.38441141491421 0 -209.38441141491421 137.14376497361627 0 0 0 0 31.049733334493794 -95.000712121204742 0 -95.000712121204742 116.71687309910703 0 0 0 0 -13.92989622121209 -10.674170736316187 0 -10.674170736316187 -6.3345595398239709 0 0 0 0 139.14150100238476 -174.84794201961267 0 -174.84794201961267 99.692984947655077 0 0 0 0 196.70423209373985 -58.344158920519476 0 -58.344158920519476 -37.613650533447981 0 0 0 0 167.21086329305399 -198.50147909077168 0 -198.50147909077168 -28.597351023042393 0 0 0 0 -11.08439442767849 -159.74570920484985 0 -159.74570920484985 -21.617580064306821 0 0 0 0 19.77939123928445 -320.50328547035269 0 -320.50328547035269 -128.77392303222587 0 0 0 0 -498.49862956535799 288.21729335727036 0 288.21729335727036 100.5296398404148 0 0 0 0 -1141.1176198640987 -1953.7890773357428 0 -1953.7890773357428 -910.07828680380999 0 0 0 0 49.838064824328228 -43.497721688101073 0 -43.497721688101073 20.342054168507683 0 0 0 0 452.79609467787668 326.04523013599555 0 326.04523013599555 -274.02224827716987 0 0 0 0 -795.10018841907731 221.3856198471799 0 221.3856198471799 -94.782760233820568 0 0 0 0 1010.9844954477085 -1058.6137562700803 0 -1058.6137562700803 391.39943034502153 0 0 0 0 -1620.8617030016094 -1834.7012371698695 0 -1834.7012371698695 -312.02543453520389 0 0 0 0 -561.78780911883041 -391.77355806332179 0 -391.77355806332179 764.47129427013306 0 0 0 0 -46.660119957017741 737.69202024402989 0 737.69202024402989 1330.9064248811392 0 0 0 0 1413.6798125726273 750.36101554116772 0 750.36101554116772 359.97431779449289 0 0 0 0 36.419346424791001 -259.73694010374504 0 -259.73694010374504 -163.86679646747507 0 0 0 0 1139.2321903081065 -388.83695549773824 0 -388.83695549773824 749.23804779046804 0 0 0 0 215.32987924549525 115.99734797859014 0 115.99734797859014 564.84796114497522 0 0 0 0 382.17466022816336 -458.53527016319936 0 -458.53527016319936 133.04561622871734 0 0 0 0 388.89117341867313 -403.02074878495478 0 -403.02074878495478 90.388289223141783 0 0 0 0 574.44819854830894 -696.7200683508288 0 -696.7200683508288 531.13138757651177 0 0 0 0 74.509541538565827 -168.48659654679568 0 -168.48659654679568 773.49473552947916 0 0 0 0 465.54496322780324 740.58269637096964 0 740.58269637096964 -458.93722963761502 0 0 0 0 852.20203209173633 -128.25084161379664 0 -128.25084161379664 -351.62369763925926 0 0 0 0 376.61095879656506 -628.40318972926627 0 -628.40318972926627 -773.96326443494127 0 0 0 0 259.85498345167798 2.3858529512731366 0 2.3858529512731366 -66.710354174806525 0 0 0 0 376.80088444684952 -581.39475522452813 0 -581.39475522452813 528.98261447402592 0 0 0 0 244.93335234831466 -394.11990769894965 0 -394.11990769894965 218.15057592978974 0 0 0 0 -1001.0933652730891 -1339.0088216586996 0 -1339.0088216586996 1666.7359763657987 0 0 0 0 807.69126147418865 366.08068274635821 0 366.08068274635821 -1644.9813342686218 0 0 0 0 8.9088339676869168 -7.3193306269475258 0 -7.3193306269475258 -1.7915532946686801 0 0 0 0 -301.78980494291318 812.41816238099227 0 812.41816238099227 -439.92457392987546 0 0 0 0 -726.9227636820724 26.507128019010452 0 26.507128019010452 -360.05376588924639 0 0 0 0 1970.6122652117638 17.891621214870611 0 17.891621214870611 176.28011206952579 0 0 0 0 12.331845614033959 -13.440355420075925 0 -13.440355420075925 12.895962236184024 0 0 0 0 614.92413248738603 -1922.9950332117119 0 -1922.9950332117119 1809.4043474366126 0 0 0 0 -1311.8269494131564 -1261.2141043845538 0 -1261.2141043845538 1605.7801426818473 0 0 0 0 -1108.8263224451257 397.49709592224644 0 397.49709592224644 -195.6950494232326 0 0 0 0 1477.36733888858 205.97994610950809 0 205.97994610950809 107.11294550827552 0 0 0 0 456.73741217577481 -348.11138102866971 0 -348.11138102866971 187.9089138955253 0 0 0 0 566.0123294829209 -595.0140850958087 0 -595.0140850958087 741.78732369988575 0 0 0 0 -14.47132409684491 -469.07847057794879 0 -469.07847057794879 673.44916785793248 0 0 0 0 -141.93718305994116 -51.18550339759895 0 -51.18550339759895 850.35360355909233 0 0 0 0 420.07126342961419 -115.24699187573788 0 -115.24699187573788 655.55459292142314 0 0 0 0 1694.4454173399008 -1022.7218686151325 0 -1022.7218686151325 900.31692137619393 0 0 0 0 -197.28603817984003 1013.34374793978 0 1013.34374793978 3225.0535304862806 0 0 0 0 -450.24099177758035 -384.82324712790069 0 -384.82324712790069 222.47613792362063 0 0 0 0 -262.80549961443467 -305.60674718509472 0 -305.60674718509472 52.358196267407038 0 0 0 0 -101.28824593791796 -233.92934648443043 0 -233.92934648443043 131.83894556594828 0 0 0 0 -353.76423812267967 -344.92558876297335 0 -344.92558876297335 373.77484199765058 0 0 0 0 -267.56779087901305 -189.25988717789778 0 -189.25988717789778 703.1479390984141 0 0 0 0 -47.13236055403577 -23.581558824767832 0 -23.581558824767832 -6.9424864137982611 0 0 0 0 -233.9904396206839 -52.851674990424726 0 -52.851674990424726 495.11934117400369 0 0 0 0 -231.31599032375004 -278.16061727399466 0 -278.16061727399466 206.17372724574125 0 0 0 0 -293.70668166118048 -24.523568554127337 0 -24.523568554127337 42.173770028479339 0 0 0 0 -161.71612500705305 -280.45224599774423 0 -280.45224599774423 -52.709343222592075 0 0 0 0 -62.463935589636094 -28.313579879224733 0 -28.313579879224733 -343.92325802258853 0 0 0 0 -100.92603542527286 -51.769630840445643 0 -51.769630840445643 39.863170160857408 0 0 0 0 -180.75887450966911 -134.58362814077191 0 -134.58362814077191 161.71704616042916 0 0 0 0 -60.717995735918521 -176.79370279879913 0 -176.79370279879913 151.38684329437228 0 0 0 0 -72.024669411897776 -178.68388883665375 0 -178.68388883665375 8.0255971549165679 0 0 0 0 -50.461817635252373 -206.34558896685485 0 -206.34558896685485 153.48226958365194 0 0 0 0 -44.641805645645945 -182.55723179759798 0 -182.55723179759798 193.79344539969316 0 0 0 0 -82.714586550850072 -114.83422340738525 0 -114.83422340738525 164.73125488958249 0 0 0 0 218.33840089639853 -323.19607088398857 0 -323.19607088398857 -1030.9885855852024 0 0 0 0 -3.1080555223879571 -16.813354082664446 0 -16.813354082664446 -3.8068615825790588 0 0 0 0 -298.47309104889973 -711.13820742011876 0 -711.13820742011876 -250.20219439083394 0 0 0 0 -137.63590026898237 6.6648652027402022 0 6.6648652027402022 -288.09132234609115 0 0 0 0 -160.51740185567542 -147.74845156752281 0 -147.74845156752281 -41.763087297267703 0 0 0 0 -72.268106125527993 -145.69004697999117 0 -145.69004697999117 88.782592534666037 0 0 0 0 -179.87287738512532 -23.808195323899781 0 -23.808195323899781 335.82290178948824 0 0 0 0 -216.16191957217961 -266.56157657359927 0 -266.56157657359927 132.52927483232452 0 0 0 0 -224.27343753907917 -193.02480571860724 0 -193.02480571860724 800.25111740641296 0 0 0 0 386.49400033172788 -812.91272240474518 0 -812.91272240474518 -246.55401920686018 0 0 0 0 -47.983496442582691 145.34268730520307 0 145.34268730520307 406.83108803723553 0 0 0 0 -82.554348463738393 -2.1044748117782319 0 -2.1044748117782319 234.70657970878892 0 0 0 0 -81.73795367652923 -56.907616281163428 0 -56.907616281163428 340.07663843268165 0 0 0 0 -46.706470272574734 -57.187751922220329 0 -57.187751922220329 -5.3270873908605267 0 0 0 0 -159.66879496321053 -33.107973155956643 0 -33.107973155956643 405.7378721580917 0 0 0 0 -203.051306204703 -119.94611266239531 0 -119.94611266239531 286.03091439003038 0 0 0 0 -79.994499935433851 5.5471650647450588 0 5.5471650647450588 351.22472040904267 0 0 0 0 831.15936958279053 -1041.2331119452547 0 -1041.2331119452547 443.49136416106876 0 0 0 0 -410.1901661135671 57.397799966742014 0 57.397799966742014 402.72616627711795 0 0 0 0 694.87185333427624 -1003.4884404924396 0 -1003.4884404924396 528.26511292140117 0 0 0 0 90.729875612334581 -85.576253105269643 0 -85.576253105269643 15.788062580460974 0 0 0 0 -5.89968418469158 -8.4221764823024046 0 -8.4221764823024046 -5.4711812390347028 0 0 0 0 249.11320129554952 -949.99355201539584 0 -949.99355201539584 522.6251833016936 0 0 0 0 -766.92641824309976 -223.41157215563953 0 -223.41157215563953 596.87792886010357 0 0 0 0 -219.97295933225541 349.28433930894607 0 349.28433930894607 -204.08651762157888 0 0 0 0 91.255445588943985 -377.17161055516408 0 -377.17161055516408 -438.52881147877633 0 0 0 0 -20.207243766435852 -8.1345570111925909 0 -8.1345570111925909 13.009713132349155 0 0 0 0 -38.313049170699912 -62.017047472405771 0 -62.017047472405771 -13.533302539989075 0 0 0 0 -82.810776025427913 -172.01567599279224 0 -172.01567599279224 287.67378765651665 0 0 0 0 -0.78386617089199717 -103.51356440596282 0 -103.51356440596282 170.25799706308317 0 0 0 0 19.928892799174719 -211.02541829556708 0 -211.02541829556708 195.55881114941076 0 0 0 0 -63.952960863622138 -208.86708945990904 0 -208.86708945990904 212.08842772045864 0 0 0 0 -123.73374169085582 -209.09208018495156 0 -209.09208018495156 214.65622053539118 0 0 0 0 -64.872937063894369 -168.23626355098472 0 -168.23626355098472 240.60032473869069 0 0 0 0 -61.367440372443525 32.93288073981239 0 32.93288073981239 335.47904335349585 0 0 0 0 -84.26076368183567 -201.90378050228719 0 -201.90378050228719 266.07713708505253 0 0 0 0 -26.647793565673055 -198.8516363769595 0 -198.8516363769595 229.12766420930348 0 0 0 0 -104.98996979141157 -158.41805945185479 0 -158.41805945185479 215.72490373494293 0 0 0 0 -121.79477674390364 -131.22091861226363 0 -131.22091861226363 218.37812930569271 0 0 0 0 48.626380555055221 -97.432854791562931 0 -97.432854791562931 224.72363995321211 0 0 0 0 -731.41014111894765 90.329611600202043 0 90.329611600202043 165.8645374858952 0 0 0 0 1061.2335859883751 -805.82838421609995 0 -805.82838421609995 600.92995859988878 0 0 0 0 -1559.0290944370136 -240.78390584825047 0 -240.78390584825047 177.96393452446864 0 0 0 0 -1429.8107660119713 -156.71521338386265 0 -156.71521338386265 147.17447552729845 0 0 0 0 -1509.0522939333459 -378.02222996946875 0 -378.02222996946875 44.95999172856682 0 0 0 0 -1137.2761945361272 -60.473421423455875 0 -60.473421423455875 174.58233563382237 0 0 0 0 -515.60803880865569 71.653768987127478 0 71.653768987127478 -155.74923643293732 0 0 0 0 -1145.9041550517722 419.76343664298474 0 419.76343664298474 685.73863365926991 0 0 0 0 -1759.7115501455264 1835.4459309278027 0 1835.4459309278027 -507.20826103271975 0 0 0 0 -962.2066986427235 -343.19238199563188 0 -343.19238199563188 -399.37867276637553 0 0 0 0 444.52910492364026 -92.807069646715718 0 -92.807069646715718 69.960543318049531 0 0 0 0 -62.269738310507933 -31.416987661100208 0 -31.416987661100208 57.080196095465311 0 0 0 0 415.02697600678948 -143.00681638900005 0 -143.00681638900005 131.10904114710866 0 0 0 0 -376.25325222034007 -59.441106580339692 0 -59.441106580339692 712.48865310761539 0 0 0 0 -164.01697834234801 -137.56679331932355 0 -137.56679331932355 72.704417131382797 0 0 0 0 58.227709991420852 -69.799770156871091 0 -69.799770156871091 -81.349287393328268 0 0 0 0 -491.24896810966311 13.56634048324122 0 13.56634048324122 -17.298947105326079 0 0 0 0 53.626771486524376 248.67533576679853 0 248.67533576679853 -57.271221032311587 0 0 0 0 230.77570615326113 231.92799377860729 0 231.92799377860729 -186.76564475588748 0 0 0 0 15.75028355455737 -15.613271526847242 0 -15.613271526847242 12.154463316493258 0 0 0 0 -163.62318295660225 0.86477269125350631 0 0.86477269125350631 135.11222108959555 0 0 0 0 -28.536922737577356 -8.8485166771147306 0 -8.8485166771147306 43.150409526748987 0 0 0 0 -111.02750447197468 -106.33087743241686 0 -106.33087743241686 133.60374043606134 0 0 0 0 -990.25632054705602 990.47526758625247 0 990.47526758625247 -397.97321153954545 0 0 0 0 -386.42886683058168 -284.19587782817234 0 -284.19587782817234 7.9558017266799652 0 0 0 0 -43.283339590311357 -33.798076959595164 0 -33.798076959595164 1.3519707211680014 0 0 0 0 110.32094124468858 -16.513475935671522 0 -16.513475935671522 -47.953548030553975 0 0 0 0 -49.424986223122687 -82.021566208411741 0 -82.021566208411741 97.819169351647361 0 0 0 0 7.7072998530929908 -110.1722728064434 0 -110.1722728064434 110.34523135694712 0 0 0 0 -173.4463392344187 -62.722056795764274 0 -62.722056795764274 703.05575695654079 0 0 0 0 147.32645213235708 -221.14239377372857 0 -221.14239377372857 304.74470212673259 0 0 0 0 -8.5135002235434172 -8.8588392809474925 0 -8.8588392809474925 -9.1894208504101478 0 0 0 0 8.7233623128013278 797.71760666888156 0 797.71760666888156 -744.61905677726372 0 0 0 0 929.52854942680278 -986.92824752573506 0 -986.92824752573506 282.6638077730413 0 0 0 0 622.6670640368684 -262.88417565152213 0 -262.88417565152213 485.79220089382125 0 0 0 0 -53.94147236642354 -23.106834389731148 0 -23.106834389731148 -7.6824631092573981 0 0 0 0 -46.295117385892809 -180.86484620187434 0 -180.86484620187434 302.80492625527404 0 0 0 0 -761.87406376456056 200.71108018965515 0 200.71108018965515 -247.6692671936421 0 0 0 0 -517.04144955133961 551.7835643209396 0 551.7835643209396 -580.59528213151407 0 0 0 0 -34.212914214153557 -25.444011630564987 0 -25.444011630564987 -16.986677343266077 0 0 0 0 262.60441333283961 -609.30578728356932 0 -609.30578728356932 694.6347874020131 0 0 0 0 270.08813334808087 -271.38571680238397 0 -271.38571680238397 271.23752891375807 0 0 0 0 138.98689544550507 -264.69340218302648 0 -264.69340218302648 398.34223545744453 0 0 0 0 118.5813921739973 -234.57003505918783 0 -234.57003505918783 340.97557121682985 0 0 0 0 143.4960535814696 -37.636504017707146 0 -37.636504017707146 113.1978755942273 0 0 0 0 145.06851321681779 -88.059275511607268 0 -88.059275511607268 29.307425956234511 0 0 0 0 231.63789091111903 -343.63215698495242 0 -343.63215698495242 251.76217587138308 0 0 0 0 195.49994368676562 -287.22026300409755 0 -287.22026300409755 182.96076769250294 0 0 0 0 24.911784331845411 -153.8716360627368 0 -153.8716360627368 11.945356453733893 0 0 0 0 -6.9924845276528771 -16.131989132609874 0 -16.131989132609874 -35.830215168760112 0 0 0 0 70.837698023267876 -182.41677507282225 0 -182.41677507282225 -10.999148363252971 0 0 0 0 4.6171608620061306 -339.81103308199749 0 -339.81103308199749 176.88759011434195 0 0 0 0 213.92653568552487 -177.7701792458829 0 -177.7701792458829 7.4588771051486447 0 0 0 0 214.10700689418445 -260.67548829955194 0 -260.67548829955194 110.99473518422656 0 0 0 0 254.77329508323055 -231.84352275256379 0 -231.84352275256379 120.51228237993928 0 0 0 0 226.31429333540655 -306.15946335096942 0 -306.15946335096942 326.19681868398948 0 0 0 0 141.26398980166778 -298.30732714457076 0 -298.30732714457076 344.24072699503267 0 0 0 0 305.73858435623333 -295.0545294077192 0 -295.0545294077192 181.24679744376044 0 0 0 0 253.01683279453573 -257.26158121668823 0 -257.26158121668823 513.63192936948235 0 0 0 0 267.95324276371321 -335.86325623051061 0 -335.86325623051061 344.94957385161177 0 0 0 0 204.26069857787843 -273.57446471570643 0 -273.57446471570643 416.65353294591114 0 0 0 0 287.75651856316836 -249.23703864961317 0 -249.23703864961317 322.2454114975335 0 0 0 0 201.06974074006212 -321.42305894012679 0 -321.42305894012679 432.69944767741981 0 0 0 0 260.38301016333571 -296.59521385851713 0 -296.59521385851713 389.02481273628655 0 0 0 0 405.17730461348401 -417.94244945821629 0 -417.94244945821629 405.48371849570742 0 0 0 0 412.51809712310933 -393.8579494208775 0 -393.8579494208775 465.02790530255879 0 0 0 0 -4.1032180203889652 1.6755124887708064 0 1.6755124887708064 16.044762230408907 0 0 0 0 -16.59297082807916 106.22140565755399 0 106.22140565755399 195.33323238397861 0 0 0 0 573.66910331605322 -560.56949325767528 0 -560.56949325767528 402.53568139027539 0 0 0 0 22.861048028091318 49.116267843483911 0 49.116267843483911 96.020178935190415 0 0 0 0 123.1902572682593 -214.2013823734751 0 -214.2013823734751 0.50139770136593143 0 0 0 0 -47.706193314823437 -59.279066023646322 0 -59.279066023646322 -11.419241752578067 0 0 0 0 80.036701474185975 -178.709322839778 0 -178.709322839778 -28.139230227269763 0 0 0 0 -11.215241752735892 -40.233594918882773 0 -40.233594918882773 87.084727214172744 0 0 0 0 114.44340191766059 -72.964490442196961 0 -72.964490442196961 60.542923989864903 0 0 0 0 -14.4476879080432 -31.540009462134989 0 -31.540009462134989 -52.486863091513356 0 0 0 0 452.4263644565217 -134.65587210271224 0 -134.65587210271224 -177.71871044600812 0 0 0 0 2.1827194195466291 -9.6115956470059309 0 -9.6115956470059309 -8.3408928816551793 0 0 0 0 -4.3674322613723007 -2.2820652727233011 0 -2.2820652727233011 0.21668169680002336 0 0 0 0 0.0220821983893984 -15.690611612695648 0 -15.690611612695648 15.559657547466486 0 0 0 0 176.28153129843122 -178.00702060753247 0 -178.00702060753247 -948.44811722921622 0 0 0 0 180.94580504663463 -122.42041477085877 0 -122.42041477085877 -289.39448097336935 0 0 0 0 10.832210037238838 -142.49197836553594 0 -142.49197836553594 8.9912629083846696 0 0 0 0 80.1830057870975 -395.39996330099166 0 -395.39996330099166 -540.91719423142058 0 0 0 0 0.12764451011025812 -615.07588809849767 0 -615.07588809849767 -488.18627584023488 0 0 0 0 16.366814999011694 -495.51387156904639 0 -495.51387156904639 -247.55899718251021 0 0 0 0 -0.031226137929479592 -603.98332473042683 0 -603.98332473042683 -117.61991400858824 0 0 0 0 -140.14718162817007 -352.59395590941494 0 -352.59395590941494 -133.38736831866117 0 0 0 0 -21.650536325949361 -510.45789355715715 0 -510.45789355715715 -173.77108722973207 0 0 0 0 25.891506371815922 -515.2542093258553 0 -515.2542093258553 -354.97283631491155 0 0 0 0 -74.114376472389267 -423.25194451210336 0 -423.25194451210336 -318.39841655163764 0 0 0 0 -65.259046805629623 -412.04614821945506 0 -412.04614821945506 -358.92355728876464 0 0 0 0 -233.29087754429202 -460.94465341145406 0 -460.94465341145406 149.93391167947141 0 0 0 0 -548.25811475838054 -484.25347657515067 0 -484.25347657515067 86.704837827601295 0 0 0 0 -459.39318492841267 -200.77375435528484 0 -200.77375435528484 -146.20224303945724 0 0 0 0 -87.237755489131814 -156.91071471186433 0 -156.91071471186433 34.460471776539634 0 0 0 0 -361.18890599844599 -358.38152815755166 0 -358.38152815755166 -96.743843803233176 0 0 0 0 90.224791635124348 -337.83195741963254 0 -337.83195741963254 -280.57021404684201 0 0 0 0 -117.23654227188672 -291.87369969722204 0 -291.87369969722204 -167.23458611814567 0 0 0 0 42.933129469660344 -132.8119949535685 0 -132.8119949535685 -101.73116660756932 0 0 0 0 -40.47075280516583 -75.004477275771933 0 -75.004477275771933 36.760713998250139 0 0 0 0 -34.748703134027892 -95.177193032246578 0 -95.177193032246578 -22.899875749488274 0 0 0 0 -58.40901526525704 -61.169985582804657 0 -61.169985582804657 55.681686968149734 0 0 0 0 -15.981975001574028 -29.909525802335338 0 -29.909525802335338 32.250320201632803 0 0 0 0 22.931944498616417 -37.795415004014615 0 -37.795415004014615 58.999598233816698 0 0 0 0 -82.188133974879747 -149.12880307754313 0 -149.12880307754313 -23.673413798990623 0 0 0 0 -175.82912444230169 -6.4563165086619847 0 -6.4563165086619847 -65.672123875730904 0 0 0 0 -349.7682316651626 71.155298437184683 0 71.155298437184683 18.917686640117608 0 0 0 0 24.136909676398716 -65.504540670967558 0 -65.504540670967558 65.270828347759874 0 0 0 0 -76.923551966174273 -125.92961131855645 0 -125.92961131855645 47.762457253258617 0 0 0 0 7.8579729839997867 -14.405954155330988 0 -14.405954155330988 9.2970959199577976 0 0 0 0 -96.723516596583067 -111.25784468330858 0 -111.25784468330858 43.067111663971446 0 0 0 0 19.085362324777805 -42.321451339359271 0 -42.321451339359271 66.142834433691363 0 0 0 0 -4.7140168510668445 -92.819340165384347 0 -92.819340165384347 20.082000913415413 0 0 0 0 -179.5851405149333 -18.765818436600057 0 -18.765818436600057 253.16118654762249 0 0 0 0 -4.7686240023201094 1.8742786868522714 0 1.8742786868522714 -1.079959912139195 0 0 0 0 -242.02123996333103 111.02273662971857 0 111.02273662971857 -833.75562020480538 0 0 0 0 -319.07273216237081 -537.16224350839184 0 -537.16224350839184 -237.47371246696639 0 0 0 0 -271.20453016724787 -400.41189966589445 0 -400.41189966589445 102.42833013662312 0 0 0 0 0.042407371776505443 -2.2787397942776408 0 -2.2787397942776408 7.9587339484862554 0 0 0 0 660.5992189659446 -80.85004224259319 0 -80.85004224259319 -75.848394039130653 0 0 0 0 185.09888688767387 -869.77865650490276 0 -869.77865650490276 501.47623420592572 0 0 0 0 -274.6854897288249 -103.27973284665723 0 -103.27973284665723 384.96416377386777 0 0 0 0 264.73522720618348 -369.94746974915324 0 -369.94746974915324 533.46689624508144 0 0 0 0 617.7844154186314 652.29501516345044 0 652.29501516345044 -589.41415843760478 0 0 0 0 -21.354052867878636 -86.943003239262907 0 -86.943003239262907 133.07026018860051 0 0 0 0 705.78234802243242 -524.70038590403055 0 -524.70038590403055 62.783225052291527 0 0 0 0 -12.911117194067003 -12.939365164224334 0 -12.939365164224334 21.556201526604941 0 0 0 0 -96.244059379576356 -116.44218901671593 0 -116.44218901671593 24.483609207510199 0 0 0 0 73.048687859700294 -24.686527972087333 0 -24.686527972087333 -87.289445668296196 0 0 0 0 46.746251187211385 -117.39829340478539 0 -117.39829340478539 68.468313006911131 0 0 0 0 38.931942625063101 -196.94322102391652 0 -196.94322102391652 112.80783405465201 0 0 0 0 41.345527095880179 -86.889416909653477 0 -86.889416909653477 25.785534556201725 0 0 0 0 -79.47587951652531 -72.530986880767159 0 -72.530986880767159 1.5443435539573329 0 0 0 0 -546.39385843839955 -144.93615100409647 0 -144.93615100409647 128.2831897230044 0 0 0 0 10.62478605352176 -98.687910414506177 0 -98.687910414506177 78.451685177434314 0 0 0 0 -789.30589777148271 -965.28927039614791 0 -965.28927039614791 894.28320637662546 0 0 0 0 265.79614128710818 -1101.6458934669499 0 -1101.6458934669499 -1163.8135133630494 0 0 0 0 54.801448995422106 273.07250838053005 0 273.07250838053005 153.13897487318354 0 0 0 0 -448.33637652783727 -32.782155956994757 0 -32.782155956994757 153.54318482011149 0 0 0 0 3.5446491887217348 -64.60395371542397 0 -64.60395371542397 60.621148921696118 0 0 0 0 -1.3147647970515095 1.3947274854381533 0 1.3947274854381533 8.7058882418052121 0 0 0 0 -209.05464930814924 -116.13026422248731 0 -116.13026422248731 18.82117771031335 0 0 0 0 45.724059372204437 -85.435804810784674 0 -85.435804810784674 41.73551058109075 0 0 0 0 -247.90780685626669 -493.23433469203883 0 -493.23433469203883 58.386029041314032 0 0 0 0 -364.85374962443166 -408.80599421992974 0 -408.80599421992974 -2.2746941975967729 0 0 0 0 -363.54155669439933 -373.88571418935953 0 -373.88571418935953 121.82651763476861 0 0 0 0 -237.03083182091359 -239.62755024685325 0 -239.62755024685325 -74.469404873572159 0 0 0 0 -449.62768211591901 -322.67713820641529 0 -322.67713820641529 342.26430409190607 0 0 0 0 -90.923796110209622 -44.231475389517165 0 -44.231475389517165 6.9186950008452186 0 0 0 0 -620.71264821890509 -316.97101057170329 0 -316.97101057170329 -32.00008679676381 0 0 0 0 484.2479811135272 -719.30707571300263 0 -719.30707571300263 -16.208706981602063 0 0 0 0 -81.138277193516842 -193.88766625312883 0 -193.88766625312883 40.286755706602889 0 0 0 0 -654.08775060124754 -890.35050640671307 0 -890.35050640671307 -4.5650584908453311 0 0 0 0 66.266472098963277 -330.9782991741975 0 -330.9782991741975 -32.143812954645568 0 0 0 0 -7.350165320083164 -23.490346033947944 0 -23.490346033947944 0.91361183090897757 0 0 0 0 -248.22216204422875 458.32174695629016 0 458.32174695629016 251.1079664941617 0 0 0 0 -584.17265946781845 -114.45871981711559 0 -114.45871981711559 426.63393848174928 0 0 0 0 78.077877870737666 -171.72447508096795 0 -171.72447508096795 561.31267077040138 0 0 0 0 38.80986346503397 -78.605462366374169 0 -78.605462366374169 61.92118715581752 0 0 0 0 -1470.0970630369848 808.87497748882811 0 808.87497748882811 769.24026987346133 0 0 0 0 -1673.6141201486753 -604.18940451114531 0 -604.18940451114531 219.42125250347272 0 0 0 0 -708.50454156682827 -338.90340697579177 0 -338.90340697579177 -227.40647161867037 0 0 0 0 608.99638865289398 144.0081131214049 0 144.0081131214049 -232.04438237770228 0 0 0 0 -1205.9494379721582 -1368.584510495391 0 -1368.584510495391 -181.30753542458751 0 0 0 0 465.03367159573827 -1464.040589979666 0 -1464.040589979666 -811.18494754956373 0 0 0 0 -597.19095141009893 -395.49327716795779 0 -395.49327716795779 240.8664099865789 0 0 0 0 -250.94607505772001 -135.10253631875798 0 -135.10253631875798 -250.4193134094744 0 0 0 0 -2026.6070881573069 190.74452695509422 0 190.74452695509422 102.99516185718676 0 0 0 0 -469.30339453372289 150.70274174104088 0 150.70274174104088 -231.87257167748203 0 0 0 0 1.1222721912923532 -2.8574084801483508 0 -2.8574084801483508 -14.589416205825234 0 0 0 0 -4.7277791229498689 -258.41635723574041 0 -258.41635723574041 250.58274359395909 0 0 0 0 295.44231973707792 -162.74686637337982 0 -162.74686637337982 41.34606443743246 0 0 0 0 -81.612472155656633 -182.09750418733265 0 -182.09750418733265 263.69619299238184 0 0 0 0 -628.01006608107127 -168.9256261109058 0 -168.9256261109058 64.515398322781721 0 0 0 0 -102.11822678491745 -19.066306081242786 0 -19.066306081242786 11.868843353155597 0 0 0 0 -37.823294841846163 -19.232940786893224 0 -19.232940786893224 -24.097858271384382 0 0 0 0 -583.01122831689281 29.645659594044787 0 29.645659594044787 212.00377496761575 0 0 0 0 110.02514718388557 -274.03299218794018 0 -274.03299218794018 162.0490621399731 0 0 0 0 -598.8496257570514 -175.66896074269152 0 -175.66896074269152 12.089681965406271 0 0 0 0 -472.34091334452387 189.248817207098 0 189.248817207098 51.389802340249616 0 0 0 0 4.8767451702090625 -45.052126867159267 0 -45.052126867159267 7.9286984743766249 0 0 0 0 26.639324187402963 -92.863190012916675 0 -92.863190012916675 -69.108657928343746 0 0 0 0 -50.360140531257144 -99.520915601481931 0 -99.520915601481931 29.153003639719802 0 0 0 0 3.8247978003055323 -142.43508876581473 0 -142.43508876581473 53.059553617989877 0 0 0 0 -99.15075095120082 -21.016253536758967 0 -21.016253536758967 22.348520956932546 0 0 0 0 -358.51111621918972 -104.27035766729296 0 -104.27035766729296 14.838255106345059 0 0 0 0 -268.62154107482638 -103.95306620316569 0 -103.95306620316569 -29.120159475501168 0 0 0 0 -291.65356456700829 -190.61457823311321 0 -190.61457823311321 -110.62849869454658 0 0 0 0 -341.04964351400849 -146.80435700644011 0 -146.80435700644011 29.114125057581077 0 0 0 0 -308.2920933359419 -127.30248690459484 0 -127.30248690459484 -40.916890414275713 0 0 0 0 -300.45753482908185 -96.799123027698897 0 -96.799123027698897 32.560060965819503 0 0 0 0 -375.0530220677756 -10.650034260889697 0 -10.650034260889697 -0.85581563389132498 0 0 0 0 -161.41154301946517 61.540615424605221 0 61.540615424605221 -23.066793223537388 0 0 0 0 -264.60427610416082 -92.924120140546165 0 -92.924120140546165 43.523582796633946 0 0 0 0 -335.75464301339525 127.33855028317339 0 127.33855028317339 -8.0638013191537539 0 0 0 0 -233.35925311868414 -173.32665885220541 0 -173.32665885220541 311.37116151248529 0 0 0 0 -298.71603035912995 -36.779278746201271 0 -36.779278746201271 178.22549791671509 0 0 0 0 -154.3827063323406 10.257125862915927 0 10.257125862915927 62.227440685176589 0 0 0 0 -6.3387141834318754 -290.6606025773383 0 -290.6606025773383 277.16174329651403 0 0 0 0 -112.46324225942953 -106.36050484096324 0 -106.36050484096324 164.22850855805882 0 0 0 0 317.19748409571184 -219.34531763533931 0 -219.34531763533931 73.721710573792848 0 0 0 0 -1.298485580107517 -2.7429517333098659 0 -2.7429517333098659 3.3197426002286115 0 0 0 0 -960.11938441488019 142.73984588526372 0 142.73984588526372 122.99056489755094 0 0 0 0 -274.17769054562814 -193.53415411654407 0 -193.53415411654407 90.684685722763788 0 0 0 0 -229.1614797879447 -85.158744806278719 0 -85.158744806278719 54.732104883448983 0 0 0 0 -440.47911378325443 -74.635816625220855 0 -74.635816625220855 82.469173309063081 0 0 0 0 -412.51791856886121 -153.88951742264248 0 -153.88951742264248 227.06537054848832 0 0 0 0 -812.47690510297252 -49.313295160552798 0 -49.313295160552798 199.76150067663366 0 0 0 0 -230.77447076946555 37.004398954371027 0 37.004398954371027 5.7629295875656226 0 0 0 0 -324.51951252584695 22.678777232088123 0 22.678777232088123 20.030461987543617 0 0 0 0 -1.5173060155857883 -13.107674134339817 0 -13.107674134339817 36.596567746149226 0 0 0 0 -47.397198693477549 -74.10751615214258 0 -74.10751615214258 17.176077700358292 0 0 0 0 1.1325194352684775 -32.295894075919932 0 -32.295894075919932 -22.014973349512729 0 0 0 0 -156.16648682707455 -130.0767821528716 0 -130.0767821528716 84.54105486197659 0 0 0 0 3.3148119211949449 -11.759973417589663 0 -11.759973417589663 41.468996524250187 0 0 0 0 -354.95257339690579 -116.62666815258808 0 -116.62666815258808 18.941426635573407 0 0 0 0 -329.00367979566363 -154.24778949887468 0 -154.24778949887468 -11.138700964357668 0 0 0 0 -384.50195732303837 -136.13692443849231 0 -136.13692443849231 95.80055631676953 0 0 0 0 -184.79343890264136 -136.23246819384258 0 -136.23246819384258 136.70905676031543 0 0 0 0 -410.50057903680863 -157.14667501912959 0 -157.14667501912959 9.1173667260409275 0 0 0 0 -9.575751907070952 -14.88059541709876 0 -14.88059541709876 43.771153177963114 0 0 0 0 -41.021821379879839 -45.30690651128134 0 -45.30690651128134 57.52467047990649 0 0 0 0 -66.188297365719336 3.2839181406452553 0 3.2839181406452553 -23.236644046890433 0 0 0 0 20.502975825315417 -33.863487013710085 0 -33.863487013710085 54.608168425460363 0 0 0 0 -33.386944179110287 -32.774290516892506 0 -32.774290516892506 72.160397566738538 0 0 0 0 20.635656977610779 -82.450672416387533 0 -82.450672416387533 36.633616567004253 0 0 0 0 39.284880727114796 -47.446774523018576 0 -47.446774523018576 98.004989760520402 0 0 0 0 96.373305899440311 -125.07855459418352 0 -125.07855459418352 111.0602759389003 0 0 0 0 44.083356828065007 -140.82020371914041 0 -140.82020371914041 119.12734125376392 0 0 0 0 -5.5204524200617584 -12.801556687696177 0 -12.801556687696177 1.8539286445394083 0 0 0 0 58.460809234558837 -83.387023146340653 0 -83.387023146340653 18.61915383230189 0 0 0 0 -25.173770697787404 -101.98005308521533 0 -101.98005308521533 96.767500660498627 0 0 0 0 18.881582767297914 -39.54335393545847 0 -39.54335393545847 42.868804147749692 0 0 0 0 5.8984123193949927 -10.196623201362399 0 -10.196623201362399 -51.535332887549885 0 0 0 0 55.470614112738986 -30.11130075478286 0 -30.11130075478286 -42.844482060558221 0 0 0 0 11.40995981994584 -8.5282239158364916 0 -8.5282239158364916 -13.358377665197153 0 0 0 0 17.532859330174517 -37.677840489056649 0 -37.677840489056649 -37.534132764963246 0 0 0 0 -5.1084471215401948 -26.417345006753237 0 -26.417345006753237 -6.3880931697533185 0 0 0 0 59.569115362566663 63.364212228401811 0 63.364212228401811 -64.805827853309893 0 0 0 0 5.8465167229862516 -10.13202079339348 0 -10.13202079339348 -10.667358410714964 0 0 0 0 0.24016603258496616 -180.78203272194651 0 -180.78203272194651 -81.697749939579808 0 0 0 0 196.06531214874121 -57.057995328792458 0 -57.057995328792458 -45.995363267089942 0 0 0 0 295.03908889059676 56.53309907296989 0 56.53309907296989 -83.818040410936192 0 0 0 0 12.124050163733472 -34.530655314555048 0 -34.530655314555048 53.202537558116369 0 0 0 0 25.544433837605538 -308.81510092337987 0 -308.81510092337987 -103.8120828429528 0 0 0 0 -74.073316545458511 80.763435116590699 0 80.763435116590699 -170.50409065576127 0 0 0 0 10.357311536587076 -35.028418636877177 0 -35.028418636877177 33.494431127091957 0 0 0 0 4.4978322150345775 -32.381766700726075 0 -32.381766700726075 33.059649785023794 0 0 0 0 1.0843267295349506 -32.348372837858733 0 -32.348372837858733 43.928898636164377 0 0 0 0 -0.024034054731600918 -19.854166619656098 0 -19.854166619656098 36.868844463817368 0 0 0 0 2.0126575171743752 -25.864066842823377 0 -25.864066842823377 34.89942769889484 0 0 0 0 -5.2192856736728572 -23.787280315651515 0 -23.787280315651515 34.871999188089831 0 0 0 0 0.0027058008272433653 -21.895004700958452 0 -21.895004700958452 28.981396421604586 0 0 0 0 6.8204742808920855 -27.788396512942199 0 -27.788396512942199 25.400506210287858 0 0 0 0 8.2568223612761358 -24.893439974748617 0 -24.893439974748617 23.360628336795344 0 0 0 0 126.88643193557073 -168.97169187524651 0 -168.97169187524651 6.9700410977711726 0 0 0 0 -7.807775018272082 -5.0672424175154305 0 -5.0672424175154305 -3.5690982791436028 0 0 0 0 7.7474886903892184 -22.210112294880219 0 -22.210112294880219 20.648013189667836 0 0 0 0 2.3193518911420199 -2.7849711592896256 0 -2.7849711592896256 8.61140113018363 0 0 0 0 1180.0409260194865 1234.1167826600067 0 1234.1167826600067 992.24429741342283 0 0 0 0 -0.25945215374667896 335.39645591013505 0 335.39645591013505 1654.5972421691404 0 0 0 0 379.32778978548595 700.74150117263707 0 700.74150117263707 2019.3607411600974 0 0 0 0 157.55489893682534 -45.960184927536829 0 -45.960184927536829 2165.5628707330452 0 0 0 0 95.125955902185524 -415.40311292515071 0 -415.40311292515071 1243.7805785714781 0 0 0 0 188.17712115342147 -21.831217931307037 0 -21.831217931307037 51.112883791954118 0 0 0 0 -127.20975752933009 215.8162084130654 0 215.8162084130654 725.67533812764668 0 0 0 0 749.98422229278367 616.38084019793496 0 616.38084019793496 737.0924923601824 0 0 0 0 50.77614908805117 631.52640720653108 0 631.52640720653108 396.06124847053161 0 0 0 0 884.60303123049744 370.59688993446844 0 370.59688993446844 266.93891866938066 0 0 0 0 -57.141665110459144 -59.449660024762125 0 -59.449660024762125 4.4631519007562019 0 0 0 0 0.033694763282255735 -6.2743777918713022 0 -6.2743777918713022 24.86171347295749 0 0 0 0 -36.70676500229456 11.687574482244599 0 11.687574482244599 40.31108341770414 0 0 0 0 -15.700724674345111 -12.409107111425328 0 -12.409107111425328 33.334240034477261 0 0 0 0 -11.156161552447884 -20.654551458971582 0 -20.654551458971582 32.065384014618758 0 0 0 0 -14.865733094979078 -22.210819104211623 0 -22.210819104211623 42.352096035306204 0 0 0 0 -48.831332622539776 -27.356554390536076 0 -27.356554390536076 35.504352667547209 0 0 0 0 3.6763221808786568 -10.242565851008578 0 -10.242565851008578 27.688895973216521 0 0 0 0 240.33031393417332 614.69923741096591 0 614.69923741096591 361.30315652269928 0 0 0 0 -222.5167530674953 177.00092387656696 0 177.00092387656696 333.02404578758706 0 0 0 0 173.17331307293716 381.63824360799026 0 381.63824360799026 429.92473074420741 0 0 0 0 -353.08891757507809 656.55874602366202 0 656.55874602366202 590.19318371053487 0 0 0 0 -256.27272542058199 117.30356878843986 0 117.30356878843986 1067.7865212849574 0 0 0 0 -232.97157533781137 -207.59224666340469 0 -207.59224666340469 483.59259874063582 0 0 0 0 7.4256130867783554 -19.205717087153801 0 -19.205717087153801 46.565673794450881 0 0 0 0 -325.43496416897688 -131.61951584181952 0 -131.61951584181952 421.39277220824806 0 0 0 0 -101.55604722620774 -13.610840583093704 0 -13.610840583093704 189.86748218793582 0 0 0 0 -1.7577577722009039 -3.8406302070887079 0 -3.8406302070887079 8.7023948949789798 0 0 0 0 468.76254682667786 -129.94418383394986 0 -129.94418383394986 114.03067629457109 0 0 0 0 327.42563057675034 -202.55223659951605 0 -202.55223659951605 112.26005324792277 0 0 0 0 158.4873244141927 -233.93136257167498 0 -233.93136257167498 253.78407749149119 0 0 0 0 212.75301578320796 -127.23405412869215 0 -127.23405412869215 150.59810317383744 0 0 0 0 131.56259871617658 -362.55198997316438 0 -362.55198997316438 711.38657925691223 0 0 0 0 -225.40875265194336 17.004608754925357 0 17.004608754925357 602.79216003913416 0 0 0 0 461.2158837577299 -445.89983941583705 0 -445.89983941583705 559.17757346635335 0 0 0 0 182.69104892399628 898.08973643089666 0 898.08973643089666 -1878.6477346385327 0 0 0 0 200.12338155024918 -446.85544586818105 0 -446.85544586818105 1437.7458235049999 0 0 0 0 -0.92908145956533161 -10.658098903412679 0 -10.658098903412679 16.023728310413375 0 0 0 0 -6.4755330064461987 5.3892246349300876 0 5.3892246349300876 8.1200937376234421 0 0 0 0 -401.38942699386098 489.90194411012271 0 489.90194411012271 1133.0680184078587 0 0 0 0 -82.330201200384181 -376.14223728624256 0 -376.14223728624256 1601.3391334741336 0 0 0 0 -68.028105082384172 25.036683396562779 0 25.036683396562779 29.66931677734101 0 0 0 0 -139.69033735318226 543.24021865535906 0 543.24021865535906 12.160361209436815 0 0 0 0 -119.52555572899291 407.32218152839505 0 407.32218152839505 450.45014310477745 0 0 0 0 -1124.4314755303349 -332.28317438701833 0 -332.28317438701833 222.23194124568624 0 0 0 0 -2.4135256265044802 -1.5908378285814706 0 -1.5908378285814706 14.242882659547334 0 0 0 0 -480.33122887557693 530.35737522399222 0 530.35737522399222 600.58301025123365 0 0 0 0 -87.900755801943887 22.459846904057486 0 22.459846904057486 43.21023155691455 0 0 0 0 -1.6705084996187356 -7.3675138785091576 0 -7.3675138785091576 18.753948039992437 0 0 0 0 28.77459284906945 5.7296222886479882 0 5.7296222886479882 -14.788577654834398 0 0 0 0 -1271.9325527097972 -152.95013832272193 0 -152.95013832272193 269.72465648507119 0 0 0 0 -722.0026949152525 6.9963926756890942 0 6.9963926756890942 -64.499410194616758 0 0 0 0 -307.180333912489 -368.82245355894042 0 -368.82245355894042 135.99216545504271 0 0 0 0 -516.95359170579468 -453.90181819019665 0 -453.90181819019665 241.75094283712781 0 0 0 0 -355.63679482173757 -527.54074347039307 0 -527.54074347039307 257.94293796402781 0 0 0 0 -217.66865280637285 -564.37773539649481 0 -564.37773539649481 156.02968416941144 0 0 0 0 -275.05458761501359 -384.88352003020191 0 -384.88352003020191 -104.297204158444 0 0 0 0 -318.51970390473434 -333.95480879637307 0 -333.95480879637307 90.213410443024713 0 0 0 0 -276.10652479610872 -76.435044384677894 0 -76.435044384677894 117.64842540473546 0 0 0 0 -454.79857867710234 -298.15946549776299 0 -298.15946549776299 175.59497301201736 0 0 0 0 -264.92748017300619 -513.0401270126647 0 -513.0401270126647 242.95310068469098 0 0 0 0 -93.45739862487244 -758.5562710842089 0 -758.5562710842089 460.87014638135952 0 0 0 0 84.061473295587348 -484.97917503953886 0 -484.97917503953886 65.807216331234486 0 0 0 0 86.496431219551596 -501.14267533738666 0 -501.14267533738666 119.04140150833518 0 0 0 0 323.8676541208406 98.104290071103605 0 98.104290071103605 -235.92569763874417 0 0 0 0 -6.2866791908755886 -6.1208892372377193 0 -6.1208892372377193 4.8828797634762129 0 0 0 0 121.51008060318418 -142.84706321047906 0 -142.84706321047906 2006.9306654627944 0 0 0 0 -3.6204383894932732 -1.7130248087531754 0 -1.7130248087531754 7.1454569490970492 0 0 0 0 1211.1062497714884 -915.40965299153959 0 -915.40965299153959 104.36285925675111 0 0 0 0 -372.94799978713854 1297.2077194354165 0 1297.2077194354165 1513.5900400233745 0 0 0 0 336.27156573804677 -1131.6764037299258 0 -1131.6764037299258 739.05987370854473 0 0 0 0 1448.8518426297815 -378.2673181593882 0 -378.2673181593882 -194.77832379964912 0 0 0 0 954.93270391959231 -99.305364770289088 0 -99.305364770289088 -342.87127203945056 0 0 0 0 648.80910453035176 -808.64489466534224 0 -808.64489466534224 237.6094890131626 0 0 0 0 -961.8305688057153 370.331940948387 0 370.331940948387 -93.301968468137602 0 0 0 0 -375.60233658481593 206.68181313595346 0 206.68181313595346 -61.527880435065526 0 0 0 0 -123.68976153127733 -765.57191428834267 0 -765.57191428834267 465.703276978242 0 0 0 0 -142.02245662114547 -872.73151745342227 0 -872.73151745342227 575.70708200670106 0 0 0 0 -3.5133624924846458 -0.52844118025110731 0 -0.52844118025110731 1.9625261138579067 0 0 0 0 -154.0456448153127 -597.38075080860972 0 -597.38075080860972 192.36954328788056 0 0 0 0 -311.97560532907664 -657.77463393664732 0 -657.77463393664732 672.00904632657375 0 0 0 0 -613.95772201821092 -288.72847563059531 0 -288.72847563059531 247.46181129119532 0 0 0 0 -555.1263383882324 -170.27946484969186 0 -170.27946484969186 138.11347089469291 0 0 0 0 -503.55014937400119 -240.69960200060825 0 -240.69960200060825 -32.110656468695197 0 0 0 0 -1.979305239002997 -4.2471587042053045 0 -4.2471587042053045 9.1978443850052596 0 0 0 0 -1018.2066660001346 65.713669525062016 0 65.713669525062016 44.699363381368585 0 0 0 0 -18.31540937573709 -208.80783897596794 0 -208.80783897596794 75.483534062799208 0 0 0 0 -24.97511521098204 -43.731776359291359 0 -43.731776359291359 67.465230497822972 0 0 0 0 -369.37124522947124 -216.78143661624608 0 -216.78143661624608 -50.741857355558523 0 0 0 0 -126.14813251905798 -247.33361197276128 0 -247.33361197276128 -116.91145450928673 0 0 0 0 -162.22033312011627 -41.224234220371272 0 -41.224234220371272 69.734795445693749 0 0 0 0 -4.862317633262137 -125.30504611365475 0 -125.30504611365475 -103.44196560850207 0 0 0 0 125.54220182952849 215.84044902604796 0 215.84044902604796 -122.92739596435604 0 0 0 0 244.58144140278455 155.95232272151202 0 155.95232272151202 -824.79090490424892 0 0 0 0 -139.10825894409209 -366.9042415576838 0 -366.9042415576838 -480.40127823263947 0 0 0 0 -413.73327742019319 -160.61189716189472 0 -160.61189716189472 85.84409246004725 0 0 0 0 269.94511689337378 -268.70369204061615 0 -268.70369204061615 97.665579133733871 0 0 0 0 -112.30798177351244 -449.49886001133711 0 -449.49886001133711 230.08553016914323 0 0 0 0 637.66468604710826 -623.62292618220795 0 -623.62292618220795 265.02478517039157 0 0 0 0 -167.52340140102024 -579.90274762295803 0 -579.90274762295803 410.29096921031731 0 0 0 0 -163.89178917964455 -187.26089055786855 0 -187.26089055786855 326.29923340169455 0 0 0 0 -0.55461062158098429 -1.558397789620642 0 -1.558397789620642 5.8899284096123221 0 0 0 0 -334.97998359933263 -385.12256914130444 0 -385.12256914130444 1103.0962739894981 0 0 0 0 -674.34749566666142 422.29964697351875 0 422.29964697351875 1260.2806922865057 0 0 0 0 90.777927075294429 74.594302668745911 0 74.594302668745911 971.54461558708999 0 0 0 0 29.381941379077034 -132.2613049451968 0 -132.2613049451968 859.85487141152578 0 0 0 0 -29.549102142205811 -520.53037213079517 0 -520.53037213079517 1058.8480914722118 0 0 0 0 11.909792645412381 307.5148316084186 0 307.5148316084186 866.86581628033923 0 0 0 0 -126.24929428402538 21.774602629475282 0 21.774602629475282 277.53852325668595 0 0 0 0 413.98710216546169 219.35687605420253 0 219.35687605420253 233.34236942321547 0 0 0 0 154.14725426559744 153.83548907043109 0 153.83548907043109 226.82187020127051 0 0 0 0 -4.0753198963590194 -2.9349713066930718 0 -2.9349713066930718 8.4687082311466959 0 0 0 0 -805.71197111673973 -99.412579569770742 0 -99.412579569770742 105.87475168155333 0 0 0 0 -625.36849149107002 17.599057064996202 0 17.599057064996202 -1979.2458888520794 0 0 0 0 -1398.1596285474661 -1134.8773531356899 0 -1134.8773531356899 -246.14352809725597 0 0 0 0 -725.09668027132284 -304.54032404740428 0 -304.54032404740428 -403.47493163051422 0 0 0 0 -875.09181467615417 -943.348050724833 0 -943.348050724833 -531.52154398768153 0 0 0 0 -115.60143992795929 -13.665138338358418 0 -13.665138338358418 23.343933284350896 0 0 0 0 -218.50862779503223 -771.53694404020393 0 -771.53694404020393 -1166.9060417639816 0 0 0 0 -6.6408291839411504 -2.5304339461748935 0 -2.5304339461748935 3.0660918955832002 0 0 0 0 -563.16497483346029 -1032.3741070345679 0 -1032.3741070345679 -962.67379431882637 0 0 0 0 0.77961392353097381 -11.648542098626493 0 -11.648542098626493 10.312430447855794 0 0 0 0 151.01400119277605 134.23561430414139 0 134.23561430414139 182.15038775951552 0 0 0 0 -1.187483900677762 -9.9410237745000813 0 -9.9410237745000813 241.1502824602635 0 0 0 0 -85.510314895393094 142.29620903658088 0 142.29620903658088 203.55574887738283 0 0 0 0 -356.57544331360259 -3.2954768085189698 0 -3.2954768085189698 272.97672958786666 0 0 0 0 631.9461296126683 -651.80360771145342 0 -651.80360771145342 611.57503829651819 0 0 0 0 -4.7280639503643442 -14.91314747761338 0 -14.91314747761338 2.6771787231675397 0 0 0 0 -128.89390413174988 -249.16253994760177 0 -249.16253994760177 -204.94495346325493 0 0 0 0 0.50228837710744756 -4.4567710398360418 0 -4.4567710398360418 -2.2745309565406213 0 0 0 0 245.074792959349 -820.2883210820255 0 -820.2883210820255 371.02926880773816 0 0 0 0 -881.77017864660593 -245.41744790376924 0 -245.41744790376924 361.68958783481156 0 0 0 0 -0.94682758168367798 -2.6353760882197435 0 -2.6353760882197435 9.0344114642507449 0 0 0 0 -1470.0677615148816 125.52406131300111 0 125.52406131300111 428.30400400455608 0 0 0 0 -630.37772037479954 239.31090323007058 0 239.31090323007058 204.86203642224427 0 0 0 0 -162.28372344115633 288.34131453510577 0 288.34131453510577 232.0712372955677 0 0 0 0 -627.8652678506478 -52.79158023320349 0 -52.79158023320349 252.15502293546172 0 0 0 0 -406.16589890061005 -341.91217358032077 0 -341.91217358032077 424.70870260579494 0 0 0 0 -326.03554626210826 208.9688242001607 0 208.9688242001607 263.12823363283184 0 0 0 0 -613.23691631444672 -75.854782753469976 0 -75.854782753469976 188.46298061707569 0 0 0 0 -840.56640771003003 284.81794369082121 0 284.81794369082121 -94.963251522748465 0 0 0 0 -769.28036972044356 -329.54912291187281 0 -329.54912291187281 -75.690164934892096 0 0 0 0 58.939426564073074 -18.274084589354061 0 -18.274084589354061 -35.834882524955447 0 0 0 0 2.2173900175985182 88.952746928598799 0 88.952746928598799 1175.4030281374999 0 0 0 0 0.021056399515686053 -2.6063871235245983 0 -2.6063871235245983 6.8940734407436537 0 0 0 0 -335.56121745907512 -729.06156930840689 0 -729.06156930840689 1259.1948153506628 0 0 0 0 521.75224791313349 -601.50220959825583 0 -601.50220959825583 607.17334226832008 0 0 0 0 -71.941146611396107 -1048.7820284694005 0 -1048.7820284694005 363.96380393879872 0 0 0 0 -582.53518789540976 25.557255618272734 0 25.557255618272734 499.64841055076295 0 0 0 0 0.25460876308096658 -5.2452945635073043 0 -5.2452945635073043 -0.14236455980885412 0 0 0 0 -464.7619169202153 -894.674447048807 0 -894.674447048807 2447.5842454333356 0 0 0 0 411.9898926600581 -438.55552615228999 0 -438.55552615228999 -1639.2580605079283 0 0 0 0 41.850783563320874 -1110.8790150699188 0 -1110.8790150699188 -201.57373738161687 0 0 0 0 -76.973247852394707 -595.49230990414344 0 -595.49230990414344 831.19229353830724 0 0 0 0 -72.815260955110716 -580.19485158469206 0 -580.19485158469206 598.23555518919011 0 0 0 0 -0.14542596364481142 -679.45396078490398 0 -679.45396078490398 629.31226228507148 0 0 0 0 109.62880508418311 -644.29562521421576 0 -644.29562521421576 842.04347248126601 0 0 0 0 -544.72189512242767 -1151.13140275726 0 -1151.13140275726 504.26937018996887 0 0 0 0 0.99784870562143624 -632.50573685245399 0 -632.50573685245399 1128.0352563125034 0 0 0 0 912.37905918107572 -333.96826964732782 0 -333.96826964732782 1222.6024872415437 0 0 0 0 -3616.821192665011 509.19987586383377 0 509.19987586383377 972.03652678850767 0 0 0 0 -53.689197867401163 -1043.0882943274173 0 -1043.0882943274173 705.80856358696428 0 0 0 0 -61.054953034342134 -29.208030855854396 0 -29.208030855854396 -12.477503963128608 0 0 0 0 330.1415627564129 -13.093965289178414 0 -13.093965289178414 148.00653454404619 0 0 0 0 1110.359536374599 -678.33458259659142 0 -678.33458259659142 -803.74700636893101 0 0 0 0 -22.801404464888378 -14.663295970780958 0 -14.663295970780958 -8.4654515925958158 0 0 0 0 -1592.4115801829175 597.24740935508726 0 597.24740935508726 757.38978658826818 0 0 0 0 1000.0082861898991 -1105.1405179176193 0 -1105.1405179176193 -1980.8813503856463 0 0 0 0 -2054.0806080589828 256.38673598792889 0 256.38673598792889 751.11536084692398 0 0 0 0 -1740.1551043963336 -517.26234968506606 0 -517.26234968506606 45.108468573205755 0 0 0 0 -1877.1599547517981 410.66466570695445 0 410.66466570695445 794.15092121758698 0 0 0 0 -1948.827931109452 362.77024849239979 0 362.77024849239979 788.03247141400243 0 0 0 0 -203.45698754135083 -155.45713398681073 0 -155.45713398681073 376.82939239741881 0 0 0 0 -64.942315183405299 -432.38552222798057 0 -432.38552222798057 -926.41290392047631 0 0 0 0 392.22780163922289 -223.35443779999559 0 -223.35443779999559 -355.63022751346193 0 0 0 0 132.03708570171148 -569.96571684899857 0 -569.96571684899857 -196.82283620077715 0 0 0 0 -64.076810207868732 -52.913290404490184 0 -52.913290404490184 -24.799263799308953 0 0 0 0 12.009539265942749 -64.677022152394557 0 -64.677022152394557 538.14551020417275 0 0 0 0 -85.784703692217732 -46.616898305056338 0 -46.616898305056338 -17.496791109993616 0 0 0 0 223.46531182401077 -1080.6147209711028 0 -1080.6147209711028 489.80877537877495 0 0 0 0 -1415.6478893514577 -652.82303574244543 0 -652.82303574244543 598.6916202353118 0 0 0 0 -35.81568871800846 58.55517690062743 0 58.55517690062743 1025.2518507031471 0 0 0 0 -42.396489269653102 -62.450433690001773 0 -62.450433690001773 66.231736413729777 0 0 0 0 942.25042538141861 -591.4416086340168 0 -591.4416086340168 -532.60664386710232 0 0 0 0 -1.7303031608050645 -5.1989027039889528 0 -5.1989027039889528 -13.387803843655348 0 0 0 0 747.14233224115014 -347.64360071581086 0 -347.64360071581086 -176.04121454520805 0 0 0 0 -587.40044578564812 -884.65526658099361 0 -884.65526658099361 -403.63179948427751 0 0 0 0 156.37911931468261 -432.36596440979702 0 -432.36596440979702 -688.20197155679307 0 0 0 0 -1162.6742935621587 -304.37368806403038 0 -304.37368806403038 47.137422342730133 0 0 0 0 -297.19728176533954 -653.56643226328038 0 -653.56643226328038 -146.02162175189369 0 0 0 0 -413.7069451561174 -148.87903622795466 0 -148.87903622795466 28.03635395108904 0 0 0 0 736.34733809353565 -347.2298332620237 0 -347.2298332620237 62.620195226485521 0 0 0 0 303.44703766262683 -374.29892289100553 0 -374.29892289100553 222.55999910391347 0 0 0 0 70.513648745847604 -529.62836586596768 0 -529.62836586596768 259.51048911928046 0 0 0 0 451.06164215958415 -560.66752953777541 0 -560.66752953777541 46.811889984684967 0 0 0 0 -65.168663981956755 -50.382566908380667 0 -50.382566908380667 -33.741669081125742 0 0 0 0 -11.95423570213876 -10.481432525641878 0 -10.481432525641878 -9.6234264672949994 0 0 0 0 868.75952569551009 -751.246672962243 0 -751.246672962243 -29.265111261018319 0 0 0 0 -3446.5692693750607 -1369.013684572918 0 -1369.013684572918 -1038.5142512824104 0 0 0 0 798.84114606762887 -1651.2068623813611 0 -1651.2068623813611 -1059.3515689470657 0 0 0 0 265.94362663867651 1481.8130284629335 0 1481.8130284629335 -687.2917818976739 0 0 0 0 742.14548623691371 -1876.2713367505421 0 -1876.2713367505421 -1757.8831759499799 0 0 0 0 -55.10404488345138 -39.275001166405097 0 -39.275001166405097 -24.909667889946356 0 0 0 0 59.979597435518372 -378.14849629113996 0 -378.14849629113996 408.64634233856265 0 0 0 0 -1022.1931573218171 188.5223454546167 0 188.5223454546167 -1055.8490353613324 0 0 0 0 -421.72857847396517 -706.72161153358184 0 -706.72161153358184 1526.4214337668282 0 0 0 0 -40.057949270715881 -21.139593510016567 0 -21.139593510016567 -8.7407145000233761 0 0 0 0 -573.8609585341037 776.24193003457094 0 776.24193003457094 -635.28166751488197 0 0 0 0 156.53077856927848 103.07642070349743 0 103.07642070349743 271.32654717820697 0 0 0 0 -44.43432735427632 -47.426613974856991 0 -47.426613974856991 -105.87773771674802 0 0 0 0 69.819207669730531 181.44089887529117 0 181.44089887529117 346.08066709929267 0 0 0 0 382.72001311843633 565.1705384760553 0 565.1705384760553 -639.30736939313647 0 0 0 0 493.67889333656058 187.80702174373664 0 187.80702174373664 -32.3726921559213 0 0 0 0 -26.762177952999451 -24.860204658563362 0 -24.860204658563362 12.342421739885955 0 0 0 0 -2066.4518936193272 669.4103784447916 0 669.4103784447916 1249.6849084398073 0 0 0 0 -464.94603703760367 1209.1082592244265 0 1209.1082592244265 -986.93143257332758 0 0 0 0 -112.7332793189853 495.99920252263291 0 495.99920252263291 451.45001086234879 0 0 0 0 -53.508772052737186 -161.93472862369583 0 -161.93472862369583 181.45223108922687 0 0 0 0 -55.179707725397748 -149.52654347588748 0 -149.52654347588748 89.430119030356309 0 0 0 0 2.4979763983865269 -133.88786485736375 0 -133.88786485736375 68.426913369975182 0 0 0 0 -215.59097280853894 123.34902891534011 0 123.34902891534011 214.87836925693227 0 0 0 0 24.706906140476349 -142.76497298293145 0 -142.76497298293145 80.021815037884949 0 0 0 0 -22.60517721841515 -17.205374764554676 0 -17.205374764554676 28.676990559853767 0 0 0 0 2.1472970997565426 -136.2729234229439 0 -136.2729234229439 91.626536235117925 0 0 0 0 102.66678292122378 -55.094091772238983 0 -55.094091772238983 23.595747474380403 0 0 0 0 154.46525462421414 -126.19157038714624 0 -126.19157038714624 -1.1367870458066136 0 0 0 0 75.907642729522195 -115.98324869480967 0 -115.98324869480967 -113.57088626562336 0 0 0 0 -19.722366240632255 -129.41096457696381 0 -129.41096457696381 13.592659529337936 0 0 0 0 -22.281310681311879 -158.23121241397439 0 -158.23121241397439 46.220865813427451 0 0 0 0 85.557985674393422 -32.833828362972667 0 -32.833828362972667 -44.433554695081284 0 0 0 0 71.069919561196002 -97.720863219849548 0 -97.720863219849548 -333.56558846289727 0 0 0 0 53.631175825355967 -48.493391269508891 0 -48.493391269508891 -27.002005905636906 0 0 0 0 70.506241160095669 -21.290663520517796 0 -21.290663520517796 13.367272058525487 0 0 0 0 42.20451908398536 23.8729531957365 0 23.8729531957365 -96.812260427132287 0 0 0 0 -70.008235217479523 -461.8959704014876 0 -461.8959704014876 845.64316657909239 0 0 0 0 -163.47565071188728 -174.31589781885555 0 -174.31589781885555 1362.149788431876 0 0 0 0 25.993498376439675 91.080287404994579 0 91.080287404994579 62.135755080251101 0 0 0 0 -15.409183855546871 -88.171294678772256 0 -88.171294678772256 1186.1683934724458 0 0 0 0 7.8683516414018868 -0.79681473050246865 0 -0.79681473050246865 0.96847156671801327 0 0 0 0 -2031.9176301256812 -818.74404305290625 0 -818.74404305290625 -56.250862747378051 0 0 0 0 -188.04116610396886 -60.945085592647956 0 -60.945085592647956 242.17647065286246 0 0 0 0 31.336904351526755 -446.44850832164207 0 -446.44850832164207 -2143.2228384643613 0 0 0 0 100.27478825987055 -23.983680829804143 0 -23.983680829804143 -47.855407020636903 0 0 0 0 39.797629747918108 -284.6002777626432 0 -284.6002777626432 603.36254603138286 0 0 0 0 -27.639472890196643 -32.20323439093039 0 -32.20323439093039 2.6312926330603732 0 0 0 0 809.5954019894707 -960.88709708581803 0 -960.88709708581803 -637.67909527257871 0 0 0 0 -152.17062726829317 -210.89529638868316 0 -210.89529638868316 1114.2431195353538 0 0 0 0 97.359729514835635 -34.929284965788156 0 -34.929284965788156 -62.474345704584039 0 0 0 0 54.098071554180933 -81.613353109620675 0 -81.613353109620675 13.749532428370003 0 0 0 0 27.075410667781796 -4.3024847380058375 0 -4.3024847380058375 -1.0503440563766153 0 0 0 0 283.87855112526449 118.41871583824195 0 118.41871583824195 531.20547255737756 0 0 0 0 382.17514842785749 -155.5995154238509 0 -155.5995154238509 67.259859985531875 0 0 0 0 -973.20308518028469 501.74956947789087 0 501.74956947789087 635.22355495272893 0 0 0 0 -15.731978529134096 -8.3506672935734407 0 -8.3506672935734407 2.7351778242932991 0 0 0 0 -133.0594093115651 -506.94225103917506 0 -506.94225103917506 -587.28745287364632 0 0 0 0 5.13351744422107 9.9354416342475815 0 9.9354416342475815 874.10129249651231 0 0 0 0 45.155088065828977 -29.22046326845318 0 -29.22046326845318 -11.570531389164433 0 0 0 0 580.58083257845283 323.17789686523963 0 323.17789686523963 73.020932119688041 0 0 0 0 -318.93021694081108 -582.69434298068529 0 -582.69434298068529 -36.52041361845113 0 0 0 0 -537.83010613187798 -891.16323005891036 0 -891.16323005891036 -380.49478400505086 0 0 0 0 -151.24510993028525 -697.61499243841695 0 -697.61499243841695 -153.89961935124734 0 0 0 0 -153.80306459554413 -421.59351562533652 0 -421.59351562533652 -0.86628639390710305 0 0 0 0 203.20627271587728 -489.62192307999567 0 -489.62192307999567 -33.833983685310614 0 0 0 0 86.953217375470558 -219.90542990141921 0 -219.90542990141921 474.77714755237582 0 0 0 0 168.37360165451537 -294.51428700398401 0 -294.51428700398401 239.79899099480735 0 0 0 0 25.750906240049517 -520.58422896064121 0 -520.58422896064121 238.43630485829999 0 0 0 0 58.143324410186324 -461.99618941100431 0 -461.99618941100431 -117.48589282335956 0 0 0 0 116.19528263406573 -575.5368161773539 0 -575.5368161773539 -220.38859985463705 0 0 0 0 109.12462293773388 -523.0683523580575 0 -523.0683523580575 -140.94461894721053 0 0 0 0 -299.24990873732895 -462.21123265930657 0 -462.21123265930657 -184.93192353719806 0 0 0 0 -300.68354657483724 -421.97558069678928 0 -421.97558069678928 66.470990698133221 0 0 0 0 29.676834031371982 150.93682926849448 0 150.93682926849448 1194.3426000022876 0 0 0 0 -30.690929448679526 -59.916662732508712 0 -59.916662732508712 1230.8132359756037 0 0 0 0 150.27957805496408 -410.38834303065062 0 -410.38834303065062 532.77863809856672 0 0 0 0 -121.53212928376161 -481.5833057175015 0 -481.5833057175015 565.33714123288496 0 0 0 0 84.426831220262102 -622.85062095580406 0 -622.85062095580406 -111.23515578429374 0 0 0 0 -577.3088884169847 -1009.5538829770231 0 -1009.5538829770231 -33.731595948277914 0 0 0 0 123.53503890616412 -633.13044515595402 0 -633.13044515595402 -376.44956713003057 0 0 0 0 245.88190003875934 -830.37116162597317 0 -830.37116162597317 -614.83067067886304 0 0 0 0 -600.94685630175809 -955.17346578734737 0 -955.17346578734737 -110.58662996609837 0 0 0 0 -4.4041888103176916 -1.1464117613704872 0 -1.1464117613704872 4.4708211945794156 0 0 0 0 -1185.6211859681353 -1198.4479571569377 0 -1198.4479571569377 -210.47474266755216 0 0 0 0 -253.85435783784487 -1222.3588211231227 0 -1222.3588211231227 -1061.0843166237587 0 0 0 0 631.34005591197638 -444.66220710805146 0 -444.66220710805146 -919.36044519015377 0 0 0 0 323.78086885402445 -691.00004868171493 0 -691.00004868171493 -572.56957263314087 0 0 0 0 377.66462536598556 -452.80826337526662 0 -452.80826337526662 -367.81555560788587 0 0 0 0 322.17455054675884 9.0911214846553605 0 9.0911214846553605 27.588329724457481 0 0 0 0 -1439.9013058108658 -221.59276250334983 0 -221.59276250334983 41.629687556780027 0 0 0 0 -9.6442924480910506 -9.8889997138142007 0 -9.8889997138142007 -10.006754314693747 0 0 0 0 -320.4768135954946 -168.56159288247443 0 -168.56159288247443 90.312956381339518 0 0 0 0 117.2305206812598 -402.33431579550154 0 -402.33431579550154 -315.4668673189999 0 0 0 0 147.54924442632182 -326.4943177359437 0 -326.4943177359437 -143.83223256079873 0 0 0 0 141.92107116256375 -413.6370390071653 0 -413.6370390071653 337.45433163239431 0 0 0 0 179.72637156128712 93.153080816173969 0 93.153080816173969 249.97520478850629 0 0 0 0 -513.31025080522522 -276.67421469196779 0 -276.67421469196779 97.100576491917678 0 0 0 0 -526.79232107448115 -249.98710084821283 0 -249.98710084821283 202.25284197624342 0 0 0 0 -847.5227832968958 -443.1843392219638 0 -443.1843392219638 116.36360847633273 0 0 0 0 -1347.2610417301985 -545.08193224407614 0 -545.08193224407614 122.72406781375571 0 0 0 0 -863.90709478569624 -331.28116241690736 0 -331.28116241690736 0.80522839746947739 0 0 0 0 -726.10344774333726 -462.43528564489981 0 -462.43528564489981 58.115074145777385 0 0 0 0 -736.98654831065505 -365.98973951877809 0 -365.98973951877809 95.987470723707503 0 0 0 0 -430.88100684148958 -331.15035054535156 0 -331.15035054535156 43.530649475182599 0 0 0 0 -943.31575821983279 -526.26857614670325 0 -526.26857614670325 53.802918926468692 0 0 0 0 -682.58282686083112 -213.28867962545871 0 -213.28867962545871 -5.3464610606065435 0 0 0 0 -284.74453521191026 -367.73048661514241 0 -367.73048661514241 -5.1868344358180991 0 0 0 0 -569.07485802403244 -288.05607235404705 0 -288.05607235404705 -25.420487492418147 0 0 0 0 -261.8486474586025 -130.49254833933946 0 -130.49254833933946 -325.49223810540798 0 0 0 0 -470.75134510549833 320.73198649668961 0 320.73198649668961 -710.41293694171713 0 0 0 0 -189.50867018785721 -269.75357044181482 0 -269.75357044181482 -317.48563843950751 0 0 0 0 -1403.3111585897277 -694.39382791623927 0 -694.39382791623927 -28.516228606817094 0 0 0 0 -1636.9934590941994 -82.380637574267098 0 -82.380637574267098 -10.437558116476339 0 0 0 0 -276.58247292596207 -252.07664597863135 0 -252.07664597863135 -335.78041899801019 0 0 0 0 -223.25129795428074 -461.38131338017354 0 -461.38131338017354 -222.18323419040473 0 0 0 0 48.679819795230287 -367.2860303611892 0 -367.2860303611892 -302.11060946419821 0 0 0 0 -80.750509820121806 -213.09529552219078 0 -213.09529552219078 -352.01471800238824 0 0 0 0 -86.13406301906798 -322.8181661092392 0 -322.8181661092392 -305.76396480339361 0 0 0 0 -222.92267432967492 -211.5350797955989 0 -211.5350797955989 -117.29485781200816 0 0 0 0 -141.16366102171014 -297.5180545866948 0 -297.5180545866948 -118.58033388168735 0 0 0 0 -165.57017816066218 -320.20956210315143 0 -320.20956210315143 -130.05858622830681 0 0 0 0 -122.83588845688791 -243.70315797017136 0 -243.70315797017136 -81.205249802264461 0 0 0 0 -50.970693458570167 -214.92637814857619 0 -214.92637814857619 -89.643360601024739 0 0 0 0 -8.229299395592534 -410.97376899145559 0 -410.97376899145559 129.8191019318362 0 0 0 0 -126.92780573152413 -213.02993344419218 0 -213.02993344419218 24.092726463989152 0 0 0 0 90.23050930264435 -185.95910278556886 0 -185.95910278556886 25.07438158204809 0 0 0 0 -181.24039605527651 -315.40265809785222 0 -315.40265809785222 93.318465589980633 0 0 0 0 795.38332601707225 -35.409463529449511 0 -35.409463529449511 -11.455632359415397 0 0 0 0 -0.052318858633356058 -1.9189284694469961 0 -1.9189284694469961 1.281733505133225 0 0 0 0 395.03008801089163 -404.89509572332605 0 -404.89509572332605 30.991716251358866 0 0 0 0 117.35951236244 -141.74588852716556 0 -141.74588852716556 89.071428997741194 0 0 0 0 -15.801111454005877 -151.46657905908012 0 -151.46657905908012 100.9147538665693 0 0 0 0 -29.403603095066501 -133.99310936583117 0 -133.99310936583117 86.675066537137639 0 0 0 0 42.211933285114355 -210.62819308262982 0 -210.62819308262982 95.362464273231353 0 0 0 0 28.97638239411026 -149.9932295591118 0 -149.9932295591118 -402.60877191525606 0 0 0 0 -56.638261461674119 -220.6767895555879 0 -220.6767895555879 5.8656211941688525 0 0 0 0 -60.394548805925297 -108.92589239908307 0 -108.92589239908307 506.46653181231591 0 0 0 0 0.13600706490706216 -0.20400093679867481 0 -0.20400093679867481 -0.24050064090241907 0 0 0 0 57.805849628823125 -297.77265739899906 0 -297.77265739899906 -132.86301409717635 0 0 0 0 -63.35288805962773 -76.132652019053126 0 -76.132652019053126 10.454349484818522 0 0 0 0 -33.062742996204179 -94.629911754940508 0 -94.629911754940508 -39.100381255381819 0 0 0 0 -50.5974301090464 -79.815399213435967 0 -79.815399213435967 64.714652576692515 0 0 0 0 -67.446224132232601 -129.6658742665702 0 -129.6658742665702 -8.7508074316924649 0 0 0 0 12.150374312099302 -106.58248387693106 0 -106.58248387693106 -115.73739625104963 0 0 0 0 -58.484852411624161 -123.39878222035114 0 -123.39878222035114 69.81633985745998 0 0 0 0 0.29614722082624212 -98.041961089029115 0 -98.041961089029115 12.026469949646636 0 0 0 0 -54.408419256011257 -65.1979578130005 0 -65.1979578130005 15.996160370739545 0 0 0 0 -91.349631761317141 -103.67303330936475 0 -103.67303330936475 27.947483251167256 0 0 0 0 -52.162065597505716 -119.23496090551764 0 -119.23496090551764 13.731038628760928 0 0 0 0 -8.3759871033107629 -135.09560663580515 0 -135.09560663580515 27.17655529337776 0 0 0 0 -85.364386506887968 -84.719549674975497 0 -84.719549674975497 -15.284962737109595 0 0 0 0 -231.78356645309759 -279.76547571428273 0 -279.76547571428273 -13.221244954558642 0 0 0 0 -85.796382259985108 -59.562859576083213 0 -59.562859576083213 5.8783709177447214 0 0 0 0 -638.73272854057723 -583.92725763654971 0 -583.92725763654971 222.28270419354089 0 0 0 0 -359.32479000803505 164.38885031615916 0 164.38885031615916 56.982047994669301 0 0 0 0 -19.903260665058525 -0.042307820755169701 0 -0.042307820755169701 9.8937285427618136 0 0 0 0 -6.322317842481425 -116.6123986184607 0 -116.6123986184607 -80.36654770032635 0 0 0 0 -115.14434425783602 -81.437425886659923 0 -81.437425886659923 -18.062718355143293 0 0 0 0 -2.9762872841112653 -16.342744091339384 0 -16.342744091339384 -9.7398520769772823 0 0 0 0 -71.833046660760999 -51.20868290755746 0 -51.20868290755746 -32.629190849710483 0 0 0 0 28.131824967393186 -140.93872753316487 0 -140.93872753316487 -98.519382887370966 0 0 0 0 -50.168867560896615 -32.111420306100115 0 -32.111420306100115 209.61508703293089 0 0 0 0 -20.931413646641886 -150.98196061890349 0 -150.98196061890349 -96.56443035009471 0 0 0 0 -39.037020886593382 -68.993186215026526 0 -68.993186215026526 -109.39796762439119 0 0 0 0 -81.360046408545742 -48.988750468147323 0 -48.988750468147323 -20.023679490514937 0 0 0 0 -72.419552004284924 -19.429514758194273 0 -19.429514758194273 156.22983427888539 0 0 0 0 -4.7331575202406384 80.035932880709879 0 80.035932880709879 398.14195814663253 0 0 0 0 24.226124690147117 -64.018829695661907 0 -64.018829695661907 -39.273918429382093 0 0 0 0 148.42456993270025 154.96215695141291 0 154.96215695141291 425.45169802144665 0 0 0 0 495.2598009724461 158.19517673536029 0 158.19517673536029 403.56528255326339 0 0 0 0 -111.49299375325063 -59.708027072265395 0 -59.708027072265395 274.69093375650118 0 0 0 0 -176.83048905951728 -53.038576108334382 0 -53.038576108334382 343.14494987283979 0 0 0 0 -60.948730954911298 28.481301929612528 0 28.481301929612528 456.49357177967613 0 0 0 0 -79.712946978368564 68.234682374026306 0 68.234682374026306 377.29154447487963 0 0 0 0 -112.84549442314892 8.6956811590825964 0 8.6956811590825964 259.3735994773233 0 0 0 0 -160.81035282953599 16.479691376163828 0 16.479691376163828 405.40818580352061 0 0 0 0 -179.87404949953634 -59.144380830908631 0 -59.144380830908631 273.11925939146749 0 0 0 0 -139.96405352757574 -98.088189219211927 0 -98.088189219211927 152.61970651605952 0 0 0 0 -124.55695003930123 -76.123967249628549 0 -76.123967249628549 150.8125819912384 0 0 0 0 -87.160313121325999 5.3712706886954038 0 5.3712706886954038 404.29542184488309 0 0 0 0 -70.969710576660873 81.027094676570414 0 81.027094676570414 373.9843894355472 0 0 0 0 -55.021935353186564 93.043548620737965 0 93.043548620737965 382.97091186056787 0 0 0 0 -79.879655812343117 86.008969895031441 0 86.008969895031441 457.53099388918781 0 0 0 0 -0.038463459495687857 118.02610001833818 0 118.02610001833818 446.93814681409458 0 0 0 0 -24.396849118205864 163.66102659238095 0 163.66102659238095 424.80207753140712 0 0 0 0 -45.675050711553922 106.44845194256413 0 106.44845194256413 318.68385873579973 0 0 0 0 -26.804611994375591 164.55055059007282 0 164.55055059007282 282.18334444086395 0 0 0 0 -8.0381916396072484 13.678567531158478 0 13.678567531158478 197.89645579943681 0 0 0 0 -80.995145754037367 117.23110410977461 0 117.23110410977461 337.15400847476758 0 0 0 0 34.7765342040002 150.66082999235005 0 150.66082999235005 330.29322979750577 0 0 0 0 51.141511178218934 116.27339277703868 0 116.27339277703868 336.45122260467633 0 0 0 0 445.83053924617707 -12.710197501215589 0 -12.710197501215589 443.8045548584596 0 0 0 0 -22.611454843015963 52.982009983939861 0 52.982009983939861 506.09809996109834 0 0 0 0 25.226701853353006 72.670894968825451 0 72.670894968825451 468.44455059422762 0 0 0 0 839.69597217616047 -525.79326218410461 0 -525.79326218410461 359.7663006024959 0 0 0 0 628.4340284231439 130.49335614420852 0 130.49335614420852 309.69256212167238 0 0 0 0 -659.28538905339155 -93.827346363796096 0 -93.827346363796096 539.094526826113 0 0 0 0 35.729763260505187 -498.08797323414001 0 -498.08797323414001 715.54783268446772 0 0 0 0 -247.8411908576054 -316.15483371836854 0 -316.15483371836854 -168.41615587248089 0 0 0 0 -50.847444120972796 -238.21622591599953 0 -238.21622591599953 -470.6507771234028 0 0 0 0 -160.49868133129712 342.73079209031221 0 342.73079209031221 -110.80290618368599 0 0 0 0 54.050608949000207 -111.1677093438509 0 -111.1677093438509 393.98359177332532 0 0 0 0 70.865684342807072 -61.888166369193641 0 -61.888166369193641 68.226943206506803 0 0 0 0 43.885452209743562 -9.2470642166690595 0 -9.2470642166690595 -17.719830064634152 0 0 0 0 -99.054567203027545 -47.151280646117641 0 -47.151280646117641 40.252214436390886 0 0 0 0 -261.03692302643321 -209.85592155089338 0 -209.85592155089338 -11.121671234252858 0 0 0 0 -407.05873850307762 -1666.6615113965299 0 -1666.6615113965299 1515.0121881155792 0 0 0 0 107.57183994274237 -136.62374837097741 0 -136.62374837097741 96.295645749258256 0 0 0 0 -62.273326016410692 -50.38925085447584 0 -50.38925085447584 -32.537442802789457 0 0 0 0 30.723083053846494 -74.335733784019794 0 -74.335733784019794 -1.2111630483467479 0 0 0 0 21.74603678524727 -150.60786569792697 0 -150.60786569792697 33.216567239291521 0 0 0 0 -58.712187178683394 -49.634682793024623 0 -49.634682793024623 -32.716033226921098 0 0 0 0 -3404.0689684173303 -248.17890850137428 0 -248.17890850137428 2054.3613751827725 0 0 0 0 -692.543332425259 -2.3671892186284822 0 -2.3671892186284822 300.01272933084692 0 0 0 0 -2352.2849107456495 1313.3161433553432 0 1313.3161433553432 -288.02141328627476 0 0 0 0 -2454.0291856972217 -1220.2101671763248 0 -1220.2101671763248 2287.7574331916112 0 0 0 0 -245.40748337811601 -351.13652642799934 0 -351.13652642799934 -2067.3900861678248 0 0 0 0 -15.778403102281487 -14.900307843562842 0 -14.900307843562842 -11.179139776474912 0 0 0 0 2690.4222833222775 551.02150015980033 0 551.02150015980033 -4616.0866111875093 0 0 0 0 -538.2443798147724 -1727.9071337902942 0 -1727.9071337902942 2591.0928577366703 0 0 0 0 -335.31235013360856 -149.16381313234979 0 -149.16381313234979 9.2662826100558391 0 0 0 0 46.097116441174876 -191.80358684633393 0 -191.80358684633393 70.548369860684033 0 0 0 0 -67.068209969229059 -40.934122241832313 0 -40.934122241832313 -24.10039751828992 0 0 0 0 -18.208131325790276 -45.882348302170499 0 -45.882348302170499 -42.243870262359003 0 0 0 0 -314.10566246823873 -395.54569730260869 0 -395.54569730260869 -193.63768706502697 0 0 0 0 -95.976534814877965 -46.258691912734804 0 -46.258691912734804 -10.614465540862497 0 0 0 0 65.681586882203192 -298.02699625509035 0 -298.02699625509035 353.06973987913443 0 0 0 0 1510.0946183745982 -1428.6214283897343 0 -1428.6214283897343 -3061.6061779454867 0 0 0 0 -40.489964551245066 -580.70772412639781 0 -580.70772412639781 1111.7151924652717 0 0 0 0 -46.545012356061477 -62.48667165317012 0 -62.48667165317012 -32.742011380977942 0 0 0 0 -115.28807008365766 -262.4336780699814 0 -262.4336780699814 50.486489086499432 0 0 0 0 99.77595153780203 -291.09726729133672 0 -291.09726729133672 53.844426096940879 0 0 0 0 -209.91692050925121 -73.362345954165448 0 -73.362345954165448 393.40412158239451 0 0 0 0 -479.69973846243738 -315.63286364772102 0 -315.63286364772102 214.8532859887946 0 0 0 0 -157.60491360488231 -354.54298986614594 0 -354.54298986614594 218.78363217042408 0 0 0 0 -961.0058532501937 -1091.6746329431526 0 -1091.6746329431526 -310.68580108886454 0 0 0 0 -874.88433988656107 -270.72684986347485 0 -270.72684986347485 999.98897327735176 0 0 0 0 -790.63218774618144 -644.84303249797722 0 -644.84303249797722 378.39469571610789 0 0 0 0 -138.00705810713043 -606.44090274680912 0 -606.44090274680912 -547.87726397555525 0 0 0 0 44.213971223665794 -407.43962150727475 0 -407.43962150727475 156.48488053829715 0 0 0 0 -137.18426779871879 -556.68879178642237 0 -556.68879178642237 46.930588856301824 0 0 0 0 202.57402576001186 -543.10560334705951 0 -543.10560334705951 242.83734856883166 0 0 0 0 -241.99437472578575 -708.39386665846359 0 -708.39386665846359 330.79029186333946 0 0 0 0 -347.53448183746332 -504.17629177457275 0 -504.17629177457275 285.44196392832055 0 0 0 0 -364.77731923858937 -472.34204929122461 0 -472.34204929122461 380.8036856778308 0 0 0 0 -220.70581037130796 -690.40448371986349 0 -690.40448371986349 120.00547529528012 0 0 0 0 -222.98603665927658 -591.74364965986661 0 -591.74364965986661 317.17970311205727 0 0 0 0 -250.34887445457844 -619.51400278142592 0 -619.51400278142592 318.97033260165881 0 0 0 0 -397.45106798359484 -446.17682319765754 0 -446.17682319765754 170.22271399761939 0 0 0 0 -251.73667378516438 -903.74375624164122 0 -903.74375624164122 -112.59942838073312 0 0 0 0 -130.1121031521252 -705.24131621396691 0 -705.24131621396691 108.38126597596238 0 0 0 0 -103.21273908450712 -647.69538805921638 0 -647.69538805921638 38.043692069431046 0 0 0 0 -89.151644204061085 -603.66303613124046 0 -603.66303613124046 -158.22138748569432 0 0 0 0 -162.43989629212228 -514.67827413902523 0 -514.67827413902523 -244.6728137452692 0 0 0 0 -85.399218324102549 -364.11634429065816 0 -364.11634429065816 -219.17018077208195 0 0 0 0 -108.35514727243935 -606.3624195294592 0 -606.3624195294592 -130.60701451082241 0 0 0 0 -257.31059265949443 -491.47589455375964 0 -491.47589455375964 31.247090781882434 0 0 0 0 422.35714211652089 -433.86623293319644 0 -433.86623293319644 124.27532764262833 0 0 0 0 413.56041614239672 -605.00286133354246 0 -605.00286133354246 344.61480230855523 0 0 0 0 395.36426622359159 -353.39801129767511 0 -353.39801129767511 91.957834898144256 0 0 0 0 2.4792195268477215 0.15489746183434772 0 0.15489746183434772 -0.64757559436156953 0 0 0 0 267.32174506081356 -160.18047745041713 0 -160.18047745041713 -46.224768141591994 0 0 0 0 123.51217552366325 -253.20296483621041 0 -253.20296483621041 118.16122367318417 0 0 0 0 303.55140957391723 -364.48800543923971 0 -364.48800543923971 320.14439052507731 0 0 0 0 220.03997259112839 -428.86416754440597 0 -428.86416754440597 144.1863731862486 0 0 0 0 496.16222080417583 -663.80266471473988 0 -663.80266471473988 214.52508348060292 0 0 0 0 549.03393480896557 -590.95465744048715 0 -590.95465744048715 301.89276572010567 0 0 0 0 -2.6841050071995873 -7.4401407610216168 0 -7.4401407610216168 -3.3001239165438889 0 0 0 0 673.35498467714024 -376.96047159770751 0 -376.96047159770751 263.24383661148931 0 0 0 0 187.99720144142566 -500.58487841187218 0 -500.58487841187218 403.86840506348926 0 0 0 0 91.522359749284988 -545.90740633574342 0 -545.90740633574342 543.2349544957724 0 0 0 0 -0.18554972662841696 -2.7881336144809028 0 -2.7881336144809028 -1.6927793622793814 0 0 0 0 1457.8541616298389 -1010.625233193467 0 -1010.625233193467 372.8623413632431 0 0 0 0 69.67012299746375 -1101.0768148263683 0 -1101.0768148263683 480.47173061708781 0 0 0 0 -603.0759397734696 -225.10333144084234 0 -225.10333144084234 436.67817869644978 0 0 0 0 766.9837522303194 -448.4777253514012 0 -448.4777253514012 -32.279178095419411 0 0 0 0 968.03463786135262 -427.47410395464613 0 -427.47410395464613 -64.014954008069253 0 0 0 0 778.46198585362617 -201.30410747259398 0 -201.30410747259398 -91.6514883927357 0 0 0 0 879.59025843417078 -459.8949777933849 0 -459.8949777933849 217.50132496121478 0 0 0 0 1939.1927345081035 -208.49551450202875 0 -208.49551450202875 270.16411396332114 0 0 0 0 -107.14257881765349 -878.4919886955056 0 -878.4919886955056 2099.4439414842891 0 0 0 0 1579.2417815584281 -1396.4984211316178 0 -1396.4984211316178 538.22176084941384 0 0 0 0 -167.67621427874246 312.83345969770198 0 312.83345969770198 1428.4723302190951 0 0 0 0 172.26126430125373 -1.0429321849842381 0 -1.0429321849842381 20.093357582987665 0 0 0 0 2233.0177919078237 -569.67332287814338 0 -569.67332287814338 -62.356733827769858 0 0 0 0 5.1324243087429169 -8.0727390198206415 0 -8.0727390198206415 17.473748072537063 0 0 0 0 1632.2030788162408 -1915.0708700994601 0 -1915.0708700994601 705.32006109229587 0 0 0 0 276.02535238913515 -207.62407708418687 0 -207.62407708418687 207.57619580772189 0 0 0 0 324.69459399550215 -684.11882392034386 0 -684.11882392034386 765.78195626108027 0 0 0 0 -37.816723254454701 -378.85702094047156 0 -378.85702094047156 597.71800853793866 0 0 0 0 53.515920232223834 -518.31137233641039 0 -518.31137233641039 809.87303778918431 0 0 0 0 -97.137652786528633 6.7261642945632047 0 6.7261642945632047 829.34654137654547 0 0 0 0 -39.918820618201153 -116.94004964715987 0 -116.94004964715987 208.81173218163531 0 0 0 0 108.15845233422624 -321.63402850338025 0 -321.63402850338025 573.2706000633334 0 0 0 0 -123.26455477730451 -39.195929168748989 0 -39.195929168748989 457.21586626643148 0 0 0 0 -123.23355079749308 48.869172447746678 0 48.869172447746678 369.44524259975151 0 0 0 0 39.093527365927002 -36.450248570527037 0 -36.450248570527037 317.08557202354496 0 0 0 0 -230.96550901809496 -223.78781382218403 0 -223.78781382218403 18.23653444062802 0 0 0 0 -119.84803645976353 -49.52624088434095 0 -49.52624088434095 60.795412261565616 0 0 0 0 -189.28271225213575 -60.254177631863058 0 -60.254177631863058 194.11720778839663 0 0 0 0 -68.220952587167631 17.091537953825537 0 17.091537953825537 287.18853303343349 0 0 0 0 -154.88716304078116 -13.436646029173062 0 -13.436646029173062 341.09035488791415 0 0 0 0 -93.449313074004749 -40.244539084813368 0 -40.244539084813368 190.92063691780641 0 0 0 0 -102.9776145919077 -138.3076628461813 0 -138.3076628461813 254.14697334578523 0 0 0 0 -182.8894073338306 -21.609066898134188 0 -21.609066898134188 177.60057969980699 0 0 0 0 -120.70714258921271 -90.162101615248503 0 -90.162101615248503 -101.86885040926427 0 0 0 0 61.91530608564517 -73.018769839263769 0 -73.018769839263769 -108.84278202561836 0 0 0 0 -155.96944352054629 -176.57959373004519 0 -176.57959373004519 192.91733134527385 0 0 0 0 -29.009260044445 -68.235988627854567 0 -68.235988627854567 -102.72696101694964 0 0 0 0 -28.162454627195984 -57.500386789294225 0 -57.500386789294225 -23.975025302649385 0 0 0 0 -49.697063618088578 -63.391848077986765 0 -63.391848077986765 -21.625758324806611 0 0 0 0 -31.099903169873187 -47.669578428080847 0 -47.669578428080847 12.75213376596947 0 0 0 0 -85.53780862916409 -55.809841236652808 0 -55.809841236652808 5.3423820393967656 0 0 0 0 -68.333978301834577 -75.130324748721478 0 -75.130324748721478 -30.901998959309822 0 0 0 0 -65.585744374346177 -256.60599387563525 0 -256.60599387563525 -318.33604278262283 0 0 0 0 -238.25360638961138 -198.72034016176622 0 -198.72034016176622 -130.38784374314855 0 0 0 0 -8.620914622596171 -16.003962989122307 0 -16.003962989122307 -17.7948284928205 0 0 0 0 -32.154258969505463 -58.959640469153783 0 -58.959640469153783 -10.233652993306208 0 0 0 0 -22.04079661181644 -47.64451745808087 0 -47.64451745808087 -9.5186426122694936 0 0 0 0 -113.54201010544239 -119.664424907598 0 -119.664424907598 -196.97663978690616 0 0 0 0 402.96038129989347 31.639368589991136 0 31.639368589991136 92.224079764984708 0 0 0 0 -144.03589096650416 -1533.1198266214751 0 -1533.1198266214751 1104.2254340518975 0 0 0 0 6.5290901919601252 -31.401412810011038 0 -31.401412810011038 37.31693099874213 0 0 0 0 -121.5102739727663 -201.26105338780144 0 -201.26105338780144 71.253351720334194 0 0 0 0 0.5625570798534909 -118.65562294602978 0 -118.65562294602978 168.30362846576372 0 0 0 0 -96.964887303098976 -170.16073040725587 0 -170.16073040725587 -194.81622240657089 0 0 0 0 19.143385881032096 -25.610447641142926 0 -25.610447641142926 -14.549114891747362 0 0 0 0 -9.0158954921509391 -6.0069348302943446 0 -6.0069348302943446 4.3411936387452315 0 0 0 0 -214.23174031855569 -297.97806069984654 0 -297.97806069984654 -205.10155036898922 0 0 0 0 -138.80616967703463 -269.21192624806645 0 -269.21192624806645 -370.17751614877943 0 0 0 0 19.658380232062214 -13.470365375277101 0 -13.470365375277101 8.0978780664794794 0 0 0 0 -106.87281453014612 -115.26551096767616 0 -115.26551096767616 86.027053746593083 0 0 0 0 2893.1542665678535 -939.17679308849256 0 -939.17679308849256 -1192.3281360634837 0 0 0 0 202.18788597054856 -977.5400539988708 0 -977.5400539988708 1939.2713424809426 0 0 0 0 1247.5659619859011 -1486.4371669535267 0 -1486.4371669535267 332.97641327338806 0 0 0 0 1213.5198526731924 -1611.4951341523665 0 -1611.4951341523665 537.09436782018383 0 0 0 0 3160.024665607104 -2155.2727095233977 0 -2155.2727095233977 451.46687465259765 0 0 0 0 1784.5023406186647 532.13200871974504 0 532.13200871974504 261.33533639159577 0 0 0 0 1043.6317492210787 13.84913060234976 0 13.84913060234976 1588.5817756705928 0 0 0 0 536.89203756075585 -1143.2377590414262 0 -1143.2377590414262 1869.1128633344024 0 0 0 0 2907.098898235758 -1078.6569305081639 0 -1078.6569305081639 200.69877299225436 0 0 0 0 2172.2202161198484 -1679.4828672281951 0 -1679.4828672281951 693.13091936308183 0 0 0 0 -6.786659763273974 -4.8478049798050531 0 -4.8478049798050531 6.2148744886754219 0 0 0 0 -313.41023986055461 92.430584924391042 0 92.430584924391042 738.98646595089849 0 0 0 0 -233.6271776723097 -302.05773970435257 0 -302.05773970435257 156.78338488247391 0 0 0 0 283.54517662532635 -158.25792424845804 0 -158.25792424845804 646.76590479909328 0 0 0 0 639.36053320600422 -113.5686045804498 0 -113.5686045804498 -360.04249487869555 0 0 0 0 441.22736425688345 -538.2512519316324 0 -538.2512519316324 860.40802609212824 0 0 0 0 -519.19861300318007 -509.5079221369715 0 -509.5079221369715 1159.2631303341004 0 0 0 0 812.47637809094385 -910.90903395009673 0 -910.90903395009673 734.70787504837426 0 0 0 0 166.88343478516981 199.40284788646068 0 199.40284788646068 -344.87260837585518 0 0 0 0 -20.742074353062932 -19.23784958618036 0 -19.23784958618036 -18.003699206854794 0 0 0 0 130.13639460345638 167.77144182530992 0 167.77144182530992 -21.880860031709744 0 0 0 0 138.0928662489207 -136.05693435319517 0 -136.05693435319517 5.7293460701421282 0 0 0 0 -58.065677549732413 -238.09007671591826 0 -238.09007671591826 -14.598711691905919 0 0 0 0 393.94800764251386 -212.53474708993986 0 -212.53474708993986 18.976006570075697 0 0 0 0 592.76754040949675 306.80315537839192 0 306.80315537839192 -29.770155869580776 0 0 0 0 123.86037923093545 -417.04617497811068 0 -417.04617497811068 104.77005534379623 0 0 0 0 259.10962479447596 -57.817074160806442 0 -57.817074160806442 962.87375459096256 0 0 0 0 1211.5880644386643 -95.004750194925691 0 -95.004750194925691 -19.504995460563805 0 0 0 0 230.4950647043529 241.10211234763392 0 241.10211234763392 -236.56444132883098 0 0 0 0 -391.62012357169988 -1049.2925035367416 0 -1049.2925035367416 988.4483642431569 0 0 0 0 661.25132255842686 -862.60376227899451 0 -862.60376227899451 -419.17851030318161 0 0 0 0 1585.3869671400887 106.08458179821537 0 106.08458179821537 -617.43821648965968 0 0 0 0 -96.750038088606175 -127.50218241041694 0 -127.50218241041694 347.05469945676123 0 0 0 0 -4.8843954369202116 -6.308878695465471 0 -6.308878695465471 -6.9778821413956464 0 0 0 0 -3.2902145065177582 2.3724293856796059 0 2.3724293856796059 13.757559569925043 0 0 0 0 228.20285021166271 -264.40007932891479 0 -264.40007932891479 148.05338879594274 0 0 0 0 513.2736238046499 -560.69895373760392 0 -560.69895373760392 344.90212807635999 0 0 0 0 207.21842591638665 -316.68698870014669 0 -316.68698870014669 169.51745104392467 0 0 0 0 361.40550513668813 -53.000286967647412 0 -53.000286967647412 -48.470486496336889 0 0 0 0 302.48169256375849 -327.9000175674563 0 -327.9000175674563 151.26426422631994 0 0 0 0 275.20879744534193 -273.70753692403696 0 -273.70753692403696 149.88766152042263 0 0 0 0 264.3265457910469 -291.0165292355814 0 -291.0165292355814 123.36812522817672 0 0 0 0 3.9910900488871 3.3613486498652652 0 3.3613486498652652 1.5201540340395212 0 0 0 0 382.55072009666168 140.80031370007327 0 140.80031370007327 276.20276055854811 0 0 0 0 84.142258499090474 214.55216898085018 0 214.55216898085018 497.76375945313521 0 0 0 0 15.976401675948637 5.5159566067450214 0 5.5159566067450214 21.050522617493698 0 0 0 0 287.91871916781884 -298.59851573323067 0 -298.59851573323067 198.60895810133388 0 0 0 0 2.5936893889273649 2.6583232314896605 0 2.6583232314896605 2.3831532320204261 0 0 0 0 816.78910338564606 18.06859036404876 0 18.06859036404876 1578.7620789127468 0 0 0 0 -20.12400774557301 -285.35682550344063 0 -285.35682550344063 662.99884223987829 0 0 0 0 773.79633330077684 -360.84604667614803 0 -360.84604667614803 492.44484396151529 0 0 0 0 857.85050249943879 -1470.1399745621547 0 -1470.1399745621547 1966.9751591534246 0 0 0 0 737.90453106467658 -913.86698756355281 0 -913.86698756355281 226.14529179545571 0 0 0 0 172.20740182832353 440.43145063040993 0 440.43145063040993 121.81738945233155 0 0 0 0 576.80127548873338 -1054.9106924454118 0 -1054.9106924454118 468.93691418800199 0 0 0 0 597.73919288046648 -1152.7314837521344 0 -1152.7314837521344 224.23632059490956 0 0 0 0 757.69283648259932 -1015.2256282579192 0 -1015.2256282579192 -20.694819160960833 0 0 0 0 -194.80212891661358 0.50911454340064211 0 0.50911454340064211 -29.154917592401489 0 0 0 0 -16.017238743028429 -59.639706974242017 0 -59.639706974242017 34.961311319132619 0 0 0 0 -9.1916846794758271 -23.262540442707603 0 -23.262540442707603 20.365046906393104 0 0 0 0 -50.981878463593603 -70.901788887877046 0 -70.901788887877046 31.639747953471669 0 0 0 0 -18.227146570999579 -63.197676727517511 0 -63.197676727517511 58.392714442495517 0 0 0 0 15.320377978710454 -67.541300333052163 0 -67.541300333052163 76.828343072762777 0 0 0 0 -8.4748458676637739 -55.797256435755642 0 -55.797256435755642 82.104836474214665 0 0 0 0 -330.74647644442393 -366.70433063293785 0 -366.70433063293785 56.873924179417372 0 0 0 0 -290.37418054338559 -290.13207431449882 0 -290.13207431449882 -28.249219834022369 0 0 0 0 -275.54622859146548 -370.73078291455204 0 -370.73078291455204 50.400568459396709 0 0 0 0 -109.17494857339895 -28.305752414410456 0 -28.305752414410456 35.229388698695494 0 0 0 0 -295.32503996906598 -289.47270019813368 0 -289.47270019813368 79.531977332624592 0 0 0 0 -585.43534404171805 -264.01267544927924 0 -264.01267544927924 555.81883091205736 0 0 0 0 175.90798303252359 -254.04178763573464 0 -254.04178763573464 272.8125026296766 0 0 0 0 -483.32148704045676 -454.27360249536923 0 -454.27360249536923 305.54446187655776 0 0 0 0 -10.983136234013129 2.1048386297663555 0 2.1048386297663555 2.0050261003289798 0 0 0 0 -255.38404080002601 -135.28604245869428 0 -135.28604245869428 242.25136444999498 0 0 0 0 -263.32082148153313 -305.27581609291883 0 -305.27581609291883 253.5967397943059 0 0 0 0 -221.66029158392848 -267.26502927913316 0 -267.26502927913316 273.32224124863114 0 0 0 0 -216.71731167243161 -333.58152035744433 0 -333.58152035744433 262.23525815271205 0 0 0 0 -64.222080734496558 -415.31192076762636 0 -415.31192076762636 127.2856851961933 0 0 0 0 -178.58503981074682 -344.50746050216276 0 -344.50746050216276 114.82563561549978 0 0 0 0 -261.90708743190953 -332.77787924038785 0 -332.77787924038785 123.17032030713381 0 0 0 0 -181.30354221065863 -254.97057153370406 0 -254.97057153370406 224.20885805788566 0 0 0 0 -211.47767250631114 -327.6291703070674 0 -327.6291703070674 179.92831769639452 0 0 0 0 -168.16171074889598 -284.44038863347214 0 -284.44038863347214 142.37295178060594 0 0 0 0 -192.25105435197111 -376.71700539486847 0 -376.71700539486847 47.211272465281581 0 0 0 0 -91.508200393673064 -349.90132736987107 0 -349.90132736987107 -85.59731344177635 0 0 0 0 -100.2148396438206 -389.06445163734497 0 -389.06445163734497 -50.054533517177333 0 0 0 0 -158.93070646131446 -324.81018029059896 0 -324.81018029059896 -15.937145048865204 0 0 0 0 -135.68389902767467 -378.8489694135551 0 -378.8489694135551 109.53558801006875 0 0 0 0 -32.632789769233113 -359.05742600000622 0 -359.05742600000622 -12.363223610107525 0 0 0 0 -28.752973641527205 -398.63869511635312 0 -398.63869511635312 -50.376051383424056 0 0 0 0 28.396587530510942 -332.17590697717242 0 -332.17590697717242 -179.024117436089 0 0 0 0 62.324224659140782 -368.05863782801316 0 -368.05863782801316 -125.01320374796427 0 0 0 0 36.642859990444776 -286.56298683970999 0 -286.56298683970999 -74.75463590365689 0 0 0 0 146.24782938119165 -484.65558046869501 0 -484.65558046869501 62.777510670513948 0 0 0 0 252.25774374633806 -338.91470157986259 0 -338.91470157986259 -70.858372733497049 0 0 0 0 25.405607124339895 -441.75867794253463 0 -441.75867794253463 245.21525153085895 0 0 0 0 -64.312658279351126 -425.76822780860493 0 -425.76822780860493 242.41460239086882 0 0 0 0 -149.16874862200143 -455.09951510930387 0 -455.09951510930387 449.5655625134259 0 0 0 0 -388.7317606083634 -267.69002335299228 0 -267.69002335299228 521.32606152130074 0 0 0 0 301.45322177966227 -757.44727364671235 0 -757.44727364671235 493.92844969363614 0 0 0 0 -80.916974596914315 21.676126203880585 0 21.676126203880585 18.022629635226622 0 0 0 0 3.558111876731695 -4.5447586600672611 0 -4.5447586600672611 9.6634407805545095 0 0 0 0 677.29416575236087 -200.27218339866249 0 -200.27218339866249 19.67221038795833 0 0 0 0 -69.80443665651751 -56.424751630509036 0 -56.424751630509036 538.1726861707657 0 0 0 0 -6.6003437068131916 -11.974665547310906 0 -11.974665547310906 61.372887226368221 0 0 0 0 -60.610515367692642 -104.58911746825834 0 -104.58911746825834 -4.3755419446642918 0 0 0 0 -364.02778378973017 49.896369886184402 0 49.896369886184402 -2695.4905497548971 0 0 0 0 9.6604982338431 -110.36555266864025 0 -110.36555266864025 -90.385365702963554 0 0 0 0 20.620943125716831 -76.105210219960213 0 -76.105210219960213 7.2371912237870824 0 0 0 0 -135.0168644676869 -96.598335187973248 0 -96.598335187973248 0.77900873209637211 0 0 0 0 18.489401493429998 -16.901714159559198 0 -16.901714159559198 -6.7344478853618366 0 0 0 0 -21.762313095693287 -7.1893333655098246 0 -7.1893333655098246 8.1877983074620388 0 0 0 0 -472.33258338912492 328.59005119645985 0 328.59005119645985 -162.11587886869165 0 0 0 0 126.07706025068182 -300.47528363539641 0 -300.47528363539641 -1184.0160110308766 0 0 0 0 -1036.5608104104031 138.21226019704045 0 138.21226019704045 448.44600527727357 0 0 0 0 82.016030627011787 -1291.5812406351615 0 -1291.5812406351615 -1390.9283381195128 0 0 0 0 -285.66989761198056 -575.60841348457689 0 -575.60841348457689 -274.2910188163587 0 0 0 0 -1047.1587485245254 -2548.9200325535494 0 -2548.9200325535494 194.12281946896837 0 0 0 0 -297.69624920517526 -0.26866290425550687 0 -0.26866290425550687 295.21744760317779 0 0 0 0 37.473613039012093 -69.49282435460637 0 -69.49282435460637 -24.776900209153979 0 0 0 0 -52.022513220367273 -96.756082146047106 0 -96.756082146047106 -19.87003291652718 0 0 0 0 -783.69024475289916 -369.76164684131982 0 -369.76164684131982 1522.2011532830647 0 0 0 0 -378.67336034124673 -38.778853806226834 0 -38.778853806226834 41.931800112019118 0 0 0 0 -467.53510464988358 -100.98248081796191 0 -100.98248081796191 95.881277198357566 0 0 0 0 -512.45697016980557 -198.96847460914614 0 -198.96847460914614 122.09035765497538 0 0 0 0 -410.32112438918557 -106.84626198667684 0 -106.84626198667684 18.644682637233927 0 0 0 0 -427.01358876924496 -160.40974166589149 0 -160.40974166589149 137.1805068257745 0 0 0 0 -451.73462726984872 -26.012662379114772 0 -26.012662379114772 371.45112524703472 0 0 0 0 -582.14554539963137 -232.34685310519853 0 -232.34685310519853 505.71495065077033 0 0 0 0 -500.10677017174021 -139.17487158241238 0 -139.17487158241238 385.52055649361864 0 0 0 0 -607.98595265160839 -328.95659257445004 0 -328.95659257445004 216.29357651938335 0 0 0 0 -510.87547977251234 -377.66389681899454 0 -377.66389681899454 226.51479130255029 0 0 0 0 -597.26534114620881 -546.91451357226788 0 -546.91451357226788 34.889025119264261 0 0 0 0 -624.97921978658997 -430.4034740469433 0 -430.4034740469433 299.79226435874807 0 0 0 0 -765.18083564826702 -639.07984819405806 0 -639.07984819405806 47.414971732359845 0 0 0 0 -416.01727840770036 -508.05211969578886 0 -508.05211969578886 -158.25727504102679 0 0 0 0 -409.83487693872303 -628.16128849262896 0 -628.16128849262896 -283.34089012426648 0 0 0 0 -345.50645093155617 -525.84197292411318 0 -525.84197292411318 -272.5370246083985 0 0 0 0 -327.11133077851264 -447.82713667517964 0 -447.82713667517964 -161.11437107084976 0 0 0 0 -329.54333660737029 -422.98294981909567 0 -422.98294981909567 -169.59592734295438 0 0 0 0 -294.11013371386798 -374.17115200219268 0 -374.17115200219268 -127.48144731883804 0 0 0 0 -244.96483764203731 -319.93674859431849 0 -319.93674859431849 -89.504754379930091 0 0 0 0 -241.11191093805246 -341.83438969577765 0 -341.83438969577765 -161.70034926585413 0 0 0 0 -293.54360814328538 -378.22862281428752 0 -378.22862281428752 -157.69915221624115 0 0 0 0 -316.31506718529272 -343.95865797475017 0 -343.95865797475017 -76.957715530828864 0 0 0 0 -359.10134122200543 -330.45214782168114 0 -330.45214782168114 19.913080728838395 0 0 0 0 -367.89792963996297 -429.37286017052611 0 -429.37286017052611 -45.509861737053143 0 0 0 0 -401.69666510561365 -389.88909698970383 0 -389.88909698970383 -18.990793214174118 0 0 0 0 -504.55767308975919 -376.88418824451037 0 -376.88418824451037 136.03870987793925 0 0 0 0 -471.50705399457365 -251.25151895172894 0 -251.25151895172894 181.44483290573589 0 0 0 0 -434.15642554564693 -248.38612659127102 0 -248.38612659127102 88.805339246828225 0 0 0 0 -340.61978353247105 -252.85008160777761 0 -252.85008160777761 1.6501071433813195 0 0 0 0 -384.00290532546933 -289.00823621443851 0 -289.00823621443851 30.65764938502889 0 0 0 0 -373.98335048678564 -200.57299543744011 0 -200.57299543744011 -8.3393801343336236 0 0 0 0 -313.25030933687231 -236.26518161650529 0 -236.26518161650529 7.7948021041174798 0 0 0 0 -373.22361988658668 -194.67490810272648 0 -194.67490810272648 37.338183216830657 0 0 0 0 -435.63908421903034 -195.58464648687004 0 -195.58464648687004 66.491489116777302 0 0 0 0 -236.13144306847244 -240.82536233911742 0 -240.82536233911742 -36.331629937092657 0 0 0 0 -220.79695998399984 -225.00929230445036 0 -225.00929230445036 -52.263309239844602 0 0 0 0 -221.86172181955772 -217.08614609979122 0 -217.08614609979122 -45.763806772705721 0 0 0 0 -302.33391333909822 -215.33150197102077 0 -215.33150197102077 -33.720824341689877 0 0 0 0 -244.79290108461282 -240.33978713917895 0 -240.33978713917895 -35.413826622730994 0 0 0 0 -281.77536067558685 -279.04450250115769 0 -279.04450250115769 -32.674512962752488 0 0 0 0 -208.81074479548261 -249.68119434094842 0 -249.68119434094842 -66.091240849591486 0 0 0 0 -180.94382792065153 -242.02541780941829 0 -242.02541780941829 -65.059589474060886 0 0 0 0 -140.68730888010032 -245.60097114037671 0 -245.60097114037671 -90.790734980262641 0 0 0 0 -261.22527485666797 -287.0654011476181 0 -287.0654011476181 -34.613262508910339 0 0 0 0 -220.00047083444952 -288.95186094644669 0 -288.95186094644669 -87.36677272462839 0 0 0 0 -185.61842186289141 -269.90541554916854 0 -269.90541554916854 -82.788983012491371 0 0 0 0 -240.66354945042985 -320.72377598868115 0 -320.72377598868115 -122.84248749488324 0 0 0 0 -150.15565643005539 -280.31666488283736 0 -280.31666488283736 -167.8749767565605 0 0 0 0 -111.46364838618319 -218.00140784549876 0 -218.00140784549876 -86.537031039365502 0 0 0 0 -161.44858565196046 -265.46407998614086 0 -265.46407998614086 -120.4056015508977 0 0 0 0 -141.50093231617939 -235.80071568299172 0 -235.80071568299172 -110.20570525400944 0 0 0 0 -82.654391301883152 -225.83998381566107 0 -225.83998381566107 -151.01760795727751 0 0 0 0 -91.789692754362477 -205.23311112959345 0 -205.23311112959345 -107.27131605170143 0 0 0 0 -45.172991577710491 -149.16599843349104 0 -149.16599843349104 -83.521109633904416 0 0 0 0 -81.814141981187277 -196.82129147301384 0 -196.82129147301384 -139.89654437499121 0 0 0 0 -83.56402910273755 -195.88676329935333 0 -195.88676329935333 -140.16956572799245 0 0 0 0 -42.022068555583246 -116.06595389766881 0 -116.06595389766881 -169.08439480546804 0 0 0 0 -70.505776294885436 -191.58483129355955 0 -191.58483129355955 -198.87050104016089 0 0 0 0 -36.778955030720681 -139.80362288877586 0 -139.80362288877586 -119.37086272855231 0 0 0 0 -46.323053155443631 -151.91151564780739 0 -151.91151564780739 -97.294225959627511 0 0 0 0 -17.991288691875525 -77.93220911406388 0 -77.93220911406388 -76.608571788918198 0 0 0 0 -25.479314255964709 -71.28101651813995 0 -71.28101651813995 -82.285819493452436 0 0 0 0 -47.641772982809925 -125.63703325353708 0 -125.63703325353708 -152.44256503492943 0 0 0 0 6.855379045708105 -42.566921670440934 0 -42.566921670440934 -120.92330803058212 0 0 0 0 -32.33846759001608 -107.67118150128226 0 -107.67118150128226 -228.61814862705069 0 0 0 0 -15.611722094938159 -1.5679608077334706 0 -1.5679608077334706 -151.34727572301927 0 0 0 0 -13.563161935540847 40.097176686380408 0 40.097176686380408 -22.561474685817302 0 0 0 0 -37.380193921067985 -69.970723125330551 0 -69.970723125330551 -58.834220044896938 0 0 0 0 -19.005629552761093 25.055678632819763 0 25.055678632819763 -513.05079015702722 0 0 0 0 -11.281249239866156 88.796997111065139 0 88.796997111065139 -244.286988818385 0 0 0 0 -33.716325048706494 -77.675320566559094 0 -77.675320566559094 -331.53981582522101 0 0 0 0 7.4575623763957992 6.0838321130431723 0 6.0838321130431723 -169.32800429943018 0 0 0 0 -55.451046881091315 -147.9413661924591 0 -147.9413661924591 -308.4330436658347 0 0 0 0 -64.69400620367378 -137.90150412532239 0 -137.90150412532239 -182.1704247269081 0 0 0 0 -63.877218388312031 -137.59680754641158 0 -137.59680754641158 -261.15962800239504 0 0 0 0 -60.14185523604101 -130.00186821286115 0 -130.00186821286115 -383.67329943393997 0 0 0 0 -100.71091529697878 -210.338283377474 0 -210.338283377474 -211.31290626358532 0 0 0 0 -114.33073147127288 -250.26308825116575 0 -250.26308825116575 -327.25303900899598 0 0 0 0 -94.161236478365026 -241.18202869212064 0 -241.18202869212064 -241.24473064040649 0 0 0 0 -101.49526274239179 -214.5560701078939 0 -214.5560701078939 -157.31623221815971 0 0 0 0 -155.92553348781075 -276.83875773787076 0 -276.83875773787076 -163.05435128322642 0 0 0 0 -175.10986486460752 -332.79650924048383 0 -332.79650924048383 -286.98740849460592 0 0 0 0 -164.69325961612049 -370.48503148189411 0 -370.48503148189411 -521.27132326560968 0 0 0 0 -122.06607084127609 -261.06085793909369 0 -261.06085793909369 -268.30454331575311 0 0 0 0 -180.20244684026693 -489.96975707531965 0 -489.96975707531965 -280.02212124578546 0 0 0 0 -185.8610211698433 -450.91304477415224 0 -450.91304477415224 -511.15462528207718 0 0 0 0 -253.22789001210913 -385.10591084486623 0 -385.10591084486623 -274.69754780056246 0 0 0 0 -204.60342440725071 -376.38619328913046 0 -376.38619328913046 -273.14644459079682 0 0 0 0 -45.217794759257231 -269.74842766283837 0 -269.74842766283837 -779.71154600125737 0 0 0 0 -56.023160701617599 -152.27736857424679 0 -152.27736857424679 -443.69782689652311 0 0 0 0 -61.11378915401292 -141.16196141213732 0 -141.16196141213732 -410.73690719346632 0 0 0 0 -15.201511009508977 84.681545505354734 0 84.681545505354734 -587.17446658054905 0 0 0 0 -68.169056288141292 239.725962956687 0 239.725962956687 204.74049121934877 0 0 0 0 -53.526141111826291 51.600093662421386 0 51.600093662421386 -21.827824444488215 0 0 0 0 -45.918266084801871 54.421086872716842 0 54.421086872716842 -47.008123432038701 0 0 0 0 -5.9294483699486591 251.54023529102778 0 251.54023529102778 -83.6205782606703 0 0 0 0 -23.638956426468212 203.10641854755522 0 203.10641854755522 -298.23425833234796 0 0 0 0 -40.912440399915795 55.268405710374282 0 55.268405710374282 -155.93679340319068 0 0 0 0 -5.5549340507459419 239.89149948264742 0 239.89149948264742 -225.56729047653789 0 0 0 0 -298.27529540445539 -183.81970675999764 0 -183.81970675999764 -80.518997268418389 0 0 0 0 -432.61982221344078 -184.54746022052404 0 -184.54746022052404 -53.642278334396906 0 0 0 0 -283.82024570039357 -198.99623029419854 0 -198.99623029419854 -63.116415650169074 0 0 0 0 -227.06947217095876 -170.93955104703127 0 -170.93955104703127 -64.261871731891915 0 0 0 0 -264.64771815286804 -215.46941925587907 0 -215.46941925587907 -62.395114585826377 0 0 0 0 -234.44124986793031 -208.33801520372435 0 -208.33801520372435 -43.084712755869987 0 0 0 0 -295.83354568449431 -188.81776474469734 0 -188.81776474469734 -46.69079322642574 0 0 0 0 -339.19785239695921 -169.94421668233554 0 -169.94421668233554 -69.036771908373339 0 0 0 0 -392.23945624695625 -144.70339693002461 0 -144.70339693002461 2.8243749705834489 0 0 0 0 -313.18179976896499 -207.41599641336506 0 -207.41599641336506 -15.289806641578252 0 0 0 0 -366.64796776438016 -196.32126834574228 0 -196.32126834574228 -59.624332700403102 0 0 0 0 -286.8179762681375 -221.58725030518792 0 -221.58725030518792 -88.994631073761411 0 0 0 0 -306.03181011250126 -180.91075343830198 0 -180.91075343830198 -87.389878700756526 0 0 0 0 -14.240479714655521 -74.618410066754222 0 -74.618410066754222 -18.099385995006742 0 0 0 0 -487.65020488286973 -259.89266432352815 0 -259.89266432352815 -60.556580677422062 0 0 0 0 -730.26929106021998 -255.91796396941936 0 -255.91796396941936 -18.685152238460432 0 0 0 0 -354.50689653296467 -244.54217138674358 0 -244.54217138674358 -193.59431823630803 0 0 0 0 -332.4307226818928 -83.231987993025541 0 -83.231987993025541 -161.86025190871442 0 0 0 0 -434.69626216265169 -351.74750875849622 0 -351.74750875849622 -203.84431711980142 0 0 0 0 -392.19498471003249 -147.67513605765367 0 -147.67513605765367 15.766157244303031 0 0 0 0 23.472368469718475 -13.42085200674623 0 -13.42085200674623 -17.934874992092965 0 0 0 0 -12.116173501662267 -59.477214444500277 0 -59.477214444500277 -18.51765325627381 0 0 0 0 -41.909808247673936 -66.72826408801393 0 -66.72826408801393 -13.096935162931004 0 0 0 0 10.313504392976462 -49.351120003105088 0 -49.351120003105088 -4.7302524967327813 0 0 0 0 30.657354655942015 -37.465128409941236 0 -37.465128409941236 -0.50791998413392747 0 0 0 0 24.710351902933283 -27.79724815053396 0 -27.79724815053396 -17.357077386857782 0 0 0 0 23.481820729251467 -37.483101561437252 0 -37.483101561437252 -14.318866456839714 0 0 0 0 -1.3876860261695194 -10.778022874186561 0 -10.778022874186561 0.033430348716397162 0 0 0 0 23.849943036370632 -27.450363550002294 0 -27.450363550002294 -6.0785912133594593 0 0 0 0 -63.375505139924826 -96.494457174680178 0 -96.494457174680178 -12.985419530383865 0 0 0 0 5.1518422568782771 -18.666211102359469 0 -18.666211102359469 21.561743842863851 0 0 0 0 -63.237280862240368 -82.385273620150542 0 -82.385273620150542 -34.872365696067163 0 0 0 0 -35.554524200523929 -64.911185165545703 0 -64.911185165545703 38.244176283542402 0 0 0 0 -15.370541500856461 3.1797737166671141 0 3.1797737166671141 7.8105711771249844 0 0 0 0 -3.2935040658002777 -53.343817982483074 0 -53.343817982483074 64.276962944593834 0 0 0 0 22.408392282422383 -9.1225202952070958 0 -9.1225202952070958 -102.60490451386795 0 0 0 0 17.457432541472912 -21.815374991961562 0 -21.815374991961562 -44.934287077445333 0 0 0 0 49.894196930470684 -56.583247206483975 0 -56.583247206483975 -72.161484875643509 0 0 0 0 36.595708800861075 -41.43159084710669 0 -41.43159084710669 -89.400765527224394 0 0 0 0 52.553062913171289 -86.23517188578262 0 -86.23517188578262 -66.202559096792356 0 0 0 0 48.803028999742111 -66.759026148651799 0 -66.759026148651799 -33.529470480254531 0 0 0 0 23.088334364529373 -38.211745043185147 0 -38.211745043185147 -3.733903983210439 0 0 0 0 36.376550507296088 -57.342413023970039 0 -57.342413023970039 -40.54525939148607 0 0 0 0 34.014362021741249 -60.875387044804029 0 -60.875387044804029 2.0212170018749021 0 0 0 0 -100.68315927892399 -95.225662226031091 0 -95.225662226031091 -25.758818914435324 0 0 0 0 33.430631578439176 -41.848119173006076 0 -41.848119173006076 -13.918202979761453 0 0 0 0 10.011562873118457 -42.509162594508709 0 -42.509162594508709 1.3514998412167927 0 0 0 0 51.651017366220913 -89.115828673524447 0 -89.115828673524447 -34.231736684639145 0 0 0 0 -32.769531178850102 -11.672148254926178 0 -11.672148254926178 -1.4642470139052435 0 0 0 0 48.371163588537847 -74.984220840351 0 -74.984220840351 -24.643253178339826 0 0 0 0 -408.15684887879615 -173.81966626037683 0 -173.81966626037683 16.030861111194099 0 0 0 0 77.018882487489236 -56.221086057686762 0 -56.221086057686762 -21.305320546827716 0 0 0 0 -410.5059688965157 -243.43378316901271 0 -243.43378316901271 -59.822980976216058 0 0 0 0 -295.62393586694088 -173.28757144326846 0 -173.28757144326846 -78.80189518211364 0 0 0 0 -380.24733760626259 -198.07674060777572 0 -198.07674060777572 -51.539612366144866 0 0 0 0 307.08603515036089 -280.94606033408149 0 -280.94606033408149 167.44341358040401 0 0 0 0 262.93912537722326 -228.00484122524176 0 -228.00484122524176 219.23899840419381 0 0 0 0 227.37350374251514 -161.02746567335271 0 -161.02746567335271 70.506109271987953 0 0 0 0 239.70038034998834 -124.24575598869342 0 -124.24575598869342 143.15619588148184 0 0 0 0 315.86415292763877 -308.81446297414914 0 -308.81446297414914 225.1559274721676 0 0 0 0 4.4032590261258306 2.4341045416835154 0 2.4341045416835154 1.8179445510859651 0 0 0 0 437.11567532451454 -235.31257364226985 0 -235.31257364226985 182.55938860483911 0 0 0 0 1049.3388613401337 -402.42707943917139 0 -402.42707943917139 -216.77109052743981 0 0 0 0 293.6370019694109 -345.78826526778175 0 -345.78826526778175 494.36077714418934 0 0 0 0 121.13466140193441 -17.351256303192713 0 -17.351256303192713 -130.94403957683244 0 0 0 0 492.13530211078114 -459.27529811640852 0 -459.27529811640852 342.48724348534233 0 0 0 0 489.82491919675704 -372.21333158659007 0 -372.21333158659007 275.91036247375087 0 0 0 0 -0.049863532442132819 -0.16055544172301772 0 -0.16055544172301772 1.9562430267599282 0 0 0 0 337.7448787925822 -183.77331944237679 0 -183.77331944237679 221.25296413031174 0 0 0 0 341.83594201169308 -300.81776196385727 0 -300.81776196385727 421.30384483113448 0 0 0 0 342.37194893284754 -214.08262398748775 0 -214.08262398748775 180.60648259473714 0 0 0 0 236.55958606017248 -267.99692311936633 0 -267.99692311936633 261.49003717300729 0 0 0 0 205.56377182644314 -165.29453168283999 0 -165.29453168283999 112.04371828683907 0 0 0 0 224.97376152893423 -134.39558137813856 0 -134.39558137813856 143.07992793733501 0 0 0 0 155.11747120054019 -34.685998176000794 0 -34.685998176000794 21.019400240591494 0 0 0 0 155.44244031803782 -181.06605480256803 0 -181.06605480256803 130.14166563764047 0 0 0 0 54.694177286740342 23.162286872059667 0 23.162286872059667 -6.9605196961520051 0 0 0 0 23.468049799490927 -94.81466741969507 0 -94.81466741969507 84.047780125038116 0 0 0 0 -3.9290299358503327 -2.3913847367142651 0 -2.3913847367142651 -2.5174873429828288 0 0 0 0 139.52009437213883 -56.901299611089598 0 -56.901299611089598 77.189808531932613 0 0 0 0 136.09483285190254 -161.10392897611018 0 -161.10392897611018 169.27175327334771 0 0 0 0 -0.37232812024402584 -1.1624177803908502 0 -1.1624177803908502 -1.3375703440964202 0 0 0 0 104.85716439632074 -34.43062007462504 0 -34.43062007462504 8.9543292655353071 0 0 0 0 52.953821296747492 -121.2578463629261 0 -121.2578463629261 75.973460065084623 0 0 0 0 36.224318933201573 -36.179404260483352 0 -36.179404260483352 -73.758864405447639 0 0 0 0 20.985583987497762 22.193403940505846 0 22.193403940505846 -227.02458482918701 0 0 0 0 50.77041196708501 -76.457190607662142 0 -76.457190607662142 -117.20002990493595 0 0 0 0 212.75664097008621 -25.210971904005419 0 -25.210971904005419 -145.63777467339605 0 0 0 0 42.755712982571936 -40.136602356875756 0 -40.136602356875756 -85.774952615824077 0 0 0 0 221.98489226547463 -240.43099952282546 0 -240.43099952282546 -28.861131563036906 0 0 0 0 289.79856820463488 -273.46382450448982 0 -273.46382450448982 259.07985075956458 0 0 0 0 363.28531195332812 -156.38259185356196 0 -156.38259185356196 29.334858223422998 0 0 0 0 264.64251865435881 -161.79725908651108 0 -161.79725908651108 70.409704815843725 0 0 0 0 214.09103164104158 -186.32257754476495 0 -186.32257754476495 52.5782458820795 0 0 0 0 159.86989687088897 -18.914504983121901 0 -18.914504983121901 -244.00305140980709 0 0 0 0 280.38435798311821 -89.963056991034591 0 -89.963056991034591 -237.23749400066845 0 0 0 0 148.14457342774352 -23.779313143461877 0 -23.779313143461877 -110.77859836730477 0 0 0 0 34.492227742230341 -59.24646107005583 0 -59.24646107005583 -93.641669934490437 0 0 0 0 60.832141330127797 -89.053624588857019 0 -89.053624588857019 -68.571194235693838 0 0 0 0 62.194775264662553 -83.302313394987777 0 -83.302313394987777 -151.10095298956003 0 0 0 0 32.725140396485159 -88.43899617579109 0 -88.43899617579109 -56.074536759662806 0 0 0 0 -11.538362718882681 -103.24945020331097 0 -103.24945020331097 -36.539828380718063 0 0 0 0 27.075064064914073 -109.35477639261171 0 -109.35477639261171 -69.101330910850265 0 0 0 0 20.947361910982295 -151.80365940001639 0 -151.80365940001639 -28.16570606910409 0 0 0 0 397.53755980418237 -474.86933558211604 0 -474.86933558211604 -38.061359074498796 0 0 0 0 120.99687862253575 -191.71333573846096 0 -191.71333573846096 -279.12962796183092 0 0 0 0 96.895484717941372 -151.25474901578946 0 -151.25474901578946 -94.303445453855602 0 0 0 0 27.430271249421821 -151.49211400330842 0 -151.49211400330842 -205.36107334136614 0 0 0 0 40.414857564692426 -72.806854231288114 0 -72.806854231288114 -41.973783462018019 0 0 0 0 -414.59093816392124 -202.40578881991496 0 -202.40578881991496 -1.773998995994134 0 0 0 0 35.94291114862699 -165.36561192672434 0 -165.36561192672434 -122.79664638647409 0 0 0 0 -67.186900647028097 -116.62462655629815 0 -116.62462655629815 28.6493428775957 0 0 0 0 155.06026486454152 -116.49927137182112 0 -116.49927137182112 -145.33020808542824 0 0 0 0 79.286231868266611 -77.173944827648484 0 -77.173944827648484 -82.424932824029383 0 0 0 0 112.56920024439569 -45.088428032620868 0 -45.088428032620868 -52.942589716549264 0 0 0 0 84.781578866178961 -107.85866625697327 0 -107.85866625697327 -56.859196551534296 0 0 0 0 64.621209189848372 -81.855657074602277 0 -81.855657074602277 -81.67560121457791 0 0 0 0 40.927111751916215 -81.98176090745585 0 -81.98176090745585 -70.074991776700699 0 0 0 0 66.053701172099181 -81.863226679593936 0 -81.863226679593936 -89.068516487255863 0 0 0 0 65.33490481526951 -62.083109649110156 0 -62.083109649110156 -55.458847014951061 0 0 0 0 28.267071148988151 -83.11058547927405 0 -83.11058547927405 -40.373270264287385 0 0 0 0 26.964055312435903 -105.03798614029529 0 -105.03798614029529 -26.58203902693549 0 0 0 0 100.93734145023166 -57.906854638860068 0 -57.906854638860068 -26.196066296258323 0 0 0 0 28.335919381969802 -110.39357689584631 0 -110.39357689584631 -16.998117635883318 0 0 0 0 61.169427252594687 -52.694686786315287 0 -52.694686786315287 -15.584201723782826 0 0 0 0 86.053969551239561 -69.268387256925962 0 -69.268387256925962 -47.070747031057181 0 0 0 0 0.17407107107096564 -0.16251615586607571 0 -0.16251615586607571 -1.6730506144796422 0 0 0 0 264.01070665350579 -49.836503637568967 0 -49.836503637568967 -107.97697999135562 0 0 0 0 130.45239634674567 -3.9950710519306085 0 -3.9950710519306085 20.125441263614846 0 0 0 0 130.77258923275178 -97.010444570725213 0 -97.010444570725213 12.229128726428655 0 0 0 0 0.15602478829443789 -0.75174469720222348 0 -0.75174469720222348 -3.2206232466676141 0 0 0 0 157.71288429979131 -100.43603477096713 0 -100.43603477096713 -72.147511237252729 0 0 0 0 -13.150203794853496 -22.043446853253954 0 -22.043446853253954 33.833516933097599 0 0 0 0 -116.02986386286182 -147.76161386765693 0 -147.76161386765693 7.7649007612344576 0 0 0 0 -117.29344443109835 -144.13461085177732 0 -144.13461085177732 -41.018008582252151 0 0 0 0 27.950062326762605 -56.550695886647304 0 -56.550695886647304 55.488610129796143 0 0 0 0 24.59690491653555 -32.230910635087639 0 -32.230910635087639 -99.793119685362399 0 0 0 0 0.1419071310403196 -0.035760440256568771 0 -0.035760440256568771 -1.7322689979142645 0 0 0 0 -163.54347382025674 -155.6822083113284 0 -155.6822083113284 -13.091588966538438 0 0 0 0 212.4938495310065 -1.5544979946166677 0 -1.5544979946166677 -119.26346779873984 0 0 0 0 -21.183532183192028 -226.81900345156714 0 -226.81900345156714 -160.97466200340477 0 0 0 0 -9.986177387120847 -72.87185825773031 0 -72.87185825773031 18.850894217811401 0 0 0 0 35.6512777014457 -137.02040215295915 0 -137.02040215295915 -89.212180402137164 0 0 0 0 72.429738426016996 -142.54248239829576 0 -142.54248239829576 -88.769291153983431 0 0 0 0 56.88108622247745 -112.13748691241608 0 -112.13748691241608 -119.16617855316508 0 0 0 0 495.45530591144666 19.332453645461555 0 19.332453645461555 -131.04083034332689 0 0 0 0 -0.055132140052142883 1.2719241454701309 0 1.2719241454701309 0.86154069109467457 0 0 0 0 101.56975059968306 -156.76015156588755 0 -156.76015156588755 73.862619839513172 0 0 0 0 -48.177537507344255 29.915681804051474 0 29.915681804051474 -141.88168984551157 0 0 0 0 238.07146326828945 -161.11495305903964 0 -161.11495305903964 -199.08634731900202 0 0 0 0 287.96982030497873 -78.810103657559466 0 -78.810103657559466 -218.40446722320485 0 0 0 0 -7.3311983685588533 -10.524237001760198 0 -10.524237001760198 -0.17657329024705604 0 0 0 0 45.888627544493829 -105.07109356746514 0 -105.07109356746514 137.34573552425718 0 0 0 0 0.078631246729174986 -7.6339263449254489 0 -7.6339263449254489 -6.0511043944026062 0 0 0 0 -33.024379233793894 -66.306648328958431 0 -66.306648328958431 -52.00252223343341 0 0 0 0 -17.734681584920029 -39.715451295038442 0 -39.715451295038442 -4.5541977765851094 0 0 0 0 -68.056209465796655 -63.75761702583668 0 -63.75761702583668 -22.463090959796773 0 0 0 0 -57.703501751707336 -40.118560468526539 0 -40.118560468526539 -69.381656857053713 0 0 0 0 -145.16363761827043 -179.96623184354462 0 -179.96623184354462 -178.36671811810356 0 0 0 0 -70.648591427767542 -53.412186761139651 0 -53.412186761139651 -35.566075919467039 0 0 0 0 -10.351336916504351 -112.10835606453043 0 -112.10835606453043 -145.08365258562117 0 0 0 0 13.788295079020344 -41.148718752035535 0 -41.148718752035535 -5.5490268277380066 0 0 0 0 21.897074169530697 -82.643699942823332 0 -82.643699942823332 -118.17466090142059 0 0 0 0 49.324440073737151 -99.312892526695578 0 -99.312892526695578 -177.82902201139677 0 0 0 0 34.319962021438187 -110.29031560696603 0 -110.29031560696603 -79.567612743730933 0 0 0 0 24.45193709871911 -19.653365717410797 0 -19.653365717410797 14.240154401140067 0 0 0 0 44.311753683628922 -172.26155547284452 0 -172.26155547284452 -267.8496547621944 0 0 0 0 9.3588089123793132 -6.5694806330938142 0 -6.5694806330938142 4.2626459921009925 0 0 0 0 435.12710141800972 162.3202105190353 0 162.3202105190353 -4.5745672159300739 0 0 0 0 -122.75940255003638 -275.81119767491964 0 -275.81119767491964 144.42688245174577 0 0 0 0 -60.026461734825489 -107.66265694007438 0 -107.66265694007438 -117.25892197833855 0 0 0 0 -77.679935654527981 -118.66560596655836 0 -118.66560596655836 -38.722773546690405 0 0 0 0 1.4899661494388283 -101.24927632869276 0 -101.24927632869276 -69.089422620480036 0 0 0 0 5.0356385616503303 -105.96756405101132 0 -105.96756405101132 -120.16908171451996 0 0 0 0 71.208228375172212 -171.75120401266622 0 -171.75120401266622 -77.226234627658869 0 0 0 0 13.324709849771409 -76.597382877281234 0 -76.597382877281234 -157.82390063130697 0 0 0 0 -107.1709322563803 -216.87523797492031 0 -216.87523797492031 -176.45556559527972 0 0 0 0 -125.62131372995418 -125.51159369803781 0 -125.51159369803781 -80.89183109605392 0 0 0 0 -174.0828807345074 -381.70470232437242 0 -381.70470232437242 -166.82000583584886 0 0 0 0 -85.188969800379596 -298.36472597335023 0 -298.36472597335023 -110.80616155510336 0 0 0 0 39.975996746457376 -30.926131861118442 0 -30.926131861118442 25.404294291236972 0 0 0 0 -137.42982391064288 -404.5946703525442 0 -404.5946703525442 -253.49898656948426 0 0 0 0 -229.35716169741318 68.040588442152512 0 68.040588442152512 -143.78797435859087 0 0 0 0 -36.671350550430361 -395.63711994653931 0 -395.63711994653931 -301.04544529216764 0 0 0 0 118.2367549974515 -382.1303264595881 0 -382.1303264595881 -317.48308193080447 0 0 0 0 162.89471171856258 -224.81297806779594 0 -224.81297806779594 -264.38094044621175 0 0 0 0 98.342878393210412 -305.31365697698675 0 -305.31365697698675 -240.63654062241221 0 0 0 0 -86.659128086044802 -308.0310641194319 0 -308.0310641194319 -108.56744066547617 0 0 0 0 97.232380998237431 -253.00295004909421 0 -253.00295004909421 -338.20538346441754 0 0 0 0 46.348114435688501 -337.39691273165568 0 -337.39691273165568 -322.85118920605601 0 0 0 0 7.8087968922463915 -187.05217935713699 0 -187.05217935713699 -229.03848628098422 0 0 0 0 40.99491699959674 -174.9246827136285 0 -174.9246827136285 -323.37570218876863 0 0 0 0 60.721923645574861 -285.21018898483089 0 -285.21018898483089 -300.05504020659282 0 0 0 0 -282.49336196432068 -249.92987857336811 0 -249.92987857336811 -232.63771550977617 0 0 0 0 -408.463906491937 -380.65180793282707 0 -380.65180793282707 -152.69124524311701 0 0 0 0 -760.57063745727282 -417.57780530804121 0 -417.57780530804121 -272.10045887460365 0 0 0 0 -516.07680994807288 -1.2353733053932956 0 -1.2353733053932956 -290.74811119430433 0 0 0 0 -930.59589650223324 -341.09523334408004 0 -341.09523334408004 -144.06683377281661 0 0 0 0 -465.57679733827877 -409.67857657048262 0 -409.67857657048262 -245.16972947851173 0 0 0 0 -506.16783393889841 -460.04178157408933 0 -460.04178157408933 -90.377021480944677 0 0 0 0 -1061.0720983072795 -529.49364939822681 0 -529.49364939822681 -217.1680790067403 0 0 0 0 -588.55452420039546 -570.99736517589554 0 -570.99736517589554 -239.14327461336416 0 0 0 0 -701.84688931126459 -519.6895028714207 0 -519.6895028714207 -97.184062584025241 0 0 0 0 -773.42202511431265 -484.23081835436057 0 -484.23081835436057 51.337764821568271 0 0 0 0 -786.0143078915637 -663.07479845706621 0 -663.07479845706621 -118.14352280426169 0 0 0 0 -600.78683558396006 -585.7539592945941 0 -585.7539592945941 -100.49715904231925 0 0 0 0 -433.47443698802181 -330.63103146472895 0 -330.63103146472895 -246.38443500248286 0 0 0 0 -160.22647675170873 -739.38361020790194 0 -739.38361020790194 -548.18175044146301 0 0 0 0 -143.98053922434337 -348.18253596691648 0 -348.18253596691648 -224.76591033974728 0 0 0 0 -376.340381959762 -365.43247918788802 0 -365.43247918788802 -231.46013024319473 0 0 0 0 -529.65155263068368 -784.03487373357484 0 -784.03487373357484 -1161.0558680396589 0 0 0 0 663.19280380971077 -332.10308983948971 0 -332.10308983948971 -447.57927832044516 0 0 0 0 137.09103937615737 -805.17560550995995 0 -805.17560550995995 8.7459338094131454 0 0 0 0 625.29057287360911 -1242.3891263300748 0 -1242.3891263300748 -404.25139062994231 0 0 0 0 651.1154801505013 -771.41165515380908 0 -771.41165515380908 -1368.6156279532838 0 0 0 0 -1818.2520009551681 713.34407415976057 0 713.34407415976057 708.93385166417511 0 0 0 0 66.143064459381094 539.21802486546812 0 539.21802486546812 -1548.8442968002041 0 0 0 0 -11.171556004327114 -8.3385661769352843 0 -8.3385661769352843 -8.3976341347763181 0 0 0 0 -1697.3098070499334 283.99548958163905 0 283.99548958163905 73.865196123215355 0 0 0 0 -1748.7164762628418 -945.05639105532191 0 -945.05639105532191 -125.63904975608602 0 0 0 0 437.94779890396421 -151.67507068606301 0 -151.67507068606301 -431.46532944337832 0 0 0 0 77.348078801115065 32.390616102870723 0 32.390616102870723 -438.22725032156995 0 0 0 0 -309.67475211182591 -105.10656407762872 0 -105.10656407762872 13.165116846732417 0 0 0 0 -16.339778875255433 15.938509728104691 0 15.938509728104691 -243.91363764720836 0 0 0 0 -16.603081472180946 -33.096916320721938 0 -33.096916320721938 -22.69962731166251 0 0 0 0 -185.74426630112703 -163.18108040218181 0 -163.18108040218181 -13.426804563183396 0 0 0 0 -562.45037948427057 -309.48079017344617 0 -309.48079017344617 -2.0587933497154154 0 0 0 0 -930.12134628709191 -382.47853466375636 0 -382.47853466375636 -13.304283721323372 0 0 0 0 -454.92070956652651 57.544368985551046 0 57.544368985551046 -10.351523950074807 0 0 0 0 -235.13102426069264 12.721441018864198 0 12.721441018864198 -47.546512849952705 0 0 0 0 -259.28873035191782 -232.63742570328031 0 -232.63742570328031 -140.15588365072472 0 0 0 0 -334.74693051726013 -170.52507771615456 0 -170.52507771615456 -41.167323160167143 0 0 0 0 -129.58269043598466 -1.9168522817017219 0 -1.9168522817017219 -87.321488602676254 0 0 0 0 15.805941048134159 -40.837190431202799 0 -40.837190431202799 -3.6509839095177909 0 0 0 0 14.705934762678989 -19.562474563489936 0 -19.562474563489936 -48.288116485883698 0 0 0 0 39.669531859553899 -65.017324909120362 0 -65.017324909120362 -9.4567248489665872 0 0 0 0 32.866712493556406 -75.022872958579683 0 -75.022872958579683 1.4137474517863211 0 0 0 0 75.360985125211073 -266.496613523375 0 -266.496613523375 322.51012679558482 0 0 0 0 316.96206280660772 -166.09537623496317 0 -166.09537623496317 62.975069736646674 0 0 0 0 81.586363292905844 -254.15612158482418 0 -254.15612158482418 54.129179665369975 0 0 0 0 4.4072547856941089 -16.206681346240401 0 -16.206681346240401 -8.1093143136261219 0 0 0 0 6.9956267284428435 -11.8089726694948 0 -11.8089726694948 14.60285668931939 0 0 0 0 -90.31951986864442 -47.180988270862812 0 -47.180988270862812 709.1496842976419 0 0 0 0 53.946273293571721 12.547592024078966 0 12.547592024078966 122.09957012509949 0 0 0 0 91.605866226069338 -452.28993214026241 0 -452.28993214026241 103.79175148656486 0 0 0 0 93.955331730951002 -648.44790658031206 0 -648.44790658031206 894.94062002648445 0 0 0 0 1184.7195522104957 -791.31067244924452 0 -791.31067244924452 -61.521022321534929 0 0 0 0 981.12366870719779 30.746164413601946 0 30.746164413601946 -1732.0961771701254 0 0 0 0 -9.2406164409330813 -86.756241624520499 0 -86.756241624520499 -366.6345790445298 0 0 0 0 82.070700229829299 -571.38014427848088 0 -571.38014427848088 -129.20123529011107 0 0 0 0 174.03426105148901 -829.12250602073027 0 -829.12250602073027 1458.5585249245453 0 0 0 0 -0.27105225690594636 -7.5168680119095628 0 -7.5168680119095628 -3.8253339052240962 0 0 0 0 405.6954463372067 -365.93362949199809 0 -365.93362949199809 -180.43209521909921 0 0 0 0 193.66296316519765 -367.57178937918979 0 -367.57178937918979 -96.501522942955489 0 0 0 0 195.62270925330267 -389.86123542427777 0 -389.86123542427777 49.738523377262936 0 0 0 0 330.96681650453411 -427.56439859140755 0 -427.56439859140755 -384.92847489022915 0 0 0 0 -7.3697196942497101 -17.144714348348341 0 -17.144714348348341 -7.8672593957383263 0 0 0 0 181.80675374027305 -1015.9859782245626 0 -1015.9859782245626 1235.9558800046616 0 0 0 0 358.21808263723642 -346.17474983466718 0 -346.17474983466718 -157.29763146315963 0 0 0 0 -9.5265038392026327 -518.70569673720365 0 -518.70569673720365 137.20473026280661 0 0 0 0 138.0272942399431 -506.24675903170009 0 -506.24675903170009 -177.33304770455015 0 0 0 0 65.813509899064229 -323.22333605600033 0 -323.22333605600033 415.93491920091992 0 0 0 0 -17.508635369817839 -19.599411070030623 0 -19.599411070030623 -7.3863956618642419 0 0 0 0 142.53438030065081 -308.06502269382418 0 -308.06502269382418 867.20232050081449 0 0 0 0 432.32482051285842 -464.98031214707044 0 -464.98031214707044 340.40721720544298 0 0 0 0 192.64316839670028 -533.08655538755238 0 -533.08655538755238 613.05247333296074 0 0 0 0 175.31610224510951 -433.66085190759259 0 -433.66085190759259 341.25805617213155 0 0 0 0 188.22941959770469 -347.11205067671062 0 -347.11205067671062 172.97897347417529 0 0 0 0 257.87463732762626 -400.98677491254284 0 -400.98677491254284 20.173871039430196 0 0 0 0 -1.8480709753948759 -653.72721076422749 0 -653.72721076422749 -22.14972172190437 0 0 0 0 228.13932608009338 -606.9726854950552 0 -606.9726854950552 -72.555600499597858 0 0 0 0 53.123214175746398 -665.87729421416543 0 -665.87729421416543 -132.23584550852684 0 0 0 0 -48.147977985694524 -473.45139576932115 0 -473.45139576932115 -19.07992018388768 0 0 0 0 -120.20740507885512 -469.70171418015423 0 -469.70171418015423 23.528035581975018 0 0 0 0 50.389414676996239 -538.37436774100433 0 -538.37436774100433 -111.88835916498374 0 0 0 0 -212.22077471067405 -997.75510181872528 0 -997.75510181872528 -392.36938308836943 0 0 0 0 53.303772604442202 -688.08749219787683 0 -688.08749219787683 -227.99807550736296 0 0 0 0 -0.90943836595223715 -3.3527537804745968 0 -3.3527537804745968 -2.6577507336409241 0 0 0 0 -1186.8725211441051 -702.15941173680994 0 -702.15941173680994 153.17334492994905 0 0 0 0 -34.049479609253922 -798.78115316676406 0 -798.78115316676406 -586.78439347319181 0 0 0 0 -232.74260907169719 -1035.6484765050964 0 -1035.6484765050964 -171.81962873627253 0 0 0 0 1377.5072744733159 -760.34802075657353 0 -760.34802075657353 -171.45980344766303 0 0 0 0 5.6459922218264182 -371.50226729468295 0 -371.50226729468295 44.046698579894837 0 0 0 0 380.36354442121024 -357.15235953858837 0 -357.15235953858837 0.65853898961177038 0 0 0 0 -28.967437659536245 -17.957662779836937 0 -17.957662779836937 -27.607173652921631 0 0 0 0 302.17559377594353 -240.5318699880545 0 -240.5318699880545 -232.54842260007899 0 0 0 0 -1046.1244237755868 -742.91283528570057 0 -742.91283528570057 -414.96066301767678 0 0 0 0 -98.440091641717345 234.49027760510967 0 234.49027760510967 -458.53596155321338 0 0 0 0 -1241.1352773539029 -358.56283631386896 0 -358.56283631386896 469.5431687461919 0 0 0 0 572.19109082673253 -36.493223874403157 0 -36.493223874403157 -661.71871817346528 0 0 0 0 -1197.072339438402 -609.09925276854756 0 -609.09925276854756 1695.3252832477474 0 0 0 0 -11.100198146658922 -8.7158623780035498 0 -8.7158623780035498 -3.2235813044628516 0 0 0 0 82.965292086840236 -378.40595972890605 0 -378.40595972890605 -349.1183030945258 0 0 0 0 184.02603180151254 -572.68050121037049 0 -572.68050121037049 -1646.7758565424576 0 0 0 0 
</DataArray>
<DataArray type="Float64" Name="cross_section_updated" format="ascii">
1 1 1 1 1 1 1 0.012916500148610463 1 1 1 1 1 1 1 1 1 1 1 1 0.01713063090452948 1 1 1 0.018625727374745264 1 1 1 1 1 1 1 1 1 1 1 1 1 1 1 1 1 1 1 1 1 1 1 1 1 1 1 1 1 1 1 1 1 0.0088114587159601396 1 1 0.0094823022242364538 1 1 1 1 1 1 1 1 0.0093282677166527314 1 1 1 1 0.0093004007190507082 1 1 1 0.015673896607895307 1 1 1 1 1 1 1 1 1 1 1 1 1 1 0.011961987409848581 1 0.0085300513604275111 1 1 1 1 1 1 1 1 1 1 1 1 0.0061095552903802017 1 1 1 1 0.0047642257168478766 0.018137662014720592 1 1 1 1 1 1 1 1 1 1 1 1 1 1 1 1 1 0.0078313540988059135 1 1 1 0.010016488863885439 1 1 1 1 1 1 0.0088363659709964765 1 1 0.0090914534563400692 1 1 1 1 0.014597219597899115 1 1 1 1 1 0.010129085424902158 1 0.010417625197332 1 1 1 1 1 1 1 1 1 1 1 1 1 1 1 1 1 1 1 1 1 0.010758895861200549 1 1 1 1 1 1 1 1 1 1 1 1 1 1 1 1 1 1 1 1 1 1 1 1 1 1 1 0.0094796715721780986 1 1 1 1 0.010084929588742526 1 1 1 1 1 1 0.0094083484330615835 1 0.011735502240497374 1 1 1 1 1 1 1 1 1 1 1 1 1 1 1 1 1 1 1 1 1 1 1 1 1 1 1 1 1 1 1 1 1 1 1 1 1 1 1 1 1 1 1 1 1 1 1 1 0.01673306982372251 1 0.012568361678944852 1 1 1 1 1 1 1 1 0.012627771816007228 1 1 1 1 1 1 1 1 1 1 1 1 1 1 1 1 1 1 1 1 1 1 1 1 1 1 1 1 1 1 1 1 1 1 1 0.015927762991080271 1 1 0.015881620703104074 1 1 1 1 1 1 1 0.012581629528031015 1 1 1 1 1 1 1 1 1 0.019259625304298186 0.016672288596973069 1 1 1 0.012409807400867015 1 1 1 1 1 1 1 1 1 1 1 1 1 1 1 1 1 1 1 1 1 1 1 1 1 1 0.0103962255349715 1 0.0073023481348286623 1 1 1 1 1 0.010573448564724912 1 1 1 1 0.010175453239973833 1 1 1 1 1 1 1 0.017636041014150346 1 0.010157109985083811 1 1 1 1 0.01233460863332031 1 1 0.013505396454552062 1 1 1 1 1 1 1 0.0072259857746773196 0.005573918968408826 1 1 0.0067369529547332118 1 1 1 0.0088709965220523032 1 1 1 1 0.011810849055162794 1 1 1 1 0.0026255153481295063 1 0.0078470529123529035 1 0.010042137136133413 1 0.011509924077949086 1 1 1 1 0.012591529809276136 1 0.013596117921900724 1 1 1 1 0.014236037537571956 0.0059494204910706255 1 1 0.0065862071692463983 1 1 1 1 1 1 1 0.0086319145742417142 1 1 1 1 -8.985400389016629e-09 1 1 1 1 0.010096338393838833 1 1 1 1 1 1 1 1 1 0.012403920928600621 1 0.0089454758953182098 1 1 1 1 1 1 1 1 1 1 1 1 1 1 1 1 1 1 0.018857306005807581 1 1 1 0.013860161897615492 1 1 1 1 1 1 0.014355506094626186 1 1 1 1 1 1 0.0082921464594467448 1 1 1 0.012693288322064233 1 1 0.014024047123881105 1 1 1 1 1 1 1 1 1 1 1 0.014817523353833011 1 1 1 1 1 1 1 1 1 1 1 1 1 0.013047009294055115 0.0018797686432559038 1 1 1 1 0.011105636821355224 1 1 1 1 1 1 1 1 1 1 1 1 1 1 1 1 1 1 1 1 1 1 1 1 1 1 1 1 1 1 1 1 1 1 1 1 0.015807331719156454 1 1 1 1 0.0099797401307885822 1 1 1 1 1 1 1 1 1 1 1 1 1 1 1 1 1 1 1 1 1 1 1 1 1 1 1 1 1 1 1 1 1 1 1 1 1 1 1 1 1 1 1 1 1 1 1 1 1 1 1 1 1 1 1 1 1 1 1 1 1 1 1 1 1 1 1 1 1 1 1 1 1 0.0086998019871857898 1 1 1 1 0.010077061480439558 1 0.0044508154182807073 1 1 1 1 1 1 1 1 1 1 1 1 1 1 1 1 1 1 1 1 1 1 1 1 1 1 1 1 1 1 1 1 1 1 1 1 1 1 0.00015271682429797082 1 1 1 1 -4.2759862317609532e-10 1 1 1 1 1 1 1 1 1 1 1 1 0.010766205778043395 1 0.0013769205145189069 0.010112426941625306 1 1 1 1 1 1 0.0038787106219437713 1 0.0074671458374579724 1 1 1 1 1 1 1 1 1 1 0.010454656817253839 1 1 1 1 1 1 1 0.012208396447246382 1 1 1 1 1 1 1 1 1 1 1 1 1 1 0.0085429903875945349 1 1 1 1 0.012761916438740042 1 1 1 0.0044796751490032739 1 1 1 1 1 1 1 1 1 0.0050273612560768309 1 1 1 1 1 1 1 1 1 1 1 1 1 1 1 1 1 1 1 1 1 1 1 0.010943526983103219 1 1 1 1 1 1 1 1 1 1 1 1 1 1 1 1 1 1 1 1 1 1 1 1 0.010740055205145002 1 1 1 1 1 1 1 1 1 0.011394843740194702 1 1 0.011091561337484636 1 1 1 1 1 1 1 1 1 0.010526116633413088 1 1 0.010089093416948988 1 1 1 1 1 1 0.007639197181353541 1 1 1 1 1 1 1 1 0.010354280774838388 0.010716925840264617 1 1 1 1 1 1 1 1 1 1 0.0097406867131520393 1 1 1 1 1 0.0088427825732115741 1 1 1 1 1 1 1 0.012822987528311281 1 1 1 1 1 1 0.013803688023511795 1 1 0.0029275385267720742 0.005975494481064221 1 0.018614176550369833 0.0079634576043066084 1 1 0.020134468186666334 1 1 0.010013521182564948 0.012015155638001433 1 1 1 0.0091092740798751747 1 1 1 1 1 0.010673213332357137 1 1 1 1 1 0.010631715429277466 1 1 1 0.010191701702428155 0.011484185658145241 1 1 1 1 1 1 1 1 1 0.0086697163010823804 1 1 0.0058012287135877725 1 1 1 1 1 1 1 1 1 1 1 1 1 0.017018546685629559 0.018395844784436087 1 1 1 1 0.017085997668188933 0.0025734118557233935 1 1 0.021277399069396026 0.0051544843180883811 1 1 1 1 1 1 1 1 1 1 1 1 0.010607326693999266 1 1 0.011840874671673773 1 1 1 0.020654131337771667 1 1 0.0099054611170944738 1 1 1 1 1 1 0.0038746337428915457 0.020694212148951601 0.019275622766576149 1 1 1 1 1 1 1 2.1342192544487881e-09 1 1 1 1 1 1 1 1 1 1 1 1 1 1 1 1 1 1 1 1 1 1 1 1 1 1 1 1 1 1 1 1 1 1 0.013088828082228294 1 1 1 1 0.015949104199267129 1 1 0.011395352007524059 0.010001749156837769 1 1 1 0.014092626290714731 0.010873876001143081 1 1 1 1 1 1 1 1 1 1 0.011566646622428782 1 1 1 1 1 1 1 0.016908652195130561 1 1 1 1 1 1 1 0.019216304867586471 1 1 1 0.012899652717407492 1 0.0043027842050229748 1 1 0.01036275421904575 1 1 1 -1.3104058354911075e-09 0.010600927008014537 1 1 1 1 1 1 1 1 1 1 1 1 1 1 1 1 1 1 1 1 1 1 1 1 1 1 1 1 0.0013782291008881927 1 1 1 1 -2.0643672500597621e-09 1 1 1 1 1 1 1 1 1 1 0.020600181853460357 1 1 1 1 1 1 1 1 1 1 1 1 1 1 0.011626508610680673 1 1 1 1 1 1 1 1 1 0.009549282725044874 1 1 1 1 0.021773646967818729 1 1 1 0.023286901624533951 1 1 1 0.024793491670763536 1 1 1 1 1 1 1 1 1 1 1 1 1 1 1 1 1 1 1 1 1 1 1 1 0.0086228349914600662 1 1 1 1 0.01006354367000018 1 1 1 1 1 0.0097293832974340785 1 1 1 1 1 1 0.010002299902151068 1 1 1 0.015941076294975615 1 1 1 0.017575223669438651 1 -5.6861419218956488e-10 0.010074663661797673 1 1 1 1 1 1 1 1 1 1 1 1 1 1 1 1 1 1 1 0.0087918772900604895 1 1 1 0.0094840569950865074 1 1 1 1 1 1 1 1 1 1 1 1 1 0.0098257688073024943 0.01928416166718859 1 1 1 1 1 1 0.0096705676490989618 1 0.010004517788872217 0.01294276462850753 1 1 1 0.012302115299853599 1 1 0.0091766570000036077 0.017393863186299447 1 1 1 1 1 0.0096453000122840166 1 1 1 1 1 1 1 0.014324331605149241 1 1 1 1 1 0.014132299027429695 1 1 1 1 1 1 0.0041665134820490276 1 1 1 0.0090963670078606541 1 1 1 1 1 0.0083676020075058206 0.014522318324535925 1 1 1 1 1 0.0050529910246833662 1 0.0032924221836938099 1 1 1 1 0.004576239859532873 1 1 1 1 1 1 1 1 1 1 1 1 1 1 1 1 1 1 1 1 1 1 1 1 1 1 1 1 1 1 1 1 0.014555644700859785 1 0.0047231626766530699 0.013113460564676169 1 1 1 1 1 1 1 1 0.0098659336944310477 0.014784738106069962 1 1 1 1 0.0066317468712732853 0.012743985004182527 1 1 0.0093086410771086817 1 1 0.01126961594652174 1 1 0.0097653451408106634 1 1 1 0.0056054411281499551 1 1 1 0.016906607840361867 1 1 1 1 1 0.019556628361633716 0.010042190176840538 1 1 1 1 1 1 1 1 1 1 0.00015199629657336455 1 0.0026903192034186899 1 1 1 1 1 0.0047287502633413386 1 1 1 0.0065336404294662025 1 0.0099584956921719234 1 1 1 1 1 1 0.0093127843212233805 1 0.0062893392145044113 1 1 1 0.00094487885073825384 0.0093644756331226105 0.018313388229582866 0.011244412601017963 0.0024351138827679846 1 1 1 1 1 0.01040917112312164 1 1 1 1 1 1 1 1 1 1 0.0042975199490896503 1 1 1 1 1 0.0090931784733697674 0.0064184851343634716 1 1 1 1 0.0096894495157333494 1 1 1 1 1 1 1 1 1 1 0.014130890343259433 1 0.015013427288552681 1 1 1 1 1 1 1 1 1 0.015517935022171317 0.0020498495329587581 1 0.013289320296591084 1 1 1 1 1 1 1 1 1 0.0018967065198380144 1 1 1 0.0011826435363071625 1 1 1 1 1 1 1 0.00043003815495393054 1 1 1 1 1 1 1 1 1 1 1 1 1 1 1 1 1 1 1 0.0098141633088326893 1 1 1 1 1 1 1 1 1 0.01072521219815962 1 1 1 1 1 1 1 1 0.010273101726419005 1 1 1 0.0038148460749943751 1 1 1 1 1 1 1 1 1 1 1 1 1 1 1 1 1 1 1 1 1 1 1 0.0089381157783832293 1 1 1 1 1 1 1 1 1 1 1 1 0.0030907662296312047 1 1 0.0064436208861267958 0.01310995926163145 1 0.0093818187729965037 1 1 0.0043520379879057533 1 0.0045499666916608006 1 1 1 0.013497406354348979 1 0.010073340136701548 0.010060810602129676 1 1 1 0.012323262059271155 1 1 1 1 0.01517177693289478 1 0.0099722842866510827 1 1 0.014643226559246159 1 1 1 1 1 1 1 1 1 1 1 1 0.0062075338980337735 0.007093498105849104 1 1 1 1 1 1 1 1 1 1 1 1 1 0.008995938476621548 1 1 1 1 0.007406274876105505 1 1 1 1 1 1 1 1 1 1 1 1 1 1 1 0.015596378028038088 1 1 1 0.011891869302106058 1 1 1 1 1 1 1 1 1 1 1 1 1 1 1 1 1 1 1 1 1 1 1 1 0.010460808466275472 1 1 1 1 1 1 1 0.012896059962144843 1 1 1 1 1 1 1 1 1 1 0.01129788103892281 1 1 1 1 1 1 1 1 1 1 1 0.013826334728354026 1 1 1 1 1 1 1 1 1 1 1 1 1 0.011029347459639453 1 1 1 1 1 1 1 1 1 1 1 1 1 1 1 1 1 1 1 1 1 1 1 1 1 1 1 1 1 1 1 1 1 1 1 1 1 0.012732539890277471 1 1 1 0.011134360967055472 1 1 1 1 1 1 0.010027094477877765 1 1 1 1 1 1 1 1 1 1 1 1 1 1 1 1 1 1 0.0096338097612710116 1 1 0.0086056557839345217 1 1 1 1 1 1 1 1 1 1 1 1 1 0.0073343679463749485 1 1 0.01012531978859918 1 1 1 1 1 1 1 1 1 1 1 1 1 1 1 1 1 1 1 1 1 1 1 1 1 0.016213007700999996 0.0098140612574637298 1 1 1 1 1 1 1 1 1 1 1 1 1 1 1 1 1 1 1 1 1 1 1 1 1 1 1 1 1 0.011924763919156277 1 0.010487077820745587 1 1 1 0.010792863018358946 1 0.00067028735819864467 1 1 1 1 1 1 1 1 1 1 1 1 1 1 1 1 1 1 1 1 1 1 1 1 1 1 1 1 1 1 1 1 1 1 1 1 1 1 1 0.010417315971000422 1 1 1 1 1 1 1 1 1 1 1 1 1 1 1 1 1 1 1 1 1 1 1 1 1 0.019191440767686245 1 1 1 1 1 1 0.02263122482251843 1 0.0097913369077348381 0.014611124652474727 1 1 0.011624671904696071 1 1 1 1 1 1 1 1 1 0.012141944170727975 1 1 1 1 1 1 1 1 1 1 1 1 1 1 1 1 1 1 1 1 0.0103242866641437 1 1 1 1 1 1 1 1 0.010980004236940323 1 1 1 1 0.0024567901324314021 1 1 0.010197795984645541 1 1 1 0.0044601608029515381 1 1 1 1 1 1 0.0081185670931633713 1 1 0.0064077017228401333 1 1 1 1 1 1 1 1 0.010872292524073193 1 1 1 1 1 1 1 1 1 1 1 1 1 1 1 1 1 1 1 1 1 1 1 1 1 1 0.0094421046313044044 1 1 1 1 1 1 1 1 1 1 1 1 1 1 1 1 1 1 1 1 1 1 1 0.010320313524470708 1 1 1 1 1 1 1 1 1 1 0.0087035010769725436 1 1 0.0090458959926139164 1 1 1 1 1 1 1 1 1 1 1 1 1 1 1 1 1 1 1 1 1 1 1 1 1 1 1 1 1 1 1 0.0102174513604582 1 1 1 1 1 1 0.012348245690280819 1 0.010333343638010866 1 1 0.0068545748086168562 1 1 1 1 1 1 1 1 1 1 1 1 1 1 1 1 1 1 0.0055099028303506464 1 0.014088521817598183 0.014339387893201822 1 1 1 1 1 0.0075830233412839641 1 1 1 1 1 1 1 0.0092881107245193634 1 1 0.010324449509877529 1 1 1 1 1 1 1 0.0083457141538239681 1 1 1 1 1 1 1 1 0.008778485170094219 1 1 1 0.011079680188215812 0.00077009127440447883 1 1 1 0.0093771293132326253 1 1 0.0025788483053516241 1 0.0091390875214463901 1 1 1 1 0.013048086356390567 0.0096123992763020027 1 1 1 1 1 1 1 1 0.0099892894019369682 1 0.010320173513178925 0.0053816345656327296 1 1 1 1 1 1 1 1 1 1 1 0.0083050923181909823 1 1 1 1 1 1 1 1 0.010237346781760637 1 1 1 0.0068405788325137974 1 1 1 1 -1.1764261728837433e-08 0.0066257271566993042 1 1 0.010930430711135142 1 1 1 0.0098803770714805984 1 1 1 1 0.0096329854812039206 1 0.011464857727933563 1 -1.1251218938294894e-08 0.00964391164570437 1 1 0.0098819161625423955 1 1 1 1 1 0.0097316546976151195 1 1 1 1 1 0.0095940661330824305 1 0.0098399167913897703 1 1 1 1 1 1 0.010258333730244514 1 0.0046345962641037722 1 1 1 1 1 1 1 0.010004062156180007 1 1 1 1 1 0.0099734801793821201 1 1 1 0.0098399650699371767 0.011074772872471543 0.0084362527981718151 1 0.012017802148241989 1 1 1 0.01001955284872641 0.0093987545144554093 1 0.0068848408082850567 1 1 1 1 1 1 1 1 1 1 1 1 1 1 0.011523663336778213 1 1 1 0.011449190593466021 0.0036559526499470646 1 1 1 1 1 1 1 1 0.0095620976181362977 1 1 1 0.01001330825057422 1 1 0.0088986966809668586 1 1 1 0.0076206443974715776 0.010503649015950085 1 1 1 1 1 1 0.0095804648704926176 1 1 1 1 0.0126206841141678 1 1 1 0.0070686538654352836 1 1 1 1 0.011084965413284804 1 1 1 1 1 1 1 1 1 1 1 0.0081553650732196434 1 1 0.01239072220551727 1 1 0.0099982763796773802 1 0.015514057404029523 1 1 1 1 1 1 1 1 1 0.0037473799763335022 1 1 1 1 1 1 1 1 1 1 0.015066851295169395 1 1 1 1 1 1 1 1 1 1 1 1 0.0093039600756958194 1 1 1 1 1 1 1 1 1 1 1 1 1 1 1 1 1 1 1 1 1 1 1 1 1 1 1 1 1 1 0.0099253827420085847 1 1 0.010379608914754179 1 0.013867317639733923 1 1 1 1 1 1 0.012693521106389057 1 1 1 1 1 0.009483030776765539 1 1 0.011317440791399923 1 1 1 0.012585998794073308 1 1 1 1 1 1 1 1 1 1 1 1 1 1 1 1 0.012112735162662955 1 1 1 0.012204896244013278 1 0.0062441137427415166 0.0097366079001714144 1 1 1 1 0.0070409147757820954 1 1 1 1 1 0.0077083795943696954 1 1 1 1 1 1 1 1 1 1 1 0.0090929213009468476 1 1 1 1 1 1 1 1 1 1 1 0.0093362844355846086 1 1 1 1 0.0085225883485892211 1 1 1 1 1 1 1 1 1 1 1 1 1 1 1 1 1 1 1 1 1 1 0.0088193152123501421 1 1 1 1 1 1 1 1 1 1 1 1 1 1 1 1 1 1 0.010497585314958952 1 1 1 0.011609304367383924 1 1 1 1 1 1 1 1 1 1 1 1 1 1 0.0099271169009769334 1 0.0082211129615497661 1 0.01021898396657377 1 1 1 1 1 1 1 0.0061294479700495308 1 1 1 0.012744693859719049 1 1 1 1 1 1 1 1 1 1 1 1 1 1 1 1 1 0.011321342643892021 1 1 1 0.0073856062690649642 1 1 0.005895003542432011 0.010980684987873631 1 1 1 1 0.010017754837108393 1 1 1 1 1 1 1 1 1 1 1 1 0.011219670500930101 1 1 1 1 1 1 1 1 1 1 0.0099082081249595184 1 0.011851239192163262 1 1 1 0.0062411671843197528 1 0.010321193873855397 1 1 1 0.0099028994720545688 1 1 0.010827948340740846 1 1 1 1 0.0056934710651583911 1 1 1 1 0.010489223564966378 1 1 1 0.011069354602779136 0.0045775057179520285 1 0.010647813946561915 1 0.0054203923725216381 1 1 0.0096590257647401444 1 1 1 1 1 1 1 1 1 1 0.0099298331080039381 0.0036469740783589208 1 1 1 1 1 0.010006733126982467 1 0.0074049990321818256 1 1 0.0079514117388986907 1 1 1 0.0076248602213649028 1 0.011086079370274862 0.0037288860774223817 1 0.011980138714310504 1 1 0.0059485795169581888 -2.0876027705118982e-08 1 1 0.005480043499989963 1 1 0.0090185979922935647 1 1 1 1 1 1 1 1 0.0070594166357969435 1 1 1 1 1 0.009174051628176097 1 1 1 1 1 1 1 1 0.003510192322163843 0.0096045876430408527 1 1 1 0.010025703428437038 0.0091281196434947615 1 0.0026520076751613813 1 1 1 0.011670885592786276 1 0.0069480568018678371 1 1 1 1 0.014089059286491096 1 0.0099804512075110305 0.007941242482357648 1 1 1 1 1 1 1 1 0.0098965641631117776 1 1 1 1 1 1 1 1 1 0.0095495305086224207 1 1 1 1 1 1 1 1 0.0099741921058477054 1 0.010986593146218068 1 1 1 1 0.0017023643114249878 1 1 1 1 1 1 0.00089501336924817897 1 1 1 1 1 0.0060003556057300761 1 0.0084172711228432118 1 1 1 1 1 1 1 1 1 1 0.0095449292969058616 1 1 1 1 1 1 0.01016303355640583 1 1 1 1 1 1 1 1 1 1 1 0.0079609773450062676 1 1 1 1 1 0.011060561688415793 0.0030869581873125811 1 1 0.0099574118007319037 1 1 1 0.0099338987883635724 1 0.0039174200902225061 1 1 1 1 1 1 1 1 1 1 1 0.0064487675460156903 0.0080945787158916722 1 1 1 1 0.0083520668754545196 1 1 1 1 0.0082761952968884792 1 1 0.0082732825372618928 1 1 1 1 1 1 1 1 1 1 1 1 1 1 1 1 0.01008585879436965 1 1 1 1 1 0.0099324812418416022 1 1 0.0088668052540436179 1 1 1 0.0093469157941439701 1 1 1 0.010206049832694738 1 1 1 1 1 1 1 1 1 1 1 1 1 0.0095492761075624717 1 1 1 1 0.0099357475073264603 1 1 1 1 1 1 1 1 1 0.0091879711808076844 1 1 1 0.0076739732540589446 1 1 1 1 1 0.0075177072736394568 1 1 1 1 1 1 1 1 1 1 1 1 1 1 1 1 1 1 1 1 1 1 1 1 0.0080223390753634306 1 1 1 1 1 1 1 0.0059897589434077178 1 1 1 1 1 0.0079674198680442856 1 1 1 1 1 1 1 1 1 0.01234377486944466 1 1 0.011338207485546661 1 1 1 1 1 1 1 1 1 1 1 0.01025016241311362 1 1 1 1 1 1 1 1 1 0.0080499113212207322 1 1 1 1 1 1 1 0.0098268208638864311 1 1 1 1 1 1 1 1 1 1 1 1 1 1 0.0052759750214859766 1 1 1 1 1 1 1 1 1 1 0.012865922254214734 1 1 1 1 1 1 1 1 1 1 1 1 1 1 1 1 1 1 1 1 1 1 1 0.020973731399903425 1 1 1 1 1 1 1 1 1 1 1 1 1 1 1 1 0.010990879536867094 1 0.009355064379469008 1 1 1 1 0.017804306323566582 1 1 1 1 1 1 1 1 1 1 1 1 1 1 1 1 1 1 1 1 1 1 1 1 1 1 1 1 1 1 1 1 1 0.016035347330551605 1 1 1 1 1 1 1 1 1 1 0.0055283667901047384 1 1 1 1 1 1 1 1 1 0.011419278879133975 1 1 1 1 1 0.0078301815723698289 1 1 1 1 0.0093173348805070146 1 1 1 1 1 1 1 1 1 0.0098722376991394935 1 1 1 1 1 1 1 1 0.008850800251156303 1 1 1 1 1 1 1 1 1 1 1 1 1 1 1 1 1 1 1 0.014064527627308799 1 1 0.020325770587672723 1 1 0.0099519757469506455 1 1 1 1 1 1 1 0.006132508336547297 1 1 1 0.0029252467650213842 1 1 1 1 1 1 1 1 1 1 0.012994823474265726 1 1 1 1 1 0.0093000350337065097 1 0.0022387576041232697 1 1 1 1 1 1 1 0.0037508748953645685 1 0.020829204688757069 1 1 1 1 1 1 1 1 1 1 1 1 1 0.021842195681500386 1 1 1 1 1 1 0.0013940298589025877 1 1 0.017498339951311788 1 1 0.022183997330888175 1 1 1 1 1 1 1 1 1 1 1 1 1 1.5498770024324759e-08 1 1 1 1 1 1 1 1 1 1 0.0031503261458224428 1 0.0086401823629265948 1 1 1 1 1 1 1 1 1 1 1 1 1 0.00970873433766168 1 0.009837193682916974 1 1 0.0096522484662254007 1 1 1 1 1 1 0.0097775943937186433 -4.984437815616638e-09 1 1 1 0.010764609451887466 1 1 1 1 1 1 1 0.010010713859677804 1 1 1 1 1 1 1 1 1 1 1 1 1 1 1 1 1 1 1 1 1 1 1 1 1 0.0054123564117481478 1 1 1 0.0085092868607526372 1 1 1 1 1 1 1 1 1 1 1 1 1 1 1 1 1 0.0091930431745906645 1 1 1 1 1 1 1 1 1 0.009227163273672628 1 1 1 1 1 1 1 1 1 1 1 1 0.0096185765004250367 1 1 1 1 1 1 1 1 1 1 1 0.0098715406547447079 1 1 1 1 1 1 1 1 1 1 1 1 1 1 1 0.009302731852025849 1 1 1 1 1 1 1 0.015652575294663365 1 1 1 1 1 1 1 1 1 1 1 1 1 1 1 1 1 1 1 1 0.0096408234338025561 1 1 1 1 1 1 0.0096401171756684469 1 1 1 1 1 1 1 1 1 1 1 1 0.010222896662700607 1 1 1 1 1 1 1 0.0091272050744117331 1 0.010000339528987288 0.0096625016486974469 1 1 1 1 1 1 1 1 1 1 1 1 1 1 1 1 0.010038298318438237 1 1 1 1 1 1 1 1 1 1 0.0090598834706304334 1 1 0.0027170580019627161 1 1 1 1 1 1 1 1 1 1 1 1 1 1 1 1 1 1 0.001031101965759125 1 1 1 1 1 1 1 1 1 1 1 1 1 1 1 1 1 1 1 1 1 1 1 0.015414374515088092 1 1 1 1 1 1 0.0099903939756608561 1 1 0.00701336603714885 1 1 1 1 1 1 0.013576652683681203 1 0.012943220800111893 0.0099722561954154933 1 0.00083086928443173481 1 1 1 1 0.010179017767269774 0.0068296793371603257 1 0.0072553435830185059 0.0072600054426540609 1 1 0.010059840104692328 0.0084602298280909462 0.0077765517740358671 1 1 0.0059829445737802633 1 1 1 1 1 1 1 1 1 1 1 1 1 1 0.010068904591900601 1 1 1 0.010007435275208362 1 1 1 0.0078624703999334404 0.010010319274859417 1 0.019908863217212736 1 1 1 1 1 1 0.02223894540233648 1 1 0.010008583578838489 1 1 1 1 0.0083731483683985516 0.017128776464725944 1 1 1 1 1 1 1 1 1 1 1 1 1 1 1 1 1 1 1 1 1 1 0.011223081623173179 1 1 0.010065867135230246 1 1 1 1 1 1 1 0.010401712732813838 1 1 1 1 0.009991703656830251 1 1 1 1 1 0.010070012635678721 1 0.0090045782234833473 1 1 1 1 1 0.013138577296215741 1 1 0.0090735530551490848 1 0.0082155812287212325 1 1 1 1 1 1 0.0097547669241093028 1 0.0095895665219359865 1 1 1 1 1 1 1 1 1 1 1 1 1 0.0092997595192934272 1 0.015598836006847819 1 1 1 1 1 1 1 1 1 1 1 1 1 1 0.009985940387338528 0.0090109781513408524 1 1 1 1 1 1 1 0.015110121174437816 1 1 1 1 0.010061158415911965 1 1 1 0.014778346956361552 1 0.0073871314959697183 1 1 1 1 1 1 0.00159778951264921 1 0.0049764487620408381 1 0.0079193471132391804 1 0.011572751480327687 1 0.0058877678342823155 0.010138893831414862 0.012057661856410919 1 1 0.011186756575530525 1 1 1 1 1 1 0.011692832627558696 1 1 1 0.009107608428520951 1 1 1 0.014738330743093404 1 1 1 1 1 1 0.016966462213821289 1 1 0.0082969138456991959 1 1 1 1 1 0.0084165632776660379 1 0.01058858921619554 1 1 0.0099611684901430245 1 1 1 1 1 1 1 1 1 1 1 1 1 1 1 1 0.0090402848649635097 1 1 1 1 1 1 1 1 1 1 1 1 1 1 1 1 1 1 1 1 1 1 1 1 1 1 1 1 1 1 1 1 1 1 1 1 1 1 1 0.009372349112127934 1 1 1 1 1 1 1 1 0.0096868207060826477 0.010013679805176021 0.0092143524685507541 0.0097294862253563021 0.0098036915516814972 1 0.011154676430998108 1 1 1 0.0061676668735840086 1 1 1 1 0.014319298857205941 1 0.0096376079914277067 1 1 0.0099597708453470837 1 0.013491225215763038 1 0.012405858842214474 1 1 1 0.014685130713446973 1 1 1 1 0.010002617817338813 1 1 1 0.014330133396510267 1 1 1 1 1 1 1 1 1 0.010033979026186452 1 1 1 1 1 0.014919257578884272 1 1 1 1 1 0.010002877353002579 1 1 1 1 1 1 1 1 1 1 1 1 1 1 1 1 0.0014408542071991937 1 1 1 1 1 1 1 0.010135822709734257 0.012096449698401481 1 1 0.016904767575816777 1 1 1 0.0098630966855271038 0.015689522156150763 1 1 0.012307312081938231 1 1 0.0083938097669889432 1 1 1 1 1 1 1 1 1 1 1 1 1 1 0.012777332863156339 0.016518601889336806 0.010019305183501408 1 1 1 0.0099817667452989541 1 0.015602915819435532 1 1 1 1 1 1 0.016834916348201272 1 1 1 0.0040079868941412418 1 1 1 0.0097967299106485883 0.015951454231181963 1 1 0.010005554671383652 1 1 0.0045022653459458814 1 1 0.00089792860567459998 0.0071969645134531881 1 1 0.013505819892696358 1 1 1 1 0.0081004139922843908 0.0098619861531539406 1 0.0085087700714429199 1 0.01155360274719194 1 1 1 1 1 1 1 1 1 1 1 1 1 1 1 1 1 1 1 1 1 1 1 1 0.011132298939492523 1 1 1 1 1 1 1 1 1 1 1 1 1 1 1 1 1 1 1 1 1 0.010454632088368986 1 1 1 1 1 1 1 1 0.0071452000155593047 1 1 1 1 1 1 1 1 1 1 1 1 0.0098158615288317774 1 1 1 0.0097359605210122439 1 1 1 1 0.0088364534837637523 1 1 1 0.0092181733988194944 1 1 1 1 1 1 1 1 1 1 1 1 1.3896716440781054e-08 1 1 1 1 1 1 1 1 1 1 4.4743759045062781e-10 1 1 1 1 1 1 1 1 1 1 1 0.013725549226137494 1 1 1 0.014409210369331578 1 1 0.00028316696263471983 1 1 1 1 1 1 1 1 1 1 1 1 1 1 0.0098724663638994192 1 0.01012661626421912 1 1 1 1 1 1 1 1 1 1 1 1 1 1 1 1 1 1 1 1 1 0.011210609139686627 1 1 0.0094455774313093356 1 1 1 1 1 1 1 1 1 1 1 1 1 1 1 1 1 1 1 1 1 1 0.008199060902900044 1 1 1 1 1 1 1 1 1 1 1 0.010417287984334542 1 1 1 1 1 1 0.005230536325532973 1 1 0.0031134073280330299 1 1 1 0.011568797363017164 1 0.0044418668941542602 1 1 1 1 1 0.011400922437402879 0.0034064597968562621 1 0.0036696221044730335 1 0.0065910815123484297 1 1 0.011381376713834185 0.0031106661339311524 1 0.014041224913376185 1 1 1 1 1 1 1 0.012815803300896114 1 1 0.0031709690140586874 1 1 0.011657340969113597 0.0044645194863769354 1 1 1 1 1 0.0082971035202768391 1 1 0.010011105862858031 0.0063010281331373104 1 1 1 1 1 1 0.013178471772007056 1 1 1 1 1 0.010000631380192103 1 1 1 1 1 0.010003040343722173 1 1 0.00737213956648268 1 1 1 1 0.010021447383163351 1 1 1 1 1 1 1 1 1 1 1 1 1 1 1 1 1 1 0.0091246371018259761 1 1 0.010121790998258396 1 1 1 1 1 1 1 1 1 1 1 0.010244678039834873 1 1 1 1 1 1 1 0.013839478215311743 1 0.0081921013716013836 1 1 1 1 0.010862716989362808 1 1 1 1 1 1 1 1 1 1 1 1 1 0.010694189151546123 1 1 1 1 1 1 0.011513161787867755 1 1 1 1 1 1 1 1 1 1 1 1 1 1 1 1 1 1 1 1 1 1 1.0262062118474025e-08 1 1 1 1 1 1 0.011507693223753309 1 1 1 1 1 1 0.013705254440817603 1 1 1 1 6.4833698323191191e-09 1 1 1 0.0099763157150068119 1 1 0.0090891257942318903 1 1 1 1 0.0071489966511680113 1 1 1 1 1 0.0099956786827479771 1 0.002570923829549562 1 1 1 0.0031298107133670913 0.0034336651321198912 0.014733896702077868 1 1 1 1 1 1 1 1 1 1 1 1 1 1 1 1 1 1 1 1 1 1 1 1 1 1 1 1 1 1 1 1 1 1 1 1 1 1 1 1 1 1 1 1 1 1 1 1 1 1 1 1 1 1 1 1 1 1 1 1 1 1 1 1 1 1 1 1 1 1 1 1 1 1 0.0091061242314079641 1 1 1 1 1 1 1 1 1 1 1 1 1 1 1 1 1 1 1 1 0.0078238255406130816 1 1 1 1 1 1 1 1 1 0.0088321025716856238 1 1 0.0076945790426395828 1 1 1 1 1 1 1 0.0084494191243751522 1 1 1 1 1 1 1 1 1 0.010083083145782734 1 1 1 1 1 1 1 1 1 1 1 1 1 0.0073899058523386662 1 1 1 0.010065983909815534 1 1 1 1 1 1 1 1 1 1 0.010233782628863371 1 1 1 1 1 1 1 1 1 1 1 0.0073007981491036555 1 1 1 1 0.0077852591751351842 1 1 1 1 1 0.0083849893996017326 1 1 1 0.0096853751773856994 1 1 1 1 1 1 1 1 1 1 1 1 1 1 1 1 1 1 1 1 1 0.0090219048961330903 1 1 1 0.0080889762810917899 1 1 0.014713671295735092 1 1 1 0.011655830454627937 1 1 1 1 1 1 1 1 1 1 0.01066290986206881 1 0.014069030183463555 1 1 0.012731603727635916 1 1 1 0.010106626030711954 1 1 1 0.010054013757226412 0.0099318358869523934 1 1 0.0098339862681042431 1 1 1 1 1 1 1 1 1 1 1 1 1 1 1 1 1 1 1 1 0.013479233126481714 0.013960682898902559 1 1 1 1 1 1 1 1 1 1 1 1 1 1 1 0.010375156416521201 1 1 1 1 1 0.010933061660128992 1 1 1 1 1 0.011138302253431832 1 1 1 1 1 1 1 0.0092416955276473055 1 1 1 0.008786670998635282 1 1 1 1 1 1 1 0.0096519573801924236 1 1 1 1 1 1 1 1 1 1 1 1 1 1 1 1 1 1 1 1 1 1 1 1 1 1 1 1 0.0074122669852457988 1 1 0.014059948155881656 5.1772513498526962e-09 1 1 1 1 1 1 1 1 0.010769793725084284 1 1 1 1 1 1 1 1 1 1 1 1 1 0.0057556847847665977 1 1 0.0036793336986005835 1 1 1 1 1 1 1 1 1 1 1 1 1 1 1 1 1 1 1 1 1 1 0.012151827799938064 1 1 1 1 1 1 0.0087115169192035907 1 1 1 1 1 1 1 1 1 1 1 1 1 1 1 1 1 1 1 1 1 1 1 1 1 1 1 1 1 1 0.012653008107493428 1 1 0.010814985316557817 1 1 1 1 1 1 1 0.0016191998904362456 1 1 1 1 1 1 0.0084833026766984228 1 0.006550652743539196 1 1 1 1 1 1 1 1 0.0054830748222155085 1 1 1 0.0027615150092132144 1 1 1 1 0.0057437789762443923 1 1 1 1 1 1 0.016549689761067077 0.0069886425124717141 0.010004062129919231 1 1 1 1 1 1 0.006103660193476872 1 1 1 1 1 1 1 1 1 1 1 1 1 1 1 1 1 1 1 1 1 1 1 1 1 1 1 1 1 1 1 1 1 1 1 1 1 1 1 1 1 1 1 1 1 1 1 1 1 1 1 1 1 1 1 1 1 1 1 1 1 1 1 1 1 1 1 1 1 1 1 1 1 1 1 1 1 1 1 1 1 1 1 1 1 1 1 1 1 1 1 1 1 1 1 1 1 1 1 1 1 1 1 1 1 1 1 1 1 1 1 1 1 1 1 1 1 1 1 1 1 1 1 1 1 1 0.0099302344954264581 1 1 1 0.0096496258791094296 1 1 0.0099750639524252751 0.009890852150334084 1 1 1 1 1 1 1 0.011029611083350705 1 1 1 1 0.011594372452802442 1 0.0099498090690474626 1 1 1 1 1 1 1 0.018192290773800666 1 1 1 0.010366534357372403 1 1 1 1 0.009396814826449185 1 1 0.01937836396065706 1 0.00815276595380875 1 0.0094897138726508234 1 0.018764991761450245 1 1 1 1 1 1 1 1 1 1 1 1 1 1 1 1 1 1 1 1 1 1 1 1 0.0096016480926764819 0.0090494390868357741 1 1 0.017694356126352465 1 1 0.011243304351279274 1 1 1 1 1 1 1 0.010787182922502733 0.010247929445095911 1 1 1 1 1 1 1 1 1 1 1 1 1 1 1 0.00052019298930199367 1 0.010027548423375417 1 1 1 1 1 1 1 -4.8656618317766132e-09 0.0097480650620899306 1 1 1 1 1 1 1 1 1 1 1 0.00098275378407057697 1 0.0058359704560926682 1 1 1 0.01400559106146174 0.011550794018512113 1 1 0.010500009517619271 1 1 1 1 1 1 1 1 1 1 1 1 1 1 1 1 1 1 1 1 1 1 0.010002322379412423 1 1 0.010562757237822136 1 1 1 1 1 1 1 0.019481581621932288 1 1 1 0.019641671851201522 1 1 1 1 1 0.0077268039566750369 1 0.010003486067767015 1 1 1 1 1 1 1 1 1 1 0.01014056541154976 1 0.010014446297517646 1 1 1 1 1 1 1 0.0095603766668153518 1 1 0.0086546097115168981 1 1 1 1 1 1 1 0.0077951856858208581 1 0.008614702753733848 1 1 0.0082949315256797065 1 0.0086422926441077942 1 1 1 1 0.010395207621829945 1 0.0096402561705655719 1 1 1 1 1 1 0.0097964594780424255 1 0.015164617791196745 1 0.0073897675093639176 1 1 0.015327643803475854 1 1 1 1 1 0.008739810270956978 1 0.0090452937435061068 1 1 1 1 0.0098760089120248466 1 0.010068036961557227 1 1 1 1 0.019099619527390619 1 1 1 1 1 1 1 1 1 1 1 1 1 1 1 1 1 1 1 1 1 1 0.0095283464650006665 1 1 1 1 1 1 1 1 1 1 0.0088850814081399259 1 0.0078180766160053025 1 1 1 0.0030220076138728937 1 1 1 1 1 1 1 1 1 1 0.0099100225381760637 1 0.0094530198720697185 0.0076828767853242622 1 1 1 0.0088453665142694503 1 1 0.011574552150932194 1 1 1 1 0.0088121211444483517 0.0097600339878216764 0.0065173251749795352 1 1 1 0.0090808766205190735 1 1 1 1 1 1 1 1 1 1 1 1 1 1 1 1 0.0082637161733842869 1 1 1 1 1 1 1 0.0085499497876345438 1 1 1 1 1 1 1 1 1 1 1 1 1 0.0078526750262673632 1 1 1 1 1 0.0098949296927262342 1 1 1 1 0.0090832926406108298 1 1 1 1 1 1 1 1 1 1 1 1 1 1 1 1 1 1 1 1 1 1 1 1 1 1 1 1 1 1 1 1 1 1 1 1 1 1 1 1 1 1 1 1 1 1 1 1 1 1 1 1 1 1 1 1 1 1 1 0.0099499917646037744 1 0.0097826220237835094 0.0050770417506503761 1 1 0.0089596057357679681 1 0.016532448667836555 1 1 1 1 1 1 0.0066609027688468176 1 1 1 1 1 1 1 1 1 1 1 1 1 1 1 1 1 1 1 1 1 0.0083321689502684013 1 1 1 1 1 1 0.0096261598769601647 1 1 1 1 1 1 1 1 1 1 1 0.0092757857560696027 1 1 1 1 1 1 1 1 1 1 1 1 1 1 1 1 1 1 1 1 1 1 1 1 1 1 1 1 1 1 1 1 1 1 0.0099711793912265478 0.010184498421086461 1 0.010610403480297098 1 0.010068341083659237 1 1 1 1 1 1 1 1 0.010304315861942422 1 1 0.010281932213543109 1 1 0.011981293090787572 1 1 1 1 1 1 1 1 1 1 1 1 1 0.011670330212774671 1 0.010694785550951392 1 1 1 0.011382935933357482 1 0.010405476057243634 0.0084340670500135176 0.010928745266925994 1 1 1 0.01174922150654948 0.0082616943810453827 1 1 1 1 1 1 1 0.01002965555411801 1 1 1 1 0.0093124967875058418 0.012804767719623744 1 0.01317937993046258 1 0.0099539046499166686 1 1 1 1 1 0.0099716373317938131 0.010944212092357537 0.010035788491397848 1 1 1 0.010666265839144567 1 0.010119475678945278 0.010279004521901161 1 0.010337011164201011 0.010074196501648092 1 1 1 1 1 0.0099913230535557881 1 1 0.010016231942143673 1 1 0.010095323768324619 0.0098513125937874386 1 1 1 1 1 0.0099489880214199064 1 1 1 1 1 0.010019848392015456 1 1 1 1 0.0088619978379816632 1 1 1 1 0.010018080266851893 1 1 1 1 1 0.0082851007935426154 1 1 1 0.012878310549351688 1 1 1 1 0.012722360470731905 1 1 0.012808484996205188 1 0.0075589967663680854 1 0.011529477315644616 1 0.010026085457740147 1 1 1 1 1 1 0.010112211874266435 1 1 1 1 1 1 1 1 0.0094351501664960355 1 1 1 0.004241176199982117 0.0049522797472057178 1 1 1 1 1 0.012736357587680495 1 1 1 1 1 1 0.012119506403566377 1 1 1 1 1 1 1 1 1 1 1 1 1 1 1 1 1 1 1 1 0.0093314466746601613 1 1 1 1 1 1 1 1 1 1 1 1 1 1 1 1 1 1 1 1 1 5.6851252889372761e-09 1 1 1 0.010258302562233354 1 1 1 4.080482965407306e-09 1 1 1 1 1 1 1 1 0.020926505333453142 1 1 1 1 1 1 0.0098844141834316182 1 0.019857406032801367 1 1 0.0043238722464533606 1 1 1 0.010755880639159924 1 1 1 0.0063512737340427946 1 1 1 1 1 0.0087075335146992189 1 1 1 0.010445982255745466 1 1 1 1 1 1 1 1 1 1 1 1 0.013455760625896696 1 1 1 1 0.010025852285026914 1 1 1 1 1 1 1 1 1 1 1 -5.0576268902091659e-09 1 1 0.0099405885491785986 1 1 1 0.014760974381446728 1 0.0099947142353932206 1 1 1 1 1 1 1 0.0026195724531517597 1 1 1 1 1 1 1 1 1 1 1 1 1 1 1 1 1 1 1 1 1 0.0051927088261864238 1 1 1 1 0.009856962446635054 1 1 1 0.010374023671763596 1 1 1 1 1 1 0.0099443476216668353 1 1 1 0.011319057296009362 1 1 1 1 1 1 1 1 1 1 1 1 0.010043009506994549 1 1 0.0005156654222952476 0.010115594946752498 1 1 1 2.582300342307553e-09 1 1 -1.0189799889287476e-09 1 1 1 1 0.011013558153717386 1 1 1 1 1 0.010556491994261542 0.011356223064571003 1 1 1 8.9251189078209947e-10 1 1 1 1 1 3.4004449641949347e-05 1 1 1 1 1 1 1 1 1 1 1 1 1 1 1 1 1 1 1 1 1 1 1 1 1 1 1 1 1 1 1 0.0098565936421972592 1 1 1 1 1 1 1 1 1 1 1 0.0093659442323404968 1 1 1 1 1 1 1 0.0083500047362141949 1 1 1 1 1 1 0.0098613692391369395 1 1 1 1 0.0090132941712298843 1 1 1 0.010002976674684423 1 1 1 0.0096141428116238575 1 1 1 0.012719651787973253 1 0.010008425640078821 1 1 1 0.006055430313666817 0.012441640753809794 1 0.014813800354076059 0.012951881007685375 1 0.010856864841237303 1 0.0095421306996227966 1 1 1 0.0076072741478035218 1 1 1 1 1 1 1 1 1 1 0.010192319413506516 0.019258269358545278 1 1 1 1 1 1 0.0085591982689512611 1 0.010062235773634836 1 1 1 0.007744068722292009 0.0076271245323251621 1 1 1 1 1 1 0.009866731214324357 0.0056694602239683693 0.0064303691289274122 1 1 1 1 1 1 1 1 1 1 1 1 1 1 1 1 1 1 1 1 1 0.010080826920746071 1 1 1 1 1 1 0.0078044807186461243 0.0096069027972393375 1 1 1 1 1 1 1 1 1 1 1 1 1 1 1 1 1 1 1 0.0099821048878842838 0.018101107768050732 1 1 1 1 0.010173488431500266 0.013599069982860288 1 0.011721445092692141 0.0081307402968325664 1 1 0.0069092275967999675 1 1 0.010829337331231537 0.012462751397107282 0.014928945460542298 1 1 1 1 1 1 1 1 1 0.016367082651185565 1 1 1 1 0.011689306182523162 1 1 0.0085246989609724152 1 1 1 1 1 0.015315138273882322 1 1 1 0.013655804257623146 1 1 1 1 1 1 1 1 1 1 1 1 1 0.017345303890977586 1 1 1 1 0.0078323887607101017 1 1 1 0.0099344216494543381 1 1 1 1 1 1 1 1 1 1 1 1 0.012914402395529399 1 0.013187851571338963 1 1 0.0046059515632083069 1 0.0012289508429804141 1 1 1 1 1 0.00025378495589820603 1 1 1 1 1 1 1 1 1 1 1 1 1 1 1 1 1 1 1 1 1 1 1 1 1 1 1 0.010162822445129971 1 1 1 0.0084411111928214579 1 1 1 1 1 1 1 1 0.011373760693861715 1 1 0.012493441240468837 1 1 1 0.017414852438546277 1 1 1 1 1 1 1 1 1 1 1 1 1 1 1 1 1 1 1 1 1 0.0068917523898004776 1 1 0.0085973028340719064 0.014866540351981818 1 0.015116296674771325 1 1 0.009623619746339079 1 1 0.0051228002898559832 1 1 1 1 1 1 1 0.010109744664306655 1 1 1 1 1 1 1 1 1 1 0.009909094620379132 0.015564520268128977 1 1 1 1 1 1 1 1 1 1 1 1 1 1 1 1 1 1 1 1 1 1 1 1 1 0.010272567109436616 1 1 1 1 1 1 1 1 1 1 0.010696606882974252 1 1 1 1 1 1 1 1 1 1 1 1 1 1 0.010069575481540742 0.010166461274410659 1 1 1 1 1 1 1 1 1 1 1 1 1 1 1 1 1 1 1 1 1 1 0.0096718077773808447 0.015762574751549165 1 1 0.015893510614789504 0.010149304932936944 1 1 1 1 1 1 1 1 1 1 1 0.010216871775939603 1 1 1 1 1 1 1 1 1 0.010022323698948987 1 1 1 1 1 1 0.0099829354386310153 1 0.011708975996073873 1 1 1 1 0.011078545894800871 1 0.011407982278698853 0.011816640771949978 1 0.010607421925178228 0.018023658972321253 1 1 1 1 1 1 1 1 1 1 1 1 1 1 1 1 1 0.0062487314782953621 1 1 0.01882059141564375 1 0.010353039479858028 1 1 1 1 1 0.018888813006059213 1 0.0099745016509098106 1 0.013721848553481141 1 1 0.0091148626775421574 1 0.0083786148872727929 1 1 1 1 1 1 1 1 1 0.010350092807951114 1 1 1 1 1 1 1 1 1 1 1 1 1 1 1 1 1 1 1 1 1 0.0088014576264038719 1 1 1 1 1 1 1 1 0.011741997590855008 1 1 1 1 1 1 1 1 0.010511679982754742 1 1 1 1 1 1 1 1 1 1 1 0.01027294094719202 1 1 1 1 1 0.010247016660811396 1 1 1 1 1 1 1 0.010477925936171036 0.011111432008426597 1 1 1 1 1 1 1 1 1 0.010734686713440501 1 1 1 1 1 1 1 1 1 1 0.010856739367218357 1 1 1 1 1 1 1 1 1 1 1 0.013298593621447452 1 1 1 1 0.010586655441773053 1 0.010237826734309518 0.013707614483374438 1 1 1 1 1 1 0.00032265691236316868 1 1 1 1 -9.3871297818237665e-09 1 1 1 1 1 1 1 1 1 0.010200470750337701 1 0.010218856560531125 1 1 1 1 1 1 0.010324761444656508 1 1 0.010825081031746092 0.0026354606778018763 1 1 0.012372840162596427 1 0.0025102790228816313 1 0.014131086682938609 1 1 1 1 1 0.010121502857816062 1 1 0.014695585300087305 1 1 1 1 1 1 0.010539542749485285 1 1 1 0.0096739526793083383 1 0.011914233642976944 1 1 0.01189665958135616 1 1 1 1 1 0.019265108077765672 1 1 1 1 1 1 1 1 1 1 1 0.011677856011388028 0.014603903341278677 1 1 1 1 1 1 0.018177466295813634 1 1 1 1 1 1 1 1 1 1 1 1 1 1 1 0.020294119708832159 1 1 0.0098826646861475322 1 1 1 1 1 1 1 1 1 1 1 1 1 1 1 1 1 1 1 1 1 1 1 1 1 1 1 1 1 1 1 1 1 1 1 1 1 1 1 1 1 1 0.0087780992894467696 1 1 1 1 1 1 1 1 1 1 1 1 1 1 1 1 1 1 1 1 1 1 1 1 0.0090737785626421145 1 1 1 1 0.0089919590652732875 1 1 1 0.0096097766657260823 1 1 1 1 1 1 1 1 1 1 1 1 1 1 1 1 1 1 1 1 1 1 1 1 1 1 1 1 1 1 1 1 1 1 1 0.002973395306256961 1 1 1 1 1 1 1 1 0.010344616888235167 1 1 1 1 0.0011875558943341621 1 1 1 1 1 1 1 1 1 1 1 1 1 1 1 1 1 1 1 1 1 0.0054807150565681709 1 1 1 1 0.011419490352016797 1 1 1 1 1 1 1 1 1 1 1 1 1 1 1 0.010567265466476298 1 0.0098326518943599797 1 1 1 1 1 1 1 1 0.011458972859681284 1 1 1 1 1 0.010615448124594546 1 1 1 1 1 1 1 1 1 1 1 1 1 0.0099971626385418969 1 1 0.0098306425665212124 1 1 1 0.009142067559291131 1 1 1 1 1 1 1 0.0077544800684503437 1 1 1 1 1 1 1 1 1 1 1 1 1 1 1 1 1 1 1 1 1 1 1 1 1 1 0.010463225090427623 1 1 1 0.011575105325710384 1 1 1 1 1 1 1 1 1 1 1 1 1 1 1 1 1 1 1 1 1 1 1 1 1 1 1 1 1 1 1 1 1 0.012839180163446665 1 1 1 1 1 1 1 1 1 1 1 1 1 0.010256987341546508 1 1 1 1 1 1 1 1 1 1 0.010204984988979003 1 1 1 1 0.0094413306648387235 1 1 1 1 1 0.011180675431652937 1 1 1 1 1 1 1 1 1 1 1 1 1 1 1 1 1 0.011648347163427587 1 1 1 1 1 1 1 1 1 1 1 1 1 1 1 1 1 1 1 0.0064560664229319498 1 1 1 1 1 1 1 1 0.0087426593047440285 1 1 1 1 1 0.0086115273097008976 1 1 1 1 1 1 0.010023656968931101 1 1 1 1 1 1 1 1 1 1 1 1 1 1 1 0.010146058064455621 0.0046561917483115209 1 1 1 1 0.01476309953515486 1 1 1 1 0.011488868787914143 1 1 1 1 1 1 1 1 1 1 0.018223798692110237 1 1 0.0026347467970179173 1 0.010305444430545638 0.014387738483176128 1 1 1 1 0.0084253785320725638 0.015723097399147942 1 1 1 1 1 1 1 0.010113178034453267 1 1 1 1 0.017191299800542521 1 1 0.01092921512566649 1 0.017383200234299619 0.003472735197454821 1 1 1 0.0098928903646291581 1 1 1 0.011565396053777849 1 1 1 1 1 1 1 1 1 1 1 1 1 0.014898882654763078 1 0.013833119279988874 0.014695150377943812 1 1 1 0.014954061418239647 1 0.0069870423794240119 1 1 0.010059555268556925 0.0078360074228253918 1 1 1 0.014428210595397098 0.0089176448728092994 1 1 1 1 1 1 0.01446328210356497 1 0.014523582552252627 1 1 1 0.0080986118538419125 1 0.011097204632119516 1 1 1 0.011036687122206165 1 0.017190810316870822 1 1 1 0.012536105746807148 1 1 0.0069285004107353179 1 1 1 0.015902040098011432 1 1 0.012899515290815398 1 1 1 1 1 1 1 0.010031851954423507 0.0071004753921002101 1 1 1 1 0.019961446475121283 1 1 1 1 1 0.0101521811961092 1 0.017964655941098702 1 1 1 0.012955672838673027 0.010324518161989949 1 1 1 1 1 1 1 1 1 0.013432860252909098 1 1 1 1 1 0.010103683214794419 1 1 1 1 0.013329534786780681 1 1 1 0.0053289319225068663 1 1 1 1 0.012533648240938236 1 1 1 1 0.010719117818987923 1 1 1 1 1 1 1 1 1 1 1 1 1 1 1 1 1 1 1 1 0.0025194451921223913 1 1 0.0047816593489700757 1 1 0.0062015468416862559 1 0.0099428788394075474 1 1 0.007911393600752957 0.0030432130688540747 1 1 1 1 1 1 1 1 1 0.0052203021975834908 1 1 1 1 1 1 1 1 1 1 1 1 1 1 1 1 1 1 1 1 0.0061337409951606504 1 1 1 1 1 1 1 1 1 1 1 1 1 1 1 1 0.010063275500717889 1 1 1 1 1 1 1 1 1 0.010411718290474712 1 1 1 1 1 1 1 1 1 1 1 1 1 1 1 1 1 0.0011613723696117934 1 1 0.0096192931940002509 1 0.0013833677059166584 1 1 1 1 1 1 1 1 1 0.0084924385346420248 1 1 1 1 1 1 1 1 0.009525083299870514 1 1 1 1 1 1 1 1 1 1 1 1 1 1 1 1 1 1 0.0046918907832350833 1 0.0097666380432755578 1 1 1 1 0.0060309231897195583 1 1 1 1 0.01407190017482329 1 1 1 1 1 1 1 1 1 1 1 1 1 1 1 1 0.015345902831917328 1 1 0.0089101131163837367 0.004685052777447539 1 1 1 1 1 1 1 0.010695015488793152 0.010631173257209536 1 1 1 1 0.0099823161191363273 1 1 1 1 1 1 1 1 1 1 0.010672845760245435 1 1 1 1 1 1 1 1 0.010526841764067221 1 1 1 1 1 1 1 1 1 0.0042001298199163609 1 1 0.010440110685266471 1 1 0.011683942775264692 1 1 1 1 1 1 0.010022359728311916 1 0.0046799835886078937 1 1 1 1 0.010482825662136125 1 1 1 0.0045319666902576272 1 1 1 1 1 0.0050213849299183058 1 1 1 1 1 1 1 1 1 0.010002238425771182 1 1 0.017398609013810025 1 1 1 1 1 1 1 1 1 1 1 1 1 1 1 1 1 1 1 1 0.010178085130970509 1 1 1 1 1 1 1 1 1 1 1 0.010210970038714415 1 1 1 1 1 1 1 1 1 0.010299506755871954 1 1 1 1 1 1 1 1 1 1 1 1 1 1 1 1 1 1 0.021454548939000125 1 1 1 0.0098881879943681222 0.014262364854419429 1 1 1 1 0.01540478225573764 0.0050406854819842195 1 1 0.010008879693803279 1 1 1 1 1 1 0.01023382797781037 1 1 1 1 1 1 1 1 1 1 1 1 1 1 1 1 1 1 1 1 0.010317585592076789 1 1 1 1 1 1 1 1 1 1 0.010106615553362359 1 0.0084201028748429399 1 1 1 1 1 1 0.011384991404873878 1 1 1 1 1 0.012174283801782454 1 1 1 0.012447815736664567 1 1 1 1 0.012677008768467878 1 1 1 0.010155449677263754 1 1 1 1 1 1 1 1 1 1 1 1 0.011507187931607987 1 1 1 1 1 1 0.0099529039959035497 0.019520992135623205 1 1 1 1 1 1 1 0.016328880536740677 1 0.010028403590875075 1 1 0.010554710838666916 1 1 1 1 1 1 1 1 1 1 1 1 1 1 1 1 1 1 1 0.0099092768511198498 1 1 1 1 1 1 0.010098080831451049 1 1 1 1 1 1 1 1 1 1 1 0.010270676435505305 1 1 1 1 0.009797464845487984 1 1 1 0.013760776429807452 1 1 1 1 0.010439370847869188 1 1 0.013119180886285498 0.013144898011565065 1 1 1 1 1 0.0097626551976697767 1 1 1 1 1 0.0087863604958308347 0.0094940922541734644 0.0088129260198541379 1 1 1 1 1 0.009986580138022786 0.012829213798276782 1 0.0066135690425320054 0.013492489608461814 1 0.015200763155107858 1 1 1 1 1 1 1 1 1 1 1 0.010477371596260887 1 1 1 1 0.0094229256659120811 1 1 1 0.013373324821667486 1 0.0088040299118091955 1 0.0095511142203186378 0.010013533910037689 1 1 1 0.0093241773898312397 1 0.01005343046497318 0.010011786909727115 0.010184569598362789 1 1 1 0.0099987964061530529 1 0.010003861621118142 1 0.013373654240736353 1 1 1 0.011515146107743044 1 1 1 1 1 1 1 1 1 1 1 1 1 1 1 1 1 1 1 1 1 1 1 1 1 1 1 1 0.0050024321860366733 1 1 1 1 1 1 0.0082496181539589396 1 1 1 1 1 1 1 1 1 1 1 1 1 1 1 1 1 1 1 1 1 1 1 1 1 1 1 1 1 1 1 1 1 1 1 1 1 1 1 1 1 1 1 1 1 1 1 1 1 1 0.0097815093087061031 1 1 1 1 1 1 1 1 1 1 1 1 1 1 1 1 1 1 1 1 1 1 1 1 0.0094565367678810658 0.010005366896845592 1 1 1 1 1 1 1 1 1 1 1 1 1 1 1 1 1 1 1 1 1 1 1 0.010116779683104447 1 1 1 1 1 1 1 1 1 1 1 1 1 1 1 1 0.010329401073394834 0.010638062598614897 1 1 1 1 1 0.010162470833256255 0.0099046335554892704 0.011109932292861965 1 1 1 0.0095215858172022598 0.012105049339364987 1 1 1 1 1 1 1 1 1 1 1 1 1 1 1 1 0.016646589489461412 1 0.013504259341937901 1 1 0.0098794620120403465 1 1 1 1 1 1 1 1 1 1 1 1 1 1 1 1 1 1 1 1 1 1 1 1 1 1 1 1 1 1 1 1 1 1 1 0.010528923707466789 1 1 1 1 1 1 1 1 1 1 1 1 1 1 1 0.011012457006075681 1 1 1 1 1 1 1 1 1 1 1 1 1 1 0.0096750274591749716 1 1 1 1 1 1 1 1 1 1 1 1 1 1 1 1 1 1 1 1 1 1 1 1 1 1 1 1 1 1 1 0.011018430611534992 1 1 1 1 1 1 0.011038577410607035 1 1 1 1 1 1 1 1 0.0094785050632321035 1 0.010416854086347547 1 1 1 1 1 1 1 1 0.01145872864559494 1 1 1 1 1 1 1 1 1 1 1 1 1 1 1 1 1 1 1 1 1 1 1 1 1 1 1 1 1 1 0.0089973564967708742 1 1 1 1 1 1 1 1 1 1 1 1 1 9.5859862235536664e-10 0.011956179733155995 1 1 0.0094061775033078693 0.010309249859172481 1 1 1 1 1 0.012574762858371167 1 1 1 1 1 1 0.018902355800431113 1 1 1 1 1 0.0076860553058262643 1 0.013884401439882118 1 0.0026267414429202336 1 1 0.0024832350025237437 1 1 1 1 1 1 1 0.0041234383199046654 1 0.0099242053949140444 1 1 0.016176527485116287 1 1 1 1 0.018673916358161333 1 1 1 0.0081354332951096911 1 1 1 1 1 0.012724500924731643 1 0.0077543956311431385 1 1 0.013378867150989475 1 1 1 0.0099411908345699938 1 3.2757071014022365e-09 1 1 1 1 1 1 1 0.013303020999943477 1 1 0.0090733577309380122 0.0099661794314782667 1 0.0062791334933759782 0.013438915544031616 1 1 1 0.0046570820393733864 1 0.010163174038285639 0.0097930951213236559 0.010352601037528546 1 1 1 1 1 0.016366250817313067 1 1 1 1 1 1 0.010216751161533685 1 1 1 0.0030427379413830321 1 0.015654939716106046 1 1 1 1 1 1 1 1 1 1 1 1 1 1 1 1 1 1.3422686642727832e-09 1 1 0.010437554870623032 1 1 1 1 1 1 1 1 1 0.0095519254641290678 1 1 1 1 1 1 1 1 0.0029299337639521802 1 1 1 0.016279031316441872 1 -1.9896862352153377e-09 1 1 0.0099418877238188902 1 1 1 1 0.0072548799274000306 1 1 1 1 1 1 1 0.0025854508695702877 1 0.0091927805528521644 1 1 1 1 1 1 1 0.015088413819021531 1 1 1 0.0082573093296670272 1 0.0099305178901935784 1 1 0.0076848771441860447 0.013037875047461551 1 1 1 1 1 0.0090384452574880231 1 1 1 1 1 1 1 1 1 1 1 1 1 1 1 1 1 1 0.010379672364585278 0.010097846299017998 1 1 1 1 1 1 0.016181117422717169 1 1 0.0063836979491032481 0.014229562752664604 1 1 0.011769020878135993 1 0.0056051366800276697 1 1 0.011001405489492831 1 1 1 0.012439728673867013 1 1 0.00996734859335556 1 1 1 1 0.0099564376800152371 1 1 1 1 1 1 0.0078151827232188394 1 1 1 1 0.013834617992677684 0.0050634121948828648 1 0.0087030640074729545 0.0072910371460146554 1 1 1 1 1 1 1 1 1 1 1 1 1 1 1 1 1 1 1 1 1 1 1 1 1 1 1 1 1 1 0.0019614659022104842 1 1 0.010170451789117241 1 1 1 1 1 1 1 1 1 1 0.0060215139047494256 1 1 1 1 1 1 1 1 0.010428096436993403 1 1 1 1 1 1 1 0.0085493265811388778 1 1 1 0.011740269681690722 1 1 1 0.0033309800460113153 1 0.013317382408766246 1 1 1 1 1 1 0.011145385513263092 1 0.010059861021051301 1 1 1 0.010067557314500961 1 1 1 1 1 1 1 1 1 1 1 1 1 1 1 1 1 1 0.0099816740966346615 0.0047100260299026211 0.0055314644277973547 1 0.011319260231736065 1 1 1 1 1 1 0.002897180010778393 1 0.0091731160694801979 1 1 1 1 0.0095660397735932434 1 1 0.010993467804953711 0.0057916753634640397 1 1 1 1 1 0.0098251065628448108 1 3.2235435848404492e-10 1 1 1 0.015745442291793761 1 1 0.0076375334713385187 0.0085934024094124588 1 1 1 1 0.010347461490146937 1 1 0.0079714008603142331 1 1 1 0.01026937994665246 1 1 1 0.010851459116365925 1 0.006786071917229311 1 1 1 1 1 1 1 1 0.01145451494860316 1 1 1 1 1 1 1 1 0.010596573395049821 1 1 1 1 0.011391263201117118 1 0.010027523186348732 1 1 0.011592123394904312 1 1 0.0202041444199542 1 1 1 1 0.0098117817062985876 1 1 1 1 1 1 1 1 1 1 1 1 1 1 1 1 1 1 1 1 1 1 0.00983669043622999 1 1 1 1 1 1 1 1 1 1 1 1 1 1 1 1 1 1 1 1 1 1 1 1 1 1 1 1 1 1 1 1 0.010056147566854988 1 0.010188668066503391 0.0096210673211044057 1 1 1 1 1 1 1 0.0041325050955488794 1 1 1 1 1 1 0.01265044240995352 1 1 1 0.0067768204393449157 1 1 1 1 1 1 1 1 1 1 1 0.0079568122706326627 1 1 0.0098664789558418151 1 1 1 1 0.0094008547317529657 1 1 0.009446950273885063 1 1 1 1 1 1 1 0.0094498380622049481 1 1 1 1 1 1 1 1 1 1 1 0.0099955125978481232 1 1 1 1 1 1 1 1 1 1 1 1 1 0.0093335569877353933 1 1 1 0.009946296579972036 1 1 1 1 1 1 1 1 1 1 1 1 1 1 1 1 1 1 1 1 1 1 1 1 1 1 1 1 1 1 1 1 1 1 1 0.019785003595341633 1 1 1 1 1 0.021105928619122513 1 1 0.0079116370180929499 1 1 1 0.0088593310536814462 0.01247510158042156 1 1 1 1 1 1 0.010422059971899662 1 1 1 1 1 1 1 1 1 1 1 1 1 1 1 1 1 1 1 1 1 1 1 1 0.013929411035391045 1 1 1 1 1 1 0.011420329065011649 1 1 0.017186056454904695 1 1 1 1 1 1 0.0090845264840450843 1 0.011883186172655776 1 1 1 0.010227272666948443 1 1 0.010228332064017902 1 1 1 1 0.010056132785751307 1 1 1 0.0074560529422489086 1 1 0.0085340073143526565 0.010073941801296386 1 1 0.01041482600188097 1 1 0.011029194769676828 0.0061264183537020223 1 0.011217171385862597 1 1 1 0.011147150271413539 0.012896483723515019 0.011230598216239979 1 1 1 0.0083795635902010612 1 1 1 0.0066585514240679738 1 1 1 1 0.012404197867500306 1 1 1 1 1 1 1 1 1 1 1 1 1 1 0.010686201704977229 1 0.0098608479883480413 1 1 1 1 1 0.010052098406940983 1 1 1 1 1 1 1 0.0099895215639613077 0.0012899758781438203 1 1 1 1 1 1 1 0.010830141502160669 1 0.01108159216104599 0.0099997903447175615 0.010011088836811205 1 1 1 1 1 1 1 0.010937924945042296 1 1 0.013317968019040484 1 0.010408140254342772 1 0.0015335846084049247 1 1 -6.6815211002824171e-10 1 1 1 1 1 1 1 1 1 1 1 1 1 1 1 0.010360092642912433 1 1 1 1 1 1 1 1 1 1 1 0.0028675591038730477 1 1 1 1 0.0073093707489782153 1 1 1 1 1 1 1 1 1 1 0.010503703284440676 1 1 0.010084565016726846 1 1 0.0093896800334553401 1 1 1 1 0.01116333955506954 1 1 1 0.010806462568711199 0.010602032997147764 1 1 1 1 1 1 0.010694224481911832 1 1 1 1 1 1 1 1 1 1 1 1 1 1 1 0.012342679152949086 1 1 1 0.011252869173385582 1 1 1 1 1 1 1 0.010479732928412359 1 1 1 1 0.014042314123885749 0.01001976308664701 1 1 1 1 1 1 1 1 1 1 1 1 1 1 -3.6091588745401637e-10 1 1 1 0.011076041650415733 1 1 1 1 1 0.012876099989334713 1 0.023231973082192013 1 1 1 1 1 1 1 1 0.01406916146952159 0.020206691782745586 1 0.010376793311592237 0.01669392839547057 1 1 1 1 1 0.011257198400761009 0.01482031448364339 0.010022029009272231 1 0.0043258174390364314 1 0.01482030000004411 1 1 0.0077354647082118824 1 1 1 1 1 1 1 1 1 1 1 1 1 1 1 1 1 1 1 1 0.011307152538481031 1 1 1 1 1 1 1 1 1 1 1 1 1 1 0.010534586239034034 1 1 1 1 1 1 1 1 1 1 1 1 1 1 1 1 0.012244961658981387 1 1 1 1 0.014374224371413544 1 1 1 1 1 1 1 0.017819253131677718 1 0.016232091355880517 1 1 -3.532565935951415e-09 1 1 1 1 0.0045368369973332349 1 0.025250350661578665 1 1 0.010118025882913932 1 1 1 1 1 1 1 1 1 1 1 1 1 1 0.0065353023614968661 1 1 1 1 1 1 1 1 1 1 1 1 1 0.011275200189220846 1 1 1 0.013646200062491454 1 0.015412026790466746 1 1 0.009491763134573887 1 1 1 0.0098602461067153375 1 1 1 1 1 1 1 1 1 1 1 1 1 1 1 1 0.016144772184909069 1 1 1 1 0.0092379935601949858 1 1 0.0079015892412302047 1 1 1 1 1 1 1 0.017261355895990288 1 1 1 1 1 1 1 1 1 1 1 1 1 1 1 1 1 1 1 1 1 1 0.010702515495865839 1 1 1 0.012558165173809699 1 1 1 1 1 1 1 1 1 1 1 1 1 1 1 1 0.0047858756077229017 1 1 1 1 1 1 1 1 1 1 1 1 1 0.0092903948879285419 1 1 1 1 1 1 1 1 1 1 1 0.0046101983489537472 1 1 1 1 1 1 1 0.0089226360987092728 1 1 1 1 0.0078166697332878281 0.0053804465031302429 1 1 1 1 1 1 1 1 1 1 1 1 1 1 1 1 1 1 1 1 1 1 1 0.010951197879329943 1 1 1 1 1 1 1 0.0099444254346615739 1 0.012246456626140812 1 1 1 0.0040384403379554561 1 1 1 1 1 0.0082293738347924104 1 1 1 0.0040588490721841907 1 1 1 0.0048867133754510739 1 1 1 1 1 1 1 1 1 0.0056951997678853505 1 1 1 1 1 1 1 1 1 1 1 1 1 1 1 1 0.011393474155996272 1 1 1 1 0.0044811775298980901 1 1 1 0.0030343524625849067 1 0.010090127768392 0.0095848844128982365 1 1 1 1 1 1 1 1 1 1 1 1 1 1 1 1 1 1 1 1 1 1 1 1 1 0.018176742661035587 1 1 1 0.020276243422486358 1 0.0099587513442554107 1 0.019037910436009699 1 1 0.0095727201068442486 1 1 1 0.010443727252166517 1 1 1 1 1 1 1 0.008451672348470822 1 1 0.011927794978437177 0.0093383555819528136 0.015650590813715115 1 1 0.023424074400773216 1 1 1 1 0.01956376069595489 0.010803407060280934 1 0.017158852572296095 1 1 1 1 1 -1.7090355432930471e-09 1 1 1 1 1 0.010882914633812772 1 1 1 0.021002721551992627 1 1 1 1 1 1 1 1 1 1 0.0086169943908360799 1 1 1 1 1.5495086047589979e-09 0.005814104786963906 1 1 1 1 0.0099088308117197335 1 0.0037156009506366817 1 -3.2597753593655021e-09 1 1 1 1 1 1 1 1 1 1 1 1 1 1 1 1 0.010255261312619807 1 1 1 1 1 1 1 1 0.014055133658459774 1 1 1 0.014454715713385328 1 1 1 1 1 0.014706448874271352 1 1 0.017466989187119305 1 1 1 1 1 0.0085731081015154621 1 1 0.016928241468763428 1 1 0.010009893257047771 0.0050086279957208876 0.0067877703709405129 1 0.010037394854933494 1 1 1 0.017284023869014488 1 1 1 1 1 1 1 1 1 1 1 1 0.0089446090023551725 1 0.01094608152316051 1 1 1 1 1 1 1 1 1 1 1 1 1 1 1 1 1 0.013059797611073152 1 1 1 1 1 1 0.015347144345148181 1 1 0.010994514896003837 1 1 1 1 1 1 1 1 1 0.011547936409008978 0.010202234266521504 1 1 1 1 1 1 0.01128072911571595 1 1 0.01183721897006443 1 1 1 1 1 1 1 1 1 1 1 1 1 1 1 1 0.0093681930410673374 1 0.010664985872074043 1 1 1 1 1 1 1 1 1 1 0.009893435897394328 1 1 1 1 1 0.010794484130886337 1 1 1 1 1 1 1 1 1 1 1 1 1 1 1 1 0.010539222818266527 1 1 1 1 1 1 1 1 1 0.010395957675983773 1 1 1 1 1 1 1 0.0093206011409337555 1 0.011615122299963657 1 1 1 1 1 0.0094317398828916849 1 0.010374736324067491 1 1 0.010889617732469672 1 1 1 1 1 1 1 1 1 1 1 0.010771453906825762 1 1 1 1 0.0099915748843521432 1 1 1 1 1 1 1 1 1 1 1 1 0.0025341209608093461 1 1 0.0068821751698483792 1 1 1 1 1 1 1 1 1 1 0.00037776424868181044 1 0.00013863168804000361 1 1 1 1 1 0.0084680200293528775 1 1 1 1 1 1 1 1 1 1 9.0740509550713e-10 0.0078815934956825064 1 1 1 1 1 0.0020561745304270365 1 1 1 0.0050956637158494616 1 1 1 1 1 1 0.008529506237817671 1 1 1 1 1 1 1 1 0.010532170751065146 1 1 1 1 1 1 1 1 1 1 1 1 1 1 1 0.01076070452833406 1 1 1 1 1 0.0071948606882102049 1 1 1 1 0.012577728409268622 1 1 1 0.008265120626388324 1 1 0.013799817467356972 1 1 1 1 1 1 1 1 1 1 1 1 1 1 1 1 1 1 1 1 1 1 1 0.010036553663572353 1 1 1 1 1 1 1 0.0080308136773157429 1 1 1 1 1 1 1 1 1 1 1 1 1 1 1 1 1 1 1 1 1 1 1 1 1 1 1 1 1 1 1 1 1 1 1 1 1 0.010194423496474512 1 1 1 1 1 1 1 1 0.010017692877983552 1 1 1 1 1 1 1 1 1 1 1 1 1 1 -2.7728598236964608e-10 1 1 0.0097144559353926387 1 0.00043364009474197718 0.010059944403946527 -1.3150007818762965e-09 1 1 1 1 -1.4509858041640566e-09 1 1 1 1 1 1 1 1 1 1 1 1 1 1 1 1 1 1 1 1 1 1 1 1 1 1 1 1 1 1 1 1 1 1 1 1 1 1 1 1 1 1 1 0.00020519883593424909 1 1 0.00071026279550029728 1 1 1 1 1 0.0074174808132411547 1 1 1 1 0.0017528175493068659 0.0024020403411598445 1 8.7139910270178644e-09 1 1 1 0.0010477956132330258 1 1 1 1 1 1 1 1 1 1 1 1 1 1 1 1 1 1 1 1 1 1 1 1 1 1 1 1 1 1 0.0100550374075998 1 1 1 1 1 1 0.00922756966768324 1 1 1 0.0096778379097481673 1 1 1 1 1 1 1 1 1 1 1 1 1 0.012144536702718253 1 1 1 1 1 1 1 1 1 1 1 1 1 1 1 1 1 1 1 1 1 1 1 1 1 0.0080138257280274738 0.0028122058562507447 1 1 1 0.0099432474487126058 1 0.013014470860314466 1 1 1 0.015657128821479238 1 1 1 0.011415126416337814 0.0092499796995054104 1 1 0.012832374551438317 1 1 1 1 1 1 1 1 1 1 1 0.0099515754327480846 1 1 1 1 1 1 1 1 0.0062897574910022163 1 1 1 1 1 1 1 1 1 1 1 1 1 0.0088315632269471075 0.011026583919403015 1 1 1 1 1 1 1 0.010552729186233661 1 1 1 1 0.010459682769268017 1 1 1 1 1 1 1 1 1 1 1 0.013313022766223688 1 0.0046213861144093387 0.021988472957811964 0.017872487085907635 1 1 1 9.1039155554473172e-10 1 1 1 1 0.010009075623771778 1 1 1 1 1 1 1 1 1 1 1 1 1 1 1 1 1 1 1 1 1 1 1 1 1 1 1 1 0.011199319049001639 1 1 1 1 1 1 0.014607431943020215 1 0.0098555638180407214 0.0076937412468437195 1 1 1 1 1 1 1 0.011401702556886585 1 1 1 1 1 1 1 1 1 1 1 1 1 1 1 1 1 1 1 1 1 1 1 1 1 1 1 1 1 1 1 1 1 1 1 1 1 1 1 1 1 1 1 1 1 1 1 1 1 1 1 1 1 1 1 1 1 1 1 1 1 1 1 1 1 1 1 1 1 1 1 1 1 1 1 1 1 1 1 1 1 1 1 1 1 1 1 1 1 1 1 1 1 1 1 1 1 1 1 1 1 1 1 1 1 1 1 1 1 1 1 1 1 1 1 1 1 1 1 1 1 1 0.0099774176159109478 0.0032619145176070452 1 0.012087783963874308 0.014329671036040105 1 1 0.0089322850456690344 1 1 0.013374625748268164 1 1 1 1 1 1 1 1 1 1 1 1 1 1 0.011009988960450325 0.014299400382545008 1 0.0099802742334416106 0.011760537789114192 1 1 1 1 1 1 1 1 1 1 0.010498740018512361 1 1 1 1 1 1 0.010140195683170284 1 1 1 1 1 1 1 1 1 1 0.0094317856509240384 1 1 0.009831154108445133 1 1 1 1 1 1 1 1 1 1 1 1 1 1 1 1 1 1 1 1 1 1 1 1 1 1 0.0099813384621267303 1 1 1 1 1 1 1 1 1 1 1 1 1 1 1 1 1 0.0098323150072659841 1 1 1 0.0096628038192146572 1 1 1 1 1 1 0.0098304888119486733 1 1 1 1 1 1 1 1 0.01004475844597711 1 1 1 1 0.010289047239611802 1 0.01000244919524999 1 0.0081984224203953578 1 1 1 1 1 0.011349664294097285 1 1 1 0.013935630432395221 1 0.011356956019156966 1 1 1 1 1 1 1 1 1 1 1 1 0.016411553863562488 1 1 1 1 1 1 1 1 1 1 1 1 1 1 1 1 1 1 1 1 1 1 1 1 1 1 1 1 1 1 1 1 1 1 1 1 0.0081809975191825309 1 1 1 1 1 1 0.0047486773088323102 1 1 1 1 1 1 1 1 0.011654309094403809 0.0065522764006588369 1 1 1 1 1 0.010018232940535641 0.012287992254945776 1 1 1 1 1 1 1 1 1 0.0095686307497450905 1 1 1 1 0.0083931347181534742 1 1 1 1 1 0.0073279887955927511 1 1 1 1 1 1 1 1 1 1 1 1 1 1 0.0095497317579350711 1 1 1 1 1 1 1 1 1 1 1 1 1 0.0085034848271843683 1 1 
</DataArray>
</CellData>
</Piece>
</UnstructuredGrid>
</VTKFile>
