<?xml version="1.0"?>
<VTKFile type="UnstructuredGrid" version="0.1" byte_order="LittleEndian">
<UnstructuredGrid>
<Piece NumberOfPoints="31434" NumberOfCells="11010">
<Points>
<DataArray type="Float64" NumberOfComponents="3" format="ascii">
-0.5 -0.5 0 -0.44207127893691361 -0.44661186867661518 0 -0.46650555671861921 -0.43215933576015159 0 -0.5 -0.5 0 -0.5 -0.41645358869357257 0 -0.46650555671861921 -0.43215933576015159 0 -0.5 -0.5 0 -0.44207127893691361 -0.44661186867661518 0 -0.3985604456371149 -0.45968649078593998 0 -0.5 -0.41645358869357257 0 -0.45437877764365608 -0.39720952244282448 0 -0.46650555671861921 -0.43215933576015159 0 -0.5 -0.41645358869357257 0 -0.47712702305940069 -0.37980279090385022 0 -0.5 -0.3554717095780705 0 -0.5 -0.41645358869357257 0 -0.47712702305940069 -0.37980279090385022 0 -0.45437877764365608 -0.39720952244282448 0 -0.47712702305940069 -0.37980279090385022 0 -0.45870721580702289 -0.37896124243867929 0 -0.45437877764365608 -0.39720952244282448 0 -0.45437877764365608 -0.39720952244282448 0 -0.43218510119287817 -0.39024395878024792 0 -0.45437877764365608 -0.39720952244282448 0 -0.43640953449749792 -0.41645286829564149 0 -0.43218510119287817 -0.39024395878024792 0 -0.45870721580702289 -0.37896124243867929 0 -0.45437877764365608 -0.39720952244282448 0 -0.43218510119287817 -0.39024395878024792 0 -0.45870721580702289 -0.37896124243867929 0 -0.43218510119287817 -0.39024395878024792 0 -0.44485312580113529 -0.36849041383979569 0 -0.45437877764365608 -0.39720952244282448 0 -0.46650555671861921 -0.43215933576015159 0 -0.43640953449749792 -0.41645286829564149 0 -0.44207127893691361 -0.44661186867661518 0 -0.46650555671861921 -0.43215933576015159 0 -0.43640953449749792 -0.41645286829564149 0 -0.44207127893691361 -0.44661186867661518 0 -0.43640953449749792 -0.41645286829564149 0 -0.40986968630193088 -0.42903485496367422 0 -0.43640953449749792 -0.41645286829564149 0 -0.40986968630193088 -0.42903485496367422 0 -0.41527567728444859 -0.40422605848494092 0 -0.40986968630193088 -0.42903485496367422 0 -0.41527567728444859 -0.40422605848494092 0 -0.39973317942544651 -0.41331412382939742 0 -0.43218510119287817 -0.39024395878024792 0 -0.44485312580113529 -0.36849041383979569 0 -0.41843677448093852 -0.36877603182403679 0 -0.43640953449749792 -0.41645286829564149 0 -0.43218510119287817 -0.39024395878024792 0 -0.41527567728444859 -0.40422605848494092 0 -0.41527567728444859 -0.40422605848494092 0 -0.40999142474210049 -0.38327839511767131 0 -0.40326418592949059 -0.39762201224450422 0 -0.43218510119287817 -0.39024395878024792 0 -0.41527567728444859 -0.40422605848494092 0 -0.40999142474210049 -0.38327839511767131 0 -0.43218510119287817 -0.39024395878024792 0 -0.40999142474210049 -0.38327839511767131 0 -0.43218510119287817 -0.39024395878024792 0 -0.40999142474210049 -0.38327839511767131 0 -0.41843677448093852 -0.36877603182403679 0 -0.40999142474210049 -0.38327839511767131 0 -0.39606310876164108 -0.38900308997113509 0 -0.38779774829132269 -0.3763128314550947 0 -0.40999142474210049 -0.38327839511767131 0 -0.38779774829132269 -0.3763128314550947 0 -0.39202042316074159 -0.36906164980827783 0 -0.40999142474210049 -0.38327839511767131 0 -0.38779774829132269 -0.3763128314550947 0 -0.40999142474210049 -0.38327839511767131 0 -0.39606310876164108 -0.38900308997113509 0 -0.40326418592949059 -0.39762201224450422 0 -0.41527567728444859 -0.40422605848494092 0 -0.40326418592949059 -0.39762201224450422 0 -0.39973317942544651 -0.41331412382939742 0 -0.40326418592949059 -0.39762201224450422 0 -0.39217901818048551 -0.40048294554677177 0 -0.39973317942544651 -0.41331412382939742 0 -0.39606310876164108 -0.38900308997113509 0 -0.39217901818048551 -0.40048294554677177 0 -0.38519442549941779 -0.38919816131986978 0 -0.39606310876164108 -0.38900308997113509 0 -0.40326418592949059 -0.39762201224450422 0 -0.39217901818048551 -0.40048294554677177 0 -0.39217901818048551 -0.40048294554677177 0 -0.37647375533617761 -0.40283702630238649 0 -0.38519442549941779 -0.38919816131986978 0 -0.37647375533617761 -0.40283702630238649 0 -0.38519442549941779 -0.38919816131986978 0 -0.37137247577989668 -0.38855020055113848 0 -0.38779774829132269 -0.3763128314550947 0 -0.36560407184054478 -0.36934726779251847 0 -0.37488312704920029 -0.38066116407694611 0 -0.39606310876164108 -0.38900308997113509 0 -0.38519442549941779 -0.38919816131986978 0 -0.38779774829132269 -0.3763128314550947 0 -0.38519442549941779 -0.38919816131986978 0 -0.37488312704920029 -0.38066116407694611 0 -0.37137247577989668 -0.38855020055113848 0 -0.38519442549941779 -0.38919816131986978 0 -0.38779774829132269 -0.3763128314550947 0 -0.37488312704920029 -0.38066116407694611 0 -0.40986968630193088 -0.42903485496367422 0 -0.3841722700262109 -0.42157329572555052 0 -0.39220673734266981 -0.43852804317244171 0 -0.39217901818048551 -0.40048294554677177 0 -0.39973317942544651 -0.41331412382939742 0 -0.3841722700262109 -0.42157329572555052 0 -0.40986968630193088 -0.42903485496367422 0 -0.39973317942544651 -0.41331412382939742 0 -0.3841722700262109 -0.42157329572555052 0 -0.37647375533617761 -0.40283702630238649 0 -0.3841722700262109 -0.42157329572555052 0 -0.36780195338745458 -0.41386650202690478 0 -0.39217901818048551 -0.40048294554677177 0 -0.37647375533617761 -0.40283702630238649 0 -0.3841722700262109 -0.42157329572555052 0 -0.3841722700262109 -0.42157329572555052 0 -0.37622454740542211 -0.44381753121460182 0 -0.39220673734266981 -0.43852804317244171 0 -0.5 -0.5 0 -0.3985604456371149 -0.45968649078593998 0 -0.38001839990558578 -0.5 0 -0.37622454740542211 -0.44381753121460182 0 -0.39220673734266981 -0.43852804317244171 0 -0.3985604456371149 -0.45968649078593998 0 -0.37622454740542211 -0.44381753121460182 0 -0.3985604456371149 -0.45968649078593998 0 -0.35991803792309313 -0.46288504522957741 0 -0.40986968630193088 -0.42903485496367422 0 -0.39220673734266981 -0.43852804317244171 0 -0.3985604456371149 -0.45968649078593998 0 -0.3985604456371149 -0.45968649078593998 0 -0.38001839990558578 -0.5 0 -0.35991803792309313 -0.46288504522957741 0 -0.44207127893691361 -0.44661186867661518 0 -0.40986968630193088 -0.42903485496367422 0 -0.3985604456371149 -0.45968649078593998 0 -0.45418930477229102 -0.26659737814071499 0 -0.43309198030049539 -0.25372594078729771 0 -0.45776820485501402 -0.24168441926058409 0 -0.44059230514221209 -0.28028307485966131 0 -0.45418930477229102 -0.26659737814071499 0 -0.43309198030049539 -0.25372594078729771 0 -0.44059230514221209 -0.28028307485966131 0 -0.45418930477229102 -0.26659737814071499 0 -0.45290240820352368 -0.28506682612547429 0 -0.45418930477229102 -0.26659737814071499 0 -0.46881414978114261 -0.27742822002170853 0 -0.45290240820352368 -0.28506682612547429 0 -0.45418930477229102 -0.26659737814071499 0 -0.4754602138998667 -0.25818553091138791 0 -0.46881414978114261 -0.27742822002170853 0 -0.45418930477229102 -0.26659737814071499 0 -0.4754602138998667 -0.25818553091138791 0 -0.45776820485501402 -0.24168441926058409 0 -0.4754602138998667 -0.25818553091138791 0 -0.5 -0.25260159032666712 0 -0.48076974558635038 -0.2393307241689957 0 -0.4754602138998667 -0.25818553091138791 0 -0.5 -0.25260159032666712 0 -0.50000000000000033 -0.27846709257732061 0 -0.4754602138998667 -0.25818553091138791 0 -0.50000000000000033 -0.27846709257732061 0 -0.46881414978114261 -0.27742822002170853 0 -0.46881414978114261 -0.27742822002170853 0 -0.48112261836320308 -0.29047493108051892 0 -0.46224523672640577 -0.30248276958371689 0 -0.48112261836320308 -0.29047493108051892 0 -0.46224523672640577 -0.30248276958371689 0 -0.50000000000000033 -0.27846709257732061 0 -0.48112261836320308 -0.29047493108051892 0 -0.48004840456285902 -0.31306386609292891 0 -0.50000000000000033 -0.27846709257732061 0 -0.46881414978114261 -0.27742822002170853 0 -0.48112261836320308 -0.29047493108051892 0 -0.50000000000000033 -0.27846709257732061 0 -0.48112261836320308 -0.29047493108051892 0 -0.46224523672640577 -0.30248276958371689 0 -0.46409436510767138 -0.31793228146620939 0 -0.48004840456285902 -0.31306386609292891 0 -0.48112261836320308 -0.29047493108051892 0 -0.46224523672640577 -0.30248276958371689 0 -0.48004840456285902 -0.31306386609292891 0 -0.46881414978114261 -0.27742822002170853 0 -0.46224523672640577 -0.30248276958371689 0 -0.45290240820352368 -0.28506682612547429 0 -0.46224523672640577 -0.30248276958371689 0 -0.45290240820352368 -0.28506682612547429 0 -0.44740480145474798 -0.29999466993270768 0 -0.44059230514221209 -0.28028307485966131 0 -0.44740480145474798 -0.29999466993270768 0 -0.43261627662862778 -0.29721461734456461 0 -0.44059230514221209 -0.28028307485966131 0 -0.45290240820352368 -0.28506682612547429 0 -0.44740480145474798 -0.29999466993270768 0 -0.4390087893423002 -0.30546657027058099 0 -0.44740480145474798 -0.29999466993270768 0 -0.43261627662862778 -0.29721461734456461 0 -0.46224523672640577 -0.30248276958371689 0 -0.44921478769649809 -0.3188336058496275 0 -0.44336785508960852 -0.31449060808691498 0 -0.46224523672640577 -0.30248276958371689 0 -0.44336785508960852 -0.31449060808691498 0 -0.46224523672640577 -0.30248276958371689 0 -0.44740480145474798 -0.29999466993270768 0 -0.44336785508960852 -0.31449060808691498 0 -0.4390087893423002 -0.30546657027058099 0 -0.44336785508960852 -0.31449060808691498 0 -0.43198606058649469 -0.30914922671724332 0 -0.4390087893423002 -0.30546657027058099 0 -0.44740480145474798 -0.29999466993270768 0 -0.44336785508960852 -0.31449060808691498 0 -0.50000000000000033 -0.27846709257732061 0 -0.48004840456285902 -0.31306386609292891 0 -0.5 -0.3554717095780705 0 -0.44921478769649809 -0.3188336058496275 0 -0.4313312431852574 -0.32410224501703577 0 -0.44921478769649809 -0.3188336058496275 0 -0.44534905651039502 -0.33962665608065712 0 -0.4313312431852574 -0.32410224501703577 0 -0.44921478769649809 -0.3188336058496275 0 -0.44336785508960852 -0.31449060808691498 0 -0.4313312431852574 -0.32410224501703577 0 -0.44921478769649809 -0.3188336058496275 0 -0.44534905651039502 -0.33962665608065712 0 -0.45814842966520442 -0.33288023040805931 0 -0.44534905651039502 -0.33962665608065712 0 -0.4313312431852574 -0.32410224501703577 0 -0.44534905651039502 -0.33962665608065712 0 -0.43500294762897718 -0.35031952493396012 0 -0.43289828575564981 -0.33677819798005543 0 -0.44534905651039502 -0.33962665608065712 0 -0.45814842966520442 -0.33288023040805931 0 -0.4593668698355326 -0.35515106714427841 0 -0.45814842966520442 -0.33288023040805931 0 -0.47282820717987412 -0.33355441227173738 0 -0.4593668698355326 -0.35515106714427841 0 -0.45814842966520442 -0.33288023040805931 0 -0.46409436510767138 -0.31793228146620939 0 -0.47282820717987412 -0.33355441227173738 0 -0.46224523672640577 -0.30248276958371689 0 -0.44921478769649809 -0.3188336058496275 0 -0.46409436510767138 -0.31793228146620939 0 -0.44921478769649809 -0.3188336058496275 0 -0.45814842966520442 -0.33288023040805931 0 -0.46409436510767138 -0.31793228146620939 0 -0.48004840456285902 -0.31306386609292891 0 -0.47282820717987412 -0.33355441227173738 0 -0.5 -0.3554717095780705 0 -0.46409436510767138 -0.31793228146620939 0 -0.48004840456285902 -0.31306386609292891 0 -0.47282820717987412 -0.33355441227173738 0 -0.47282820717987412 -0.33355441227173738 0 -0.5 -0.3554717095780705 0 -0.4593668698355326 -0.35515106714427841 0 -0.47712702305940069 -0.37980279090385022 0 -0.5 -0.3554717095780705 0 -0.4593668698355326 -0.35515106714427841 0 -0.47712702305940069 -0.37980279090385022 0 -0.45870721580702289 -0.37896124243867929 0 -0.4593668698355326 -0.35515106714427841 0 -0.45870721580702289 -0.37896124243867929 0 -0.4593668698355326 -0.35515106714427841 0 -0.44485312580113529 -0.36849041383979569 0 -0.4593668698355326 -0.35515106714427841 0 -0.44485312580113529 -0.36849041383979569 0 -0.43500294762897718 -0.35031952493396012 0 -0.44534905651039502 -0.33962665608065712 0 -0.4593668698355326 -0.35515106714427841 0 -0.43500294762897718 -0.35031952493396012 0 -0.44534905651039502 -0.33962665608065712 0 -0.4593668698355326 -0.35515106714427841 0 -0.44485312580113529 -0.36849041383979569 0 -0.42542714956165018 -0.3598242526071464 0 -0.43500294762897718 -0.35031952493396012 0 -0.44485312580113529 -0.36849041383979569 0 -0.41843677448093852 -0.36877603182403679 0 -0.44485312580113529 -0.36849041383979569 0 -0.42542714956165018 -0.3598242526071464 0 -0.41843677448093852 -0.36877603182403679 0 -0.43500294762897718 -0.35031952493396012 0 -0.41567927327036519 -0.35169111967493127 0 -0.42130932470166599 -0.34042931313331631 0 -0.42542714956165018 -0.3598242526071464 0 -0.43500294762897718 -0.35031952493396012 0 -0.41567927327036519 -0.35169111967493127 0 -0.42542714956165018 -0.3598242526071464 0 -0.41567927327036519 -0.35169111967493127 0 -0.41316362662683498 -0.35984417276300801 0 -0.41567927327036519 -0.35169111967493127 0 -0.40773569368385221 -0.34218921930530721 0 -0.42130932470166599 -0.34042931313331631 0 -0.41567927327036519 -0.35169111967493127 0 -0.40503155782772571 -0.34915308809962042 0 -0.40773569368385221 -0.34218921930530721 0 -0.41567927327036519 -0.35169111967493127 0 -0.41316362662683498 -0.35984417276300801 0 -0.40603259083158549 -0.35570926230638861 0 -0.41567927327036519 -0.35169111967493127 0 -0.40603259083158549 -0.35570926230638861 0 -0.40503155782772571 -0.34915308809962042 0 -0.41316362662683498 -0.35984417276300801 0 -0.40010479702318841 -0.36297454332499662 0 -0.40603259083158549 -0.35570926230638861 0 -0.41316362662683498 -0.35984417276300801 0 -0.41843677448093852 -0.36877603182403679 0 -0.40010479702318841 -0.36297454332499662 0 -0.40999142474210049 -0.38327839511767131 0 -0.41843677448093852 -0.36877603182403679 0 -0.39202042316074159 -0.36906164980827783 0 -0.42542714956165018 -0.3598242526071464 0 -0.41316362662683498 -0.35984417276300801 0 -0.41843677448093852 -0.36877603182403679 0 -0.41843677448093852 -0.36877603182403679 0 -0.39202042316074159 -0.36906164980827783 0 -0.41843677448093852 -0.36877603182403679 0 -0.40010479702318841 -0.36297454332499662 0 -0.39202042316074159 -0.36906164980827783 0 -0.40010479702318841 -0.36297454332499662 0 -0.39202042316074159 -0.36906164980827783 0 -0.39249043188578958 -0.35630885434027793 0 -0.38779774829132269 -0.3763128314550947 0 -0.39202042316074159 -0.36906164980827783 0 -0.36560407184054478 -0.36934726779251847 0 -0.39202042316074159 -0.36906164980827783 0 -0.37873637359729517 -0.36218700262649711 0 -0.36560407184054478 -0.36934726779251847 0 -0.39202042316074159 -0.36906164980827783 0 -0.36560407184054478 -0.36934726779251847 0 -0.38779774829132269 -0.3763128314550947 0 -0.36560407184054478 -0.36934726779251847 0 -0.39202042316074159 -0.36906164980827783 0 -0.38589992503989878 -0.36001844821327272 0 -0.39249043188578958 -0.35630885434027793 0 -0.39202042316074159 -0.36906164980827783 0 -0.38589992503989878 -0.36001844821327272 0 -0.37873637359729517 -0.36218700262649711 0 -0.38997967094655078 -0.34889844443113688 0 -0.39744954482463069 -0.34397589675208612 0 -0.38090197294416978 -0.33895912242235171 0 -0.38589992503989878 -0.36001844821327272 0 -0.37873637359729517 -0.36218700262649711 0 -0.38035247151576868 -0.35251628607803809 0 -0.37873637359729517 -0.36218700262649711 0 -0.38035247151576868 -0.35251628607803809 0 -0.36867396963580851 -0.35884638173250472 0 -0.38035247151576868 -0.35251628607803809 0 -0.38997967094655078 -0.34889844443113688 0 -0.39249043188578958 -0.35630885434027793 0 -0.38589992503989878 -0.36001844821327272 0 -0.38035247151576868 -0.35251628607803809 0 -0.39249043188578958 -0.35630885434027793 0 -0.38035247151576868 -0.35251628607803809 0 -0.38997967094655078 -0.34889844443113688 0 -0.38090197294416978 -0.33895912242235171 0 -0.38997967094655078 -0.34889844443113688 0 -0.39744954482463069 -0.34397589675208612 0 -0.39870393356239547 -0.35273206256293099 0 -0.40010479702318841 -0.36297454332499662 0 -0.39249043188578958 -0.35630885434027793 0 -0.39870393356239547 -0.35273206256293099 0 -0.38997967094655078 -0.34889844443113688 0 -0.39249043188578958 -0.35630885434027793 0 -0.39870393356239547 -0.35273206256293099 0 -0.40010479702318841 -0.36297454332499662 0 -0.39870393356239547 -0.35273206256293099 0 -0.40603259083158549 -0.35570926230638861 0 -0.39870393356239547 -0.35273206256293099 0 -0.40603259083158549 -0.35570926230638861 0 -0.40503155782772571 -0.34915308809962042 0 -0.39744954482463069 -0.34397589675208612 0 -0.40503155782772571 -0.34915308809962042 0 -0.40773569368385221 -0.34218921930530721 0 -0.39744954482463069 -0.34397589675208612 0 -0.39870393356239547 -0.35273206256293099 0 -0.40503155782772571 -0.34915308809962042 0 -0.39744954482463069 -0.34397589675208612 0 -0.40204594247464392 -0.33457782228209149 0 -0.38090197294416978 -0.33895912242235171 0 -0.40284601498951322 -0.33249422731508282 0 -0.38090197294416978 -0.33895912242235171 0 -0.38984421046966078 -0.32491156040015901 0 -0.40284601498951322 -0.33249422731508282 0 -0.38090197294416978 -0.33895912242235171 0 -0.40284601498951322 -0.33249422731508282 0 -0.40204594247464392 -0.33457782228209149 0 -0.40773569368385221 -0.34218921930530721 0 -0.39744954482463069 -0.34397589675208612 0 -0.40204594247464392 -0.33457782228209149 0 -0.40773569368385221 -0.34218921930530721 0 -0.40284601498951322 -0.33249422731508282 0 -0.40204594247464392 -0.33457782228209149 0 -0.38090197294416978 -0.33895912242235171 0 -0.40284601498951322 -0.33249422731508282 0 -0.40204594247464392 -0.33457782228209149 0 -0.38090197294416978 -0.33895912242235171 0 -0.38984421046966078 -0.32491156040015901 0 -0.36545671267196189 -0.32567019704165628 0 -0.38984421046966078 -0.32491156040015901 0 -0.38485400937221931 -0.30930465789366862 0 -0.36545671267196189 -0.32567019704165628 0 -0.40284601498951322 -0.33249422731508282 0 -0.38984421046966078 -0.32491156040015901 0 -0.39753518190840692 -0.31507892862686632 0 -0.40284601498951322 -0.33249422731508282 0 -0.39753518190840692 -0.31507892862686632 0 -0.41360613868667939 -0.30447209286712013 0 -0.38984421046966078 -0.32491156040015901 0 -0.39753518190840692 -0.31507892862686632 0 -0.38485400937221931 -0.30930465789366862 0 -0.40284601498951322 -0.33249422731508282 0 -0.4313312431852574 -0.32410224501703577 0 -0.41360613868667939 -0.30447209286712013 0 -0.40284601498951322 -0.33249422731508282 0 -0.41360613868667939 -0.30447209286712013 0 -0.40284601498951322 -0.33249422731508282 0 -0.42130932470166599 -0.34042931313331631 0 -0.4313312431852574 -0.32410224501703577 0 -0.40284601498951322 -0.33249422731508282 0 -0.40773569368385221 -0.34218921930530721 0 -0.42130932470166599 -0.34042931313331631 0 -0.40284601498951322 -0.33249422731508282 0 -0.4313312431852574 -0.32410224501703577 0 -0.42130932470166599 -0.34042931313331631 0 -0.43289828575564981 -0.33677819798005543 0 -0.4313312431852574 -0.32410224501703577 0 -0.43500294762897718 -0.35031952493396012 0 -0.42130932470166599 -0.34042931313331631 0 -0.43289828575564981 -0.33677819798005543 0 -0.44534905651039502 -0.33962665608065712 0 -0.43289828575564981 -0.33677819798005543 0 -0.4313312431852574 -0.32410224501703577 0 -0.4313312431852574 -0.32410224501703577 0 -0.43198606058649469 -0.30914922671724332 0 -0.41360613868667939 -0.30447209286712013 0 -0.4313312431852574 -0.32410224501703577 0 -0.41360613868667939 -0.30447209286712013 0 -0.44336785508960852 -0.31449060808691498 0 -0.4313312431852574 -0.32410224501703577 0 -0.43198606058649469 -0.30914922671724332 0 -0.43198606058649469 -0.30914922671724332 0 -0.43261627662862778 -0.29721461734456461 0 -0.41360613868667939 -0.30447209286712013 0 -0.4390087893423002 -0.30546657027058099 0 -0.43198606058649469 -0.30914922671724332 0 -0.43261627662862778 -0.29721461734456461 0 -0.44059230514221209 -0.28028307485966131 0 -0.43261627662862778 -0.29721461734456461 0 -0.42334905949358742 -0.27909901682720889 0 -0.43261627662862778 -0.29721461734456461 0 -0.41360613868667939 -0.30447209286712013 0 -0.42334905949358742 -0.27909901682720889 0 -0.41360613868667939 -0.30447209286712013 0 -0.42334905949358742 -0.27909901682720889 0 -0.41360613868667939 -0.30447209286712013 0 -0.40410053446231459 -0.29394485128069481 0 -0.42334905949358742 -0.27909901682720889 0 -0.41360613868667939 -0.30447209286712013 0 -0.40410053446231459 -0.29394485128069481 0 -0.39753518190840692 -0.31507892862686632 0 -0.41360613868667939 -0.30447209286712013 0 -0.39836981586825793 -0.30296181031676639 0 -0.39836981586825793 -0.30296181031676639 0 -0.38485400937221931 -0.30930465789366862 0 -0.39170898073117649 -0.29306194096178467 0 -0.41360613868667939 -0.30447209286712013 0 -0.39836981586825793 -0.30296181031676639 0 -0.40410053446231459 -0.29394485128069481 0 -0.39753518190840692 -0.31507892862686632 0 -0.39836981586825793 -0.30296181031676639 0 -0.38485400937221931 -0.30930465789366862 0 -0.38485400937221931 -0.30930465789366862 0 -0.37765744659524292 -0.28858555568698241 0 -0.36698291974902519 -0.30569683971974793 0 -0.38485400937221931 -0.30930465789366862 0 -0.37765744659524292 -0.28858555568698241 0 -0.39170898073117649 -0.29306194096178467 0 -0.37765744659524292 -0.28858555568698241 0 -0.39170898073117649 -0.29306194096178467 0 -0.39317737530394781 -0.27969865243456637 0 -0.40410053446231459 -0.29394485128069481 0 -0.39317737530394781 -0.27969865243456637 0 -0.40900256428828052 -0.27048537855282839 0 -0.39170898073117649 -0.29306194096178467 0 -0.40410053446231459 -0.29394485128069481 0 -0.39317737530394781 -0.27969865243456637 0 -0.39836981586825793 -0.30296181031676639 0 -0.39170898073117649 -0.29306194096178467 0 -0.40410053446231459 -0.29394485128069481 0 -0.39317737530394781 -0.27969865243456637 0 -0.39719625153962301 -0.26256890127640892 0 -0.40900256428828052 -0.27048537855282839 0 -0.39317737530394781 -0.27969865243456637 0 -0.38075482745684808 -0.26515103607066409 0 -0.39719625153962301 -0.26256890127640892 0 -0.37765744659524292 -0.28858555568698241 0 -0.39317737530394781 -0.27969865243456637 0 -0.38075482745684808 -0.26515103607066409 0 -0.38075482745684808 -0.26515103607066409 0 -0.36569898431644549 -0.24509394484435121 0 -0.3903351089779068 -0.2441590299362178 0 -0.38075482745684808 -0.26515103607066409 0 -0.39719625153962301 -0.26256890127640892 0 -0.3903351089779068 -0.2441590299362178 0 -0.39719625153962301 -0.26256890127640892 0 -0.40909065256511068 -0.25244936046849531 0 -0.40900256428828052 -0.27048537855282839 0 -0.39719625153962301 -0.26256890127640892 0 -0.40909065256511068 -0.25244936046849531 0 -0.3903351089779068 -0.2441590299362178 0 -0.40909065256511068 -0.25244936046849531 0 -0.40900256428828052 -0.27048537855282839 0 -0.43309198030049539 -0.25372594078729771 0 -0.40900256428828052 -0.27048537855282839 0 -0.42334905949358742 -0.27909901682720889 0 -0.43309198030049539 -0.25372594078729771 0 -0.40410053446231459 -0.29394485128069481 0 -0.40900256428828052 -0.27048537855282839 0 -0.42334905949358742 -0.27909901682720889 0 -0.44059230514221209 -0.28028307485966131 0 -0.42334905949358742 -0.27909901682720889 0 -0.43309198030049539 -0.25372594078729771 0 -0.42334905949358742 -0.27909901682720889 0 -0.43309198030049539 -0.25372594078729771 0 -0.321099140629927 -0.25778998348124121 0 -0.33897913800685481 -0.27645706956966998 0 -0.31662300572011293 -0.28581334973243039 0 -0.321099140629927 -0.25778998348124121 0 -0.31662300572011293 -0.28581334973243039 0 -0.30259596941082578 -0.2646717726439447 0 -0.321099140629927 -0.25778998348124121 0 -0.33897913800685481 -0.27645706956966998 0 -0.34308423771481489 -0.25286804080927311 0 -0.34308423771481489 -0.25286804080927311 0 -0.3604637980079225 -0.27080013224545862 0 -0.36569898431644549 -0.24509394484435121 0 -0.38075482745684808 -0.26515103607066409 0 -0.3604637980079225 -0.27080013224545862 0 -0.36569898431644549 -0.24509394484435121 0 -0.37765744659524292 -0.28858555568698241 0 -0.38075482745684808 -0.26515103607066409 0 -0.3604637980079225 -0.27080013224545862 0 -0.33897913800685481 -0.27645706956966998 0 -0.34308423771481489 -0.25286804080927311 0 -0.3604637980079225 -0.27080013224545862 0 -0.33897913800685481 -0.27645706956966998 0 -0.3604637980079225 -0.27080013224545862 0 -0.3554968383446615 -0.29175543709653862 0 -0.33897913800685481 -0.27645706956966998 0 -0.3554968383446615 -0.29175543709653862 0 -0.33715855582248472 -0.30140189467752609 0 -0.37765744659524292 -0.28858555568698241 0 -0.3604637980079225 -0.27080013224545862 0 -0.3554968383446615 -0.29175543709653862 0 -0.37765744659524292 -0.28858555568698241 0 -0.3554968383446615 -0.29175543709653862 0 -0.36698291974902519 -0.30569683971974793 0 -0.3554968383446615 -0.29175543709653862 0 -0.36698291974902519 -0.30569683971974793 0 -0.35236669358211808 -0.31154626346242281 0 -0.3554968383446615 -0.29175543709653862 0 -0.35236669358211808 -0.31154626346242281 0 -0.33715855582248472 -0.30140189467752609 0 -0.33897913800685481 -0.27645706956966998 0 -0.33715855582248472 -0.30140189467752609 0 -0.31662300572011293 -0.28581334973243039 0 -0.31662300572011293 -0.28581334973243039 0 -0.31926223103860762 -0.3157962316138388 0 -0.30414616904491509 -0.30209956029332691 0 -0.33715855582248472 -0.30140189467752609 0 -0.31662300572011293 -0.28581334973243039 0 -0.31926223103860762 -0.3157962316138388 0 -0.31926223103860762 -0.3157962316138388 0 -0.31379147449542749 -0.33527081593005692 0 -0.32958179921072428 -0.33716446382213872 0 -0.31379147449542749 -0.33527081593005692 0 -0.32958179921072428 -0.33716446382213872 0 -0.32079155162462047 -0.35442159245446092 0 -0.32958179921072428 -0.33716446382213872 0 -0.34114053006363099 -0.32542092917278542 0 -0.34549111918857589 -0.3401883011248002 0 -0.32958179921072428 -0.33716446382213872 0 -0.34549111918857589 -0.3401883011248002 0 -0.33701388885348321 -0.35188891263688998 0 -0.33715855582248472 -0.30140189467752609 0 -0.31926223103860762 -0.3157962316138388 0 -0.34114053006363099 -0.32542092917278542 0 -0.35236669358211808 -0.31154626346242281 0 -0.33715855582248472 -0.30140189467752609 0 -0.34114053006363099 -0.32542092917278542 0 -0.31926223103860762 -0.3157962316138388 0 -0.32958179921072428 -0.33716446382213872 0 -0.34114053006363099 -0.32542092917278542 0 -0.35236669358211808 -0.31154626346242281 0 -0.34114053006363099 -0.32542092917278542 0 -0.36545671267196189 -0.32567019704165628 0 -0.38485400937221931 -0.30930465789366862 0 -0.36698291974902519 -0.30569683971974793 0 -0.36545671267196189 -0.32567019704165628 0 -0.36698291974902519 -0.30569683971974793 0 -0.35236669358211808 -0.31154626346242281 0 -0.36545671267196189 -0.32567019704165628 0 -0.38090197294416978 -0.33895912242235171 0 -0.36545671267196189 -0.32567019704165628 0 -0.35895793089882649 -0.34542401752962082 0 -0.38090197294416978 -0.33895912242235171 0 -0.35895793089882649 -0.34542401752962082 0 -0.34114053006363099 -0.32542092917278542 0 -0.36545671267196189 -0.32567019704165628 0 -0.34549111918857589 -0.3401883011248002 0 -0.36545671267196189 -0.32567019704165628 0 -0.34549111918857589 -0.3401883011248002 0 -0.35895793089882649 -0.34542401752962082 0 -0.35755769945724802 -0.35831808260103581 0 -0.34619200462194671 -0.36325472200213271 0 -0.33701388885348321 -0.35188891263688998 0 -0.35755769945724802 -0.35831808260103581 0 -0.35895793089882649 -0.34542401752962082 0 -0.33701388885348321 -0.35188891263688998 0 -0.35895793089882649 -0.34542401752962082 0 -0.33701388885348321 -0.35188891263688998 0 -0.34549111918857589 -0.3401883011248002 0 -0.35895793089882649 -0.34542401752962082 0 -0.33701388885348321 -0.35188891263688998 0 -0.38035247151576868 -0.35251628607803809 0 -0.38090197294416978 -0.33895912242235171 0 -0.35895793089882649 -0.34542401752962082 0 -0.38035247151576868 -0.35251628607803809 0 -0.35895793089882649 -0.34542401752962082 0 -0.36867396963580851 -0.35884638173250472 0 -0.35755769945724802 -0.35831808260103581 0 -0.35895793089882649 -0.34542401752962082 0 -0.36867396963580851 -0.35884638173250472 0 -0.37873637359729517 -0.36218700262649711 0 -0.36867396963580851 -0.35884638173250472 0 -0.36560407184054478 -0.36934726779251847 0 -0.35755769945724802 -0.35831808260103581 0 -0.36867396963580851 -0.35884638173250472 0 -0.36560407184054478 -0.36934726779251847 0 -0.36560407184054478 -0.36934726779251847 0 -0.35415747874368331 -0.36947103026096578 0 -0.36560407184054478 -0.36934726779251847 0 -0.35415747874368331 -0.36947103026096578 0 -0.36444691383481981 -0.37989735926610901 0 -0.36560407184054478 -0.36934726779251847 0 -0.34619200462194671 -0.36325472200213271 0 -0.35755769945724802 -0.35831808260103581 0 -0.36560407184054478 -0.36934726779251847 0 -0.34619200462194671 -0.36325472200213271 0 -0.36560407184054478 -0.36934726779251847 0 -0.35415747874368331 -0.36947103026096578 0 -0.34619200462194671 -0.36325472200213271 0 -0.35415747874368331 -0.36947103026096578 0 -0.34520354045424051 -0.37113425413354412 0 -0.35118190372557978 -0.3805139138466701 0 -0.35415747874368331 -0.36947103026096578 0 -0.34619200462194671 -0.36325472200213271 0 -0.34520354045424051 -0.37113425413354412 0 -0.34520354045424051 -0.37113425413354412 0 -0.3356116723329664 -0.36442594694019981 0 -0.3388746428470264 -0.37800565761775179 0 -0.3356116723329664 -0.36442594694019981 0 -0.32579432412524661 -0.3714639203565373 0 -0.3388746428470264 -0.37800565761775179 0 -0.34619200462194671 -0.36325472200213271 0 -0.3356116723329664 -0.36442594694019981 0 -0.33701388885348321 -0.35188891263688998 0 -0.34619200462194671 -0.36325472200213271 0 -0.34520354045424051 -0.37113425413354412 0 -0.3356116723329664 -0.36442594694019981 0 -0.32958179921072428 -0.33716446382213872 0 -0.33701388885348321 -0.35188891263688998 0 -0.32079155162462047 -0.35442159245446092 0 -0.3356116723329664 -0.36442594694019981 0 -0.33701388885348321 -0.35188891263688998 0 -0.32079155162462047 -0.35442159245446092 0 -0.32079155162462047 -0.35442159245446092 0 -0.32579432412524661 -0.3714639203565373 0 -0.31122156355072539 -0.37000518037610491 0 -0.3356116723329664 -0.36442594694019981 0 -0.32079155162462047 -0.35442159245446092 0 -0.32579432412524661 -0.3714639203565373 0 -0.32079155162462047 -0.35442159245446092 0 -0.31122156355072539 -0.37000518037610491 0 -0.30094130333592373 -0.35914916770606592 0 -0.31122156355072539 -0.37000518037610491 0 -0.30094130333592373 -0.35914916770606592 0 -0.29064135703704241 -0.37443989980983722 0 -0.31379147449542749 -0.33527081593005692 0 -0.32079155162462047 -0.35442159245446092 0 -0.29954718444231843 -0.34348178307093902 0 -0.32079155162462047 -0.35442159245446092 0 -0.30094130333592373 -0.35914916770606592 0 -0.29954718444231843 -0.34348178307093902 0 -0.30094130333592373 -0.35914916770606592 0 -0.28404067552397688 -0.35425691342437132 0 -0.29954718444231843 -0.34348178307093902 0 -0.28404067552397688 -0.35425691342437132 0 -0.27941866351301697 -0.33477819502007428 0 -0.29954718444231843 -0.34348178307093902 0 -0.28404067552397688 -0.35425691342437132 0 -0.29064135703704241 -0.37443989980983722 0 -0.26962238061980048 -0.36775279803609562 0 -0.30094130333592373 -0.35914916770606592 0 -0.28404067552397688 -0.35425691342437132 0 -0.29064135703704241 -0.37443989980983722 0 -0.26962238061980048 -0.36775279803609562 0 -0.25336890038055959 -0.37912553309662012 0 -0.24764052279888299 -0.35193772859664257 0 -0.26962238061980048 -0.36775279803609562 0 -0.26891605928486978 -0.34833160271577712 0 -0.24764052279888299 -0.35193772859664257 0 -0.26891605928486978 -0.34833160271577712 0 -0.26385805396867162 -0.3329323785017016 0 -0.24764052279888299 -0.35193772859664257 0 -0.28404067552397688 -0.35425691342437132 0 -0.26962238061980048 -0.36775279803609562 0 -0.26891605928486978 -0.34833160271577712 0 -0.28404067552397688 -0.35425691342437132 0 -0.26891605928486978 -0.34833160271577712 0 -0.27941866351301697 -0.33477819502007428 0 -0.27941866351301697 -0.33477819502007428 0 -0.26385805396867162 -0.3329323785017016 0 -0.26549592041707609 -0.31734850858732372 0 -0.26891605928486978 -0.34833160271577712 0 -0.27941866351301697 -0.33477819502007428 0 -0.26385805396867162 -0.3329323785017016 0 -0.26385805396867162 -0.3329323785017016 0 -0.24764052279888299 -0.35193772859664257 0 -0.2465984344626129 -0.32920269641527872 0 -0.26385805396867162 -0.3329323785017016 0 -0.26549592041707609 -0.31734850858732372 0 -0.2465984344626129 -0.32920269641527872 0 -0.26549592041707609 -0.31734850858732372 0 -0.2465984344626129 -0.32920269641527872 0 -0.24050691332612259 -0.30989470601339741 0 -0.26549592041707609 -0.31734850858732372 0 -0.28251636070218439 -0.31977328813426209 0 -0.28685142071769981 -0.30395243503904568 0 -0.27941866351301697 -0.33477819502007428 0 -0.26549592041707609 -0.31734850858732372 0 -0.28251636070218439 -0.31977328813426209 0 -0.27941866351301697 -0.33477819502007428 0 -0.28251636070218439 -0.31977328813426209 0 -0.29829943816094501 -0.32301401389060469 0 -0.28251636070218439 -0.31977328813426209 0 -0.29829943816094501 -0.32301401389060469 0 -0.28685142071769981 -0.30395243503904568 0 -0.27941866351301697 -0.33477819502007428 0 -0.29954718444231843 -0.34348178307093902 0 -0.29829943816094501 -0.32301401389060469 0 -0.31379147449542749 -0.33527081593005692 0 -0.29954718444231843 -0.34348178307093902 0 -0.29829943816094501 -0.32301401389060469 0 -0.31926223103860762 -0.3157962316138388 0 -0.29829943816094501 -0.32301401389060469 0 -0.30414616904491509 -0.30209956029332691 0 -0.31926223103860762 -0.3157962316138388 0 -0.31379147449542749 -0.33527081593005692 0 -0.29829943816094501 -0.32301401389060469 0 -0.31662300572011293 -0.28581334973243039 0 -0.30414616904491509 -0.30209956029332691 0 -0.29789359432142309 -0.28712869496072302 0 -0.29789359432142309 -0.28712869496072302 0 -0.28685142071769981 -0.30395243503904568 0 -0.27904485221060438 -0.27970348138041851 0 -0.29829943816094501 -0.32301401389060469 0 -0.30414616904491509 -0.30209956029332691 0 -0.28685142071769981 -0.30395243503904568 0 -0.30414616904491509 -0.30209956029332691 0 -0.29789359432142309 -0.28712869496072302 0 -0.28685142071769981 -0.30395243503904568 0 -0.26549592041707609 -0.31734850858732372 0 -0.28685142071769981 -0.30395243503904568 0 -0.25765239545485191 -0.29566557764651019 0 -0.26549592041707609 -0.31734850858732372 0 -0.25765239545485191 -0.29566557764651019 0 -0.24050691332612259 -0.30989470601339741 0 -0.25765239545485191 -0.29566557764651019 0 -0.27904485221060438 -0.27970348138041851 0 -0.2546888943431751 -0.27141673897283908 0 -0.28685142071769981 -0.30395243503904568 0 -0.25765239545485191 -0.29566557764651019 0 -0.27904485221060438 -0.27970348138041851 0 -0.27904485221060438 -0.27970348138041851 0 -0.2546888943431751 -0.27141673897283908 0 -0.27550038409661148 -0.25748723264139978 0 -0.2546888943431751 -0.27141673897283908 0 -0.27550038409661148 -0.25748723264139978 0 -0.2484047987823973 -0.25030269263885491 0 -0.27550038409661148 -0.25748723264139978 0 -0.2484047987823973 -0.25030269263885491 0 -0.27550038409661148 -0.25748723264139978 0 -0.30259596941082578 -0.2646717726439447 0 -0.29569117905825443 -0.24281310196210301 0 -0.27550038409661148 -0.25748723264139978 0 -0.30259596941082578 -0.2646717726439447 0 -0.27904485221060438 -0.27970348138041851 0 -0.27550038409661148 -0.25748723264139978 0 -0.30259596941082578 -0.2646717726439447 0 -0.29789359432142309 -0.28712869496072302 0 -0.27904485221060438 -0.27970348138041851 0 -0.30259596941082578 -0.2646717726439447 0 -0.31662300572011293 -0.28581334973243039 0 -0.29789359432142309 -0.28712869496072302 0 -0.30259596941082578 -0.2646717726439447 0 -0.321099140629927 -0.25778998348124121 0 -0.30259596941082578 -0.2646717726439447 0 -0.29569117905825443 -0.24281310196210301 0 -0.38001839990558578 -0.5 0 -0.33564445652449199 -0.4721886549932553 0 -0.28610414907942378 -0.5 0 -0.34307153428213372 -0.44551700424244878 0 -0.32622503064117431 -0.42814896325531998 0 -0.3093742968030076 -0.45751154838904817 0 -0.34307153428213372 -0.44551700424244878 0 -0.33564445652449199 -0.4721886549932553 0 -0.3093742968030076 -0.45751154838904817 0 -0.38001839990558578 -0.5 0 -0.33564445652449199 -0.4721886549932553 0 -0.35991803792309313 -0.46288504522957741 0 -0.34307153428213372 -0.44551700424244878 0 -0.35991803792309313 -0.46288504522957741 0 -0.34307153428213372 -0.44551700424244878 0 -0.33564445652449199 -0.4721886549932553 0 -0.35991803792309313 -0.46288504522957741 0 -0.34307153428213372 -0.44551700424244878 0 -0.35991803792309313 -0.46288504522957741 0 -0.35943107891621451 -0.44353635058972968 0 -0.34307153428213372 -0.44551700424244878 0 -0.35943107891621451 -0.44353635058972968 0 -0.34478928790497848 -0.42793058297709208 0 -0.37622454740542211 -0.44381753121460182 0 -0.35943107891621451 -0.44353635058972968 0 -0.36396982000741912 -0.42771989950487349 0 -0.37622454740542211 -0.44381753121460182 0 -0.35991803792309313 -0.46288504522957741 0 -0.35943107891621451 -0.44353635058972968 0 -0.3841722700262109 -0.42157329572555052 0 -0.37622454740542211 -0.44381753121460182 0 -0.36396982000741912 -0.42771989950487349 0 -0.3841722700262109 -0.42157329572555052 0 -0.36396982000741912 -0.42771989950487349 0 -0.36780195338745458 -0.41386650202690478 0 -0.36780195338745458 -0.41386650202690478 0 -0.35358574516498542 -0.41328328738641762 0 -0.36178574365404531 -0.40020186617921888 0 -0.36396982000741912 -0.42771989950487349 0 -0.36780195338745458 -0.41386650202690478 0 -0.35358574516498542 -0.41328328738641762 0 -0.35358574516498542 -0.41328328738641762 0 -0.34461079361578911 -0.39574467491851689 0 -0.33855687242022642 -0.41423619871189971 0 -0.35358574516498542 -0.41328328738641762 0 -0.34478928790497848 -0.42793058297709208 0 -0.33855687242022642 -0.41423619871189971 0 -0.35943107891621451 -0.44353635058972968 0 -0.36396982000741912 -0.42771989950487349 0 -0.34478928790497848 -0.42793058297709208 0 -0.36396982000741912 -0.42771989950487349 0 -0.35358574516498542 -0.41328328738641762 0 -0.34478928790497848 -0.42793058297709208 0 -0.36560407184054478 -0.36934726779251847 0 -0.36444691383481981 -0.37989735926610901 0 -0.37488312704920029 -0.38066116407694611 0 -0.36444691383481981 -0.37989735926610901 0 -0.37488312704920029 -0.38066116407694611 0 -0.37137247577989668 -0.38855020055113848 0 -0.36444691383481981 -0.37989735926610901 0 -0.37137247577989668 -0.38855020055113848 0 -0.3586692146198065 -0.38867834478826457 0 -0.37137247577989668 -0.38855020055113848 0 -0.36178574365404531 -0.40020186617921888 0 -0.3586692146198065 -0.38867834478826457 0 -0.37647375533617761 -0.40283702630238649 0 -0.37137247577989668 -0.38855020055113848 0 -0.36178574365404531 -0.40020186617921888 0 -0.37647375533617761 -0.40283702630238649 0 -0.36780195338745458 -0.41386650202690478 0 -0.36178574365404531 -0.40020186617921888 0 -0.35358574516498542 -0.41328328738641762 0 -0.36178574365404531 -0.40020186617921888 0 -0.34461079361578911 -0.39574467491851689 0 -0.36178574365404531 -0.40020186617921888 0 -0.34461079361578911 -0.39574467491851689 0 -0.3586692146198065 -0.38867834478826457 0 -0.34461079361578911 -0.39574467491851689 0 -0.35118190372557978 -0.3805139138466701 0 -0.3388746428470264 -0.37800565761775179 0 -0.36444691383481981 -0.37989735926610901 0 -0.3586692146198065 -0.38867834478826457 0 -0.35118190372557978 -0.3805139138466701 0 -0.34461079361578911 -0.39574467491851689 0 -0.3586692146198065 -0.38867834478826457 0 -0.35118190372557978 -0.3805139138466701 0 -0.34520354045424051 -0.37113425413354412 0 -0.35118190372557978 -0.3805139138466701 0 -0.3388746428470264 -0.37800565761775179 0 -0.35415747874368331 -0.36947103026096578 0 -0.36444691383481981 -0.37989735926610901 0 -0.35118190372557978 -0.3805139138466701 0 -0.34461079361578911 -0.39574467491851689 0 -0.33032219075418762 -0.38768433909274869 0 -0.3388746428470264 -0.37800565761775179 0 -0.32579432412524661 -0.3714639203565373 0 -0.33032219075418762 -0.38768433909274869 0 -0.3388746428470264 -0.37800565761775179 0 -0.34461079361578911 -0.39574467491851689 0 -0.33032219075418762 -0.38768433909274869 0 -0.32574490322859218 -0.40439147901256928 0 -0.34461079361578911 -0.39574467491851689 0 -0.32574490322859218 -0.40439147901256928 0 -0.33855687242022642 -0.41423619871189971 0 -0.33032219075418762 -0.38768433909274869 0 -0.32574490322859218 -0.40439147901256928 0 -0.31194337389574239 -0.38744948380033389 0 -0.32574490322859218 -0.40439147901256928 0 -0.30937852700021479 -0.41078092226819141 0 -0.31194337389574239 -0.38744948380033389 0 -0.32579432412524661 -0.3714639203565373 0 -0.31122156355072539 -0.37000518037610491 0 -0.31194337389574239 -0.38744948380033389 0 -0.32579432412524661 -0.3714639203565373 0 -0.33032219075418762 -0.38768433909274869 0 -0.31194337389574239 -0.38744948380033389 0 -0.34478928790497848 -0.42793058297709208 0 -0.33855687242022642 -0.41423619871189971 0 -0.32622503064117431 -0.42814896325531998 0 -0.34307153428213372 -0.44551700424244878 0 -0.32622503064117431 -0.42814896325531998 0 -0.34307153428213372 -0.44551700424244878 0 -0.34478928790497848 -0.42793058297709208 0 -0.32622503064117431 -0.42814896325531998 0 -0.32574490322859218 -0.40439147901256928 0 -0.33855687242022642 -0.41423619871189971 0 -0.32622503064117431 -0.42814896325531998 0 -0.32622503064117431 -0.42814896325531998 0 -0.30937852700021479 -0.41078092226819141 0 -0.32574490322859218 -0.40439147901256928 0 -0.32622503064117431 -0.42814896325531998 0 -0.30937852700021479 -0.41078092226819141 0 -0.32622503064117431 -0.42814896325531998 0 -0.29881756861073411 -0.43536889397484257 0 -0.30937852700021479 -0.41078092226819141 0 -0.29881756861073411 -0.43536889397484257 0 -0.30937852700021479 -0.41078092226819141 0 -0.28276351906249803 -0.41608208107200351 0 -0.30937852700021479 -0.41078092226819141 0 -0.28276351906249803 -0.41608208107200351 0 -0.29253202335925538 -0.39341288128106272 0 -0.29881756861073411 -0.43536889397484257 0 -0.28276351906249803 -0.41608208107200351 0 -0.27106809155289407 -0.44590416728312399 0 -0.31122156355072539 -0.37000518037610491 0 -0.29064135703704241 -0.37443989980983722 0 -0.31194337389574239 -0.38744948380033389 0 -0.29064135703704241 -0.37443989980983722 0 -0.31194337389574239 -0.38744948380033389 0 -0.29253202335925538 -0.39341288128106272 0 -0.30937852700021479 -0.41078092226819141 0 -0.29253202335925538 -0.39341288128106272 0 -0.30937852700021479 -0.41078092226819141 0 -0.31194337389574239 -0.38744948380033389 0 -0.29253202335925538 -0.39341288128106272 0 -0.28276351906249803 -0.41608208107200351 0 -0.29253202335925538 -0.39341288128106272 0 -0.26893173435253409 -0.39142646482576249 0 -0.29064135703704241 -0.37443989980983722 0 -0.29253202335925538 -0.39341288128106272 0 -0.26893173435253409 -0.39142646482576249 0 -0.29064135703704241 -0.37443989980983722 0 -0.26962238061980048 -0.36775279803609562 0 -0.26893173435253409 -0.39142646482576249 0 -0.26893173435253409 -0.39142646482576249 0 -0.25870833762400047 -0.42223325656398808 0 -0.24634858369510679 -0.39856234584485212 0 -0.26893173435253409 -0.39142646482576249 0 -0.25336890038055959 -0.37912553309662012 0 -0.24634858369510679 -0.39856234584485212 0 -0.26962238061980048 -0.36775279803609562 0 -0.26893173435253409 -0.39142646482576249 0 -0.25336890038055959 -0.37912553309662012 0 -0.28276351906249803 -0.41608208107200351 0 -0.25870833762400047 -0.42223325656398808 0 -0.27106809155289407 -0.44590416728312399 0 -0.28276351906249803 -0.41608208107200351 0 -0.26893173435253409 -0.39142646482576249 0 -0.25870833762400047 -0.42223325656398808 0 -0.25870833762400047 -0.42223325656398808 0 -0.24634858369510679 -0.39856234584485212 0 -0.25870833762400047 -0.42223325656398808 0 -0.27106809155289407 -0.44590416728312399 0 -0.28610414907942378 -0.5 0 -0.25281790795250492 -0.47492661553854221 0 -0.2187564890614577 -0.5 0 -0.25870833762400047 -0.42223325656398808 0 -0.27106809155289407 -0.44590416728312399 0 -0.248797990200923 -0.44837845857551578 0 -0.27106809155289407 -0.44590416728312399 0 -0.25281790795250492 -0.47492661553854221 0 -0.248797990200923 -0.44837845857551578 0 -0.27106809155289407 -0.44590416728312399 0 -0.28342784548178768 -0.46957507800225989 0 -0.27106809155289407 -0.44590416728312399 0 -0.28342784548178768 -0.46957507800225989 0 -0.25281790795250492 -0.47492661553854221 0 -0.29881756861073411 -0.43536889397484257 0 -0.27106809155289407 -0.44590416728312399 0 -0.29179186058440282 -0.45270508438546753 0 -0.29179186058440282 -0.45270508438546753 0 -0.3093742968030076 -0.45751154838904817 0 -0.28342784548178768 -0.46957507800225989 0 -0.27106809155289407 -0.44590416728312399 0 -0.29179186058440282 -0.45270508438546753 0 -0.28342784548178768 -0.46957507800225989 0 -0.32622503064117431 -0.42814896325531998 0 -0.29881756861073411 -0.43536889397484257 0 -0.3093742968030076 -0.45751154838904817 0 -0.29881756861073411 -0.43536889397484257 0 -0.29179186058440282 -0.45270508438546753 0 -0.3093742968030076 -0.45751154838904817 0 -0.3093742968030076 -0.45751154838904817 0 -0.28610414907942378 -0.5 0 -0.28342784548178768 -0.46957507800225989 0 -0.33564445652449199 -0.4721886549932553 0 -0.3093742968030076 -0.45751154838904817 0 -0.28610414907942378 -0.5 0 -0.28610414907942378 -0.5 0 -0.28342784548178768 -0.46957507800225989 0 -0.25281790795250492 -0.47492661553854221 0 -0.25281790795250492 -0.47492661553854221 0 -0.22249610545859089 -0.47735561217370043 0 -0.2187564890614577 -0.5 0 -0.25281790795250492 -0.47492661553854221 0 -0.22249610545859089 -0.47735561217370043 0 -0.23516718618208721 -0.46338660365634732 0 -0.248797990200923 -0.44837845857551578 0 -0.23306363774574351 -0.44942680897830328 0 -0.23954428941376621 -0.43078800155041702 0 -0.248797990200923 -0.44837845857551578 0 -0.23516718618208721 -0.46338660365634732 0 -0.23306363774574351 -0.44942680897830328 0 -0.25281790795250492 -0.47492661553854221 0 -0.248797990200923 -0.44837845857551578 0 -0.23516718618208721 -0.46338660365634732 0 -0.23516718618208721 -0.46338660365634732 0 -0.23306363774574351 -0.44942680897830328 0 -0.2138233080835901 -0.45963492725092753 0 -0.22249610545859089 -0.47735561217370043 0 -0.23516718618208721 -0.46338660365634732 0 -0.2138233080835901 -0.45963492725092753 0 -0.23306363774574351 -0.44942680897830328 0 -0.213035667253303 -0.44105093948246621 0 -0.22689830210921749 -0.43553198531440479 0 -0.23306363774574351 -0.44942680897830328 0 -0.213035667253303 -0.44105093948246621 0 -0.2138233080835901 -0.45963492725092753 0 -0.23306363774574351 -0.44942680897830328 0 -0.22689830210921749 -0.43553198531440479 0 -0.23954428941376621 -0.43078800155041702 0 -0.213035667253303 -0.44105093948246621 0 -0.2138233080835901 -0.45963492725092753 0 -0.20223822411986661 -0.45097796278965968 0 -0.2138233080835901 -0.45963492725092753 0 -0.19837478032501629 -0.46126382942655342 0 -0.20223822411986661 -0.45097796278965968 0 -0.2138233080835901 -0.45963492725092753 0 -0.19837478032501629 -0.46126382942655342 0 -0.20686090219633091 -0.47352144000490021 0 -0.1930068309997697 -0.45924200566623602 0 -0.19305067953829291 -0.47913758028454279 0 -0.18223255267224811 -0.46765355351917082 0 -0.19837478032501629 -0.46126382942655342 0 -0.20686090219633091 -0.47352144000490021 0 -0.19778941755024579 -0.46900631356707939 0 -0.19837478032501629 -0.46126382942655342 0 -0.1930068309997697 -0.45924200566623602 0 -0.19778941755024579 -0.46900631356707939 0 -0.19837478032501629 -0.46126382942655342 0 -0.1930068309997697 -0.45924200566623602 0 -0.20223822411986661 -0.45097796278965968 0 -0.19837478032501629 -0.46126382942655342 0 -0.1930068309997697 -0.45924200566623602 0 -0.213035667253303 -0.44105093948246621 0 -0.20223822411986661 -0.45097796278965968 0 -0.19295053393765421 -0.4336981121221154 0 -0.1930068309997697 -0.45924200566623602 0 -0.19295053393765421 -0.4336981121221154 0 -0.1930068309997697 -0.45924200566623602 0 -0.20223822411986661 -0.45097796278965968 0 -0.19295053393765421 -0.4336981121221154 0 -0.2187564890614577 -0.5 0 -0.20636048591622211 -0.48673790925488802 0 -0.19309452807681629 -0.5 0 -0.22249610545859089 -0.47735561217370043 0 -0.2187564890614577 -0.5 0 -0.20636048591622211 -0.48673790925488802 0 -0.22249610545859089 -0.47735561217370043 0 -0.2138233080835901 -0.45963492725092753 0 -0.20686090219633091 -0.47352144000490021 0 -0.22249610545859089 -0.47735561217370043 0 -0.20636048591622211 -0.48673790925488802 0 -0.20686090219633091 -0.47352144000490021 0 -0.1930068309997697 -0.45924200566623602 0 -0.19305067953829291 -0.47913758028454279 0 -0.20636048591622211 -0.48673790925488802 0 -0.20686090219633091 -0.47352144000490021 0 -0.19305067953829291 -0.47913758028454279 0 -0.1930068309997697 -0.45924200566623602 0 -0.19778941755024579 -0.46900631356707939 0 -0.19305067953829291 -0.47913758028454279 0 -0.20686090219633091 -0.47352144000490021 0 -0.19778941755024579 -0.46900631356707939 0 -0.19305067953829291 -0.47913758028454279 0 -0.20636048591622211 -0.48673790925488802 0 -0.19305067953829291 -0.47913758028454279 0 -0.19309452807681629 -0.5 0 -0.19305067953829291 -0.47913758028454279 0 -0.19309452807681629 -0.5 0 -0.19305067953829291 -0.47913758028454279 0 -0.19309452807681629 -0.5 0 -0.17776610429537729 -0.48179518671161398 0 -0.19309452807681629 -0.5 0 -0.1704620616245939 -0.5 0 -0.17776610429537729 -0.48179518671161398 0 -0.1704620616245939 -0.5 0 -0.16032124250180621 -0.47599362073401408 0 -0.17776610429537729 -0.48179518671161398 0 -0.1704620616245939 -0.5 0 -0.16032124250180621 -0.47599362073401408 0 -0.1466951269067214 -0.48430763894718248 0 -0.16032124250180621 -0.47599362073401408 0 -0.17776610429537729 -0.48179518671161398 0 -0.17076397941000471 -0.4664559308178402 0 -0.17776610429537729 -0.48179518671161398 0 -0.18223255267224811 -0.46765355351917082 0 -0.17076397941000471 -0.4664559308178402 0 -0.19305067953829291 -0.47913758028454279 0 -0.17776610429537729 -0.48179518671161398 0 -0.18223255267224811 -0.46765355351917082 0 -0.1930068309997697 -0.45924200566623602 0 -0.17450882318097949 -0.45227478048199932 0 -0.1930068309997697 -0.45924200566623602 0 -0.18223255267224811 -0.46765355351917082 0 -0.17450882318097949 -0.45227478048199932 0 -0.18223255267224811 -0.46765355351917082 0 -0.17450882318097949 -0.45227478048199932 0 -0.18223255267224811 -0.46765355351917082 0 -0.17450882318097949 -0.45227478048199932 0 -0.17076397941000471 -0.4664559308178402 0 -0.17450882318097949 -0.45227478048199932 0 -0.17651459128234981 -0.43582377589914789 0 -0.19295053393765421 -0.4336981121221154 0 -0.1930068309997697 -0.45924200566623602 0 -0.17450882318097949 -0.45227478048199932 0 -0.19295053393765421 -0.4336981121221154 0 -0.17450882318097949 -0.45227478048199932 0 -0.1556634457229262 -0.43797015177652793 0 -0.16212091014339169 -0.42760911822329739 0 -0.17450882318097949 -0.45227478048199932 0 -0.15202588196584441 -0.44380664078910259 0 -0.17450882318097949 -0.45227478048199932 0 -0.1556634457229262 -0.43797015177652793 0 -0.15202588196584441 -0.44380664078910259 0 -0.17450882318097949 -0.45227478048199932 0 -0.15960304743694609 -0.45959805513334062 0 -0.15202588196584441 -0.44380664078910259 0 -0.17450882318097949 -0.45227478048199932 0 -0.16212091014339169 -0.42760911822329739 0 -0.17450882318097949 -0.45227478048199932 0 -0.16212091014339169 -0.42760911822329739 0 -0.17651459128234981 -0.43582377589914789 0 -0.16032124250180621 -0.47599362073401408 0 -0.17076397941000471 -0.4664559308178402 0 -0.15960304743694609 -0.45959805513334062 0 -0.17450882318097949 -0.45227478048199932 0 -0.17076397941000471 -0.4664559308178402 0 -0.15960304743694609 -0.45959805513334062 0 -0.16032124250180621 -0.47599362073401408 0 -0.15960304743694609 -0.45959805513334062 0 -0.140701246644762 -0.46197707408921651 0 -0.15960304743694609 -0.45959805513334062 0 -0.140701246644762 -0.46197707408921651 0 -0.15202588196584441 -0.44380664078910259 0 -0.140701246644762 -0.46197707408921651 0 -0.15202588196584441 -0.44380664078910259 0 -0.13687428941648 -0.44697771242112311 0 -0.1556634457229262 -0.43797015177652793 0 -0.15202588196584441 -0.44380664078910259 0 -0.1275794915460377 -0.43459897320321428 0 -0.140701246644762 -0.46197707408921651 0 -0.15202588196584441 -0.44380664078910259 0 -0.1556634457229262 -0.43797015177652793 0 -0.15202588196584441 -0.44380664078910259 0 -0.13687428941648 -0.44697771242112311 0 -0.1275794915460377 -0.43459897320321428 0 -0.1121293247932508 -0.44136068716438448 0 -0.15202588196584441 -0.44380664078910259 0 -0.13687428941648 -0.44697771242112311 0 -0.1275794915460377 -0.43459897320321428 0 -0.15202588196584441 -0.44380664078910259 0 -0.1275794915460377 -0.43459897320321428 0 -0.140701246644762 -0.46197707408921651 0 -0.13687428941648 -0.44697771242112311 0 -0.1137300868818453 -0.45698610709671322 0 -0.140701246644762 -0.46197707408921651 0 -0.1293766113236772 -0.48014750738932882 0 -0.1466951269067214 -0.48430763894718248 0 -0.140701246644762 -0.46197707408921651 0 -0.1293766113236772 -0.48014750738932882 0 -0.1167821702630303 -0.47221952753896201 0 -0.140701246644762 -0.46197707408921651 0 -0.1293766113236772 -0.48014750738932882 0 -0.1704620616245939 -0.5 0 -0.13582330621500369 -0.50000000000000133 0 -0.1466951269067214 -0.48430763894718248 0 -0.1293766113236772 -0.48014750738932882 0 -0.13582330621500369 -0.50000000000000133 0 -0.11187907850213059 -0.48633734694287761 0 -0.1293766113236772 -0.48014750738932882 0 -0.13582330621500369 -0.50000000000000133 0 -0.1466951269067214 -0.48430763894718248 0 -0.16032124250180621 -0.47599362073401408 0 -0.140701246644762 -0.46197707408921651 0 -0.1466951269067214 -0.48430763894718248 0 -0.1408089320346731 -0.38517468616845951 0 -0.15146492108903331 -0.40639190219587817 0 -0.1408089320346731 -0.38517468616845951 0 -0.15146492108903331 -0.40639190219587817 0 -0.15673425105492789 -0.39408158888690331 0 -0.1408089320346731 -0.38517468616845951 0 -0.13556096498619641 -0.40236866582670722 0 -0.15146492108903331 -0.40639190219587817 0 -0.1408089320346731 -0.38517468616845951 0 -0.15673425105492789 -0.39408158888690331 0 -0.1690067787943004 -0.38603980627890239 0 -0.1488628177368804 -0.37624077549874319 0 -0.1408089320346731 -0.38517468616845951 0 -0.1690067787943004 -0.38603980627890239 0 -0.1408089320346731 -0.38517468616845951 0 -0.1690067787943004 -0.38603980627890239 0 -0.1488628177368804 -0.37624077549874319 0 -0.1408089320346731 -0.38517468616845951 0 -0.13606894299019401 -0.37573686007730678 0 -0.1408089320346731 -0.38517468616845951 0 -0.12574156104363851 -0.38471241379117399 0 -0.13606894299019401 -0.37573686007730678 0 -0.12574156104363851 -0.38471241379117399 0 -0.1176685696660914 -0.3701963829529975 0 -0.1408089320346731 -0.38517468616845951 0 -0.13606894299019401 -0.37573686007730678 0 -0.1408089320346731 -0.38517468616845951 0 -0.13606894299019401 -0.37573686007730678 0 -0.12574156104363851 -0.38471241379117399 0 -0.12574156104363851 -0.38471241379117399 0 -0.13556096498619641 -0.40236866582670722 0 -0.13556096498619641 -0.40236866582670722 0 -0.12406128666458791 -0.41417451903708208 0 -0.120168383304424 -0.39790384746952079 0 -0.12574156104363851 -0.38471241379117399 0 -0.13556096498619641 -0.40236866582670722 0 -0.120168383304424 -0.39790384746952079 0 -0.1408089320346731 -0.38517468616845951 0 -0.12574156104363851 -0.38471241379117399 0 -0.13556096498619641 -0.40236866582670722 0 -0.13556096498619641 -0.40236866582670722 0 -0.14538036892875361 -0.42002491786224072 0 -0.12406128666458791 -0.41417451903708208 0 -0.13556096498619641 -0.40236866582670722 0 -0.14538036892875361 -0.42002491786224072 0 -0.1275794915460377 -0.43459897320321428 0 -0.14538036892875361 -0.42002491786224072 0 -0.12406128666458791 -0.41417451903708208 0 -0.1556634457229262 -0.43797015177652793 0 -0.14538036892875361 -0.42002491786224072 0 -0.1556634457229262 -0.43797015177652793 0 -0.1275794915460377 -0.43459897320321428 0 -0.14538036892875361 -0.42002491786224072 0 -0.1556634457229262 -0.43797015177652793 0 -0.14538036892875361 -0.42002491786224072 0 -0.16212091014339169 -0.42760911822329739 0 -0.14538036892875361 -0.42002491786224072 0 -0.15146492108903331 -0.40639190219587817 0 -0.16212091014339169 -0.42760911822329739 0 -0.13556096498619641 -0.40236866582670722 0 -0.14538036892875361 -0.42002491786224072 0 -0.15146492108903331 -0.40639190219587817 0 -0.15146492108903331 -0.40639190219587817 0 -0.16212091014339169 -0.42760911822329739 0 -0.16212091014339169 -0.42760911822329739 0 -0.17364152693618759 -0.40912423168395518 0 -0.15146492108903331 -0.40639190219587817 0 -0.16212091014339169 -0.42760911822329739 0 -0.17364152693618759 -0.40912423168395518 0 -0.16212091014339169 -0.42760911822329739 0 -0.1796243598350242 -0.42288189130130199 0 -0.17364152693618759 -0.40912423168395518 0 -0.1556634457229262 -0.43797015177652793 0 -0.16212091014339169 -0.42760911822329739 0 -0.17651459128234981 -0.43582377589914789 0 -0.1796243598350242 -0.42288189130130199 0 -0.19295053393765421 -0.4336981121221154 0 -0.16212091014339169 -0.42760911822329739 0 -0.17651459128234981 -0.43582377589914789 0 -0.1796243598350242 -0.42288189130130199 0 -0.1796243598350242 -0.42288189130130199 0 -0.17364152693618759 -0.40912423168395518 0 -0.19289423687553889 -0.40815421857799478 0 -0.17364152693618759 -0.40912423168395518 0 -0.18516214372898451 -0.39063934514461379 0 -0.16676033802954909 -0.39767382799985701 0 -0.17364152693618759 -0.40912423168395518 0 -0.19187012164441611 -0.39843483985823552 0 -0.19289423687553889 -0.40815421857799478 0 -0.17364152693618759 -0.40912423168395518 0 -0.18516214372898451 -0.39063934514461379 0 -0.19187012164441611 -0.39843483985823552 0 -0.18516214372898451 -0.39063934514461379 0 -0.16676033802954909 -0.39767382799985701 0 -0.1690067787943004 -0.38603980627890239 0 -0.17364152693618759 -0.40912423168395518 0 -0.18516214372898451 -0.39063934514461379 0 -0.15146492108903331 -0.40639190219587817 0 -0.17364152693618759 -0.40912423168395518 0 -0.16676033802954909 -0.39767382799985701 0 -0.16676033802954909 -0.39767382799985701 0 -0.15673425105492789 -0.39408158888690331 0 -0.1690067787943004 -0.38603980627890239 0 -0.15146492108903331 -0.40639190219587817 0 -0.16676033802954909 -0.39767382799985701 0 -0.15673425105492789 -0.39408158888690331 0 -0.1488628177368804 -0.37624077549874319 0 -0.1690067787943004 -0.38603980627890239 0 -0.15564736085963371 -0.36911164838220722 0 -0.1690067787943004 -0.38603980627890239 0 -0.19720462555392751 -0.38690492638934582 0 -0.1690067787943004 -0.38603980627890239 0 -0.19720462555392751 -0.38690492638934582 0 -0.18418202478330831 -0.36820291167276792 0 -0.18516214372898451 -0.39063934514461379 0 -0.1690067787943004 -0.38603980627890239 0 -0.19720462555392751 -0.38690492638934582 0 -0.19720462555392751 -0.38690492638934582 0 -0.20031168872088789 -0.39277446907666591 0 -0.20994923361975901 -0.38729593556218989 0 -0.19720462555392751 -0.38690492638934582 0 -0.19670171400637029 -0.3899048544181335 0 -0.20031168872088789 -0.39277446907666591 0 -0.19720462555392751 -0.38690492638934582 0 -0.19670171400637029 -0.3899048544181335 0 -0.18516214372898451 -0.39063934514461379 0 -0.19720462555392751 -0.38690492638934582 0 -0.19670171400637029 -0.3899048544181335 0 -0.18516214372898451 -0.39063934514461379 0 -0.19670171400637029 -0.3899048544181335 0 -0.19187012164441611 -0.39843483985823552 0 -0.19187012164441611 -0.39843483985823552 0 -0.20583274877996671 -0.40133178915542511 0 -0.19289423687553889 -0.40815421857799478 0 -0.19670171400637029 -0.3899048544181335 0 -0.19187012164441611 -0.39843483985823552 0 -0.20031168872088789 -0.39277446907666591 0 -0.19187012164441611 -0.39843483985823552 0 -0.20031168872088789 -0.39277446907666591 0 -0.20583274877996671 -0.40133178915542511 0 -0.20583274877996671 -0.40133178915542511 0 -0.20994923361975901 -0.38729593556218989 0 -0.22430875314519419 -0.4011533582937552 0 -0.20031168872088789 -0.39277446907666591 0 -0.20583274877996671 -0.40133178915542511 0 -0.20994923361975901 -0.38729593556218989 0 -0.19720462555392751 -0.38690492638934582 0 -0.20994923361975901 -0.38729593556218989 0 -0.2148314824319732 -0.37397688861175638 0 -0.20994923361975901 -0.38729593556218989 0 -0.22588537653164931 -0.3871759926876539 0 -0.2148314824319732 -0.37397688861175638 0 -0.19720462555392751 -0.38690492638934582 0 -0.20994923361975901 -0.38729593556218989 0 -0.1796243598350242 -0.42288189130130199 0 -0.19295053393765421 -0.4336981121221154 0 -0.19289423687553889 -0.40815421857799478 0 -0.19295053393765421 -0.4336981121221154 0 -0.19289423687553889 -0.40815421857799478 0 -0.19295053393765421 -0.4336981121221154 0 -0.19289423687553889 -0.40815421857799478 0 -0.20533256017410401 -0.4210194501168868 0 -0.20583274877996671 -0.40133178915542511 0 -0.19289423687553889 -0.40815421857799478 0 -0.20533256017410401 -0.4210194501168868 0 -0.20583274877996671 -0.40133178915542511 0 -0.22194961402405711 -0.4208621912464327 0 -0.22430875314519419 -0.4011533582937552 0 -0.20583274877996671 -0.40133178915542511 0 -0.20533256017410401 -0.4210194501168868 0 -0.22194961402405711 -0.4208621912464327 0 -0.213035667253303 -0.44105093948246621 0 -0.20533256017410401 -0.4210194501168868 0 -0.22194961402405711 -0.4208621912464327 0 -0.213035667253303 -0.44105093948246621 0 -0.19295053393765421 -0.4336981121221154 0 -0.20533256017410401 -0.4210194501168868 0 -0.22194961402405711 -0.4208621912464327 0 -0.23817191558042489 -0.41471983069988888 0 -0.23954428941376621 -0.43078800155041702 0 -0.213035667253303 -0.44105093948246621 0 -0.22689830210921749 -0.43553198531440479 0 -0.22194961402405711 -0.4208621912464327 0 -0.22689830210921749 -0.43553198531440479 0 -0.22194961402405711 -0.4208621912464327 0 -0.23954428941376621 -0.43078800155041702 0 -0.22194961402405711 -0.4208621912464327 0 -0.23817191558042489 -0.41471983069988888 0 -0.22430875314519419 -0.4011533582937552 0 -0.25870833762400047 -0.42223325656398808 0 -0.23817191558042489 -0.41471983069988888 0 -0.24634858369510679 -0.39856234584485212 0 -0.25870833762400047 -0.42223325656398808 0 -0.23817191558042489 -0.41471983069988888 0 -0.23954428941376621 -0.43078800155041702 0 -0.25870833762400047 -0.42223325656398808 0 -0.248797990200923 -0.44837845857551578 0 -0.23954428941376621 -0.43078800155041702 0 -0.22588537653164931 -0.3871759926876539 0 -0.2339888297662131 -0.37489143512571599 0 -0.2148314824319732 -0.37397688861175638 0 -0.22588537653164931 -0.3871759926876539 0 -0.22430875314519419 -0.4011533582937552 0 -0.24634858369510679 -0.39856234584485212 0 -0.20994923361975901 -0.38729593556218989 0 -0.22588537653164931 -0.3871759926876539 0 -0.22430875314519419 -0.4011533582937552 0 -0.23817191558042489 -0.41471983069988888 0 -0.22430875314519419 -0.4011533582937552 0 -0.24634858369510679 -0.39856234584485212 0 -0.25336890038055959 -0.37912553309662012 0 -0.24634858369510679 -0.39856234584485212 0 -0.2339888297662131 -0.37489143512571599 0 -0.24634858369510679 -0.39856234584485212 0 -0.2339888297662131 -0.37489143512571599 0 -0.22588537653164931 -0.3871759926876539 0 -0.24634858369510679 -0.39856234584485212 0 -0.2339888297662131 -0.37489143512571599 0 -0.25336890038055959 -0.37912553309662012 0 -0.2339888297662131 -0.37489143512571599 0 -0.24764052279888299 -0.35193772859664257 0 -0.2339888297662131 -0.37489143512571599 0 -0.2216290758373195 -0.35122052440658019 0 -0.2148314824319732 -0.37397688861175638 0 -0.2339888297662131 -0.37489143512571599 0 -0.2216290758373195 -0.35122052440658019 0 -0.2216290758373195 -0.35122052440658019 0 -0.24764052279888299 -0.35193772859664257 0 -0.22796592514690131 -0.33024617657447752 0 -0.2339888297662131 -0.37489143512571599 0 -0.2216290758373195 -0.35122052440658019 0 -0.24764052279888299 -0.35193772859664257 0 -0.24764052279888299 -0.35193772859664257 0 -0.2465984344626129 -0.32920269641527872 0 -0.22796592514690131 -0.33024617657447752 0 -0.2465984344626129 -0.32920269641527872 0 -0.22796592514690131 -0.33024617657447752 0 -0.24050691332612259 -0.30989470601339741 0 -0.22796592514690131 -0.33024617657447752 0 -0.24050691332612259 -0.30989470601339741 0 -0.2116673783024817 -0.30063286213752438 0 -0.2216290758373195 -0.35122052440658019 0 -0.22796592514690131 -0.33024617657447752 0 -0.2068464607196302 -0.32939021688813158 0 -0.2068464607196302 -0.32939021688813158 0 -0.2116673783024817 -0.30063286213752438 0 -0.22796592514690131 -0.33024617657447752 0 -0.2068464607196302 -0.32939021688813158 0 -0.2116673783024817 -0.30063286213752438 0 -0.2068464607196302 -0.32939021688813158 0 -0.1905930560910456 -0.31128525931498813 0 -0.18662577016732401 -0.32727764373630169 0 -0.2068464607196302 -0.32939021688813158 0 -0.2116673783024817 -0.30063286213752438 0 -0.1905930560910456 -0.31128525931498813 0 -0.2068464607196302 -0.32939021688813158 0 -0.18367645396894819 -0.34531090831403288 0 -0.18662577016732401 -0.32727764373630169 0 -0.2068464607196302 -0.32939021688813158 0 -0.2020255431367787 -0.35814757163873862 0 -0.18367645396894819 -0.34531090831403288 0 -0.2020255431367787 -0.35814757163873862 0 -0.18418202478330831 -0.36820291167276792 0 -0.18367645396894819 -0.34531090831403288 0 -0.19720462555392751 -0.38690492638934582 0 -0.2020255431367787 -0.35814757163873862 0 -0.19720462555392751 -0.38690492638934582 0 -0.2020255431367787 -0.35814757163873862 0 -0.18418202478330831 -0.36820291167276792 0 -0.2216290758373195 -0.35122052440658019 0 -0.2020255431367787 -0.35814757163873862 0 -0.2148314824319732 -0.37397688861175638 0 -0.19720462555392751 -0.38690492638934582 0 -0.2020255431367787 -0.35814757163873862 0 -0.2148314824319732 -0.37397688861175638 0 -0.2068464607196302 -0.32939021688813158 0 -0.2020255431367787 -0.35814757163873862 0 -0.2216290758373195 -0.35122052440658019 0 -0.2068464607196302 -0.32939021688813158 0 -0.2020255431367787 -0.35814757163873862 0 -0.23263804500746141 -0.26066596623233668 0 -0.21648829588533311 -0.27187550738691729 0 -0.22130921346818319 -0.2431181526363099 0 -0.21648829588533311 -0.27187550738691729 0 -0.22130921346818319 -0.2431181526363099 0 -0.23263804500746141 -0.26066596623233668 0 -0.2484047987823973 -0.25030269263885491 0 -0.22130921346818319 -0.2431181526363099 0 -0.2546888943431751 -0.27141673897283908 0 -0.23263804500746141 -0.26066596623233668 0 -0.2484047987823973 -0.25030269263885491 0 -0.2546888943431751 -0.27141673897283908 0 -0.23263804500746141 -0.26066596623233668 0 -0.2348928905071245 -0.28467548329751502 0 -0.23263804500746141 -0.26066596623233668 0 -0.2348928905071245 -0.28467548329751502 0 -0.21648829588533311 -0.27187550738691729 0 -0.2348928905071245 -0.28467548329751502 0 -0.2116673783024817 -0.30063286213752438 0 -0.21648829588533311 -0.27187550738691729 0 -0.25765239545485191 -0.29566557764651019 0 -0.2546888943431751 -0.27141673897283908 0 -0.2348928905071245 -0.28467548329751502 0 -0.25765239545485191 -0.29566557764651019 0 -0.2348928905071245 -0.28467548329751502 0 -0.24050691332612259 -0.30989470601339741 0 -0.2348928905071245 -0.28467548329751502 0 -0.24050691332612259 -0.30989470601339741 0 -0.2116673783024817 -0.30063286213752438 0 -0.2116673783024817 -0.30063286213752438 0 -0.1905930560910456 -0.31128525931498813 0 -0.18830363344455511 -0.2946046185089769 0 -0.2116673783024817 -0.30063286213752438 0 -0.18830363344455511 -0.2946046185089769 0 -0.19442378332435961 -0.27710442302869798 0 -0.2116673783024817 -0.30063286213752438 0 -0.21648829588533311 -0.27187550738691729 0 -0.19442378332435961 -0.27710442302869798 0 -0.2116673783024817 -0.30063286213752438 0 -0.21648829588533311 -0.27187550738691729 0 -0.21648829588533311 -0.27187550738691729 0 -0.19442378332435961 -0.27710442302869798 0 -0.20153664912236921 -0.2644199633694167 0 -0.19442378332435961 -0.27710442302869798 0 -0.20153664912236921 -0.2644199633694167 0 -0.189580451307025 -0.26464712977158189 0 -0.20153664912236921 -0.2644199633694167 0 -0.189580451307025 -0.26464712977158189 0 -0.19767277386163329 -0.25354154102011939 0 -0.19767277386163329 -0.25354154102011939 0 -0.1854146799826959 -0.25451409448942952 0 -0.19148401382776781 -0.2419686183389636 0 -0.189580451307025 -0.26464712977158189 0 -0.19767277386163329 -0.25354154102011939 0 -0.1854146799826959 -0.25451409448942952 0 -0.20153664912236921 -0.2644199633694167 0 -0.19767277386163329 -0.25354154102011939 0 -0.20951794123349499 -0.25493121563976678 0 -0.21648829588533311 -0.27187550738691729 0 -0.20153664912236921 -0.2644199633694167 0 -0.20951794123349499 -0.25493121563976678 0 -0.19767277386163329 -0.25354154102011939 0 -0.20951794123349499 -0.25493121563976678 0 -0.20476062514304949 -0.24868094349004219 0 -0.21648829588533311 -0.27187550738691729 0 -0.21482994921347581 -0.25032139581794882 0 -0.22130921346818319 -0.2431181526363099 0 -0.21648829588533311 -0.27187550738691729 0 -0.20951794123349499 -0.25493121563976678 0 -0.21482994921347581 -0.25032139581794882 0 -0.20951794123349499 -0.25493121563976678 0 -0.21049969678583361 -0.24732464223307191 0 -0.20476062514304949 -0.24868094349004219 0 -0.20951794123349499 -0.25493121563976678 0 -0.21482994921347581 -0.25032139581794882 0 -0.21049969678583361 -0.24732464223307191 0 -0.1733796658573423 -0.26833694730877999 0 -0.15233554839032601 -0.25956947158885962 0 -0.17495649505971081 -0.2440762360077027 0 -0.1733796658573423 -0.26833694730877999 0 -0.15233554839032601 -0.25956947158885962 0 -0.15233554839032601 -0.25956947158885962 0 -0.17495649505971081 -0.2440762360077027 0 -0.1854146799826959 -0.25451409448942952 0 -0.1733796658573423 -0.26833694730877999 0 -0.17495649505971081 -0.2440762360077027 0 -0.189580451307025 -0.26464712977158189 0 -0.1854146799826959 -0.25451409448942952 0 -0.1733796658573423 -0.26833694730877999 0 -0.19442378332435961 -0.27710442302869798 0 -0.189580451307025 -0.26464712977158189 0 -0.1733796658573423 -0.26833694730877999 0 -0.19442378332435961 -0.27710442302869798 0 -0.1733796658573423 -0.26833694730877999 0 -0.17411501265377219 -0.28424056821532262 0 -0.19442378332435961 -0.27710442302869798 0 -0.1733796658573423 -0.26833694730877999 0 -0.1733796658573423 -0.26833694730877999 0 -0.15831043307571679 -0.27594738701215088 0 -0.17411501265377219 -0.28424056821532262 0 -0.1733796658573423 -0.26833694730877999 0 -0.15831043307571679 -0.27594738701215088 0 -0.15233554839032601 -0.25956947158885962 0 -0.15831043307571679 -0.27594738701215088 0 -0.1578083271697005 -0.28955130567574011 0 -0.17411501265377219 -0.28424056821532262 0 -0.1578083271697005 -0.28955130567574011 0 -0.17411501265377219 -0.28424056821532262 0 -0.17246423305095901 -0.29989872775759019 0 -0.18830363344455511 -0.2946046185089769 0 -0.17411501265377219 -0.28424056821532262 0 -0.17246423305095901 -0.29989872775759019 0 -0.18830363344455511 -0.2946046185089769 0 -0.19442378332435961 -0.27710442302869798 0 -0.17411501265377219 -0.28424056821532262 0 -0.1905930560910456 -0.31128525931498813 0 -0.18830363344455511 -0.2946046185089769 0 -0.17246423305095901 -0.29989872775759019 0 -0.1905930560910456 -0.31128525931498813 0 -0.17246423305095901 -0.29989872775759019 0 -0.1755637258968063 -0.31466184683718618 0 -0.17246423305095901 -0.29989872775759019 0 -0.15314525426116141 -0.30353103071296472 0 -0.1613637774794309 -0.31580992064680369 0 -0.17246423305095901 -0.29989872775759019 0 -0.1755637258968063 -0.31466184683718618 0 -0.1613637774794309 -0.31580992064680369 0 -0.1578083271697005 -0.28955130567574011 0 -0.17246423305095901 -0.29989872775759019 0 -0.15314525426116141 -0.30353103071296472 0 -0.15314525426116141 -0.30353103071296472 0 -0.1613637774794309 -0.31580992064680369 0 -0.1469368064728433 -0.31768842974500699 0 -0.15314525426116141 -0.30353103071296472 0 -0.13925245707730399 -0.30547300596937121 0 -0.14354501490820409 -0.29278242311114872 0 -0.15314525426116141 -0.30353103071296472 0 -0.13925245707730399 -0.30547300596937121 0 -0.1469368064728433 -0.31768842974500699 0 -0.13925245707730399 -0.30547300596937121 0 -0.12503158749823881 -0.30736947604579151 0 -0.13020327451971059 -0.32346738533574909 0 -0.13925245707730399 -0.30547300596937121 0 -0.12503158749823881 -0.30736947604579151 0 -0.13075253367692929 -0.29484197363606079 0 -0.13925245707730399 -0.30547300596937121 0 -0.13075253367692929 -0.29484197363606079 0 -0.14354501490820409 -0.29278242311114872 0 -0.13075253367692929 -0.29484197363606079 0 -0.13616369477945631 -0.28343597701207862 0 -0.14354501490820409 -0.29278242311114872 0 -0.13075253367692929 -0.29484197363606079 0 -0.13616369477945631 -0.28343597701207862 0 -0.12359146238341299 -0.28422310450607252 0 -0.13616369477945631 -0.28343597701207862 0 -0.14354501490820409 -0.29278242311114872 0 -0.14701531126823189 -0.28104644515450189 0 -0.1578083271697005 -0.28955130567574011 0 -0.15314525426116141 -0.30353103071296472 0 -0.14354501490820409 -0.29278242311114872 0 -0.1578083271697005 -0.28955130567574011 0 -0.14354501490820409 -0.29278242311114872 0 -0.14701531126823189 -0.28104644515450189 0 -0.15831043307571679 -0.27594738701215088 0 -0.1578083271697005 -0.28955130567574011 0 -0.14701531126823189 -0.28104644515450189 0 -0.15831043307571679 -0.27594738701215088 0 -0.14885304563002741 -0.26985185988598398 0 -0.15233554839032601 -0.25956947158885962 0 -0.15831043307571679 -0.27594738701215088 0 -0.14885304563002741 -0.26985185988598398 0 -0.14701531126823189 -0.28104644515450189 0 -0.14885304563002741 -0.26985185988598398 0 -0.1443054394592222 -0.26735517925058427 0 -0.14093479526392941 -0.27353938109901582 0 -0.1443054394592222 -0.26735517925058427 0 -0.14093479526392941 -0.27353938109901582 0 -0.13724211915737189 -0.26464334196728823 0 -0.14885304563002741 -0.26985185988598398 0 -0.1443054394592222 -0.26735517925058427 0 -0.14920532098058731 -0.26171338498870261 0 -0.14885304563002741 -0.26985185988598398 0 -0.14701531126823189 -0.28104644515450189 0 -0.14093479526392941 -0.27353938109901582 0 -0.13616369477945631 -0.28343597701207862 0 -0.14701531126823189 -0.28104644515450189 0 -0.14093479526392941 -0.27353938109901582 0 -0.13616369477945631 -0.28343597701207862 0 -0.14093479526392941 -0.27353938109901582 0 -0.1307481738369865 -0.27403809250692351 0 -0.13616369477945631 -0.28343597701207862 0 -0.1307481738369865 -0.27403809250692351 0 -0.12359146238341299 -0.28422310450607252 0 -0.1307481738369865 -0.27403809250692351 0 -0.13724211915737189 -0.26464334196728823 0 -0.12823242419176009 -0.26476965903806182 0 -0.1307481738369865 -0.27403809250692351 0 -0.12823242419176009 -0.26476965903806182 0 -0.1160504991985679 -0.27098422157027813 0 -0.14093479526392941 -0.27353938109901582 0 -0.1307481738369865 -0.27403809250692351 0 -0.13724211915737189 -0.26464334196728823 0 -0.13724211915737189 -0.26464334196728823 0 -0.14920532098058731 -0.26171338498870261 0 -0.1256374789938742 -0.24844642613119489 0 -0.15233554839032601 -0.25956947158885962 0 -0.1256374789938742 -0.24844642613119489 0 -0.13724211915737189 -0.26464334196728823 0 -0.12823242419176009 -0.26476965903806182 0 -0.1256374789938742 -0.24844642613119489 0 -0.14920532098058731 -0.26171338498870261 0 -0.15233554839032601 -0.25956947158885962 0 -0.1256374789938742 -0.24844642613119489 0 -0.1443054394592222 -0.26735517925058427 0 -0.13724211915737189 -0.26464334196728823 0 -0.14920532098058731 -0.26171338498870261 0 -0.14885304563002741 -0.26985185988598398 0 -0.14920532098058731 -0.26171338498870261 0 -0.15233554839032601 -0.25956947158885962 0 -0.14920532098058731 -0.26171338498870261 0 -0.15233554839032601 -0.25956947158885962 0 -0.16224442175770001 -0.34992973621654949 0 -0.16860338229806021 -0.36395503600035639 0 -0.18367645396894819 -0.34531090831403288 0 -0.16224442175770001 -0.34992973621654949 0 -0.18367645396894819 -0.34531090831403288 0 -0.16453561531152941 -0.33752470183826649 0 -0.16224442175770001 -0.34992973621654949 0 -0.16860338229806021 -0.36395503600035639 0 -0.15278351844696089 -0.35661802343992011 0 -0.1690067787943004 -0.38603980627890239 0 -0.16860338229806021 -0.36395503600035639 0 -0.15564736085963371 -0.36911164838220722 0 -0.16860338229806021 -0.36395503600035639 0 -0.15278351844696089 -0.35661802343992011 0 -0.15564736085963371 -0.36911164838220722 0 -0.1690067787943004 -0.38603980627890239 0 -0.16860338229806021 -0.36395503600035639 0 -0.18418202478330831 -0.36820291167276792 0 -0.16860338229806021 -0.36395503600035639 0 -0.18418202478330831 -0.36820291167276792 0 -0.18367645396894819 -0.34531090831403288 0 -0.18367645396894819 -0.34531090831403288 0 -0.18662577016732401 -0.32727764373630169 0 -0.1718529841790325 -0.32629316500080552 0 -0.18367645396894819 -0.34531090831403288 0 -0.1718529841790325 -0.32629316500080552 0 -0.16453561531152941 -0.33752470183826649 0 -0.1905930560910456 -0.31128525931498813 0 -0.18662577016732401 -0.32727764373630169 0 -0.1755637258968063 -0.31466184683718618 0 -0.18662577016732401 -0.32727764373630169 0 -0.1755637258968063 -0.31466184683718618 0 -0.1718529841790325 -0.32629316500080552 0 -0.1718529841790325 -0.32629316500080552 0 -0.1613637774794309 -0.31580992064680369 0 -0.1559162614705468 -0.32756118259944211 0 -0.1755637258968063 -0.31466184683718618 0 -0.1718529841790325 -0.32629316500080552 0 -0.1613637774794309 -0.31580992064680369 0 -0.1718529841790325 -0.32629316500080552 0 -0.16453561531152941 -0.33752470183826649 0 -0.1559162614705468 -0.32756118259944211 0 -0.16453561531152941 -0.33752470183826649 0 -0.14932221955455191 -0.33963291572191212 0 -0.1559162614705468 -0.32756118259944211 0 -0.16224442175770001 -0.34992973621654949 0 -0.16453561531152941 -0.33752470183826649 0 -0.14932221955455191 -0.33963291572191212 0 -0.14932221955455191 -0.33963291572191212 0 -0.14317202217152411 -0.32945554522540332 0 -0.13348154883996791 -0.33892781272490591 0 -0.14932221955455191 -0.33963291572191212 0 -0.14317202217152411 -0.32945554522540332 0 -0.1559162614705468 -0.32756118259944211 0 -0.14317202217152411 -0.32945554522540332 0 -0.1559162614705468 -0.32756118259944211 0 -0.1469368064728433 -0.31768842974500699 0 -0.1613637774794309 -0.31580992064680369 0 -0.1559162614705468 -0.32756118259944211 0 -0.1469368064728433 -0.31768842974500699 0 -0.14317202217152411 -0.32945554522540332 0 -0.1469368064728433 -0.31768842974500699 0 -0.13020327451971059 -0.32346738533574909 0 -0.13925245707730399 -0.30547300596937121 0 -0.1469368064728433 -0.31768842974500699 0 -0.13020327451971059 -0.32346738533574909 0 -0.14932221955455191 -0.33963291572191212 0 -0.13348154883996791 -0.33892781272490591 0 -0.13810165220621881 -0.35193792773165539 0 -0.13348154883996791 -0.33892781272490591 0 -0.1223555677065751 -0.35305672163450291 0 -0.1194204132268578 -0.33705396328175818 0 -0.14317202217152411 -0.32945554522540332 0 -0.13020327451971059 -0.32346738533574909 0 -0.13348154883996791 -0.33892781272490591 0 -0.13020327451971059 -0.32346738533574909 0 -0.13348154883996791 -0.33892781272490591 0 -0.1194204132268578 -0.33705396328175818 0 -0.13810165220621881 -0.35193792773165539 0 -0.1304943221791432 -0.36356718058786869 0 -0.1223555677065751 -0.35305672163450291 0 -0.13348154883996791 -0.33892781272490591 0 -0.13810165220621881 -0.35193792773165539 0 -0.1223555677065751 -0.35305672163450291 0 -0.16224442175770001 -0.34992973621654949 0 -0.14932221955455191 -0.33963291572191212 0 -0.15278351844696089 -0.35661802343992011 0 -0.14932221955455191 -0.33963291572191212 0 -0.13810165220621881 -0.35193792773165539 0 -0.15278351844696089 -0.35661802343992011 0 -0.13810165220621881 -0.35193792773165539 0 -0.15278351844696089 -0.35661802343992011 0 -0.1427820740056007 -0.36514087658684019 0 -0.1488628177368804 -0.37624077549874319 0 -0.15564736085963371 -0.36911164838220722 0 -0.1427820740056007 -0.36514087658684019 0 -0.15278351844696089 -0.35661802343992011 0 -0.15564736085963371 -0.36911164838220722 0 -0.1427820740056007 -0.36514087658684019 0 -0.1488628177368804 -0.37624077549874319 0 -0.13606894299019401 -0.37573686007730678 0 -0.1427820740056007 -0.36514087658684019 0 -0.13606894299019401 -0.37573686007730678 0 -0.1427820740056007 -0.36514087658684019 0 -0.1304943221791432 -0.36356718058786869 0 -0.13606894299019401 -0.37573686007730678 0 -0.1304943221791432 -0.36356718058786869 0 -0.1176685696660914 -0.3701963829529975 0 -0.13810165220621881 -0.35193792773165539 0 -0.1427820740056007 -0.36514087658684019 0 -0.1304943221791432 -0.36356718058786869 0 -0.1304943221791432 -0.36356718058786869 0 -0.1176685696660914 -0.3701963829529975 0 -0.1223555677065751 -0.35305672163450291 0 -0.1176685696660914 -0.3701963829529975 0 -0.094573438515278857 -0.36718762158259871 0 -0.10421664212808809 -0.35048501340522298 0 -0.1176685696660914 -0.3701963829529975 0 -0.094573438515278857 -0.36718762158259871 0 -0.099566998186406103 -0.38390936876072018 0 -0.094573438515278857 -0.36718762158259871 0 -0.10421664212808809 -0.35048501340522298 0 -0.08631473032317788 -0.35328780716508851 0 -0.10421664212808809 -0.35048501340522298 0 -0.1223555677065751 -0.35305672163450291 0 -0.1194204132268578 -0.33705396328175818 0 -0.1176685696660914 -0.3701963829529975 0 -0.10421664212808809 -0.35048501340522298 0 -0.1223555677065751 -0.35305672163450291 0 -0.13020327451971059 -0.32346738533574909 0 -0.1194204132268578 -0.33705396328175818 0 -0.1138710344410185 -0.32697641813716799 0 -0.1194204132268578 -0.33705396328175818 0 -0.1138710344410185 -0.32697641813716799 0 -0.10343431384804661 -0.33371617361122052 0 -0.12503158749823881 -0.30736947604579151 0 -0.13020327451971059 -0.32346738533574909 0 -0.1172816331326734 -0.31675409069922122 0 -0.13020327451971059 -0.32346738533574909 0 -0.1172816331326734 -0.31675409069922122 0 -0.1138710344410185 -0.32697641813716799 0 -0.1172816331326734 -0.31675409069922122 0 -0.1138710344410185 -0.32697641813716799 0 -0.1061984823415936 -0.31847871445977349 0 -0.1172816331326734 -0.31675409069922122 0 -0.1061984823415936 -0.31847871445977349 0 -0.1119275190719555 -0.30685784446050007 0 -0.1138710344410185 -0.32697641813716799 0 -0.1061984823415936 -0.31847871445977349 0 -0.10343431384804661 -0.33371617361122052 0 -0.1061984823415936 -0.31847871445977349 0 -0.10343431384804661 -0.33371617361122052 0 -0.093748501117980471 -0.32222324377453299 0 -0.1061984823415936 -0.31847871445977349 0 -0.093748501117980471 -0.32222324377453299 0 -0.099256368269099435 -0.30706786022982108 0 -0.10421664212808809 -0.35048501340522298 0 -0.10343431384804661 -0.33371617361122052 0 -0.086534294338911841 -0.33744118788449512 0 -0.10421664212808809 -0.35048501340522298 0 -0.1194204132268578 -0.33705396328175818 0 -0.10343431384804661 -0.33371617361122052 0 -0.10343431384804661 -0.33371617361122052 0 -0.086534294338911841 -0.33744118788449512 0 -0.093748501117980471 -0.32222324377453299 0 -0.086534294338911841 -0.33744118788449512 0 -0.079320650769075629 -0.32198370304691931 0 -0.072794636383926081 -0.33320208689064162 0 -0.093748501117980471 -0.32222324377453299 0 -0.099256368269099435 -0.30706786022982108 0 -0.085680520663388909 -0.30885321334369942 0 -0.093748501117980471 -0.32222324377453299 0 -0.079320650769075629 -0.32198370304691931 0 -0.085680520663388909 -0.30885321334369942 0 -0.086534294338911841 -0.33744118788449512 0 -0.093748501117980471 -0.32222324377453299 0 -0.079320650769075629 -0.32198370304691931 0 -0.079320650769075629 -0.32198370304691931 0 -0.085680520663388909 -0.30885321334369942 0 -0.071430098160109215 -0.30837053548217058 0 -0.079320650769075629 -0.32198370304691931 0 -0.065955255564210488 -0.31974756779347557 0 -0.071430098160109215 -0.30837053548217058 0 -0.079320650769075629 -0.32198370304691931 0 -0.065955255564210488 -0.31974756779347557 0 -0.072794636383926081 -0.33320208689064162 0 -0.065955255564210488 -0.31974756779347557 0 -0.072794636383926081 -0.33320208689064162 0 -0.061764982331378088 -0.33088257569349078 0 -0.086534294338911841 -0.33744118788449512 0 -0.072794636383926081 -0.33320208689064162 0 -0.069931982276473736 -0.34590679381943151 0 -0.069931982276473736 -0.34590679381943151 0 -0.05624408354507824 -0.34237464386809818 0 -0.061764982331378088 -0.33088257569349078 0 -0.072794636383926081 -0.33320208689064162 0 -0.069931982276473736 -0.34590679381943151 0 -0.061764982331378088 -0.33088257569349078 0 -0.069931982276473736 -0.34590679381943151 0 -0.076349106250201443 -0.36492583540835 0 -0.057907758400439088 -0.35844599080080081 0 -0.069931982276473736 -0.34590679381943151 0 -0.076349106250201443 -0.36492583540835 0 -0.08631473032317788 -0.35328780716508851 0 -0.076349106250201443 -0.36492583540835 0 -0.057907758400439088 -0.35844599080080081 0 -0.059558098740140203 -0.38229003133793538 0 -0.094573438515278857 -0.36718762158259871 0 -0.076349106250201443 -0.36492583540835 0 -0.08631473032317788 -0.35328780716508851 0 -0.094573438515278857 -0.36718762158259871 0 -0.076349106250201443 -0.36492583540835 0 -0.083095724847322833 -0.38112414360487912 0 -0.086534294338911841 -0.33744118788449512 0 -0.069931982276473736 -0.34590679381943151 0 -0.08631473032317788 -0.35328780716508851 0 -0.10421664212808809 -0.35048501340522298 0 -0.086534294338911841 -0.33744118788449512 0 -0.08631473032317788 -0.35328780716508851 0 -0.1105153895608678 -0.25339734111102152 0 -0.087759407172459197 -0.2608475638191029 0 -0.1105153895608678 -0.25339734111102152 0 -0.1025099633958301 -0.26612277707413229 0 -0.087759407172459197 -0.2608475638191029 0 -0.1105153895608678 -0.25339734111102152 0 -0.087759407172459197 -0.2608475638191029 0 -0.09705988669290827 -0.2447604411065635 0 -0.12823242419176009 -0.26476965903806182 0 -0.1105153895608678 -0.25339734111102152 0 -0.1160504991985679 -0.27098422157027813 0 -0.12823242419176009 -0.26476965903806182 0 -0.1105153895608678 -0.25339734111102152 0 -0.1256374789938742 -0.24844642613119489 0 -0.12823242419176009 -0.26476965903806182 0 -0.1105153895608678 -0.25339734111102152 0 -0.1105153895608678 -0.25339734111102152 0 -0.1160504991985679 -0.27098422157027813 0 -0.1025099633958301 -0.26612277707413229 0 -0.1105153895608678 -0.25339734111102152 0 -0.1256374789938742 -0.24844642613119489 0 -0.1307481738369865 -0.27403809250692351 0 -0.1160504991985679 -0.27098422157027813 0 -0.12359146238341299 -0.28422310450607252 0 -0.1160504991985679 -0.27098422157027813 0 -0.1106040718499568 -0.28391899221331429 0 -0.12359146238341299 -0.28422310450607252 0 -0.1160504991985679 -0.27098422157027813 0 -0.1046247261512725 -0.27398172900363021 0 -0.1106040718499568 -0.28391899221331429 0 -0.1046247261512725 -0.27398172900363021 0 -0.097903765686654126 -0.28297961449409959 0 -0.1106040718499568 -0.28391899221331429 0 -0.1160504991985679 -0.27098422157027813 0 -0.1046247261512725 -0.27398172900363021 0 -0.1025099633958301 -0.26612277707413229 0 -0.1046247261512725 -0.27398172900363021 0 -0.1025099633958301 -0.26612277707413229 0 -0.093599794895983537 -0.2714030298666304 0 -0.1025099633958301 -0.26612277707413229 0 -0.093599794895983537 -0.2714030298666304 0 -0.087759407172459197 -0.2608475638191029 0 -0.1046247261512725 -0.27398172900363021 0 -0.097903765686654126 -0.28297961449409959 0 -0.093599794895983537 -0.2714030298666304 0 -0.097903765686654126 -0.28297961449409959 0 -0.10452344652868641 -0.29498392660241968 0 -0.089417383516437382 -0.2937174298470645 0 -0.097903765686654126 -0.28297961449409959 0 -0.10452344652868641 -0.29498392660241968 0 -0.1106040718499568 -0.28391899221331429 0 -0.1106040718499568 -0.28391899221331429 0 -0.12359146238341299 -0.28422310450607252 0 -0.117692312509295 -0.29545967864920092 0 -0.13075253367692929 -0.29484197363606079 0 -0.12359146238341299 -0.28422310450607252 0 -0.117692312509295 -0.29545967864920092 0 -0.10452344652868641 -0.29498392660241968 0 -0.1106040718499568 -0.28391899221331429 0 -0.117692312509295 -0.29545967864920092 0 -0.10452344652868641 -0.29498392660241968 0 -0.117692312509295 -0.29545967864920092 0 -0.1119275190719555 -0.30685784446050007 0 -0.12503158749823881 -0.30736947604579151 0 -0.117692312509295 -0.29545967864920092 0 -0.1119275190719555 -0.30685784446050007 0 -0.12503158749823881 -0.30736947604579151 0 -0.13075253367692929 -0.29484197363606079 0 -0.117692312509295 -0.29545967864920092 0 -0.12503158749823881 -0.30736947604579151 0 -0.1172816331326734 -0.31675409069922122 0 -0.1119275190719555 -0.30685784446050007 0 -0.1061984823415936 -0.31847871445977349 0 -0.1119275190719555 -0.30685784446050007 0 -0.099256368269099435 -0.30706786022982108 0 -0.10452344652868641 -0.29498392660241968 0 -0.1119275190719555 -0.30685784446050007 0 -0.099256368269099435 -0.30706786022982108 0 -0.10452344652868641 -0.29498392660241968 0 -0.099256368269099435 -0.30706786022982108 0 -0.089417383516437382 -0.2937174298470645 0 -0.099256368269099435 -0.30706786022982108 0 -0.085680520663388909 -0.30885321334369942 0 -0.089417383516437382 -0.2937174298470645 0 -0.085680520663388909 -0.30885321334369942 0 -0.078118963539133335 -0.29969009736414309 0 -0.089417383516437382 -0.2937174298470645 0 -0.085680520663388909 -0.30885321334369942 0 -0.071430098160109215 -0.30837053548217058 0 -0.078118963539133335 -0.29969009736414309 0 -0.065955255564210488 -0.31974756779347557 0 -0.071430098160109215 -0.30837053548217058 0 -0.05897968303158261 -0.30627103375100262 0 -0.071430098160109215 -0.30837053548217058 0 -0.066720930343502155 -0.29534830686189451 0 -0.05897968303158261 -0.30627103375100262 0 -0.071430098160109215 -0.30837053548217058 0 -0.078118963539133335 -0.29969009736414309 0 -0.066720930343502155 -0.29534830686189451 0 -0.077104847701221307 -0.28906445800045111 0 -0.066720930343502155 -0.29534830686189451 0 -0.066453894327969304 -0.27649530972097519 0 -0.077104847701221307 -0.28906445800045111 0 -0.084785424885600175 -0.27971603803324291 0 -0.066453894327969304 -0.27649530972097519 0 -0.078118963539133335 -0.29969009736414309 0 -0.077104847701221307 -0.28906445800045111 0 -0.066720930343502155 -0.29534830686189451 0 -0.077104847701221307 -0.28906445800045111 0 -0.089417383516437382 -0.2937174298470645 0 -0.084785424885600175 -0.27971603803324291 0 -0.078118963539133335 -0.29969009736414309 0 -0.077104847701221307 -0.28906445800045111 0 -0.089417383516437382 -0.2937174298470645 0 -0.097903765686654126 -0.28297961449409959 0 -0.089417383516437382 -0.2937174298470645 0 -0.084785424885600175 -0.27971603803324291 0 -0.08444768764779062 -0.26922040892819288 0 -0.084785424885600175 -0.27971603803324291 0 -0.066453894327969304 -0.27649530972097519 0 -0.093599794895983537 -0.2714030298666304 0 -0.08444768764779062 -0.26922040892819288 0 -0.084785424885600175 -0.27971603803324291 0 -0.097903765686654126 -0.28297961449409959 0 -0.093599794895983537 -0.2714030298666304 0 -0.084785424885600175 -0.27971603803324291 0 -0.093599794895983537 -0.2714030298666304 0 -0.08444768764779062 -0.26922040892819288 0 -0.087759407172459197 -0.2608475638191029 0 -0.066453894327969304 -0.27649530972097519 0 -0.067673827187866659 -0.26235881168440578 0 -0.081756890510438801 -0.26062787541376942 0 -0.08444768764779062 -0.26922040892819288 0 -0.066453894327969304 -0.27649530972097519 0 -0.081756890510438801 -0.26062787541376942 0 -0.066453894327969304 -0.27649530972097519 0 -0.081756890510438801 -0.26062787541376942 0 -0.066453894327969304 -0.27649530972097519 0 -0.067673827187866659 -0.26235881168440578 0 -0.056235642213330009 -0.26435915802673349 0 -0.067673827187866659 -0.26235881168440578 0 -0.072789019009103853 -0.25402102884560251 0 -0.081756890510438801 -0.26062787541376942 0 -0.067673827187866659 -0.26235881168440578 0 -0.072789019009103853 -0.25402102884560251 0 -0.060287390876407651 -0.25133684897494479 0 -0.072789019009103853 -0.25402102884560251 0 -0.060287390876407651 -0.25133684897494479 0 -0.070744537017569914 -0.24472996084968571 0 -0.081756890510438801 -0.26062787541376942 0 -0.09705988669290827 -0.2447604411065635 0 -0.081756890510438801 -0.26062787541376942 0 -0.087759407172459197 -0.2608475638191029 0 -0.09705988669290827 -0.2447604411065635 0 -0.081756890510438801 -0.26062787541376942 0 -0.081032974515675441 -0.24752362611133041 0 -0.09705988669290827 -0.2447604411065635 0 -0.072789019009103853 -0.25402102884560251 0 -0.081756890510438801 -0.26062787541376942 0 -0.081032974515675441 -0.24752362611133041 0 -0.08444768764779062 -0.26922040892819288 0 -0.081756890510438801 -0.26062787541376942 0 -0.087759407172459197 -0.2608475638191029 0 -0.042026808752372059 -0.25650392078784667 0 -0.044206338089811788 -0.27420986112915469 0 -0.02184199476426819 -0.26581576256220479 0 -0.042026808752372059 -0.25650392078784667 0 -0.056235642213330009 -0.26435915802673349 0 -0.044206338089811788 -0.27420986112915469 0 -0.042026808752372059 -0.25650392078784667 0 -0.060287390876407651 -0.25133684897494479 0 -0.056235642213330009 -0.26435915802673349 0 -0.067673827187866659 -0.26235881168440578 0 -0.060287390876407651 -0.25133684897494479 0 -0.056235642213330009 -0.26435915802673349 0 -0.066453894327969304 -0.27649530972097519 0 -0.056235642213330009 -0.26435915802673349 0 -0.044206338089811788 -0.27420986112915469 0 -0.066453894327969304 -0.27649530972097519 0 -0.044206338089811788 -0.27420986112915469 0 -0.051150898145499633 -0.29236274402818091 0 -0.051150898145499633 -0.29236274402818091 0 -0.034557618970873991 -0.29761126436405139 0 -0.02696330970440319 -0.28772475971520178 0 -0.044206338089811788 -0.27420986112915469 0 -0.051150898145499633 -0.29236274402818091 0 -0.02696330970440319 -0.28772475971520178 0 -0.051150898145499633 -0.29236274402818091 0 -0.02696330970440319 -0.28772475971520178 0 -0.066720930343502155 -0.29534830686189451 0 -0.066453894327969304 -0.27649530972097519 0 -0.051150898145499633 -0.29236274402818091 0 -0.066453894327969304 -0.27649530972097519 0 -0.051150898145499633 -0.29236274402818091 0 -0.066720930343502155 -0.29534830686189451 0 -0.051150898145499633 -0.29236274402818091 0 -0.051150898145499633 -0.29236274402818091 0 -0.05897968303158261 -0.30627103375100262 0 -0.048547497525834073 -0.30707152581963498 0 -0.066720930343502155 -0.29534830686189451 0 -0.051150898145499633 -0.29236274402818091 0 -0.05897968303158261 -0.30627103375100262 0 -0.05897968303158261 -0.30627103375100262 0 -0.048547497525834073 -0.30707152581963498 0 -0.051712642505900533 -0.31760150100854367 0 -0.051150898145499633 -0.29236274402818091 0 -0.034557618970873991 -0.29761126436405139 0 -0.038537509514155993 -0.30544136687514872 0 -0.048547497525834073 -0.30707152581963498 0 -0.038537509514155993 -0.30544136687514872 0 -0.042356754432031643 -0.31368098343529921 0 -0.051150898145499633 -0.29236274402818091 0 -0.048547497525834073 -0.30707152581963498 0 -0.038537509514155993 -0.30544136687514872 0 -0.051150898145499633 -0.29236274402818091 0 -0.038537509514155993 -0.30544136687514872 0 -0.034557618970873991 -0.29761126436405139 0 -0.038537509514155993 -0.30544136687514872 0 -0.02574683581776813 -0.30572734774819532 0 -0.038537509514155993 -0.30544136687514872 0 -0.025924120882812152 -0.31851998972211648 0 -0.034557618970873991 -0.29761126436405139 0 -0.02574683581776813 -0.30572734774819532 0 -0.02696330970440319 -0.28772475971520178 0 -0.02574683581776813 -0.30572734774819532 0 -0.012483123360595341 -0.30316645982629731 0 -0.02696330970440319 -0.28772475971520178 0 -0.038537509514155993 -0.30544136687514872 0 -0.02574683581776813 -0.30572734774819532 0 -0.025924120882812152 -0.31851998972211648 0 -0.02574683581776813 -0.30572734774819532 0 -0.019831203454446261 -0.31189436917012298 0 -0.025924120882812152 -0.31851998972211648 0 -0.02574683581776813 -0.30572734774819532 0 -0.019831203454446261 -0.31189436917012298 0 -0.012483123360595341 -0.30316645982629731 0 -0.012483123360595341 -0.30316645982629731 0 -0.01272626803839569 -0.31664545359503898 0 0.001188009823060373 -0.31679446608462342 0 -0.019831203454446261 -0.31189436917012298 0 -0.012483123360595341 -0.30316645982629731 0 -0.01272626803839569 -0.31664545359503898 0 -0.012483123360595341 -0.30316645982629731 0 0.001188009823060373 -0.31679446608462342 0 0.001763373636564664 -0.30168821179745692 0 -0.012483123360595341 -0.30316645982629731 0 -0.0027757212633066561 -0.28308677540222332 0 -0.02696330970440319 -0.28772475971520178 0 -0.012483123360595341 -0.30316645982629731 0 -0.0027757212633066561 -0.28308677540222332 0 0.001763373636564664 -0.30168821179745692 0 -0.0027757212633066561 -0.28308677540222332 0 -0.02696330970440319 -0.28772475971520178 0 -0.0027757212633066561 -0.28308677540222332 0 -0.02696330970440319 -0.28772475971520178 0 -0.02184199476426819 -0.26581576256220479 0 -0.044206338089811788 -0.27420986112915469 0 -0.02696330970440319 -0.28772475971520178 0 -0.02184199476426819 -0.26581576256220479 0 -0.0027757212633066561 -0.28308677540222332 0 -0.02184199476426819 -0.26581576256220479 0 -0.004277733196565655 -0.26493900554078142 0 -0.02184199476426819 -0.26581576256220479 0 -0.004277733196565655 -0.26493900554078142 0 -0.0051000949063709604 -0.24904007175921131 0 -0.02184199476426819 -0.26581576256220479 0 -0.025592378059952299 -0.24506867592519291 0 -0.0051000949063709604 -0.24904007175921131 0 -0.042026808752372059 -0.25650392078784667 0 -0.02184199476426819 -0.26581576256220479 0 -0.025592378059952299 -0.24506867592519291 0 -0.04070808755149008 -0.3455268111414157 0 -0.045506292153824318 -0.3714722803078182 0 -0.02343893413863065 -0.35776038871446708 0 -0.04070808755149008 -0.3455268111414157 0 -0.045506292153824318 -0.3714722803078182 0 -0.045506292153824318 -0.3714722803078182 0 -0.02343893413863065 -0.35776038871446708 0 -0.02777626965012878 -0.38157686391723172 0 -0.045506292153824318 -0.3714722803078182 0 -0.057907758400439088 -0.35844599080080081 0 -0.059558098740140203 -0.38229003133793538 0 -0.069931982276473736 -0.34590679381943151 0 -0.057907758400439088 -0.35844599080080081 0 -0.05624408354507824 -0.34237464386809818 0 -0.04070808755149008 -0.3455268111414157 0 -0.045506292153824318 -0.3714722803078182 0 -0.057907758400439088 -0.35844599080080081 0 -0.04070808755149008 -0.3455268111414157 0 -0.057907758400439088 -0.35844599080080081 0 -0.05624408354507824 -0.34237464386809818 0 -0.05624408354507824 -0.34237464386809818 0 -0.061764982331378088 -0.33088257569349078 0 -0.050907607165610207 -0.33111104788535239 0 -0.04070808755149008 -0.3455268111414157 0 -0.05624408354507824 -0.34237464386809818 0 -0.050907607165610207 -0.33111104788535239 0 -0.065955255564210488 -0.31974756779347557 0 -0.05897968303158261 -0.30627103375100262 0 -0.051712642505900533 -0.31760150100854367 0 -0.065955255564210488 -0.31974756779347557 0 -0.061764982331378088 -0.33088257569349078 0 -0.051712642505900533 -0.31760150100854367 0 -0.061764982331378088 -0.33088257569349078 0 -0.050907607165610207 -0.33111104788535239 0 -0.051712642505900533 -0.31760150100854367 0 -0.050907607165610207 -0.33111104788535239 0 -0.051712642505900533 -0.31760150100854367 0 -0.044081952770764023 -0.32621753515153828 0 -0.048547497525834073 -0.30707152581963498 0 -0.051712642505900533 -0.31760150100854367 0 -0.042356754432031643 -0.31368098343529921 0 -0.051712642505900533 -0.31760150100854367 0 -0.042356754432031643 -0.31368098343529921 0 -0.04351530816446271 -0.31927034039259872 0 -0.042356754432031643 -0.31368098343529921 0 -0.04351530816446271 -0.31927034039259872 0 -0.035909882949154683 -0.31958134197501342 0 -0.042356754432031643 -0.31368098343529921 0 -0.035909882949154683 -0.31958134197501342 0 -0.051712642505900533 -0.31760150100854367 0 -0.04351530816446271 -0.31927034039259872 0 -0.044081952770764023 -0.32621753515153828 0 -0.04351530816446271 -0.31927034039259872 0 -0.044081952770764023 -0.32621753515153828 0 -0.035909882949154683 -0.31958134197501342 0 -0.038537509514155993 -0.30544136687514872 0 -0.035909882949154683 -0.31958134197501342 0 -0.025924120882812152 -0.31851998972211648 0 -0.038537509514155993 -0.30544136687514872 0 -0.042356754432031643 -0.31368098343529921 0 -0.035909882949154683 -0.31958134197501342 0 -0.04070808755149008 -0.3455268111414157 0 -0.035909882949154683 -0.31958134197501342 0 -0.04070808755149008 -0.3455268111414157 0 -0.044081952770764023 -0.32621753515153828 0 -0.035909882949154683 -0.31958134197501342 0 -0.04070808755149008 -0.3455268111414157 0 -0.050907607165610207 -0.33111104788535239 0 -0.044081952770764023 -0.32621753515153828 0 -0.04070808755149008 -0.3455268111414157 0 -0.035909882949154683 -0.31958134197501342 0 -0.015728948096967881 -0.33805150251889271 0 -0.035909882949154683 -0.31958134197501342 0 -0.015728948096967881 -0.33805150251889271 0 -0.035909882949154683 -0.31958134197501342 0 -0.025924120882812152 -0.31851998972211648 0 -0.01860335240479765 -0.32530509371887423 0 -0.035909882949154683 -0.31958134197501342 0 -0.015728948096967881 -0.33805150251889271 0 -0.01860335240479765 -0.32530509371887423 0 -0.019831203454446261 -0.31189436917012298 0 -0.025924120882812152 -0.31851998972211648 0 -0.01272626803839569 -0.31664545359503898 0 -0.025924120882812152 -0.31851998972211648 0 -0.01860335240479765 -0.32530509371887423 0 -0.01272626803839569 -0.31664545359503898 0 -0.01860335240479765 -0.32530509371887423 0 -0.01272626803839569 -0.31664545359503898 0 -0.0045930383722408126 -0.33106057767172498 0 -0.01272626803839569 -0.31664545359503898 0 -0.0045930383722408126 -0.33106057767172498 0 0.001188009823060373 -0.31679446608462342 0 -0.015728948096967881 -0.33805150251889271 0 -0.0045930383722408126 -0.33106057767172498 0 0.0044519867552184986 -0.35652166306277228 0 -0.015728948096967881 -0.33805150251889271 0 -0.01860335240479765 -0.32530509371887423 0 -0.0045930383722408126 -0.33106057767172498 0 -0.015728948096967881 -0.33805150251889271 0 -0.02343893413863065 -0.35776038871446708 0 0.0044519867552184986 -0.35652166306277228 0 -0.015728948096967881 -0.33805150251889271 0 0.0044519867552184986 -0.35652166306277228 0 -0.04070808755149008 -0.3455268111414157 0 -0.015728948096967881 -0.33805150251889271 0 -0.02343893413863065 -0.35776038871446708 0 -0.02343893413863065 -0.35776038871446708 0 -0.01093809997968195 -0.37283680164300359 0 -0.02777626965012878 -0.38157686391723172 0 -0.02343893413863065 -0.35776038871446708 0 -0.01093809997968195 -0.37283680164300359 0 0.0044519867552184986 -0.35652166306277228 0 -0.01093809997968195 -0.37283680164300359 0 0.0064026000298581494 -0.37540694283770731 0 0.0044519867552184986 -0.35652166306277228 0 -0.01093809997968195 -0.37283680164300359 0 -0.01144646081429648 -0.38965261029225212 0 0.0064026000298581494 -0.37540694283770731 0 -0.01144646081429648 -0.38965261029225212 0 -0.0044247763618271959 -0.40210583404303157 0 0.0080942134445603012 -0.39208442404542598 0 -0.01144646081429648 -0.38965261029225212 0 -0.0044247763618271959 -0.40210583404303157 0 -0.01710367802760155 -0.40301580213111893 0 -0.0044247763618271959 -0.40210583404303157 0 -0.01710367802760155 -0.40301580213111893 0 -0.012388965574141561 -0.41276714995159541 0 -0.01144646081429648 -0.38965261029225212 0 -0.01710367802760155 -0.40301580213111893 0 -0.028084811164621009 -0.39617312014143741 0 -0.01710367802760155 -0.40301580213111893 0 -0.028084811164621009 -0.39617312014143741 0 -0.02726719528579237 -0.410951399692008 0 -0.028084811164621009 -0.39617312014143741 0 -0.036229685178518628 -0.40419127176874398 0 -0.02726719528579237 -0.410951399692008 0 -0.01093809997968195 -0.37283680164300359 0 -0.01144646081429648 -0.38965261029225212 0 -0.02777626965012878 -0.38157686391723172 0 -0.01144646081429648 -0.38965261029225212 0 -0.028084811164621009 -0.39617312014143741 0 -0.02777626965012878 -0.38157686391723172 0 -0.045506292153824318 -0.3714722803078182 0 -0.02777626965012878 -0.38157686391723172 0 -0.038875225238912917 -0.3923080832048399 0 -0.045506292153824318 -0.3714722803078182 0 -0.038875225238912917 -0.3923080832048399 0 -0.050304496756158557 -0.39741774947422071 0 -0.028084811164621009 -0.39617312014143741 0 -0.02777626965012878 -0.38157686391723172 0 -0.038875225238912917 -0.3923080832048399 0 -0.028084811164621009 -0.39617312014143741 0 -0.038875225238912917 -0.3923080832048399 0 -0.036229685178518628 -0.40419127176874398 0 -0.038875225238912917 -0.3923080832048399 0 -0.036229685178518628 -0.40419127176874398 0 -0.044412262815348998 -0.40346229295421809 0 -0.038875225238912917 -0.3923080832048399 0 -0.044412262815348998 -0.40346229295421809 0 -0.050304496756158557 -0.39741774947422071 0 -0.050304496756158557 -0.39741774947422071 0 -0.062217478172525001 -0.39810174233680562 0 -0.059558098740140203 -0.38229003133793538 0 -0.044412262815348998 -0.40346229295421809 0 -0.050304496756158557 -0.39741774947422071 0 -0.054240320286617169 -0.40697597044555123 0 -0.050304496756158557 -0.39741774947422071 0 -0.062217478172525001 -0.39810174233680562 0 -0.054240320286617169 -0.40697597044555123 0 -0.045506292153824318 -0.3714722803078182 0 -0.050304496756158557 -0.39741774947422071 0 -0.059558098740140203 -0.38229003133793538 0 -0.045506292153824318 -0.3714722803078182 0 -0.050304496756158557 -0.39741774947422071 0 -0.055252489543441627 -0.42857941618436851 0 -0.054240320286617169 -0.40697597044555123 0 -0.043896170468719568 -0.41188776477391809 0 -0.044412262815348998 -0.40346229295421809 0 -0.054240320286617169 -0.40697597044555123 0 -0.043896170468719568 -0.41188776477391809 0 -0.055252489543441627 -0.42857941618436851 0 -0.043896170468719568 -0.41188776477391809 0 -0.037538344247344743 -0.42043829821143242 0 -0.036229685178518628 -0.40419127176874398 0 -0.043896170468719568 -0.41188776477391809 0 -0.037538344247344743 -0.42043829821143242 0 -0.036229685178518628 -0.40419127176874398 0 -0.037538344247344743 -0.42043829821143242 0 -0.02726719528579237 -0.410951399692008 0 -0.036229685178518628 -0.40419127176874398 0 -0.044412262815348998 -0.40346229295421809 0 -0.043896170468719568 -0.41188776477391809 0 -0.037538344247344743 -0.42043829821143242 0 -0.023208474533214351 -0.42181107664125927 0 -0.040046395363513183 -0.44534938777150318 0 -0.055252489543441627 -0.42857941618436851 0 -0.037538344247344743 -0.42043829821143242 0 -0.040046395363513183 -0.44534938777150318 0 -0.016102167650640681 -0.43168673471437841 0 -0.023208474533214351 -0.42181107664125927 0 -0.040046395363513183 -0.44534938777150318 0 -0.016102167650640681 -0.43168673471437841 0 -0.023208474533214351 -0.42181107664125927 0 -0.0094045113196971203 -0.42203335140464909 0 -0.037538344247344743 -0.42043829821143242 0 -0.02726719528579237 -0.410951399692008 0 -0.023208474533214351 -0.42181107664125927 0 -0.02726719528579237 -0.410951399692008 0 -0.023208474533214351 -0.42181107664125927 0 -0.012388965574141561 -0.41276714995159541 0 -0.01710367802760155 -0.40301580213111893 0 -0.02726719528579237 -0.410951399692008 0 -0.012388965574141561 -0.41276714995159541 0 -0.0044247763618271959 -0.40210583404303157 0 -0.012388965574141561 -0.41276714995159541 0 0.0088083015437354986 -0.41419546350435121 0 -0.012388965574141561 -0.41276714995159541 0 -0.0094045113196971203 -0.42203335140464909 0 0.0088083015437354986 -0.41419546350435121 0 -0.023208474533214351 -0.42181107664125927 0 -0.012388965574141561 -0.41276714995159541 0 -0.0094045113196971203 -0.42203335140464909 0 -0.0094045113196971203 -0.42203335140464909 0 -0.0041312503842245059 -0.42970633221166138 0 0.0088083015437354986 -0.41419546350435121 0 -0.016102167650640681 -0.43168673471437841 0 -0.0041312503842245059 -0.42970633221166138 0 -0.0078647318234790174 -0.44430903528408688 0 -0.016102167650640681 -0.43168673471437841 0 -0.0094045113196971203 -0.42203335140464909 0 -0.0041312503842245059 -0.42970633221166138 0 -0.0041312503842245059 -0.42970633221166138 0 -0.0078647318234790174 -0.44430903528408688 0 0.0097483964575000772 -0.44330458289357078 0 -0.0078647318234790174 -0.44430903528408688 0 -0.01246189318989015 -0.46010874199320551 0 -0.040046395363513183 -0.44534938777150318 0 -0.016102167650640681 -0.43168673471437841 0 -0.0078647318234790174 -0.44430903528408688 0 -0.040046395363513183 -0.44534938777150318 0 -0.0078647318234790174 -0.44430903528408688 0 -0.01246189318989015 -0.46010874199320551 0 0.0097483964575000772 -0.44330458289357078 0 -0.01246189318989015 -0.46010874199320551 0 -0.037141729811762142 -0.47427331688457908 0 -0.040046395363513183 -0.44534938777150318 0 -0.016102167650640681 -0.43168673471437841 0 -0.040046395363513183 -0.44534938777150318 0 -0.01102378916454722 -0.48135915223211512 0 -0.022293173664932438 -0.5 0 0.0060893594725853761 -0.5 0 -0.01246189318989015 -0.46010874199320551 0 -0.01102378916454722 -0.48135915223211512 0 0.010688491371263259 -0.47241370228279062 0 -0.01246189318989015 -0.46010874199320551 0 -0.01102378916454722 -0.48135915223211512 0 -0.037141729811762142 -0.47427331688457908 0 -0.01102378916454722 -0.48135915223211512 0 -0.022293173664932438 -0.5 0 -0.037141729811762142 -0.47427331688457908 0 -0.022293173664932438 -0.5 0 -0.037141729811762142 -0.47427331688457908 0 -0.05067570680245026 -0.5 0 -0.037141729811762142 -0.47427331688457908 0 -0.06399062307638563 -0.45901204082862801 0 -0.064866973371209211 -0.48195337399134291 0 -0.037141729811762142 -0.47427331688457908 0 -0.05067570680245026 -0.5 0 -0.064866973371209211 -0.48195337399134291 0 -0.037141729811762142 -0.47427331688457908 0 -0.040046395363513183 -0.44534938777150318 0 -0.06399062307638563 -0.45901204082862801 0 -0.055252489543441627 -0.42857941618436851 0 -0.040046395363513183 -0.44534938777150318 0 -0.06399062307638563 -0.45901204082862801 0 -0.040046395363513183 -0.44534938777150318 0 -0.06399062307638563 -0.45901204082862801 0 -0.055252489543441627 -0.42857941618436851 0 -0.06399062307638563 -0.45901204082862801 0 -0.076089824969113554 -0.43523559958414121 0 -0.06399062307638563 -0.45901204082862801 0 -0.092237016813342732 -0.44833318888615448 0 -0.076089824969113554 -0.43523559958414121 0 -0.06399062307638563 -0.45901204082862801 0 -0.087934850789258112 -0.47267469388575278 0 -0.06399062307638563 -0.45901204082862801 0 -0.092237016813342732 -0.44833318888615448 0 -0.087934850789258112 -0.47267469388575278 0 -0.05067570680245026 -0.5 0 -0.064866973371209211 -0.48195337399134291 0 -0.079058239939968133 -0.5 0 -0.064866973371209211 -0.48195337399134291 0 -0.087934850789258112 -0.47267469388575278 0 -0.079058239939968133 -0.5 0 -0.06399062307638563 -0.45901204082862801 0 -0.064866973371209211 -0.48195337399134291 0 -0.087934850789258112 -0.47267469388575278 0 -0.087934850789258112 -0.47267469388575278 0 -0.079058239939968133 -0.5 0 -0.094855214419160408 -0.48835937102396187 0 -0.094855214419160408 -0.48835937102396187 0 -0.1074407730774859 -0.5 0 -0.11187907850213059 -0.48633734694287761 0 -0.079058239939968133 -0.5 0 -0.094855214419160408 -0.48835937102396187 0 -0.1074407730774859 -0.5 0 -0.087934850789258112 -0.47267469388575278 0 -0.094855214419160408 -0.48835937102396187 0 -0.11187907850213059 -0.48633734694287761 0 -0.087934850789258112 -0.47267469388575278 0 -0.1167821702630303 -0.47221952753896201 0 -0.11187907850213059 -0.48633734694287761 0 -0.087934850789258112 -0.47267469388575278 0 -0.11187907850213059 -0.48633734694287761 0 -0.1293766113236772 -0.48014750738932882 0 -0.1167821702630303 -0.47221952753896201 0 -0.11187907850213059 -0.48633734694287761 0 -0.13582330621500369 -0.50000000000000133 0 -0.1074407730774859 -0.5 0 -0.11187907850213059 -0.48633734694287761 0 -0.13582330621500369 -0.50000000000000133 0 -0.11187907850213059 -0.48633734694287761 0 -0.092237016813342732 -0.44833318888615448 0 -0.1137300868818453 -0.45698610709671322 0 -0.1121293247932508 -0.44136068716438448 0 -0.092237016813342732 -0.44833318888615448 0 -0.1121293247932508 -0.44136068716438448 0 -0.10313310112623079 -0.42539130561732658 0 -0.092237016813342732 -0.44833318888615448 0 -0.087934850789258112 -0.47267469388575278 0 -0.1137300868818453 -0.45698610709671322 0 -0.087934850789258112 -0.47267469388575278 0 -0.1167821702630303 -0.47221952753896201 0 -0.1137300868818453 -0.45698610709671322 0 -0.140701246644762 -0.46197707408921651 0 -0.1167821702630303 -0.47221952753896201 0 -0.1137300868818453 -0.45698610709671322 0 -0.13687428941648 -0.44697771242112311 0 -0.1137300868818453 -0.45698610709671322 0 -0.1121293247932508 -0.44136068716438448 0 -0.1275794915460377 -0.43459897320321428 0 -0.10313310112623079 -0.42539130561732658 0 -0.1275794915460377 -0.43459897320321428 0 -0.10313310112623079 -0.42539130561732658 0 -0.12406128666458791 -0.41417451903708208 0 -0.1275794915460377 -0.43459897320321428 0 -0.1121293247932508 -0.44136068716438448 0 -0.10313310112623079 -0.42539130561732658 0 -0.10313310112623079 -0.42539130561732658 0 -0.10917971455047901 -0.40516453855504658 0 -0.091174183645089141 -0.40120147908914588 0 -0.10313310112623079 -0.42539130561732658 0 -0.12406128666458791 -0.41417451903708208 0 -0.10917971455047901 -0.40516453855504658 0 -0.12406128666458791 -0.41417451903708208 0 -0.120168383304424 -0.39790384746952079 0 -0.10917971455047901 -0.40516453855504658 0 -0.120168383304424 -0.39790384746952079 0 -0.099566998186406103 -0.38390936876072018 0 -0.10917971455047901 -0.40516453855504658 0 -0.12574156104363851 -0.38471241379117399 0 -0.120168383304424 -0.39790384746952079 0 -0.099566998186406103 -0.38390936876072018 0 -0.12574156104363851 -0.38471241379117399 0 -0.1176685696660914 -0.3701963829529975 0 -0.099566998186406103 -0.38390936876072018 0 -0.12574156104363851 -0.38471241379117399 0 -0.099566998186406103 -0.38390936876072018 0 -0.12574156104363851 -0.38471241379117399 0 -0.1176685696660914 -0.3701963829529975 0 -0.099566998186406103 -0.38390936876072018 0 -0.10917971455047901 -0.40516453855504658 0 -0.091174183645089141 -0.40120147908914588 0 -0.091174183645089141 -0.40120147908914588 0 -0.083095724847322833 -0.38112414360487912 0 -0.07495773594662844 -0.39563125278316269 0 -0.091174183645089141 -0.40120147908914588 0 -0.07495773594662844 -0.39563125278316269 0 -0.078686710706423996 -0.41618363803143887 0 -0.094573438515278857 -0.36718762158259871 0 -0.099566998186406103 -0.38390936876072018 0 -0.083095724847322833 -0.38112414360487912 0 -0.099566998186406103 -0.38390936876072018 0 -0.091174183645089141 -0.40120147908914588 0 -0.083095724847322833 -0.38112414360487912 0 -0.076349106250201443 -0.36492583540835 0 -0.059558098740140203 -0.38229003133793538 0 -0.083095724847322833 -0.38112414360487912 0 -0.059558098740140203 -0.38229003133793538 0 -0.083095724847322833 -0.38112414360487912 0 -0.07495773594662844 -0.39563125278316269 0 -0.062217478172525001 -0.39810174233680562 0 -0.059558098740140203 -0.38229003133793538 0 -0.07495773594662844 -0.39563125278316269 0 -0.062217478172525001 -0.39810174233680562 0 -0.07495773594662844 -0.39563125278316269 0 -0.078686710706423996 -0.41618363803143887 0 -0.055252489543441627 -0.42857941618436851 0 -0.054240320286617169 -0.40697597044555123 0 -0.078686710706423996 -0.41618363803143887 0 -0.054240320286617169 -0.40697597044555123 0 -0.078686710706423996 -0.41618363803143887 0 -0.062217478172525001 -0.39810174233680562 0 -0.054240320286617169 -0.40697597044555123 0 -0.078686710706423996 -0.41618363803143887 0 -0.055252489543441627 -0.42857941618436851 0 -0.076089824969113554 -0.43523559958414121 0 -0.078686710706423996 -0.41618363803143887 0 -0.092237016813342732 -0.44833318888615448 0 -0.10313310112623079 -0.42539130561732658 0 -0.076089824969113554 -0.43523559958414121 0 -0.10313310112623079 -0.42539130561732658 0 -0.076089824969113554 -0.43523559958414121 0 -0.078686710706423996 -0.41618363803143887 0 -0.10313310112623079 -0.42539130561732658 0 -0.091174183645089141 -0.40120147908914588 0 -0.078686710706423996 -0.41618363803143887 0 -0.10313310112623079 -0.42539130561732658 0 -0.078686710706423996 -0.41618363803143887 0 -0.092070558271500458 -0.092252812899217718 0 -0.073382457360773048 -0.089661555571584006 0 -0.074427988003969686 -0.098494786978702065 0 -0.078534428219856456 -0.080523982241592934 0 -0.092070558271500458 -0.092252812899217718 0 -0.090497633409606926 -0.076007406581586251 0 -0.078534428219856456 -0.080523982241592934 0 -0.092070558271500458 -0.092252812899217718 0 -0.073382457360773048 -0.089661555571584006 0 -0.090497633409606926 -0.076007406581586251 0 -0.076314752164421115 -0.067930699416468898 0 -0.094945221071610061 -0.058977839475723992 0 -0.078534428219856456 -0.080523982241592934 0 -0.090497633409606926 -0.076007406581586251 0 -0.076314752164421115 -0.067930699416468898 0 -0.078534428219856456 -0.080523982241592934 0 -0.076314752164421115 -0.067930699416468898 0 -0.061458332230541167 -0.078076799384588433 0 -0.076314752164421115 -0.067930699416468898 0 -0.059311841392122852 -0.058204020382424303 0 -0.061458332230541167 -0.078076799384588433 0 -0.076314752164421115 -0.067930699416468898 0 -0.059311841392122852 -0.058204020382424303 0 -0.078534428219856456 -0.080523982241592934 0 -0.073382457360773048 -0.089661555571584006 0 -0.061458332230541167 -0.078076799384588433 0 -0.073382457360773048 -0.089661555571584006 0 -0.062994347866618589 -0.096267321243577619 0 -0.061458332230541167 -0.078076799384588433 0 -0.062994347866618589 -0.096267321243577619 0 -0.066310123851165054 -0.1071962411055024 0 -0.074427988003969686 -0.098494786978702065 0 -0.073382457360773048 -0.089661555571584006 0 -0.062994347866618589 -0.096267321243577619 0 -0.074427988003969686 -0.098494786978702065 0 -0.066310123851165054 -0.1071962411055024 0 -0.077382452669789936 -0.1070960040736281 0 -0.074427988003969686 -0.098494786978702065 0 -0.066310123851165054 -0.1071962411055024 0 -0.077382452669789936 -0.1070960040736281 0 -0.072379565881808675 -0.1121517142538033 0 -0.066310123851165054 -0.1071962411055024 0 -0.077382452669789936 -0.1070960040736281 0 -0.066310123851165054 -0.1071962411055024 0 -0.072379565881808675 -0.1121517142538033 0 -0.051501148415266193 -0.1099954633464736 0 -0.072379565881808675 -0.1121517142538033 0 -0.07297822322795508 -0.12274374298397429 0 -0.057734267282363791 -0.12695164644468551 0 -0.072379565881808675 -0.1121517142538033 0 -0.057734267282363791 -0.12695164644468551 0 -0.066310123851165054 -0.1071962411055024 0 -0.072379565881808675 -0.1121517142538033 0 -0.072379565881808675 -0.1121517142538033 0 -0.075728972006863737 -0.1124976293600554 0 -0.07297822322795508 -0.12274374298397429 0 -0.072379565881808675 -0.1121517142538033 0 -0.075728972006863737 -0.1124976293600554 0 -0.077382452669789936 -0.1070960040736281 0 -0.072379565881808675 -0.1121517142538033 0 -0.077382452669789936 -0.1070960040736281 0 -0.072379565881808675 -0.1121517142538033 0 -0.075728972006863737 -0.1124976293600554 0 -0.075728972006863737 -0.1124976293600554 0 -0.086811502990881251 -0.1136421949157618 0 -0.096891039351932648 -0.12440867553159241 0 -0.075728972006863737 -0.1124976293600554 0 -0.096891039351932648 -0.12440867553159241 0 -0.075728972006863737 -0.1124976293600554 0 -0.07297822322795508 -0.12274374298397429 0 -0.096891039351932648 -0.12440867553159241 0 -0.077382452669789936 -0.1070960040736281 0 -0.075728972006863737 -0.1124976293600554 0 -0.086811502990881251 -0.1136421949157618 0 -0.075728972006863737 -0.1124976293600554 0 -0.086811502990881251 -0.1136421949157618 0 -0.077382452669789936 -0.1070960040736281 0 -0.10258951529076279 -0.10686780626801071 0 -0.092070558271500458 -0.092252812899217718 0 -0.077382452669789936 -0.1070960040736281 0 -0.10258951529076279 -0.10686780626801071 0 -0.092070558271500458 -0.092252812899217718 0 -0.077382452669789936 -0.1070960040736281 0 -0.074427988003969686 -0.098494786978702065 0 -0.077382452669789936 -0.1070960040736281 0 -0.086811502990881251 -0.1136421949157618 0 -0.10258951529076279 -0.10686780626801071 0 -0.092070558271500458 -0.092252812899217718 0 -0.077382452669789936 -0.1070960040736281 0 -0.092070558271500458 -0.092252812899217718 0 -0.10258951529076279 -0.10686780626801071 0 -0.1150740629364887 -0.093610598120999491 0 -0.086811502990881251 -0.1136421949157618 0 -0.10258951529076279 -0.10686780626801071 0 -0.096891039351932648 -0.12440867553159241 0 -0.10258951529076279 -0.10686780626801071 0 -0.096891039351932648 -0.12440867553159241 0 -0.11428846205478441 -0.1183327260799749 0 -0.10258951529076279 -0.10686780626801071 0 -0.11428846205478441 -0.1183327260799749 0 -0.12779657791173579 -0.1066396084623952 0 -0.11428846205478441 -0.1183327260799749 0 -0.12779657791173579 -0.1066396084623952 0 -0.12588964361509331 -0.1215411992977304 0 -0.10258951529076279 -0.10686780626801071 0 -0.12779657791173579 -0.1066396084623952 0 -0.10258951529076279 -0.10686780626801071 0 -0.1150740629364887 -0.093610598120999491 0 -0.12779657791173579 -0.1066396084623952 0 -0.1150740629364887 -0.093610598120999491 0 -0.13082166523634511 -0.083010070297341518 0 -0.12779657791173579 -0.1066396084623952 0 -0.1150740629364887 -0.093610598120999491 0 -0.10675866387320999 -0.077409621724806421 0 -0.13082166523634511 -0.083010070297341518 0 -0.092070558271500458 -0.092252812899217718 0 -0.1150740629364887 -0.093610598120999491 0 -0.10675866387320999 -0.077409621724806421 0 -0.092070558271500458 -0.092252812899217718 0 -0.090497633409606926 -0.076007406581586251 0 -0.10675866387320999 -0.077409621724806421 0 -0.092070558271500458 -0.092252812899217718 0 -0.10675866387320999 -0.077409621724806421 0 -0.10675866387320999 -0.077409621724806421 0 -0.121446769474921 -0.062566430550396582 0 -0.094945221071610061 -0.058977839475723992 0 -0.090497633409606926 -0.076007406581586251 0 -0.10675866387320999 -0.077409621724806421 0 -0.094945221071610061 -0.058977839475723992 0 -0.10675866387320999 -0.077409621724806421 0 -0.121446769474921 -0.062566430550396582 0 -0.13082166523634511 -0.083010070297341518 0 -0.10675866387320999 -0.077409621724806421 0 -0.121446769474921 -0.062566430550396582 0 -0.121446769474921 -0.062566430550396582 0 -0.1112717176010572 -0.040377907050010639 0 -0.121446769474921 -0.062566430550396582 0 -0.1112717176010572 -0.040377907050010639 0 -0.13997413210703949 -0.043843445234018119 0 -0.1112717176010572 -0.040377907050010639 0 -0.09051972080605053 -0.0231029296425979 0 -0.081000444796089199 -0.040015308906169438 0 -0.1112717176010572 -0.040377907050010639 0 -0.094945221071610061 -0.058977839475723992 0 -0.081000444796089199 -0.040015308906169438 0 -0.121446769474921 -0.062566430550396582 0 -0.1112717176010572 -0.040377907050010639 0 -0.094945221071610061 -0.058977839475723992 0 -0.1112717176010572 -0.040377907050010639 0 -0.115216914923293 -0.01398412961978371 0 -0.12563345933199019 -0.02887381096411034 0 -0.1112717176010572 -0.040377907050010639 0 -0.115216914923293 -0.01398412961978371 0 -0.09051972080605053 -0.0231029296425979 0 -0.115216914923293 -0.01398412961978371 0 -0.1108539494081503 0.008041496653659528 0 -0.09306177644197873 0.00089356871771194279 0 -0.115216914923293 -0.01398412961978371 0 -0.09051972080605053 -0.0231029296425979 0 -0.09306177644197873 0.00089356871771194279 0 -0.09051972080605053 -0.0231029296425979 0 -0.074188929019844058 -0.012541175696713159 0 -0.09306177644197873 0.00089356871771194279 0 -0.074188929019844058 -0.012541175696713159 0 -0.09306177644197873 0.00089356871771194279 0 -0.074188929019844058 -0.012541175696713159 0 -0.09306177644197873 0.00089356871771194279 0 -0.072501182663271851 0.009803197509418049 0 -0.074188929019844058 -0.012541175696713159 0 -0.068378542054041105 -0.032592625300622423 0 -0.05531608159770933 -0.0259759201111383 0 -0.074188929019844058 -0.012541175696713159 0 -0.05531608159770933 -0.0259759201111383 0 -0.09051972080605053 -0.0231029296425979 0 -0.074188929019844058 -0.012541175696713159 0 -0.068378542054041105 -0.032592625300622423 0 -0.074188929019844058 -0.012541175696713159 0 -0.055515530224721277 -0.0051438872638667667 0 -0.072501182663271851 0.009803197509418049 0 -0.076314752164421115 -0.067930699416468898 0 -0.094945221071610061 -0.058977839475723992 0 -0.075147228039188482 -0.054904494211863032 0 -0.094945221071610061 -0.058977839475723992 0 -0.081000444796089199 -0.040015308906169438 0 -0.075147228039188482 -0.054904494211863032 0 -0.09051972080605053 -0.0231029296425979 0 -0.081000444796089199 -0.040015308906169438 0 -0.068378542054041105 -0.032592625300622423 0 -0.081000444796089199 -0.040015308906169438 0 -0.068378542054041105 -0.032592625300622423 0 -0.068098614272400868 -0.045580340941117993 0 -0.081000444796089199 -0.040015308906169438 0 -0.068098614272400868 -0.045580340941117993 0 -0.075147228039188482 -0.054904494211863032 0 -0.068378542054041105 -0.032592625300622423 0 -0.068098614272400868 -0.045580340941117993 0 -0.056655015080562643 -0.0421852559045107 0 -0.076314752164421115 -0.067930699416468898 0 -0.075147228039188482 -0.054904494211863032 0 -0.059311841392122852 -0.058204020382424303 0 -0.068098614272400868 -0.045580340941117993 0 -0.075147228039188482 -0.054904494211863032 0 -0.059311841392122852 -0.058204020382424303 0 -0.059311841392122852 -0.058204020382424303 0 -0.056655015080562643 -0.0421852559045107 0 -0.042308930619824353 -0.04847734134838011 0 -0.068098614272400868 -0.045580340941117993 0 -0.059311841392122852 -0.058204020382424303 0 -0.056655015080562643 -0.0421852559045107 0 -0.059311841392122852 -0.058204020382424303 0 -0.042308930619824353 -0.04847734134838011 0 -0.05188363142518259 -0.063277070366484389 0 -0.059311841392122852 -0.058204020382424303 0 -0.042308930619824353 -0.04847734134838011 0 -0.042308930619824353 -0.04847734134838011 0 -0.05188363142518259 -0.063277070366484389 0 -0.056655015080562643 -0.0421852559045107 0 -0.047680815368417347 -0.039012295472397818 0 -0.05531608159770933 -0.0259759201111383 0 -0.068378542054041105 -0.032592625300622423 0 -0.056655015080562643 -0.0421852559045107 0 -0.05531608159770933 -0.0259759201111383 0 -0.056655015080562643 -0.0421852559045107 0 -0.047680815368417347 -0.039012295472397818 0 -0.042308930619824353 -0.04847734134838011 0 -0.047680815368417347 -0.039012295472397818 0 -0.036443234175573512 -0.039410664525561911 0 -0.042308930619824353 -0.04847734134838011 0 -0.036443234175573512 -0.039410664525561911 0 -0.042308930619824353 -0.04847734134838011 0 -0.036443234175573512 -0.039410664525561911 0 -0.05531608159770933 -0.0259759201111383 0 -0.047680815368417347 -0.039012295472397818 0 -0.036443234175573512 -0.039410664525561911 0 -0.05531608159770933 -0.0259759201111383 0 -0.036443234175573512 -0.039410664525561911 0 -0.031995005898667737 -0.042577161274070269 0 -0.042308930619824353 -0.04847734134838011 0 -0.031995005898667737 -0.042577161274070269 0 -0.042308930619824353 -0.04847734134838011 0 -0.036443234175573512 -0.039410664525561911 0 -0.031995005898667737 -0.042577161274070269 0 -0.033348594065183472 -0.052175813665237457 0 -0.04091627628828115 -0.059056075696563903 0 -0.042308930619824353 -0.04847734134838011 0 -0.031995005898667737 -0.042577161274070269 0 -0.033348594065183472 -0.052175813665237457 0 -0.042308930619824353 -0.04847734134838011 0 -0.04091627628828115 -0.059056075696563903 0 -0.030364275903002759 -0.061398620925386838 0 -0.042888794566721712 -0.067018379349580132 0 -0.033348594065183472 -0.052175813665237457 0 -0.04091627628828115 -0.059056075696563903 0 -0.030364275903002759 -0.061398620925386838 0 -0.04091627628828115 -0.059056075696563903 0 -0.042308930619824353 -0.04847734134838011 0 -0.05188363142518259 -0.063277070366484389 0 -0.074188929019844058 -0.012541175696713159 0 -0.055515530224721277 -0.0051438872638667667 0 -0.05531608159770933 -0.0259759201111383 0 -0.055515530224721277 -0.0051438872638667667 0 -0.05531608159770933 -0.0259759201111383 0 -0.03948366299473792 -0.02094387762802756 0 -0.036443234175573512 -0.039410664525561911 0 -0.05531608159770933 -0.0259759201111383 0 -0.03948366299473792 -0.02094387762802756 0 -0.036443234175573512 -0.039410664525561911 0 -0.03948366299473792 -0.02094387762802756 0 -0.024176100840593941 -0.020449210494012379 0 -0.03948366299473792 -0.02094387762802756 0 -0.026266818702171939 -0.0053158858329299206 0 -0.038793910950651059 0.0036386104169880821 0 -0.055515530224721277 -0.0051438872638667667 0 -0.03948366299473792 -0.02094387762802756 0 -0.038793910950651059 0.0036386104169880821 0 -0.03948366299473792 -0.02094387762802756 0 -0.026266818702171939 -0.0053158858329299206 0 -0.024176100840593941 -0.020449210494012379 0 -0.024176100840593941 -0.020449210494012379 0 -0.011908967505614459 -0.0014877564624628109 0 -0.024176100840593941 -0.020449210494012379 0 -0.01153684235831297 -0.015177347882599239 0 -0.011908967505614459 -0.0014877564624628109 0 -0.026266818702171939 -0.0053158858329299206 0 -0.024176100840593941 -0.020449210494012379 0 -0.011908967505614459 -0.0014877564624628109 0 -0.036443234175573512 -0.039410664525561911 0 -0.024176100840593941 -0.020449210494012379 0 -0.024176100840593941 -0.020449210494012379 0 -0.01153684235831297 -0.015177347882599239 0 -0.0177832615347411 -0.034447195893846323 0 -0.0035715171708147128 -0.026317230513622 0 -0.01153684235831297 -0.015177347882599239 0 0.0122706565695259 -0.0055741078097889859 0 -0.0035715171708147128 -0.026317230513622 0 -0.01153684235831297 -0.015177347882599239 0 -0.0177832615347411 -0.034447195893846323 0 -0.0035715171708147128 -0.026317230513622 0 -0.0177832615347411 -0.034447195893846323 0 -0.01153684235831297 -0.015177347882599239 0 -0.011908967505614459 -0.0014877564624628109 0 0.0122706565695259 -0.0055741078097889859 0 -0.021626659618925081 -0.049957927893591277 0 -0.010863479942910099 -0.065687671467141814 0 -0.019214674039366102 -0.06483266573679114 0 -0.021626659618925081 -0.049957927893591277 0 -0.030364275903002759 -0.061398620925386838 0 -0.021626659618925081 -0.049957927893591277 0 -0.030364275903002759 -0.061398620925386838 0 -0.019214674039366102 -0.06483266573679114 0 -0.031995005898667737 -0.042577161274070269 0 -0.033348594065183472 -0.052175813665237457 0 -0.021626659618925081 -0.049957927893591277 0 -0.033348594065183472 -0.052175813665237457 0 -0.021626659618925081 -0.049957927893591277 0 -0.030364275903002759 -0.061398620925386838 0 -0.036443234175573512 -0.039410664525561911 0 -0.024176100840593941 -0.020449210494012379 0 -0.0177832615347411 -0.034447195893846323 0 -0.031995005898667737 -0.042577161274070269 0 -0.021626659618925081 -0.049957927893591277 0 -0.0177832615347411 -0.034447195893846323 0 -0.036443234175573512 -0.039410664525561911 0 -0.031995005898667737 -0.042577161274070269 0 -0.0177832615347411 -0.034447195893846323 0 -0.031995005898667737 -0.042577161274070269 0 -0.021626659618925081 -0.049957927893591277 0 -0.031995005898667737 -0.042577161274070269 0 -0.0177832615347411 -0.034447195893846323 0 -0.0035715171708147128 -0.026317230513622 0 -0.021626659618925081 -0.049957927893591277 0 -0.0035715171708147128 -0.026317230513622 0 -0.021626659618925081 -0.049957927893591277 0 -0.0033234267383674778 -0.042950679409621197 0 -0.0035715171708147128 -0.026317230513622 0 -0.0033234267383674778 -0.042950679409621197 0 0.0043718263274121734 -0.036099688687670467 0 -0.0035715171708147128 -0.026317230513622 0 -0.021626659618925081 -0.049957927893591277 0 -0.0177832615347411 -0.034447195893846323 0 -0.0053961341226830706 -0.052251185447431257 0 0.0026901866096132711 -0.050198525173678121 0 0.0026116530460322772 -0.057796347036650757 0 -0.021626659618925081 -0.049957927893591277 0 -0.010863479942910099 -0.065687671467141814 0 0.00054446795576909568 -0.065740571905023568 0 -0.021626659618925081 -0.049957927893591277 0 -0.0033234267383674778 -0.042950679409621197 0 -0.0053961341226830706 -0.052251185447431257 0 -0.021626659618925081 -0.049957927893591277 0 -0.0053961341226830706 -0.052251185447431257 0 0.00054446795576909568 -0.065740571905023568 0 -0.021626659618925081 -0.049957927893591277 0 0.00054446795576909568 -0.065740571905023568 0 -0.0033234267383674778 -0.042950679409621197 0 -0.0053961341226830706 -0.052251185447431257 0 0.0026901866096132711 -0.050198525173678121 0 -0.0053961341226830706 -0.052251185447431257 0 0.00054446795576909568 -0.065740571905023568 0 0.0026116530460322772 -0.057796347036650757 0 -0.001818144037319683 -0.073153901583463868 0 -0.010863479942910099 -0.065687671467141814 0 0.00054446795576909568 -0.065740571905023568 0 -0.001818144037319683 -0.073153901583463868 0 -0.01220238997470874 -0.074753290216839213 0 -0.0024121720072170631 -0.081149604640722323 0 -0.001818144037319683 -0.073153901583463868 0 -0.01220238997470874 -0.074753290216839213 0 -0.010863479942910099 -0.065687671467141814 0 -0.01220238997470874 -0.074753290216839213 0 -0.010863479942910099 -0.065687671467141814 0 -0.019214674039366102 -0.06483266573679114 0 -0.0096398489651899327 -0.086254158663222294 0 -0.0036165696749490728 -0.094806956262067837 0 0.0049108475916147332 -0.088758796278125912 0 -0.0024121720072170631 -0.081149604640722323 0 -0.0096398489651899327 -0.086254158663222294 0 0.0049108475916147332 -0.088758796278125912 0 -0.01220238997470874 -0.074753290216839213 0 -0.0096398489651899327 -0.086254158663222294 0 -0.02033293312312489 -0.080847079595113558 0 -0.01220238997470874 -0.074753290216839213 0 -0.0024121720072170631 -0.081149604640722323 0 -0.0096398489651899327 -0.086254158663222294 0 -0.0096398489651899327 -0.086254158663222294 0 -0.019293095072751849 -0.088709644378476324 0 -0.015665521150123599 -0.095138111364990285 0 -0.0096398489651899327 -0.086254158663222294 0 -0.015665521150123599 -0.095138111364990285 0 -0.0036165696749490728 -0.094806956262067837 0 -0.019293095072751849 -0.088709644378476324 0 -0.024910700190081 -0.094055361874286619 0 -0.015665521150123599 -0.095138111364990285 0 -0.0096398489651899327 -0.086254158663222294 0 -0.019293095072751849 -0.088709644378476324 0 -0.02033293312312489 -0.080847079595113558 0 -0.019293095072751849 -0.088709644378476324 0 -0.02033293312312489 -0.080847079595113558 0 -0.02970709049704498 -0.085808983713112713 0 -0.02033293312312489 -0.080847079595113558 0 -0.02970709049704498 -0.085808983713112713 0 -0.024821050188906211 -0.072158206884112883 0 -0.02970709049704498 -0.085808983713112713 0 -0.031680018603926142 -0.098113663492428851 0 -0.024910700190081 -0.094055361874286619 0 -0.019293095072751849 -0.088709644378476324 0 -0.02970709049704498 -0.085808983713112713 0 -0.024910700190081 -0.094055361874286619 0 -0.01220238997470874 -0.074753290216839213 0 -0.02033293312312489 -0.080847079595113558 0 -0.024821050188906211 -0.072158206884112883 0 -0.01220238997470874 -0.074753290216839213 0 -0.019214674039366102 -0.06483266573679114 0 -0.024821050188906211 -0.072158206884112883 0 -0.02970709049704498 -0.085808983713112713 0 -0.024821050188906211 -0.072158206884112883 0 -0.038536020422000959 -0.076327714567779453 0 -0.030364275903002759 -0.061398620925386838 0 -0.024821050188906211 -0.072158206884112883 0 -0.038536020422000959 -0.076327714567779453 0 -0.030364275903002759 -0.061398620925386838 0 -0.019214674039366102 -0.06483266573679114 0 -0.024821050188906211 -0.072158206884112883 0 -0.030364275903002759 -0.061398620925386838 0 -0.042888794566721712 -0.067018379349580132 0 -0.038536020422000959 -0.076327714567779453 0 -0.04091627628828115 -0.059056075696563903 0 -0.042888794566721712 -0.067018379349580132 0 -0.05188363142518259 -0.063277070366484389 0 -0.042888794566721712 -0.067018379349580132 0 -0.038536020422000959 -0.076327714567779453 0 -0.049469546537956342 -0.074249356423610399 0 -0.02970709049704498 -0.085808983713112713 0 -0.038536020422000959 -0.076327714567779453 0 -0.039440003221732668 -0.092072423463624931 0 -0.038536020422000959 -0.076327714567779453 0 -0.039440003221732668 -0.092072423463624931 0 -0.050943842916742907 -0.086155289065581758 0 -0.02970709049704498 -0.085808983713112713 0 -0.039440003221732668 -0.092072423463624931 0 -0.031680018603926142 -0.098113663492428851 0 -0.038536020422000959 -0.076327714567779453 0 -0.050943842916742907 -0.086155289065581758 0 -0.049469546537956342 -0.074249356423610399 0 -0.050943842916742907 -0.086155289065581758 0 -0.061458332230541167 -0.078076799384588433 0 -0.049469546537956342 -0.074249356423610399 0 -0.062994347866618589 -0.096267321243577619 0 -0.050943842916742907 -0.086155289065581758 0 -0.061458332230541167 -0.078076799384588433 0 -0.039440003221732668 -0.092072423463624931 0 -0.050943842916742907 -0.086155289065581758 0 -0.052875063536449017 -0.099634332284563393 0 -0.059311841392122852 -0.058204020382424303 0 -0.061458332230541167 -0.078076799384588433 0 -0.05188363142518259 -0.063277070366484389 0 -0.061458332230541167 -0.078076799384588433 0 -0.05188363142518259 -0.063277070366484389 0 -0.042888794566721712 -0.067018379349580132 0 -0.05188363142518259 -0.063277070366484389 0 -0.049469546537956342 -0.074249356423610399 0 -0.061458332230541167 -0.078076799384588433 0 -0.05188363142518259 -0.063277070366484389 0 -0.049469546537956342 -0.074249356423610399 0 -0.072379565881808675 -0.1121517142538033 0 -0.051501148415266193 -0.1099954633464736 0 -0.057734267282363791 -0.12695164644468551 0 -0.051501148415266193 -0.1099954633464736 0 -0.057734267282363791 -0.12695164644468551 0 -0.042727633317417607 -0.12635194179007239 0 -0.072379565881808675 -0.1121517142538033 0 -0.051501148415266193 -0.1099954633464736 0 -0.066310123851165054 -0.1071962411055024 0 -0.052875063536449017 -0.099634332284563393 0 -0.037379444539996462 -0.1074581485571188 0 -0.066310123851165054 -0.1071962411055024 0 -0.051501148415266193 -0.1099954633464736 0 -0.037379444539996462 -0.1074581485571188 0 -0.066310123851165054 -0.1071962411055024 0 -0.052875063536449017 -0.099634332284563393 0 -0.066310123851165054 -0.1071962411055024 0 -0.037379444539996462 -0.1074581485571188 0 -0.062994347866618589 -0.096267321243577619 0 -0.050943842916742907 -0.086155289065581758 0 -0.052875063536449017 -0.099634332284563393 0 -0.062994347866618589 -0.096267321243577619 0 -0.066310123851165054 -0.1071962411055024 0 -0.052875063536449017 -0.099634332284563393 0 -0.051501148415266193 -0.1099954633464736 0 -0.037379444539996462 -0.1074581485571188 0 -0.03062273094872436 -0.1078392124391379 0 -0.051501148415266193 -0.1099954633464736 0 -0.03062273094872436 -0.1078392124391379 0 -0.039440003221732668 -0.092072423463624931 0 -0.052875063536449017 -0.099634332284563393 0 -0.039440003221732668 -0.092072423463624931 0 -0.052875063536449017 -0.099634332284563393 0 -0.037379444539996462 -0.1074581485571188 0 -0.039440003221732668 -0.092072423463624931 0 -0.031680018603926142 -0.098113663492428851 0 -0.037379444539996462 -0.1074581485571188 0 -0.031680018603926142 -0.098113663492428851 0 -0.037379444539996462 -0.1074581485571188 0 -0.03062273094872436 -0.1078392124391379 0 -0.051501148415266193 -0.1099954633464736 0 -0.033263977330065461 -0.1194029582465794 0 -0.042727633317417607 -0.12635194179007239 0 -0.051501148415266193 -0.1099954633464736 0 -0.033263977330065461 -0.1194029582465794 0 -0.03062273094872436 -0.1078392124391379 0 -0.033263977330065461 -0.1194029582465794 0 -0.021457981563975749 -0.11505023831613791 0 -0.021984967218806131 -0.1245865113131405 0 -0.021457981563975749 -0.11505023831613791 0 -0.03062273094872436 -0.1078392124391379 0 -0.0097443134821825275 -0.10568296153180221 0 -0.033263977330065461 -0.1194029582465794 0 -0.021457981563975749 -0.11505023831613791 0 -0.03062273094872436 -0.1078392124391379 0 -0.021457981563975749 -0.11505023831613791 0 -0.021984967218806131 -0.1245865113131405 0 -0.01267496458502442 -0.1194359080369525 0 -0.03062273094872436 -0.1078392124391379 0 -0.022524656875007518 -0.10016586214052919 0 -0.0097443134821825275 -0.10568296153180221 0 -0.03062273094872436 -0.1078392124391379 0 -0.0097443134821825275 -0.10568296153180221 0 -0.031680018603926142 -0.098113663492428851 0 -0.024910700190081 -0.094055361874286619 0 -0.022524656875007518 -0.10016586214052919 0 -0.031680018603926142 -0.098113663492428851 0 -0.03062273094872436 -0.1078392124391379 0 -0.022524656875007518 -0.10016586214052919 0 -0.015665521150123599 -0.095138111364990285 0 -0.022524656875007518 -0.10016586214052919 0 -0.0097443134821825275 -0.10568296153180221 0 -0.024910700190081 -0.094055361874286619 0 -0.015665521150123599 -0.095138111364990285 0 -0.022524656875007518 -0.10016586214052919 0 -0.015665521150123599 -0.095138111364990285 0 -0.0097443134821825275 -0.10568296153180221 0 -0.0036165696749490728 -0.094806956262067837 0 -0.021457981563975749 -0.11505023831613791 0 -0.0097443134821825275 -0.10568296153180221 0 -0.01267496458502442 -0.1194359080369525 0 -0.0097443134821825275 -0.10568296153180221 0 -0.01267496458502442 -0.1194359080369525 0 -0.00051383012936461261 -0.12115106769845869 0 -0.00051383012936461261 -0.12115106769845869 0 -0.014478750106429071 -0.1388512892624528 0 -0.00051383012936461261 -0.12115106769845869 0 -0.014478750106429071 -0.1388512892624528 0 -0.00021813125033820981 -0.14121417949905171 0 -0.01267496458502442 -0.1194359080369525 0 -0.00051383012936461261 -0.12115106769845869 0 -0.014478750106429071 -0.1388512892624528 0 -0.021984967218806131 -0.1245865113131405 0 -0.014478750106429071 -0.1388512892624528 0 -0.030288999139213572 -0.1343639218610643 0 -0.021984967218806131 -0.1245865113131405 0 -0.01267496458502442 -0.1194359080369525 0 -0.014478750106429071 -0.1388512892624528 0 -0.033263977330065461 -0.1194029582465794 0 -0.021984967218806131 -0.1245865113131405 0 -0.030288999139213572 -0.1343639218610643 0 -0.014478750106429071 -0.1388512892624528 0 -0.01395378620268331 -0.1534294781041764 0 -0.028443670083480858 -0.1565515108264568 0 -0.014478750106429071 -0.1388512892624528 0 -0.030288999139213572 -0.1343639218610643 0 -0.028443670083480858 -0.1565515108264568 0 -0.014478750106429071 -0.1388512892624528 0 -0.028443670083480858 -0.1565515108264568 0 -0.01395378620268331 -0.1534294781041764 0 -0.00021813125033820981 -0.14121417949905171 0 -0.002862460002846737 -0.15948301651848881 0 -0.014478750106429071 -0.1388512892624528 0 -0.01395378620268331 -0.1534294781041764 0 -0.00021813125033820981 -0.14121417949905171 0 -0.002862460002846737 -0.15948301651848881 0 -0.0021769760571534991 -0.1715651156863349 0 -0.01771429816064261 -0.1673941697064093 0 -0.002862460002846737 -0.15948301651848881 0 -0.01771429816064261 -0.1673941697064093 0 -0.01395378620268331 -0.1534294781041764 0 -0.002862460002846737 -0.15948301651848881 0 -0.01771429816064261 -0.1673941697064093 0 -0.001716520374770193 -0.18356086134659491 0 -0.01771429816064261 -0.1673941697064093 0 -0.0021769760571534991 -0.1715651156863349 0 -0.001716520374770193 -0.18356086134659491 0 -0.01771429816064261 -0.1673941697064093 0 -0.001716520374770193 -0.18356086134659491 0 -0.02348717745399467 -0.1850537237084468 0 -0.01771429816064261 -0.1673941697064093 0 -0.01771429816064261 -0.1673941697064093 0 -0.044366336830636267 -0.18159095521193899 0 -0.02348717745399467 -0.1850537237084468 0 -0.01771429816064261 -0.1673941697064093 0 -0.033013531607667637 -0.1831356406579262 0 -0.01771429816064261 -0.1673941697064093 0 -0.028443670083480858 -0.1565515108264568 0 -0.045811881534964113 -0.17856532768799921 0 -0.01395378620268331 -0.1534294781041764 0 -0.01771429816064261 -0.1673941697064093 0 -0.028443670083480858 -0.1565515108264568 0 -0.01771429816064261 -0.1673941697064093 0 -0.028443670083480858 -0.1565515108264568 0 -0.028443670083480858 -0.1565515108264568 0 -0.045811881534964113 -0.17856532768799921 0 -0.028443670083480858 -0.1565515108264568 0 -0.045811881534964113 -0.17856532768799921 0 -0.047195850669988021 -0.16597153333232509 0 -0.028443670083480858 -0.1565515108264568 0 -0.047195850669988021 -0.16597153333232509 0 -0.045150016154464317 -0.1559077118875869 0 -0.01771429816064261 -0.1673941697064093 0 -0.045811881534964113 -0.17856532768799921 0 -0.044366336830636267 -0.18159095521193899 0 -0.01771429816064261 -0.1673941697064093 0 -0.033013531607667637 -0.1831356406579262 0 -0.044366336830636267 -0.18159095521193899 0 -0.033013531607667637 -0.1831356406579262 0 -0.044366336830636267 -0.18159095521193899 0 -0.041074081693629638 -0.18739245391090159 0 -0.045811881534964113 -0.17856532768799921 0 -0.044366336830636267 -0.18159095521193899 0 -0.048732541977346347 -0.1879359036004421 0 -0.044366336830636267 -0.18159095521193899 0 -0.0446662101935629 -0.18724162348253801 0 -0.048732541977346347 -0.1879359036004421 0 -0.044366336830636267 -0.18159095521193899 0 -0.0446662101935629 -0.18724162348253801 0 -0.041074081693629638 -0.18739245391090159 0 -0.045811881534964113 -0.17856532768799921 0 -0.055989979233863979 -0.18249254424144351 0 -0.063180092986433845 -0.2005791445495522 0 -0.045811881534964113 -0.17856532768799921 0 -0.051539349663970807 -0.17394357961840401 0 -0.047195850669988021 -0.16597153333232509 0 -0.045811881534964113 -0.17856532768799921 0 -0.051539349663970807 -0.17394357961840401 0 -0.055989979233863979 -0.18249254424144351 0 -0.051539349663970807 -0.17394357961840401 0 -0.056624051731371007 -0.1763497156345542 0 -0.055989979233863979 -0.18249254424144351 0 -0.051539349663970807 -0.17394357961840401 0 -0.056624051731371007 -0.1763497156345542 0 -0.057731604036761461 -0.16968178251246621 0 -0.061690604333580132 -0.17521890115240449 0 -0.056624051731371007 -0.1763497156345542 0 -0.057731604036761461 -0.16968178251246621 0 -0.061690604333580132 -0.17521890115240449 0 -0.056624051731371007 -0.1763497156345542 0 -0.062794520252580116 -0.18302495371670791 0 -0.056624051731371007 -0.1763497156345542 0 -0.055989979233863979 -0.18249254424144351 0 -0.062794520252580116 -0.18302495371670791 0 -0.047195850669988021 -0.16597153333232509 0 -0.054718588194720308 -0.16039288285695 0 -0.045150016154464317 -0.1559077118875869 0 -0.047195850669988021 -0.16597153333232509 0 -0.057731604036761461 -0.16968178251246621 0 -0.054718588194720308 -0.16039288285695 0 -0.051539349663970807 -0.17394357961840401 0 -0.047195850669988021 -0.16597153333232509 0 -0.057731604036761461 -0.16968178251246621 0 -0.054718588194720308 -0.16039288285695 0 -0.053252181039803233 -0.15191765032356949 0 -0.063961636950577438 -0.15791657772519291 0 -0.057731604036761461 -0.16968178251246621 0 -0.054718588194720308 -0.16039288285695 0 -0.063961636950577438 -0.15791657772519291 0 -0.053252181039803233 -0.15191765032356949 0 -0.059341695216332417 -0.14361950051254729 0 -0.063961636950577438 -0.15791657772519291 0 -0.053252181039803233 -0.15191765032356949 0 -0.059341695216332417 -0.14361950051254729 0 -0.0430889686829216 -0.1417515786355705 0 -0.053252181039803233 -0.15191765032356949 0 -0.045150016154464317 -0.1559077118875869 0 -0.0430889686829216 -0.1417515786355705 0 -0.054718588194720308 -0.16039288285695 0 -0.053252181039803233 -0.15191765032356949 0 -0.045150016154464317 -0.1559077118875869 0 -0.059341695216332417 -0.14361950051254729 0 -0.057734267282363791 -0.12695164644468551 0 -0.069077230659992855 -0.13483529828770449 0 -0.059341695216332417 -0.14361950051254729 0 -0.057734267282363791 -0.12695164644468551 0 -0.0430889686829216 -0.1417515786355705 0 -0.057734267282363791 -0.12695164644468551 0 -0.042727633317417607 -0.12635194179007239 0 -0.0430889686829216 -0.1417515786355705 0 -0.057734267282363791 -0.12695164644468551 0 -0.0430889686829216 -0.1417515786355705 0 -0.033263977330065461 -0.1194029582465794 0 -0.030288999139213572 -0.1343639218610643 0 -0.042727633317417607 -0.12635194179007239 0 -0.030288999139213572 -0.1343639218610643 0 -0.042727633317417607 -0.12635194179007239 0 -0.0430889686829216 -0.1417515786355705 0 -0.030288999139213572 -0.1343639218610643 0 -0.028443670083480858 -0.1565515108264568 0 -0.0430889686829216 -0.1417515786355705 0 -0.028443670083480858 -0.1565515108264568 0 -0.045150016154464317 -0.1559077118875869 0 -0.0430889686829216 -0.1417515786355705 0 -0.028443670083480858 -0.1565515108264568 0 -0.0430889686829216 -0.1417515786355705 0 -0.025592378059952299 -0.24506867592519291 0 -0.02375465074169765 -0.22377533429843699 0 -0.043997108510462492 -0.23823321810884929 0 -0.025592378059952299 -0.24506867592519291 0 -0.0117395277749004 -0.23446698455037779 0 -0.02375465074169765 -0.22377533429843699 0 -0.0051000949063709604 -0.24904007175921131 0 -0.0117395277749004 -0.23446698455037779 0 0.0028816789089166558 -0.23183637951985259 0 -0.025592378059952299 -0.24506867592519291 0 -0.0051000949063709604 -0.24904007175921131 0 -0.0117395277749004 -0.23446698455037779 0 -0.0117395277749004 -0.23446698455037779 0 -0.0071321940753977476 -0.22261446124919521 0 -0.02375465074169765 -0.22377533429843699 0 -0.0117395277749004 -0.23446698455037779 0 -0.0071321940753977476 -0.22261446124919521 0 0.0028816789089166558 -0.23183637951985259 0 -0.02375465074169765 -0.22377533429843699 0 -0.0082893249638397466 -0.20620303414635671 0 -0.02555236195431276 -0.19886075628657451 0 -0.0071321940753977476 -0.22261446124919521 0 -0.02375465074169765 -0.22377533429843699 0 -0.0082893249638397466 -0.20620303414635671 0 -0.0071321940753977476 -0.22261446124919521 0 -0.0082893249638397466 -0.20620303414635671 0 0.004701453699878894 -0.21579903142299711 0 -0.0082893249638397466 -0.20620303414635671 0 -0.0013413224236437889 -0.20129110548027501 0 0.004701453699878894 -0.21579903142299711 0 -0.001716520374770193 -0.18356086134659491 0 -0.02555236195431276 -0.19886075628657451 0 -0.001716520374770193 -0.18356086134659491 0 -0.0040962595028597214 -0.1906061852318178 0 -0.02555236195431276 -0.19886075628657451 0 -0.0082893249638397466 -0.20620303414635671 0 -0.0040962595028597214 -0.1906061852318178 0 -0.02555236195431276 -0.19886075628657451 0 -0.0082893249638397466 -0.20620303414635671 0 -0.0013413224236437889 -0.20129110548027501 0 -0.0040962595028597214 -0.1906061852318178 0 -0.001716520374770193 -0.18356086134659491 0 -0.02348717745399467 -0.1850537237084468 0 -0.02555236195431276 -0.19886075628657451 0 -0.02348717745399467 -0.1850537237084468 0 -0.02555236195431276 -0.19886075628657451 0 -0.038437760192586518 -0.19440074105825789 0 -0.02555236195431276 -0.19886075628657451 0 -0.038437760192586518 -0.19440074105825789 0 -0.049388203533844592 -0.21416065122657069 0 -0.038437760192586518 -0.19440074105825789 0 -0.049295944213243757 -0.20007657783497329 0 -0.049388203533844592 -0.21416065122657069 0 -0.033013531607667637 -0.1831356406579262 0 -0.041074081693629638 -0.18739245391090159 0 -0.038437760192586518 -0.19440074105825789 0 -0.02348717745399467 -0.1850537237084468 0 -0.033013531607667637 -0.1831356406579262 0 -0.038437760192586518 -0.19440074105825789 0 -0.038437760192586518 -0.19440074105825789 0 -0.044491880272639298 -0.19204718120686939 0 -0.049295944213243757 -0.20007657783497329 0 -0.041074081693629638 -0.18739245391090159 0 -0.038437760192586518 -0.19440074105825789 0 -0.044491880272639298 -0.19204718120686939 0 -0.0446662101935629 -0.18724162348253801 0 -0.044491880272639298 -0.19204718120686939 0 -0.048732541977346347 -0.1879359036004421 0 -0.0446662101935629 -0.18724162348253801 0 -0.041074081693629638 -0.18739245391090159 0 -0.044491880272639298 -0.19204718120686939 0 -0.055989979233863979 -0.18249254424144351 0 -0.063180092986433845 -0.2005791445495522 0 -0.062794520252580116 -0.18302495371670791 0 -0.045811881534964113 -0.17856532768799921 0 -0.063180092986433845 -0.2005791445495522 0 -0.048732541977346347 -0.1879359036004421 0 -0.05142511486241582 -0.19515970179795919 0 -0.063180092986433845 -0.2005791445495522 0 -0.045811881534964113 -0.17856532768799921 0 -0.048732541977346347 -0.1879359036004421 0 -0.063180092986433845 -0.2005791445495522 0 -0.044491880272639298 -0.19204718120686939 0 -0.048732541977346347 -0.1879359036004421 0 -0.05142511486241582 -0.19515970179795919 0 -0.044491880272639298 -0.19204718120686939 0 -0.05142511486241582 -0.19515970179795919 0 -0.049295944213243757 -0.20007657783497329 0 -0.05142511486241582 -0.19515970179795919 0 -0.049295944213243757 -0.20007657783497329 0 -0.063180092986433845 -0.2005791445495522 0 -0.059419474656045267 -0.21071518248769239 0 -0.049388203533844592 -0.21416065122657069 0 -0.06615894864261003 -0.2163587015605318 0 -0.049295944213243757 -0.20007657783497329 0 -0.053669530378511313 -0.2097724605019626 0 -0.049388203533844592 -0.21416065122657069 0 -0.053669530378511313 -0.2097724605019626 0 -0.061353255326445422 -0.2064103167214684 0 -0.063180092986433845 -0.2005791445495522 0 -0.049295944213243757 -0.20007657783497329 0 -0.053669530378511313 -0.2097724605019626 0 -0.063180092986433845 -0.2005791445495522 0 -0.053669530378511313 -0.2097724605019626 0 -0.063180092986433845 -0.2005791445495522 0 -0.053669530378511313 -0.2097724605019626 0 -0.059419474656045267 -0.21071518248769239 0 -0.061353255326445422 -0.2064103167214684 0 -0.059419474656045267 -0.21071518248769239 0 -0.061353255326445422 -0.2064103167214684 0 -0.06570838322293765 -0.20836665745414959 0 -0.053669530378511313 -0.2097724605019626 0 -0.059419474656045267 -0.21071518248769239 0 -0.049388203533844592 -0.21416065122657069 0 -0.02375465074169765 -0.22377533429843699 0 -0.02555236195431276 -0.19886075628657451 0 -0.049388203533844592 -0.21416065122657069 0 -0.02555236195431276 -0.19886075628657451 0 -0.049388203533844592 -0.21416065122657069 0 -0.02375465074169765 -0.22377533429843699 0 -0.049388203533844592 -0.21416065122657069 0 -0.043997108510462492 -0.23823321810884929 0 -0.049388203533844592 -0.21416065122657069 0 -0.059528257010332222 -0.23558424506532349 0 -0.073224045113376449 -0.229460546166567 0 -0.049388203533844592 -0.21416065122657069 0 -0.059528257010332222 -0.23558424506532349 0 -0.043997108510462492 -0.23823321810884929 0 -0.049388203533844592 -0.21416065122657069 0 -0.073224045113376449 -0.229460546166567 0 -0.042026808752372059 -0.25650392078784667 0 -0.060287390876407651 -0.25133684897494479 0 -0.043997108510462492 -0.23823321810884929 0 -0.060287390876407651 -0.25133684897494479 0 -0.059528257010332222 -0.23558424506532349 0 -0.043997108510462492 -0.23823321810884929 0 -0.042026808752372059 -0.25650392078784667 0 -0.025592378059952299 -0.24506867592519291 0 -0.043997108510462492 -0.23823321810884929 0 -0.073224045113376449 -0.229460546166567 0 -0.09705988669290827 -0.2447604411065635 0 -0.081032974515675441 -0.24752362611133041 0 -0.073224045113376449 -0.229460546166567 0 -0.09705988669290827 -0.2447604411065635 0 -0.092802120114850561 -0.23476644111030801 0 -0.073224045113376449 -0.229460546166567 0 -0.09705988669290827 -0.2447604411065635 0 -0.081032974515675441 -0.24752362611133041 0 -0.070744537017569914 -0.24472996084968571 0 -0.073224045113376449 -0.229460546166567 0 -0.060287390876407651 -0.25133684897494479 0 -0.059528257010332222 -0.23558424506532349 0 -0.070744537017569914 -0.24472996084968571 0 -0.072789019009103853 -0.25402102884560251 0 -0.081032974515675441 -0.24752362611133041 0 -0.070744537017569914 -0.24472996084968571 0 -0.059528257010332222 -0.23558424506532349 0 -0.070744537017569914 -0.24472996084968571 0 -0.073224045113376449 -0.229460546166567 0 -0.049388203533844592 -0.21416065122657069 0 -0.073224045113376449 -0.229460546166567 0 -0.06615894864261003 -0.2163587015605318 0 -0.073224045113376449 -0.229460546166567 0 -0.076404655184555956 -0.2177555600421954 0 -0.06615894864261003 -0.2163587015605318 0 -0.092802120114850561 -0.23476644111030801 0 -0.073224045113376449 -0.229460546166567 0 -0.087386655579379413 -0.221336098103218 0 -0.073224045113376449 -0.229460546166567 0 -0.087386655579379413 -0.221336098103218 0 -0.076404655184555956 -0.2177555600421954 0 -0.092802120114850561 -0.23476644111030801 0 -0.087386655579379413 -0.221336098103218 0 -0.1003114696379807 -0.22536365431683439 0 -0.087386655579379413 -0.221336098103218 0 -0.081029461080584134 -0.20822060730322831 0 -0.099606269467231515 -0.20937011251263521 0 -0.081029461080584134 -0.20822060730322831 0 -0.090741290682821177 -0.19261566324025731 0 -0.099606269467231515 -0.20937011251263521 0 -0.087386655579379413 -0.221336098103218 0 -0.081029461080584134 -0.20822060730322831 0 -0.076404655184555956 -0.2177555600421954 0 -0.081029461080584134 -0.20822060730322831 0 -0.076404655184555956 -0.2177555600421954 0 -0.071909757383101555 -0.21074144288973121 0 -0.076404655184555956 -0.2177555600421954 0 -0.06615894864261003 -0.2163587015605318 0 -0.071909757383101555 -0.21074144288973121 0 -0.059419474656045267 -0.21071518248769239 0 -0.06615894864261003 -0.2163587015605318 0 -0.06570838322293765 -0.20836665745414959 0 -0.06615894864261003 -0.2163587015605318 0 -0.06570838322293765 -0.20836665745414959 0 -0.071909757383101555 -0.21074144288973121 0 -0.061353255326445422 -0.2064103167214684 0 -0.06570838322293765 -0.20836665745414959 0 -0.06478879538829907 -0.20261813861398531 0 -0.061353255326445422 -0.2064103167214684 0 -0.063180092986433845 -0.2005791445495522 0 -0.06478879538829907 -0.20261813861398531 0 -0.06570838322293765 -0.20836665745414959 0 -0.070024177275033628 -0.20392736278313009 0 -0.071909757383101555 -0.21074144288973121 0 -0.06570838322293765 -0.20836665745414959 0 -0.070024177275033628 -0.20392736278313009 0 -0.06478879538829907 -0.20261813861398531 0 -0.081029461080584134 -0.20822060730322831 0 -0.070024177275033628 -0.20392736278313009 0 -0.076392972650611998 -0.19874164388278001 0 -0.081029461080584134 -0.20822060730322831 0 -0.070024177275033628 -0.20392736278313009 0 -0.071909757383101555 -0.21074144288973121 0 -0.063180092986433845 -0.2005791445495522 0 -0.080325537465065822 -0.1840056257437063 0 -0.063180092986433845 -0.2005791445495522 0 -0.062794520252580116 -0.18302495371670791 0 -0.080325537465065822 -0.1840056257437063 0 -0.076392972650611998 -0.19874164388278001 0 -0.063180092986433845 -0.2005791445495522 0 -0.080325537465065822 -0.1840056257437063 0 -0.070024177275033628 -0.20392736278313009 0 -0.076392972650611998 -0.19874164388278001 0 -0.063180092986433845 -0.2005791445495522 0 -0.070024177275033628 -0.20392736278313009 0 -0.063180092986433845 -0.2005791445495522 0 -0.06478879538829907 -0.20261813861398531 0 -0.063180092986433845 -0.2005791445495522 0 -0.06478879538829907 -0.20261813861398531 0 -0.076392972650611998 -0.19874164388278001 0 -0.090741290682821177 -0.19261566324025731 0 -0.080325537465065822 -0.1840056257437063 0 -0.081029461080584134 -0.20822060730322831 0 -0.076392972650611998 -0.19874164388278001 0 -0.090741290682821177 -0.19261566324025731 0 -0.090741290682821177 -0.19261566324025731 0 -0.10962252148973579 -0.18792388306133331 0 -0.099606269467231515 -0.20937011251263521 0 -0.10962252148973579 -0.18792388306133331 0 -0.12956667495364191 -0.1765366729717569 0 -0.12792206268005671 -0.20630750412903681 0 -0.10962252148973579 -0.18792388306133331 0 -0.099606269467231515 -0.20937011251263521 0 -0.12792206268005671 -0.20630750412903681 0 -0.099606269467231515 -0.20937011251263521 0 -0.12792206268005671 -0.20630750412903681 0 -0.1109395563409496 -0.21808363142510809 0 -0.099606269467231515 -0.20937011251263521 0 -0.12792206268005671 -0.20630750412903681 0 -0.1109395563409496 -0.21808363142510809 0 -0.12177266552236619 -0.21944435015962399 0 -0.12792206268005671 -0.20630750412903681 0 -0.087386655579379413 -0.221336098103218 0 -0.099606269467231515 -0.20937011251263521 0 -0.1003114696379807 -0.22536365431683439 0 -0.1109395563409496 -0.21808363142510809 0 -0.099606269467231515 -0.20937011251263521 0 -0.1003114696379807 -0.22536365431683439 0 -0.092802120114850561 -0.23476644111030801 0 -0.1003114696379807 -0.22536365431683439 0 -0.1027152497513069 -0.23889648474517289 0 -0.1003114696379807 -0.22536365431683439 0 -0.1117526187512204 -0.22952578000171939 0 -0.1027152497513069 -0.23889648474517289 0 -0.1117526187512204 -0.22952578000171939 0 -0.1027152497513069 -0.23889648474517289 0 -0.1109395563409496 -0.21808363142510809 0 -0.1003114696379807 -0.22536365431683439 0 -0.1117526187512204 -0.22952578000171939 0 -0.12177266552236619 -0.21944435015962399 0 -0.1117526187512204 -0.22952578000171939 0 -0.13228002548338749 -0.22901680813062419 0 -0.1109395563409496 -0.21808363142510809 0 -0.12177266552236619 -0.21944435015962399 0 -0.1117526187512204 -0.22952578000171939 0 -0.1027152497513069 -0.23889648474517289 0 -0.1256374789938742 -0.24844642613119489 0 -0.1117526187512204 -0.22952578000171939 0 -0.1256374789938742 -0.24844642613119489 0 -0.13228002548338749 -0.22901680813062419 0 -0.1105153895608678 -0.25339734111102152 0 -0.1027152497513069 -0.23889648474517289 0 -0.1256374789938742 -0.24844642613119489 0 -0.1117526187512204 -0.22952578000171939 0 -0.1027152497513069 -0.23889648474517289 0 -0.1256374789938742 -0.24844642613119489 0 -0.1105153895608678 -0.25339734111102152 0 -0.09705988669290827 -0.2447604411065635 0 -0.1105153895608678 -0.25339734111102152 0 -0.1027152497513069 -0.23889648474517289 0 -0.09705988669290827 -0.2447604411065635 0 -0.1027152497513069 -0.23889648474517289 0 -0.09705988669290827 -0.2447604411065635 0 -0.092802120114850561 -0.23476644111030801 0 -0.1027152497513069 -0.23889648474517289 0 -0.092802120114850561 -0.23476644111030801 0 -0.1027152497513069 -0.23889648474517289 0 -0.09705988669290827 -0.2447604411065635 0 -0.089769838243654171 -0.14746704632253929 0 -0.073839524898655584 -0.14650201391953069 0 -0.079136643663897471 -0.1599736488040388 0 -0.089769838243654171 -0.14746704632253929 0 -0.081492442674657412 -0.13435958757778479 0 -0.073839524898655584 -0.14650201391953069 0 -0.07297822322795508 -0.12274374298397429 0 -0.096891039351932648 -0.12440867553159241 0 -0.081492442674657412 -0.13435958757778479 0 -0.089769838243654171 -0.14746704632253929 0 -0.093016198185143006 -0.13703217336118759 0 -0.081492442674657412 -0.13435958757778479 0 -0.096891039351932648 -0.12440867553159241 0 -0.093016198185143006 -0.13703217336118759 0 -0.081492442674657412 -0.13435958757778479 0 -0.081492442674657412 -0.13435958757778479 0 -0.069077230659992855 -0.13483529828770449 0 -0.073839524898655584 -0.14650201391953069 0 -0.07297822322795508 -0.12274374298397429 0 -0.081492442674657412 -0.13435958757778479 0 -0.069077230659992855 -0.13483529828770449 0 -0.07297822322795508 -0.12274374298397429 0 -0.057734267282363791 -0.12695164644468551 0 -0.069077230659992855 -0.13483529828770449 0 -0.059341695216332417 -0.14361950051254729 0 -0.069077230659992855 -0.13483529828770449 0 -0.073839524898655584 -0.14650201391953069 0 -0.073839524898655584 -0.14650201391953069 0 -0.063961636950577438 -0.15791657772519291 0 -0.079136643663897471 -0.1599736488040388 0 -0.059341695216332417 -0.14361950051254729 0 -0.073839524898655584 -0.14650201391953069 0 -0.063961636950577438 -0.15791657772519291 0 -0.068874600538522568 -0.1715015516318501 0 -0.080325537465065822 -0.1840056257437063 0 -0.079136643663897471 -0.1599736488040388 0 -0.057731604036761461 -0.16968178251246621 0 -0.063961636950577438 -0.15791657772519291 0 -0.068874600538522568 -0.1715015516318501 0 -0.063961636950577438 -0.15791657772519291 0 -0.068874600538522568 -0.1715015516318501 0 -0.079136643663897471 -0.1599736488040388 0 -0.068874600538522568 -0.1715015516318501 0 -0.062794520252580116 -0.18302495371670791 0 -0.080325537465065822 -0.1840056257437063 0 -0.061690604333580132 -0.17521890115240449 0 -0.068874600538522568 -0.1715015516318501 0 -0.062794520252580116 -0.18302495371670791 0 -0.061690604333580132 -0.17521890115240449 0 -0.057731604036761461 -0.16968178251246621 0 -0.068874600538522568 -0.1715015516318501 0 -0.090741290682821177 -0.19261566324025731 0 -0.080325537465065822 -0.1840056257437063 0 -0.09747098194369784 -0.16743210693786051 0 -0.080325537465065822 -0.1840056257437063 0 -0.09747098194369784 -0.16743210693786051 0 -0.080325537465065822 -0.1840056257437063 0 -0.079136643663897471 -0.1599736488040388 0 -0.09747098194369784 -0.16743210693786051 0 -0.089769838243654171 -0.14746704632253929 0 -0.079136643663897471 -0.1599736488040388 0 -0.09747098194369784 -0.16743210693786051 0 -0.09747098194369784 -0.16743210693786051 0 -0.113273991052389 -0.1699141089179769 0 -0.1146164264223299 -0.15085858813201461 0 -0.09747098194369784 -0.16743210693786051 0 -0.1146164264223299 -0.15085858813201461 0 -0.10962252148973579 -0.18792388306133331 0 -0.09747098194369784 -0.16743210693786051 0 -0.113273991052389 -0.1699141089179769 0 -0.090741290682821177 -0.19261566324025731 0 -0.10962252148973579 -0.18792388306133331 0 -0.09747098194369784 -0.16743210693786051 0 -0.10962252148973579 -0.18792388306133331 0 -0.113273991052389 -0.1699141089179769 0 -0.12956667495364191 -0.1765366729717569 0 -0.12296246856877879 -0.16175995894169889 0 -0.113273991052389 -0.1699141089179769 0 -0.1146164264223299 -0.15085858813201461 0 -0.12296246856877879 -0.16175995894169889 0 -0.113273991052389 -0.1699141089179769 0 -0.12956667495364191 -0.1765366729717569 0 -0.12296246856877879 -0.16175995894169889 0 -0.12307729240007539 -0.14602118316388471 0 -0.1146164264223299 -0.15085858813201461 0 -0.12307729240007539 -0.14602118316388471 0 -0.11959636026701551 -0.13718834026610299 0 -0.1284071922322379 -0.13951417726766049 0 -0.12307729240007539 -0.14602118316388471 0 -0.1158509316513501 -0.1424562434555931 0 -0.11959636026701551 -0.13718834026610299 0 -0.12307729240007539 -0.14602118316388471 0 -0.1158509316513501 -0.1424562434555931 0 -0.1146164264223299 -0.15085858813201461 0 -0.1158509316513501 -0.1424562434555931 0 -0.1146164264223299 -0.15085858813201461 0 -0.1039114724703278 -0.14189338401283391 0 -0.089769838243654171 -0.14746704632253929 0 -0.09747098194369784 -0.16743210693786051 0 -0.1039114724703278 -0.14189338401283391 0 -0.09747098194369784 -0.16743210693786051 0 -0.1146164264223299 -0.15085858813201461 0 -0.1039114724703278 -0.14189338401283391 0 -0.089769838243654171 -0.14746704632253929 0 -0.093016198185143006 -0.13703217336118759 0 -0.1039114724703278 -0.14189338401283391 0 -0.089769838243654171 -0.14746704632253929 0 -0.1039114724703278 -0.14189338401283391 0 -0.096891039351932648 -0.12440867553159241 0 -0.1180531066970017 -0.13631972170312909 0 -0.096891039351932648 -0.12440867553159241 0 -0.1039114724703278 -0.14189338401283391 0 -0.1180531066970017 -0.13631972170312909 0 -0.096891039351932648 -0.12440867553159241 0 -0.093016198185143006 -0.13703217336118759 0 -0.1039114724703278 -0.14189338401283391 0 -0.11428846205478441 -0.1183327260799749 0 -0.1180531066970017 -0.13631972170312909 0 -0.12588964361509331 -0.1215411992977304 0 -0.096891039351932648 -0.12440867553159241 0 -0.11428846205478441 -0.1183327260799749 0 -0.1180531066970017 -0.13631972170312909 0 -0.11959636026701551 -0.13718834026610299 0 -0.1180531066970017 -0.13631972170312909 0 -0.13381228172809209 -0.1301085357471827 0 -0.1158509316513501 -0.1424562434555931 0 -0.1039114724703278 -0.14189338401283391 0 -0.1180531066970017 -0.13631972170312909 0 -0.1039114724703278 -0.14189338401283391 0 -0.1180531066970017 -0.13631972170312909 0 -0.1158509316513501 -0.1424562434555931 0 -0.11959636026701551 -0.13718834026610299 0 -0.1180531066970017 -0.13631972170312909 0 -0.11959636026701551 -0.13718834026610299 0 -0.1180531066970017 -0.13631972170312909 0 -0.1180531066970017 -0.13631972170312909 0 -0.13381228172809209 -0.1301085357471827 0 -0.1180531066970017 -0.13631972170312909 0 -0.13381228172809209 -0.1301085357471827 0 -0.12588964361509331 -0.1215411992977304 0 -0.11959636026701551 -0.13718834026610299 0 -0.1284071922322379 -0.13951417726766049 0 -0.13381228172809209 -0.1301085357471827 0 -0.1284071922322379 -0.13951417726766049 0 -0.13381228172809209 -0.1301085357471827 0 -0.13714283453376849 -0.1447386498934716 0 -0.13381228172809209 -0.1301085357471827 0 -0.14957145675918249 -0.1238973497912363 0 -0.13381228172809209 -0.1301085357471827 0 -0.15132320049875911 -0.12771734084524489 0 -0.14957145675918249 -0.1238973497912363 0 -0.13381228172809209 -0.1301085357471827 0 -0.15132320049875911 -0.12771734084524489 0 -0.13714283453376849 -0.1447386498934716 0 -0.15132320049875911 -0.12771734084524489 0 -0.13714283453376849 -0.1447386498934716 0 -0.15132320049875911 -0.12771734084524489 0 -0.14957145675918249 -0.1238973497912363 0 -0.15132320049875911 -0.12771734084524489 0 -0.14761894163492861 -0.15033068950455741 0 -0.13714283453376849 -0.1447386498934716 0 -0.14761894163492861 -0.15033068950455741 0 -0.13714283453376849 -0.1447386498934716 0 -0.13733552116536379 -0.1605450172031393 0 -0.15132320049875911 -0.12771734084524489 0 -0.14761894163492861 -0.15033068950455741 0 -0.16240001670107521 -0.15187232301744369 0 -0.12296246856877879 -0.16175995894169889 0 -0.12307729240007539 -0.14602118316388471 0 -0.13714283453376849 -0.1447386498934716 0 -0.12296246856877879 -0.16175995894169889 0 -0.13714283453376849 -0.1447386498934716 0 -0.13733552116536379 -0.1605450172031393 0 -0.12296246856877879 -0.16175995894169889 0 -0.13714283453376849 -0.1447386498934716 0 -0.12307729240007539 -0.14602118316388471 0 -0.1284071922322379 -0.13951417726766049 0 -0.13714283453376849 -0.1447386498934716 0 -0.13733552116536379 -0.1605450172031393 0 -0.12956667495364191 -0.1765366729717569 0 -0.14989313527567619 -0.16678011656348771 0 -0.12296246856877879 -0.16175995894169889 0 -0.13733552116536379 -0.1605450172031393 0 -0.12956667495364191 -0.1765366729717569 0 -0.12956667495364191 -0.1765366729717569 0 -0.14990476878214121 -0.18462355537089781 0 -0.14989313527567619 -0.16678011656348771 0 -0.14761894163492861 -0.15033068950455741 0 -0.14989313527567619 -0.16678011656348771 0 -0.16240001670107521 -0.15187232301744369 0 -0.14761894163492861 -0.15033068950455741 0 -0.13733552116536379 -0.1605450172031393 0 -0.14989313527567619 -0.16678011656348771 0 -0.14989313527567619 -0.16678011656348771 0 -0.17347683290339089 -0.17602730518964271 0 -0.16240001670107521 -0.15187232301744369 0 -0.17347683290339089 -0.17602730518964271 0 -0.16240001670107521 -0.15187232301744369 0 -0.14990476878214121 -0.18462355537089781 0 -0.14989313527567619 -0.16678011656348771 0 -0.17347683290339089 -0.17602730518964271 0 -0.17347683290339089 -0.17602730518964271 0 -0.1846639120317253 -0.159496951708542 0 -0.1912615381347022 -0.18077016325458239 0 -0.17347683290339089 -0.17602730518964271 0 -0.1845536491057071 -0.2001822873618416 0 -0.1912615381347022 -0.18077016325458239 0 -0.17347683290339089 -0.17602730518964271 0 -0.1846639120317253 -0.159496951708542 0 -0.16240001670107521 -0.15187232301744369 0 -0.1846639120317253 -0.159496951708542 0 -0.1777774968013382 -0.13321946143340921 0 -0.16240001670107521 -0.15187232301744369 0 -0.15132320049875911 -0.12771734084524489 0 -0.16240001670107521 -0.15187232301744369 0 -0.15132320049875911 -0.12771734084524489 0 -0.16357536279874571 -0.13287201412426261 0 -0.16240001670107521 -0.15187232301744369 0 -0.1777774968013382 -0.13321946143340921 0 -0.16357536279874571 -0.13287201412426261 0 -0.15691776897258261 -0.1210019373627417 0 -0.1777774968013382 -0.13321946143340921 0 -0.16357536279874571 -0.13287201412426261 0 -0.16240001670107521 -0.15187232301744369 0 -0.15132320049875911 -0.12771734084524489 0 -0.16357536279874571 -0.13287201412426261 0 -0.15691776897258261 -0.1210019373627417 0 -0.15233554839032601 -0.25956947158885962 0 -0.14912712425829991 -0.2407560049677902 0 -0.1256374789938742 -0.24844642613119489 0 -0.14912712425829991 -0.2407560049677902 0 -0.1256374789938742 -0.24844642613119489 0 -0.13228002548338749 -0.22901680813062419 0 -0.14912712425829991 -0.2407560049677902 0 -0.1256374789938742 -0.24844642613119489 0 -0.13228002548338749 -0.22901680813062419 0 -0.1500326328089818 -0.22149813452849221 0 -0.12792206268005671 -0.20630750412903681 0 -0.14912712425829991 -0.2407560049677902 0 -0.13228002548338749 -0.22901680813062419 0 -0.1500326328089818 -0.22149813452849221 0 -0.1500326328089818 -0.22149813452849221 0 -0.15623785589288189 -0.2032448957454385 0 -0.12792206268005671 -0.20630750412903681 0 -0.15623785589288189 -0.2032448957454385 0 -0.12792206268005671 -0.20630750412903681 0 -0.12177266552236619 -0.21944435015962399 0 -0.13228002548338749 -0.22901680813062419 0 -0.12792206268005671 -0.20630750412903681 0 -0.12956667495364191 -0.1765366729717569 0 -0.14990476878214121 -0.18462355537089781 0 -0.12792206268005671 -0.20630750412903681 0 -0.14990476878214121 -0.18462355537089781 0 -0.15623785589288189 -0.2032448957454385 0 -0.12792206268005671 -0.20630750412903681 0 -0.17347683290339089 -0.17602730518964271 0 -0.15623785589288189 -0.2032448957454385 0 -0.1845536491057071 -0.2001822873618416 0 -0.14990476878214121 -0.18462355537089781 0 -0.17347683290339089 -0.17602730518964271 0 -0.15623785589288189 -0.2032448957454385 0 -0.15623785589288189 -0.2032448957454385 0 -0.1845536491057071 -0.2001822873618416 0 -0.17347683290339089 -0.17602730518964271 0 -0.1845536491057071 -0.2001822873618416 0 -0.1845536491057071 -0.2001822873618416 0 -0.17178386697438919 -0.21479864184136679 0 -0.19610641478715221 -0.22537516264098309 0 -0.1500326328089818 -0.22149813452849221 0 -0.15623785589288189 -0.2032448957454385 0 -0.17178386697438919 -0.21479864184136679 0 -0.15623785589288189 -0.2032448957454385 0 -0.1845536491057071 -0.2001822873618416 0 -0.17178386697438919 -0.21479864184136679 0 -0.1500326328089818 -0.22149813452849221 0 -0.17178386697438919 -0.21479864184136679 0 -0.17261676952272631 -0.23306558380438711 0 -0.14912712425829991 -0.2407560049677902 0 -0.1500326328089818 -0.22149813452849221 0 -0.17261676952272631 -0.23306558380438711 0 -0.17261676952272631 -0.23306558380438711 0 -0.19610641478715221 -0.22537516264098309 0 -0.17178386697438919 -0.21479864184136679 0 -0.17261676952272631 -0.23306558380438711 0 -0.19610641478715221 -0.22537516264098309 0 -0.17495649505971081 -0.2440762360077027 0 -0.19757744172909969 -0.22858300042655191 0 -0.1854146799826959 -0.25451409448942952 0 -0.17495649505971081 -0.2440762360077027 0 -0.19148401382776781 -0.2419686183389636 0 -0.17261676952272631 -0.23306558380438711 0 -0.17495649505971081 -0.2440762360077027 0 -0.19757744172909969 -0.22858300042655191 0 -0.14912712425829991 -0.2407560049677902 0 -0.17261676952272631 -0.23306558380438711 0 -0.17495649505971081 -0.2440762360077027 0 -0.15233554839032601 -0.25956947158885962 0 -0.14912712425829991 -0.2407560049677902 0 -0.17495649505971081 -0.2440762360077027 0 -0.14912712425829991 -0.2407560049677902 0 -0.17261676952272631 -0.23306558380438711 0 -0.21482994921347581 -0.25032139581794882 0 -0.21333541705589401 -0.2424834669758425 0 -0.21049969678583361 -0.24732464223307191 0 -0.21482994921347581 -0.25032139581794882 0 -0.21782913085211561 -0.24219539003578469 0 -0.22130921346818319 -0.2431181526363099 0 -0.21482994921347581 -0.25032139581794882 0 -0.21333541705589401 -0.2424834669758425 0 -0.21782913085211561 -0.24219539003578469 0 -0.21782913085211561 -0.24219539003578469 0 -0.21596782471016021 -0.23730925455688001 0 -0.22130921346818319 -0.2431181526363099 0 -0.21596782471016021 -0.23730925455688001 0 -0.21731747783132149 -0.23101667867271691 0 -0.22130921346818319 -0.2431181526363099 0 -0.21333541705589401 -0.2424834669758425 0 -0.21782913085211561 -0.24219539003578469 0 -0.21596782471016021 -0.23730925455688001 0 -0.21596782471016021 -0.23730925455688001 0 -0.21089837218924021 -0.23866289457146231 0 -0.2098556797987654 -0.23249492855434201 0 -0.21333541705589401 -0.2424834669758425 0 -0.21596782471016021 -0.23730925455688001 0 -0.21089837218924021 -0.23866289457146231 0 -0.21333541705589401 -0.2424834669758425 0 -0.21089837218924021 -0.23866289457146231 0 -0.20836318304536661 -0.24292156839486781 0 -0.21089837218924021 -0.23866289457146231 0 -0.20665535918964881 -0.23790041233060291 0 -0.20836318304536661 -0.24292156839486781 0 -0.21089837218924021 -0.23866289457146231 0 -0.20665535918964881 -0.23790041233060291 0 -0.2098556797987654 -0.23249492855434201 0 -0.20665535918964881 -0.23790041233060291 0 -0.20227391135793291 -0.23526198790072389 0 -0.2098556797987654 -0.23249492855434201 0 -0.20665535918964881 -0.23790041233060291 0 -0.2032507471828422 -0.24197052850711331 0 -0.20836318304536661 -0.24292156839486781 0 -0.20665535918964881 -0.23790041233060291 0 -0.2032507471828422 -0.24197052850711331 0 -0.20227391135793291 -0.23526198790072389 0 -0.2032507471828422 -0.24197052850711331 0 -0.20836318304536661 -0.24292156839486781 0 -0.20476062514304949 -0.24868094349004219 0 -0.21333541705589401 -0.2424834669758425 0 -0.20836318304536661 -0.24292156839486781 0 -0.21049969678583361 -0.24732464223307191 0 -0.20836318304536661 -0.24292156839486781 0 -0.21049969678583361 -0.24732464223307191 0 -0.20476062514304949 -0.24868094349004219 0 -0.19767277386163329 -0.25354154102011939 0 -0.19932076033989221 -0.24548593915868511 0 -0.19148401382776781 -0.2419686183389636 0 -0.19767277386163329 -0.25354154102011939 0 -0.20476062514304949 -0.24868094349004219 0 -0.19932076033989221 -0.24548593915868511 0 -0.19932076033989221 -0.24548593915868511 0 -0.19148401382776781 -0.2419686183389636 0 -0.1988641125736498 -0.2401619038906023 0 -0.17495649505971081 -0.2440762360077027 0 -0.19148401382776781 -0.2419686183389636 0 -0.19757744172909969 -0.22858300042655191 0 -0.2032507471828422 -0.24197052850711331 0 -0.19932076033989221 -0.24548593915868511 0 -0.1988641125736498 -0.2401619038906023 0 -0.2032507471828422 -0.24197052850711331 0 -0.20476062514304949 -0.24868094349004219 0 -0.19932076033989221 -0.24548593915868511 0 -0.19148401382776781 -0.2419686183389636 0 -0.19781438265274659 -0.23533727979770769 0 -0.19757744172909969 -0.22858300042655191 0 -0.19148401382776781 -0.2419686183389636 0 -0.19781438265274659 -0.23533727979770769 0 -0.1988641125736498 -0.2401619038906023 0 -0.2032507471828422 -0.24197052850711331 0 -0.1988641125736498 -0.2401619038906023 0 -0.20227391135793291 -0.23526198790072389 0 -0.19781438265274659 -0.23533727979770769 0 -0.1988641125736498 -0.2401619038906023 0 -0.20227391135793291 -0.23526198790072389 0 -0.20273384584499249 -0.22994680683683219 0 -0.19757744172909969 -0.22858300042655191 0 -0.20789727226072119 -0.22151488042604939 0 -0.19781438265274659 -0.23533727979770769 0 -0.20227391135793291 -0.23526198790072389 0 -0.20044622819873581 -0.2323702298789348 0 -0.20227391135793291 -0.23526198790072389 0 -0.20044622819873581 -0.2323702298789348 0 -0.20273384584499249 -0.22994680683683219 0 -0.17261676952272631 -0.23306558380438711 0 -0.19757744172909969 -0.22858300042655191 0 -0.19610641478715221 -0.22537516264098309 0 -0.20044622819873581 -0.2323702298789348 0 -0.20273384584499249 -0.22994680683683219 0 -0.19757744172909969 -0.22858300042655191 0 -0.19757744172909969 -0.22858300042655191 0 -0.19610641478715221 -0.22537516264098309 0 -0.19781438265274659 -0.23533727979770769 0 -0.20044622819873581 -0.2323702298789348 0 -0.19757744172909969 -0.22858300042655191 0 -0.19757744172909969 -0.22858300042655191 0 -0.20789727226072119 -0.22151488042604939 0 -0.19610641478715221 -0.22537516264098309 0 -0.20789727226072119 -0.22151488042604939 0 -0.19757744172909969 -0.22858300042655191 0 -0.19610641478715221 -0.22537516264098309 0 -0.20789727226072119 -0.22151488042604939 0 -0.19610641478715221 -0.22537516264098309 0 -0.20789727226072119 -0.22151488042604939 0 -0.20143397121891921 -0.2108599087942982 0 -0.20789727226072119 -0.22151488042604939 0 -0.2135346804867983 -0.22654674715140949 0 -0.22591999069270011 -0.21561431046464249 0 -0.20273384584499249 -0.22994680683683219 0 -0.20789727226072119 -0.22151488042604939 0 -0.2098556797987654 -0.23249492855434201 0 -0.20789727226072119 -0.22151488042604939 0 -0.2098556797987654 -0.23249492855434201 0 -0.2135346804867983 -0.22654674715140949 0 -0.20227391135793291 -0.23526198790072389 0 -0.20273384584499249 -0.22994680683683219 0 -0.2098556797987654 -0.23249492855434201 0 -0.2098556797987654 -0.23249492855434201 0 -0.21731747783132149 -0.23101667867271691 0 -0.2135346804867983 -0.22654674715140949 0 -0.21596782471016021 -0.23730925455688001 0 -0.2098556797987654 -0.23249492855434201 0 -0.21731747783132149 -0.23101667867271691 0 -0.20789727226072119 -0.22151488042604939 0 -0.22427680817106371 -0.2102964282419785 0 -0.20789727226072119 -0.22151488042604939 0 -0.22591999069270011 -0.21561431046464249 0 -0.20789727226072119 -0.22151488042604939 0 -0.2116763405936076 -0.2094657986687615 0 -0.22427680817106371 -0.2102964282419785 0 -0.2116763405936076 -0.2094657986687615 0 -0.20143397121891921 -0.2108599087942982 0 -0.20693617934740821 -0.1977614148738559 0 -0.20789727226072119 -0.22151488042604939 0 -0.2116763405936076 -0.2094657986687615 0 -0.20143397121891921 -0.2108599087942982 0 -0.1845536491057071 -0.2001822873618416 0 -0.19610641478715221 -0.22537516264098309 0 -0.20143397121891921 -0.2108599087942982 0 -0.1845536491057071 -0.2001822873618416 0 -0.19610641478715221 -0.22537516264098309 0 -0.1845536491057071 -0.2001822873618416 0 -0.20693617934740821 -0.1977614148738559 0 -0.1845536491057071 -0.2001822873618416 0 -0.20143397121891921 -0.2108599087942982 0 -0.20693617934740821 -0.1977614148738559 0 -0.1845536491057071 -0.2001822873618416 0 -0.20693617934740821 -0.1977614148738559 0 -0.1912615381347022 -0.18077016325458239 0 -0.20693617934740821 -0.1977614148738559 0 -0.2293187095891093 -0.19534054238587101 0 -0.2116763405936076 -0.2094657986687615 0 -0.20693617934740821 -0.1977614148738559 0 -0.2293187095891093 -0.19534054238587101 0 -0.20693617934740821 -0.1977614148738559 0 -0.2293187095891093 -0.19534054238587101 0 -0.20948100371251549 -0.17231406127859611 0 -0.2293187095891093 -0.19534054238587101 0 -0.24909357648288249 -0.19320171220448801 0 -0.2293187095891093 -0.19534054238587101 0 -0.24909357648288249 -0.19320171220448801 0 -0.24902456921953209 -0.17639246698618519 0 -0.2293187095891093 -0.19534054238587101 0 -0.24909357648288249 -0.19320171220448801 0 -0.24583522102665989 -0.20909413925259551 0 -0.24583522102665989 -0.20909413925259551 0 -0.22591999069270011 -0.21561431046464249 0 -0.2293187095891093 -0.19534054238587101 0 -0.22427680817106371 -0.2102964282419785 0 -0.22591999069270011 -0.21561431046464249 0 -0.20789727226072119 -0.22151488042604939 0 -0.22427680817106371 -0.2102964282419785 0 -0.22591999069270011 -0.21561431046464249 0 -0.2293187095891093 -0.19534054238587101 0 -0.24583522102665989 -0.20909413925259551 0 -0.22591999069270011 -0.21561431046464249 0 -0.2293187095891093 -0.19534054238587101 0 -0.22591999069270011 -0.21561431046464249 0 -0.2116763405936076 -0.2094657986687615 0 -0.2293187095891093 -0.19534054238587101 0 -0.22427680817106371 -0.2102964282419785 0 -0.22591999069270011 -0.21561431046464249 0 -0.23878171858606409 -0.23190886522722759 0 -0.22130921346818319 -0.2431181526363099 0 -0.21731747783132149 -0.23101667867271691 0 -0.22591999069270011 -0.21561431046464249 0 -0.22130921346818319 -0.2431181526363099 0 -0.22591999069270011 -0.21561431046464249 0 -0.22130921346818319 -0.2431181526363099 0 -0.21731747783132149 -0.23101667867271691 0 -0.2135346804867983 -0.22654674715140949 0 -0.22591999069270011 -0.21561431046464249 0 -0.24583522102665989 -0.20909413925259551 0 -0.23878171858606409 -0.23190886522722759 0 -0.25570994727850099 -0.2254785095757581 0 -0.24583522102665989 -0.20909413925259551 0 -0.22591999069270011 -0.21561431046464249 0 -0.23878171858606409 -0.23190886522722759 0 -0.2484047987823973 -0.25030269263885491 0 -0.23878171858606409 -0.23190886522722759 0 -0.25570994727850099 -0.2254785095757581 0 -0.2484047987823973 -0.25030269263885491 0 -0.23878171858606409 -0.23190886522722759 0 -0.22130921346818319 -0.2431181526363099 0 -0.2484047987823973 -0.25030269263885491 0 -0.22130921346818319 -0.2431181526363099 0 -0.21782913085211561 -0.24219539003578469 0 -0.22130921346818319 -0.2431181526363099 0 -0.20031591136269461 -0.14741328601253709 0 -0.22039003073627711 -0.15228332132580419 0 -0.22059765290086311 -0.1280665957407052 0 -0.19760802719407031 -0.12817978549433329 0 -0.20031591136269461 -0.14741328601253709 0 -0.22059765290086311 -0.1280665957407052 0 -0.1777774968013382 -0.13321946143340921 0 -0.19760802719407031 -0.12817978549433329 0 -0.20031591136269461 -0.14741328601253709 0 -0.1846639120317253 -0.159496951708542 0 -0.1777774968013382 -0.13321946143340921 0 -0.20031591136269461 -0.14741328601253709 0 -0.1846639120317253 -0.159496951708542 0 -0.20031591136269461 -0.14741328601253709 0 -0.20948100371251549 -0.17231406127859611 0 -0.1846639120317253 -0.159496951708542 0 -0.1912615381347022 -0.18077016325458239 0 -0.20948100371251549 -0.17231406127859611 0 -0.20693617934740821 -0.1977614148738559 0 -0.1912615381347022 -0.18077016325458239 0 -0.20948100371251549 -0.17231406127859611 0 -0.20031591136269461 -0.14741328601253709 0 -0.20948100371251549 -0.17231406127859611 0 -0.22039003073627711 -0.15228332132580419 0 -0.20948100371251549 -0.17231406127859611 0 -0.2336247650981397 -0.16965440199435111 0 -0.22039003073627711 -0.15228332132580419 0 -0.2293187095891093 -0.19534054238587101 0 -0.20948100371251549 -0.17231406127859611 0 -0.2336247650981397 -0.16965440199435111 0 -0.2293187095891093 -0.19534054238587101 0 -0.2336247650981397 -0.16965440199435111 0 -0.2293187095891093 -0.19534054238587101 0 -0.2336247650981397 -0.16965440199435111 0 -0.24902456921953209 -0.17639246698618519 0 -0.2336247650981397 -0.16965440199435111 0 -0.23793082060717269 -0.14396826160283149 0 -0.2336247650981397 -0.16965440199435111 0 -0.23793082060717269 -0.14396826160283149 0 -0.25003963247768718 -0.16208663998204739 0 -0.2336247650981397 -0.16965440199435111 0 -0.24902456921953209 -0.17639246698618519 0 -0.25003963247768718 -0.16208663998204739 0 -0.23793082060717269 -0.14396826160283149 0 -0.22039003073627711 -0.15228332132580419 0 -0.22059765290086311 -0.1280665957407052 0 -0.2336247650981397 -0.16965440199435111 0 -0.23793082060717269 -0.14396826160283149 0 -0.22039003073627711 -0.15228332132580419 0 -0.23793082060717269 -0.14396826160283149 0 -0.22059765290086311 -0.1280665957407052 0 -0.2422368761162057 -0.118282121211312 0 -0.23793082060717269 -0.14396826160283149 0 -0.2422368761162057 -0.118282121211312 0 -0.23793082060717269 -0.14396826160283149 0 -0.2422368761162057 -0.118282121211312 0 -0.25765772953270638 -0.12725286383122411 0 -0.2422368761162057 -0.118282121211312 0 -0.2340184668376723 -0.103700370821022 0 -0.24654293162523341 -0.092595980819791604 0 -0.2422368761162057 -0.118282121211312 0 -0.2481410536782242 -0.09913378306860883 0 -0.24654293162523341 -0.092595980819791604 0 -0.2422368761162057 -0.118282121211312 0 -0.24654293162523341 -0.092595980819791604 0 -0.2422368761162057 -0.118282121211312 0 -0.2481410536782242 -0.09913378306860883 0 -0.25622919086432761 -0.1090333359348112 0 -0.24654293162523341 -0.092595980819791604 0 -0.25219587672779159 -0.096573566868223354 0 -0.2481410536782242 -0.09913378306860883 0 -0.24654293162523341 -0.092595980819791604 0 -0.25219587672779159 -0.096573566868223354 0 -0.2340184668376723 -0.103700370821022 0 -0.24654293162523341 -0.092595980819791604 0 -0.2402408966207106 -0.088161675151520708 0 -0.2340184668376723 -0.103700370821022 0 -0.2402408966207106 -0.088161675151520708 0 -0.21246652073800079 -0.099108429221927002 0 -0.22059765290086311 -0.1280665957407052 0 -0.2422368761162057 -0.118282121211312 0 -0.2340184668376723 -0.103700370821022 0 -0.22059765290086311 -0.1280665957407052 0 -0.2340184668376723 -0.103700370821022 0 -0.21246652073800079 -0.099108429221927002 0 -0.2384385463836606 -0.075385696225285459 0 -0.2477847462153856 -0.085188407035406671 0 -0.25106972457405152 -0.065593114980598 0 -0.2288865290834978 -0.061102852920340837 0 -0.25106972457405152 -0.065593114980598 0 -0.2384385463836606 -0.075385696225285459 0 -0.2288865290834978 -0.061102852920340837 0 -0.25106972457405152 -0.065593114980598 0 -0.2477847462153856 -0.085188407035406671 0 -0.25106972457405152 -0.065593114980598 0 -0.2384385463836606 -0.075385696225285459 0 -0.2477847462153856 -0.085188407035406671 0 -0.2402408966207106 -0.088161675151520708 0 -0.2477847462153856 -0.085188407035406671 0 -0.24654293162523341 -0.092595980819791604 0 -0.2402408966207106 -0.088161675151520708 0 -0.2477847462153856 -0.085188407035406671 0 -0.24654293162523341 -0.092595980819791604 0 -0.25219587672779159 -0.096573566868223354 0 -0.2477847462153856 -0.085188407035406671 0 -0.2402408966207106 -0.088161675151520708 0 -0.2477847462153856 -0.085188407035406671 0 -0.24654293162523341 -0.092595980819791604 0 -0.24654293162523341 -0.092595980819791604 0 -0.2402408966207106 -0.088161675151520708 0 -0.2402408966207106 -0.088161675151520708 0 -0.22421083542465839 -0.076882431038563182 0 -0.2402408966207106 -0.088161675151520708 0 -0.21246652073800079 -0.099108429221927002 0 -0.2384385463836606 -0.075385696225285459 0 -0.2402408966207106 -0.088161675151520708 0 -0.22421083542465839 -0.076882431038563182 0 -0.2402408966207106 -0.088161675151520708 0 -0.22421083542465839 -0.076882431038563182 0 -0.21246652073800079 -0.099108429221927002 0 -0.22421083542465839 -0.076882431038563182 0 -0.21929206034386639 -0.066842410788480591 0 -0.2288865290834978 -0.061102852920340837 0 -0.2384385463836606 -0.075385696225285459 0 -0.22421083542465839 -0.076882431038563182 0 -0.2288865290834978 -0.061102852920340837 0 -0.20818077422860651 -0.065603186925605295 0 -0.20762385038366371 -0.081965506326765789 0 -0.19804212913057251 -0.072747904145137404 0 -0.22421083542465839 -0.076882431038563182 0 -0.20818077422860651 -0.065603186925605295 0 -0.22421083542465839 -0.076882431038563182 0 -0.21929206034386639 -0.066842410788480591 0 -0.20818077422860651 -0.065603186925605295 0 -0.22421083542465839 -0.076882431038563182 0 -0.20818077422860651 -0.065603186925605295 0 -0.20762385038366371 -0.081965506326765789 0 -0.21929206034386639 -0.066842410788480591 0 -0.20818077422860651 -0.065603186925605295 0 -0.2067033335929428 -0.056612590860089622 0 -0.22421083542465839 -0.076882431038563182 0 -0.20762385038366371 -0.081965506326765789 0 -0.21246652073800079 -0.099108429221927002 0 -0.20762385038366371 -0.081965506326765789 0 -0.19804212913057251 -0.072747904145137404 0 -0.1871765901901471 -0.084680960270133096 0 -0.20762385038366371 -0.081965506326765789 0 -0.21246652073800079 -0.099108429221927002 0 -0.1871765901901471 -0.084680960270133096 0 -0.19804212913057251 -0.072747904145137404 0 -0.18793720857283769 -0.066273608588619692 0 -0.1871765901901471 -0.084680960270133096 0 -0.19804212913057251 -0.072747904145137404 0 -0.18793720857283769 -0.066273608588619692 0 -0.1991178054899885 -0.062475827435365373 0 -0.20818077422860651 -0.065603186925605295 0 -0.19804212913057251 -0.072747904145137404 0 -0.1991178054899885 -0.062475827435365373 0 -0.19760802719407031 -0.12817978549433329 0 -0.22059765290086311 -0.1280665957407052 0 -0.21246652073800079 -0.099108429221927002 0 -0.21246652073800079 -0.099108429221927002 0 -0.18469214485529159 -0.11005518329233389 0 -0.21246652073800079 -0.099108429221927002 0 -0.18469214485529159 -0.11005518329233389 0 -0.1871765901901471 -0.084680960270133096 0 -0.19760802719407031 -0.12817978549433329 0 -0.21246652073800079 -0.099108429221927002 0 -0.18469214485529159 -0.11005518329233389 0 -0.1777774968013382 -0.13321946143340921 0 -0.19760802719407031 -0.12817978549433329 0 -0.18469214485529159 -0.11005518329233389 0 -0.1777774968013382 -0.13321946143340921 0 -0.18469214485529159 -0.11005518329233389 0 -0.15691776897258261 -0.1210019373627417 0 -0.18469214485529159 -0.11005518329233389 0 -0.15691776897258261 -0.1210019373627417 0 -0.1720471795813652 -0.1028414488164377 0 -0.15691776897258261 -0.1210019373627417 0 -0.1720471795813652 -0.1028414488164377 0 -0.18469214485529159 -0.11005518329233389 0 -0.15691776897258261 -0.1210019373627417 0 -0.15691776897258261 -0.1210019373627417 0 -0.1720471795813652 -0.1028414488164377 0 -0.15615720923890589 -0.104985957144671 0 -0.1720471795813652 -0.1028414488164377 0 -0.17072023547703019 -0.087531134393889556 0 -0.15615720923890589 -0.104985957144671 0 -0.17072023547703019 -0.087531134393889556 0 -0.14955605992155821 -0.089785904007424422 0 -0.15615720923890589 -0.104985957144671 0 -0.18469214485529159 -0.11005518329233389 0 -0.1720471795813652 -0.1028414488164377 0 -0.1871765901901471 -0.084680960270133096 0 -0.1720471795813652 -0.1028414488164377 0 -0.1871765901901471 -0.084680960270133096 0 -0.1871765901901471 -0.084680960270133096 0 -0.17304189712510781 -0.071632091322796521 0 -0.17072023547703019 -0.087531134393889556 0 -0.1720471795813652 -0.1028414488164377 0 -0.1871765901901471 -0.084680960270133096 0 -0.17072023547703019 -0.087531134393889556 0 -0.18793720857283769 -0.066273608588619692 0 -0.17304189712510781 -0.071632091322796521 0 -0.1749924460851866 -0.054364595064041517 0 -0.18793720857283769 -0.066273608588619692 0 -0.1871765901901471 -0.084680960270133096 0 -0.17304189712510781 -0.071632091322796521 0 -0.17304189712510781 -0.071632091322796521 0 -0.15907926984714971 -0.075595128037617879 0 -0.15814930311205469 -0.06020044081841347 0 -0.17304189712510781 -0.071632091322796521 0 -0.15907926984714971 -0.075595128037617879 0 -0.17072023547703019 -0.087531134393889556 0 -0.15907926984714971 -0.075595128037617879 0 -0.17072023547703019 -0.087531134393889556 0 -0.14955605992155821 -0.089785904007424422 0 -0.14955605992155821 -0.089785904007424422 0 -0.14204049586746731 -0.065494064806900107 0 -0.13082166523634511 -0.083010070297341518 0 -0.15907926984714971 -0.075595128037617879 0 -0.14955605992155821 -0.089785904007424422 0 -0.14204049586746731 -0.065494064806900107 0 -0.15907926984714971 -0.075595128037617879 0 -0.14204049586746731 -0.065494064806900107 0 -0.15814930311205469 -0.06020044081841347 0 -0.121446769474921 -0.062566430550396582 0 -0.13082166523634511 -0.083010070297341518 0 -0.121446769474921 -0.062566430550396582 0 -0.14204049586746731 -0.065494064806900107 0 -0.13082166523634511 -0.083010070297341518 0 -0.13082166523634511 -0.083010070297341518 0 -0.14019656099776381 -0.1034537100442889 0 -0.14955605992155821 -0.089785904007424422 0 -0.13082166523634511 -0.083010070297341518 0 -0.14019656099776381 -0.1034537100442889 0 -0.13082166523634511 -0.083010070297341518 0 -0.14019656099776381 -0.1034537100442889 0 -0.12779657791173579 -0.1066396084623952 0 -0.14019656099776381 -0.1034537100442889 0 -0.12779657791173579 -0.1066396084623952 0 -0.1354977896838527 -0.11630540449597 0 -0.13381228172809209 -0.1301085357471827 0 -0.1354977896838527 -0.11630540449597 0 -0.14957145675918249 -0.1238973497912363 0 -0.12779657791173579 -0.1066396084623952 0 -0.12588964361509331 -0.1215411992977304 0 -0.1354977896838527 -0.11630540449597 0 -0.13381228172809209 -0.1301085357471827 0 -0.12588964361509331 -0.1215411992977304 0 -0.1354977896838527 -0.11630540449597 0 -0.15691776897258261 -0.1210019373627417 0 -0.14957145675918249 -0.1238973497912363 0 -0.15615720923890589 -0.104985957144671 0 -0.14019656099776381 -0.1034537100442889 0 -0.14957145675918249 -0.1238973497912363 0 -0.15615720923890589 -0.104985957144671 0 -0.14019656099776381 -0.1034537100442889 0 -0.1354977896838527 -0.11630540449597 0 -0.14957145675918249 -0.1238973497912363 0 -0.14019656099776381 -0.1034537100442889 0 -0.14957145675918249 -0.1238973497912363 0 -0.15132320049875911 -0.12771734084524489 0 -0.15691776897258261 -0.1210019373627417 0 -0.15132320049875911 -0.12771734084524489 0 -0.15691776897258261 -0.1210019373627417 0 -0.14957145675918249 -0.1238973497912363 0 -0.15691776897258261 -0.1210019373627417 0 -0.14957145675918249 -0.1238973497912363 0 -0.14955605992155821 -0.089785904007424422 0 -0.14019656099776381 -0.1034537100442889 0 -0.15615720923890589 -0.104985957144671 0 -0.13800113038785231 -0.01696743284567051 0 -0.13997413210703949 -0.043843445234018119 0 -0.15850149473915959 -0.025120459917641159 0 -0.13800113038785231 -0.01696743284567051 0 -0.15850149473915959 -0.025120459917641159 0 -0.15622160541765129 0.0041525486497314794 0 -0.13800113038785231 -0.01696743284567051 0 -0.13296179499841851 0.0059486398834025503 0 -0.15622160541765129 0.0041525486497314794 0 -0.115216914923293 -0.01398412961978371 0 -0.13800113038785231 -0.01696743284567051 0 -0.13296179499841851 0.0059486398834025503 0 -0.13800113038785231 -0.01696743284567051 0 -0.12563345933199019 -0.02887381096411034 0 -0.13997413210703949 -0.043843445234018119 0 -0.115216914923293 -0.01398412961978371 0 -0.13800113038785231 -0.01696743284567051 0 -0.12563345933199019 -0.02887381096411034 0 -0.1112717176010572 -0.040377907050010639 0 -0.12563345933199019 -0.02887381096411034 0 -0.13997413210703949 -0.043843445234018119 0 -0.121446769474921 -0.062566430550396582 0 -0.14204049586746731 -0.065494064806900107 0 -0.13997413210703949 -0.043843445234018119 0 -0.121446769474921 -0.062566430550396582 0 -0.13997413210703949 -0.043843445234018119 0 -0.13997413210703949 -0.043843445234018119 0 -0.1586367199148315 -0.043668439244098203 0 -0.15814930311205469 -0.06020044081841347 0 -0.14204049586746731 -0.065494064806900107 0 -0.13997413210703949 -0.043843445234018119 0 -0.15814930311205469 -0.06020044081841347 0 -0.13997413210703949 -0.043843445234018119 0 -0.1586367199148315 -0.043668439244098203 0 -0.15850149473915959 -0.025120459917641159 0 -0.13997413210703949 -0.043843445234018119 0 -0.15850149473915959 -0.025120459917641159 0 -0.1586367199148315 -0.043668439244098203 0 -0.17510793348094739 -0.035139374430051371 0 -0.15850149473915959 -0.025120459917641159 0 -0.1586367199148315 -0.043668439244098203 0 -0.1749924460851866 -0.054364595064041517 0 -0.17510793348094739 -0.035139374430051371 0 -0.17304189712510781 -0.071632091322796521 0 -0.15814930311205469 -0.06020044081841347 0 -0.1749924460851866 -0.054364595064041517 0 -0.1586367199148315 -0.043668439244098203 0 -0.15814930311205469 -0.06020044081841347 0 -0.1749924460851866 -0.054364595064041517 0 -0.18793720857283769 -0.066273608588619692 0 -0.1749924460851866 -0.054364595064041517 0 -0.19432447661437749 -0.048994081234435299 0 -0.1749924460851866 -0.054364595064041517 0 -0.17510793348094739 -0.035139374430051371 0 -0.19432447661437749 -0.048994081234435299 0 -0.17510793348094739 -0.035139374430051371 0 -0.1770288573712796 -0.0063974746012641984 0 -0.19389124863369081 -0.03030827439336618 0 -0.15850149473915959 -0.025120459917641159 0 -0.1770288573712796 -0.0063974746012641984 0 -0.17510793348094739 -0.035139374430051371 0 -0.15850149473915959 -0.025120459917641159 0 -0.1770288573712796 -0.0063974746012641984 0 -0.15850149473915959 -0.025120459917641159 0 -0.1770288573712796 -0.0063974746012641984 0 -0.15622160541765129 0.0041525486497314794 0 -0.1770288573712796 -0.0063974746012641984 0 -0.19640597218288211 -0.01131972716184276 0 -0.19555622000339959 0.0123255107151128 0 -0.19640597218288211 -0.01131972716184276 0 -0.2109484402515481 -0.0049884885989098376 0 -0.19555622000339959 0.0123255107151128 0 -0.1770288573712796 -0.0063974746012641984 0 -0.19640597218288211 -0.01131972716184276 0 -0.19389124863369081 -0.03030827439336618 0 -0.19640597218288211 -0.01131972716184276 0 -0.19389124863369081 -0.03030827439336618 0 -0.2149209586316759 -0.023248427602598799 0 -0.19389124863369081 -0.03030827439336618 0 -0.2149209586316759 -0.023248427602598799 0 -0.2060506987466226 -0.038330467863838383 0 -0.2149209586316759 -0.023248427602598799 0 -0.2109484402515481 -0.0049884885989098376 0 -0.22665409530462069 -0.0070961945995017114 0 -0.19640597218288211 -0.01131972716184276 0 -0.2149209586316759 -0.023248427602598799 0 -0.2109484402515481 -0.0049884885989098376 0 -0.18793720857283769 -0.066273608588619692 0 -0.1991178054899885 -0.062475827435365373 0 -0.19432447661437749 -0.048994081234435299 0 -0.1991178054899885 -0.062475827435365373 0 -0.19432447661437749 -0.048994081234435299 0 -0.2067033335929428 -0.056612590860089622 0 -0.19389124863369081 -0.03030827439336618 0 -0.19432447661437749 -0.048994081234435299 0 -0.2060506987466226 -0.038330467863838383 0 -0.17510793348094739 -0.035139374430051371 0 -0.19389124863369081 -0.03030827439336618 0 -0.19432447661437749 -0.048994081234435299 0 -0.2149209586316759 -0.023248427602598799 0 -0.2060506987466226 -0.038330467863838383 0 -0.2199741468356336 -0.040240602409344933 0 -0.2060506987466226 -0.038330467863838383 0 -0.20984662155145889 -0.047392804896065663 0 -0.2199741468356336 -0.040240602409344933 0 -0.20984662155145889 -0.047392804896065663 0 -0.22028341844502819 -0.050676069424530797 0 -0.2199741468356336 -0.040240602409344933 0 -0.19432447661437749 -0.048994081234435299 0 -0.2060506987466226 -0.038330467863838383 0 -0.20984662155145889 -0.047392804896065663 0 -0.2067033335929428 -0.056612590860089622 0 -0.2288865290834978 -0.061102852920340837 0 -0.22028341844502819 -0.050676069424530797 0 -0.21929206034386639 -0.066842410788480591 0 -0.2067033335929428 -0.056612590860089622 0 -0.2288865290834978 -0.061102852920340837 0 -0.2067033335929428 -0.056612590860089622 0 -0.2288865290834978 -0.061102852920340837 0 -0.19432447661437749 -0.048994081234435299 0 -0.20984662155145889 -0.047392804896065663 0 -0.2067033335929428 -0.056612590860089622 0 -0.20984662155145889 -0.047392804896065663 0 -0.2067033335929428 -0.056612590860089622 0 -0.22028341844502819 -0.050676069424530797 0 -0.20818077422860651 -0.065603186925605295 0 -0.1991178054899885 -0.062475827435365373 0 -0.2067033335929428 -0.056612590860089622 0 -0.2288865290834978 -0.061102852920340837 0 -0.22028341844502819 -0.050676069424530797 0 -0.2347562149731415 -0.046358273295512953 0 -0.2149209586316759 -0.023248427602598799 0 -0.2199741468356336 -0.040240602409344933 0 -0.22989431845309469 -0.033012441129838359 0 -0.2199741468356336 -0.040240602409344933 0 -0.22989431845309469 -0.033012441129838359 0 -0.2347562149731415 -0.046358273295512953 0 -0.22028341844502819 -0.050676069424530797 0 -0.2199741468356336 -0.040240602409344933 0 -0.2347562149731415 -0.046358273295512953 0 -0.2445428564739926 -0.034824032995995992 0 -0.2347562149731415 -0.046358273295512953 0 -0.253808297596955 -0.049257196646253033 0 -0.22989431845309469 -0.033012441129838359 0 -0.2445428564739926 -0.034824032995995992 0 -0.2347562149731415 -0.046358273295512953 0 -0.2445428564739926 -0.034824032995995992 0 -0.253808297596955 -0.049257196646253033 0 -0.2288865290834978 -0.061102852920340837 0 -0.24213019155691129 -0.055577859460676157 0 -0.25106972457405152 -0.065593114980598 0 -0.2347562149731415 -0.046358273295512953 0 -0.24213019155691129 -0.055577859460676157 0 -0.253808297596955 -0.049257196646253033 0 -0.24213019155691129 -0.055577859460676157 0 -0.253808297596955 -0.049257196646253033 0 -0.25106972457405152 -0.065593114980598 0 -0.2288865290834978 -0.061102852920340837 0 -0.2347562149731415 -0.046358273295512953 0 -0.24213019155691129 -0.055577859460676157 0 -0.22665409530462069 -0.0070961945995017114 0 -0.23527741535102981 -0.02039086934573912 0 -0.24108948540814429 0.0001228137568196347 0 -0.2149209586316759 -0.023248427602598799 0 -0.22665409530462069 -0.0070961945995017114 0 -0.23527741535102981 -0.02039086934573912 0 -0.2149209586316759 -0.023248427602598799 0 -0.22989431845309469 -0.033012441129838359 0 -0.23527741535102981 -0.02039086934573912 0 -0.2445428564739926 -0.034824032995995992 0 -0.23527741535102981 -0.02039086934573912 0 -0.2483363121986821 -0.01233272913938524 0 -0.2445428564739926 -0.034824032995995992 0 -0.23527741535102981 -0.02039086934573912 0 -0.22989431845309469 -0.033012441129838359 0 -0.2445428564739926 -0.034824032995995992 0 -0.23527741535102981 -0.02039086934573912 0 -0.23527741535102981 -0.02039086934573912 0 -0.2483363121986821 -0.01233272913938524 0 -0.24108948540814429 0.0001228137568196347 0 -0.25800012817924139 -0.024252421717500059 0 -0.26749775860042307 -0.016793687376760388 0 -0.26219195876152818 0.00075235321125272092 0 -0.25800012817924139 -0.024252421717500059 0 -0.26219195876152818 0.00075235321125272092 0 -0.2483363121986821 -0.01233272913938524 0 -0.25800012817924139 -0.024252421717500059 0 -0.26219195876152818 0.00075235321125272092 0 -0.2483363121986821 -0.01233272913938524 0 -0.26219195876152818 0.00075235321125272092 0 -0.24108948540814429 0.0001228137568196347 0 -0.2445428564739926 -0.034824032995995992 0 -0.2483363121986821 -0.01233272913938524 0 -0.25800012817924139 -0.024252421717500059 0 -0.25800012817924139 -0.024252421717500059 0 -0.27129232710181728 -0.028209238490498039 0 -0.26749775860042307 -0.016793687376760388 0 -0.25800012817924139 -0.024252421717500059 0 -0.27129232710181728 -0.028209238490498039 0 -0.26877136223717102 -0.040601502647732761 0 -0.27129232710181728 -0.028209238490498039 0 -0.26749775860042307 -0.016793687376760388 0 -0.28061922789155158 -0.02212758995382292 0 -0.26749775860042307 -0.016793687376760388 0 -0.28061922789155158 -0.02212758995382292 0 -0.27840740703497019 -0.011716752004615159 0 -0.27129232710181728 -0.028209238490498039 0 -0.28061922789155158 -0.02212758995382292 0 -0.28509914754831378 -0.036443504925995442 0 -0.26749775860042307 -0.016793687376760388 0 -0.26898680858242718 -0.004809513156808054 0 -0.26219195876152818 0.00075235321125272092 0 -0.26898680858242718 -0.004809513156808054 0 -0.27840740703497019 -0.011716752004615159 0 -0.28499676550050229 -0.0019309530639492691 0 -0.26749775860042307 -0.016793687376760388 0 -0.26898680858242718 -0.004809513156808054 0 -0.27840740703497019 -0.011716752004615159 0 -0.28499676550050229 -0.0019309530639492691 0 -0.28993647459994693 -0.012922016471735159 0 -0.29743990844707258 -0.0030710653019683691 0 -0.27840740703497019 -0.011716752004615159 0 -0.28499676550050229 -0.0019309530639492691 0 -0.28993647459994693 -0.012922016471735159 0 -0.28061922789155158 -0.02212758995382292 0 -0.27840740703497019 -0.011716752004615159 0 -0.28993647459994693 -0.012922016471735159 0 -0.28061922789155158 -0.02212758995382292 0 -0.28993647459994693 -0.012922016471735159 0 -0.29405050381112091 -0.025057228005339039 0 -0.28061922789155158 -0.02212758995382292 0 -0.29405050381112091 -0.025057228005339039 0 -0.28509914754831378 -0.036443504925995442 0 -0.28993647459994693 -0.012922016471735159 0 -0.29405050381112091 -0.025057228005339039 0 -0.30341445725678701 -0.014959364798607849 0 -0.29405050381112091 -0.025057228005339039 0 -0.30341445725678701 -0.014959364798607849 0 -0.30725896677632941 -0.034747733883148911 0 -0.30341445725678701 -0.014959364798607849 0 -0.30725896677632941 -0.034747733883148911 0 -0.31880639569602759 -0.01503770786338899 0 -0.31132612188382319 -0.0011984883802009631 0 -0.30341445725678701 -0.014959364798607849 0 -0.31880639569602759 -0.01503770786338899 0 -0.31132612188382319 -0.0011984883802009631 0 -0.29743990844707258 -0.0030710653019683691 0 -0.30341445725678701 -0.014959364798607849 0 -0.28993647459994693 -0.012922016471735159 0 -0.29743990844707258 -0.0030710653019683691 0 -0.30341445725678701 -0.014959364798607849 0 -0.29808428205627963 -0.050403295431694507 0 -0.29844196951799362 -0.067373773309087781 0 -0.32192658411924102 -0.052545582281510107 0 -0.29844196951799362 -0.067373773309087781 0 -0.32192658411924102 -0.052545582281510107 0 -0.29808428205627963 -0.050403295431694507 0 -0.30725896677632941 -0.034747733883148911 0 -0.32192658411924102 -0.052545582281510107 0 -0.29808428205627963 -0.050403295431694507 0 -0.30725896677632941 -0.034747733883148911 0 -0.28509914754831378 -0.036443504925995442 0 -0.29405050381112091 -0.025057228005339039 0 -0.30725896677632941 -0.034747733883148911 0 -0.28509914754831378 -0.036443504925995442 0 -0.29808428205627963 -0.050403295431694507 0 -0.28961535349062573 -0.061028932471428113 0 -0.29844196951799362 -0.067373773309087781 0 -0.28961535349062573 -0.061028932471428113 0 -0.2779013618841723 -0.054073047625398503 0 -0.28403380050405741 -0.07226561351953166 0 -0.29808428205627963 -0.050403295431694507 0 -0.28509914754831378 -0.036443504925995442 0 -0.2779013618841723 -0.054073047625398503 0 -0.29808428205627963 -0.050403295431694507 0 -0.28961535349062573 -0.061028932471428113 0 -0.2779013618841723 -0.054073047625398503 0 -0.2779013618841723 -0.054073047625398503 0 -0.253808297596955 -0.049257196646253033 0 -0.26627044543680572 -0.06867000352929313 0 -0.2779013618841723 -0.054073047625398503 0 -0.26877136223717102 -0.040601502647732761 0 -0.253808297596955 -0.049257196646253033 0 -0.27129232710181728 -0.028209238490498039 0 -0.28509914754831378 -0.036443504925995442 0 -0.26877136223717102 -0.040601502647732761 0 -0.28509914754831378 -0.036443504925995442 0 -0.2779013618841723 -0.054073047625398503 0 -0.26877136223717102 -0.040601502647732761 0 -0.2445428564739926 -0.034824032995995992 0 -0.25800012817924139 -0.024252421717500059 0 -0.253808297596955 -0.049257196646253033 0 -0.25800012817924139 -0.024252421717500059 0 -0.253808297596955 -0.049257196646253033 0 -0.25800012817924139 -0.024252421717500059 0 -0.26877136223717102 -0.040601502647732761 0 -0.253808297596955 -0.049257196646253033 0 -0.253808297596955 -0.049257196646253033 0 -0.25106972457405152 -0.065593114980598 0 -0.26627044543680572 -0.06867000352929313 0 -0.253808297596955 -0.049257196646253033 0 -0.25106972457405152 -0.065593114980598 0 -0.253808297596955 -0.049257196646253033 0 -0.26627044543680572 -0.06867000352929313 0 -0.2477847462153856 -0.085188407035406671 0 -0.25106972457405152 -0.065593114980598 0 -0.25898264607885152 -0.073891666016372634 0 -0.25106972457405152 -0.065593114980598 0 -0.26627044543680572 -0.06867000352929313 0 -0.25106972457405152 -0.065593114980598 0 -0.25898264607885152 -0.073891666016372634 0 -0.26627044543680572 -0.06867000352929313 0 -0.25898264607885152 -0.073891666016372634 0 -0.26627044543680572 -0.06867000352929313 0 -0.27097861453798139 -0.07600411468800955 0 -0.27495735491674578 -0.08220196433666474 0 -0.25219587672779159 -0.096573566868223354 0 -0.2477847462153856 -0.085188407035406671 0 -0.27097861453798139 -0.07600411468800955 0 -0.25219587672779159 -0.096573566868223354 0 -0.2477847462153856 -0.085188407035406671 0 -0.27097861453798139 -0.07600411468800955 0 -0.2477847462153856 -0.085188407035406671 0 -0.25898264607885152 -0.073891666016372634 0 -0.27097861453798139 -0.07600411468800955 0 -0.27495735491674578 -0.08220196433666474 0 -0.27097861453798139 -0.07600411468800955 0 -0.25219587672779159 -0.096573566868223354 0 -0.27495735491674578 -0.08220196433666474 0 -0.25219587672779159 -0.096573566868223354 0 -0.27188922467054338 -0.096695930799043026 0 -0.27495735491674578 -0.08220196433666474 0 -0.27097861453798139 -0.07600411468800955 0 -0.28099379812887648 -0.091605183416028482 0 -0.27495735491674578 -0.08220196433666474 0 -0.27188922467054338 -0.096695930799043026 0 -0.28099379812887648 -0.091605183416028482 0 -0.27495735491674578 -0.08220196433666474 0 -0.26627044543680572 -0.06867000352929313 0 -0.28403380050405741 -0.07226561351953166 0 -0.2779013618841723 -0.054073047625398503 0 -0.26627044543680572 -0.06867000352929313 0 -0.28403380050405741 -0.07226561351953166 0 -0.26627044543680572 -0.06867000352929313 0 -0.27097861453798139 -0.07600411468800955 0 -0.28403380050405741 -0.07226561351953166 0 -0.27495735491674578 -0.08220196433666474 0 -0.27097861453798139 -0.07600411468800955 0 -0.28403380050405741 -0.07226561351953166 0 -0.26627044543680572 -0.06867000352929313 0 -0.27097861453798139 -0.07600411468800955 0 -0.25622919086432761 -0.1090333359348112 0 -0.27000324710533807 -0.1091033803880678 0 -0.25765772953270638 -0.12725286383122411 0 -0.2422368761162057 -0.118282121211312 0 -0.25622919086432761 -0.1090333359348112 0 -0.25765772953270638 -0.12725286383122411 0 -0.25219587672779159 -0.096573566868223354 0 -0.27188922467054338 -0.096695930799043026 0 -0.27000324710533807 -0.1091033803880678 0 -0.25622919086432761 -0.1090333359348112 0 -0.25219587672779159 -0.096573566868223354 0 -0.27000324710533807 -0.1091033803880678 0 -0.25219587672779159 -0.096573566868223354 0 -0.27000324710533807 -0.1091033803880678 0 -0.2481410536782242 -0.09913378306860883 0 -0.25622919086432761 -0.1090333359348112 0 -0.25219587672779159 -0.096573566868223354 0 -0.2481410536782242 -0.09913378306860883 0 -0.25219587672779159 -0.096573566868223354 0 -0.28099379812887648 -0.091605183416028482 0 -0.27188922467054338 -0.096695930799043026 0 -0.28244873601835752 -0.1032932819330602 0 -0.27188922467054338 -0.096695930799043026 0 -0.27000324710533807 -0.1091033803880678 0 -0.28244873601835752 -0.1032932819330602 0 -0.27000324710533807 -0.1091033803880678 0 -0.28781061748288522 -0.1216331939079113 0 -0.27000324710533807 -0.1091033803880678 0 -0.28781061748288522 -0.1216331939079113 0 -0.28244873601835752 -0.1032932819330602 0 -0.27000324710533807 -0.1091033803880678 0 -0.25765772953270638 -0.12725286383122411 0 -0.27407879499076843 -0.13001296053370159 0 -0.27000324710533807 -0.1091033803880678 0 -0.28781061748288522 -0.1216331939079113 0 -0.27407879499076843 -0.13001296053370159 0 -0.28781061748288522 -0.1216331939079113 0 -0.29487589778345957 -0.10509318540289179 0 -0.30303112287322931 -0.1182650198313155 0 -0.28781061748288522 -0.1216331939079113 0 -0.29487589778345957 -0.10509318540289179 0 -0.28244873601835752 -0.1032932819330602 0 -0.28099379812887648 -0.091605183416028482 0 -0.28244873601835752 -0.1032932819330602 0 -0.29188656584558131 -0.09394335275681201 0 -0.29487589778345957 -0.10509318540289179 0 -0.28244873601835752 -0.1032932819330602 0 -0.29188656584558131 -0.09394335275681201 0 -0.29487589778345957 -0.10509318540289179 0 -0.30640266834833269 -0.090934083159093154 0 -0.31844134822637349 -0.11236281896051829 0 -0.29487589778345957 -0.10509318540289179 0 -0.29188656584558131 -0.09394335275681201 0 -0.30640266834833269 -0.090934083159093154 0 -0.30303112287322931 -0.1182650198313155 0 -0.31844134822637349 -0.11236281896051829 0 -0.30561798786043248 -0.13416300742775461 0 -0.29487589778345957 -0.10509318540289179 0 -0.30303112287322931 -0.1182650198313155 0 -0.31844134822637349 -0.11236281896051829 0 -0.28781061748288522 -0.1216331939079113 0 -0.30303112287322931 -0.1182650198313155 0 -0.30561798786043248 -0.13416300742775461 0 -0.31844134822637349 -0.11236281896051829 0 -0.30561798786043248 -0.13416300742775461 0 -0.27495735491674578 -0.08220196433666474 0 -0.29844196951799362 -0.067373773309087781 0 -0.27495735491674578 -0.08220196433666474 0 -0.28403380050405741 -0.07226561351953166 0 -0.29844196951799362 -0.067373773309087781 0 -0.27495735491674578 -0.08220196433666474 0 -0.293081853462687 -0.083925874901729758 0 -0.29844196951799362 -0.067373773309087781 0 -0.28961535349062573 -0.061028932471428113 0 -0.28403380050405741 -0.07226561351953166 0 -0.29844196951799362 -0.067373773309087781 0 -0.28099379812887648 -0.091605183416028482 0 -0.27495735491674578 -0.08220196433666474 0 -0.293081853462687 -0.083925874901729758 0 -0.28099379812887648 -0.091605183416028482 0 -0.29188656584558131 -0.09394335275681201 0 -0.293081853462687 -0.083925874901729758 0 -0.30640266834833269 -0.090934083159093154 0 -0.30511022482239192 -0.078413394862947072 0 -0.31820182796329988 -0.074228572998718767 0 -0.293081853462687 -0.083925874901729758 0 -0.30640266834833269 -0.090934083159093154 0 -0.30511022482239192 -0.078413394862947072 0 -0.29188656584558131 -0.09394335275681201 0 -0.293081853462687 -0.083925874901729758 0 -0.30640266834833269 -0.090934083159093154 0 -0.293081853462687 -0.083925874901729758 0 -0.30511022482239192 -0.078413394862947072 0 -0.29844196951799362 -0.067373773309087781 0 -0.30511022482239192 -0.078413394862947072 0 -0.29844196951799362 -0.067373773309087781 0 -0.31820182796329988 -0.074228572998718767 0 -0.29844196951799362 -0.067373773309087781 0 -0.31820182796329988 -0.074228572998718767 0 -0.32192658411924102 -0.052545582281510107 0 -0.31820182796329988 -0.074228572998718767 0 -0.34408806895825239 -0.068762442026043924 0 -0.32192658411924102 -0.052545582281510107 0 -0.30640266834833269 -0.090934083159093154 0 -0.31820182796329988 -0.074228572998718767 0 -0.33126470859231288 -0.090562630493281171 0 -0.33126470859231288 -0.090562630493281171 0 -0.34408806895825239 -0.068762442026043924 0 -0.33126470859231288 -0.090562630493281171 0 -0.34408806895825239 -0.068762442026043924 0 -0.35150133801647038 -0.091646266450663885 0 -0.31820182796329988 -0.074228572998718767 0 -0.33126470859231288 -0.090562630493281171 0 -0.34408806895825239 -0.068762442026043924 0 -0.31844134822637349 -0.11236281896051829 0 -0.30561798786043248 -0.13416300742775461 0 -0.31825603281752712 -0.1269254007633791 0 -0.31844134822637349 -0.11236281896051829 0 -0.31825603281752712 -0.1269254007633791 0 -0.33587294312978461 -0.12749806895968491 0 -0.33126470859231288 -0.090562630493281171 0 -0.31844134822637349 -0.11236281896051829 0 -0.30640266834833269 -0.090934083159093154 0 -0.33126470859231288 -0.090562630493281171 0 -0.31844134822637349 -0.11236281896051829 0 -0.33126470859231288 -0.090562630493281171 0 -0.34125218320365758 -0.10866558177218121 0 -0.35150133801647038 -0.091646266450663885 0 -0.33126470859231288 -0.090562630493281171 0 -0.31844134822637349 -0.11236281896051829 0 -0.34125218320365758 -0.10866558177218121 0 -0.34125218320365758 -0.10866558177218121 0 -0.35163991421566482 -0.1215270112912081 0 -0.33587294312978461 -0.12749806895968491 0 -0.31844134822637349 -0.11236281896051829 0 -0.34125218320365758 -0.10866558177218121 0 -0.33587294312978461 -0.12749806895968491 0 -0.34125218320365758 -0.10866558177218121 0 -0.35163991421566482 -0.1215270112912081 0 -0.35703588129874919 -0.10729386012821771 0 -0.34125218320365758 -0.10866558177218121 0 -0.35703588129874919 -0.10729386012821771 0 -0.35150133801647038 -0.091646266450663885 0 -0.35703588129874919 -0.10729386012821771 0 -0.37092681214383288 -0.095243366243769972 0 -0.35150133801647038 -0.091646266450663885 0 -0.35703588129874919 -0.10729386012821771 0 -0.37092681214383288 -0.095243366243769972 0 -0.36985915891412019 -0.11938707488326521 0 -0.35163991421566482 -0.1215270112912081 0 -0.35703588129874919 -0.10729386012821771 0 -0.36985915891412019 -0.11938707488326521 0 -0.34408806895825239 -0.068762442026043924 0 -0.36309324922779568 -0.074165289552874533 0 -0.36921263659382492 -0.046060141185988432 0 -0.34408806895825239 -0.068762442026043924 0 -0.35150133801647038 -0.091646266450663885 0 -0.36309324922779568 -0.074165289552874533 0 -0.37092681214383288 -0.095243366243769972 0 -0.35150133801647038 -0.091646266450663885 0 -0.36309324922779568 -0.074165289552874533 0 -0.37092681214383288 -0.095243366243769972 0 -0.36309324922779568 -0.074165289552874533 0 -0.37973739042659771 -0.069114231857906494 0 -0.36309324922779568 -0.074165289552874533 0 -0.36921263659382492 -0.046060141185988432 0 -0.37973739042659771 -0.069114231857906494 0 -0.36921263659382492 -0.046060141185988432 0 -0.37973739042659771 -0.069114231857906494 0 -0.34408806895825239 -0.068762442026043924 0 -0.34497486864820859 -0.044038254697304387 0 -0.36921263659382492 -0.046060141185988432 0 -0.34497486864820859 -0.044038254697304387 0 -0.36921263659382492 -0.046060141185988432 0 -0.35868788276105201 -0.023006050514070332 0 -0.34497486864820859 -0.044038254697304387 0 -0.35868788276105201 -0.023006050514070332 0 -0.33095917080867249 -0.02981705747890917 0 -0.36921263659382492 -0.046060141185988432 0 -0.35868788276105201 -0.023006050514070332 0 -0.36921263659382492 -0.046060141185988432 0 -0.35868788276105201 -0.023006050514070332 0 -0.38162470574755181 -0.025531593640554039 0 -0.36760158085974948 -0.004488683742273545 0 -0.35868788276105201 -0.023006050514070332 0 -0.38162470574755181 -0.025531593640554039 0 -0.36760158085974948 -0.004488683742273545 0 -0.35868788276105201 -0.023006050514070332 0 -0.34246086097491812 0.002873687061442511 0 -0.35868788276105201 -0.023006050514070332 0 -0.3351769037490151 -0.01353629454703131 0 -0.34246086097491812 0.002873687061442511 0 -0.33095917080867249 -0.02981705747890917 0 -0.3351769037490151 -0.01353629454703131 0 -0.31880639569602759 -0.01503770786338899 0 -0.35868788276105201 -0.023006050514070332 0 -0.33095917080867249 -0.02981705747890917 0 -0.3351769037490151 -0.01353629454703131 0 -0.3351769037490151 -0.01353629454703131 0 -0.32497020850440511 -0.002694343940230548 0 -0.34246086097491812 0.002873687061442511 0 -0.3351769037490151 -0.01353629454703131 0 -0.32497020850440511 -0.002694343940230548 0 -0.31880639569602759 -0.01503770786338899 0 -0.31132612188382319 -0.0011984883802009631 0 -0.32497020850440511 -0.002694343940230548 0 -0.31880639569602759 -0.01503770786338899 0 -0.30725896677632941 -0.034747733883148911 0 -0.33095917080867249 -0.02981705747890917 0 -0.31880639569602759 -0.01503770786338899 0 -0.30725896677632941 -0.034747733883148911 0 -0.33095917080867249 -0.02981705747890917 0 -0.32192658411924102 -0.052545582281510107 0 -0.34408806895825239 -0.068762442026043924 0 -0.34497486864820859 -0.044038254697304387 0 -0.32192658411924102 -0.052545582281510107 0 -0.34497486864820859 -0.044038254697304387 0 -0.33095917080867249 -0.02981705747890917 0 -0.32192658411924102 -0.052545582281510107 0 -0.30333262677819001 -0.2196286923743174 0 -0.29569117905825443 -0.24281310196210301 0 -0.32320426889685627 -0.23683514003091269 0 -0.30333262677819001 -0.2196286923743174 0 -0.29569117905825443 -0.24281310196210301 0 -0.27775956675475449 -0.22347822377171839 0 -0.27550038409661148 -0.25748723264139978 0 -0.29569117905825443 -0.24281310196210301 0 -0.26833892860271907 -0.2402228214658659 0 -0.29569117905825443 -0.24281310196210301 0 -0.26833892860271907 -0.2402228214658659 0 -0.27775956675475449 -0.22347822377171839 0 -0.2484047987823973 -0.25030269263885491 0 -0.26833892860271907 -0.2402228214658659 0 -0.25570994727850099 -0.2254785095757581 0 -0.27550038409661148 -0.25748723264139978 0 -0.2484047987823973 -0.25030269263885491 0 -0.26833892860271907 -0.2402228214658659 0 -0.26833892860271907 -0.2402228214658659 0 -0.25570994727850099 -0.2254785095757581 0 -0.27775956675475449 -0.22347822377171839 0 -0.25570994727850099 -0.2254785095757581 0 -0.27775956675475449 -0.22347822377171839 0 -0.26414015580821321 -0.20831510489177091 0 -0.27775956675475449 -0.22347822377171839 0 -0.26414015580821321 -0.20831510489177091 0 -0.28616963227844089 -0.20349638525588709 0 -0.24583522102665989 -0.20909413925259551 0 -0.25570994727850099 -0.2254785095757581 0 -0.26414015580821321 -0.20831510489177091 0 -0.24909357648288249 -0.19320171220448801 0 -0.24583522102665989 -0.20909413925259551 0 -0.26414015580821321 -0.20831510489177091 0 -0.24909357648288249 -0.19320171220448801 0 -0.2688684433766555 -0.19106288202310431 0 -0.24909357648288249 -0.19320171220448801 0 -0.26414015580821321 -0.20831510489177091 0 -0.2688684433766555 -0.19106288202310431 0 -0.2688684433766555 -0.19106288202310431 0 -0.28616963227844089 -0.20349638525588709 0 -0.28747356954123582 -0.18175541811538359 0 -0.26414015580821321 -0.20831510489177091 0 -0.2688684433766555 -0.19106288202310431 0 -0.28616963227844089 -0.20349638525588709 0 -0.28616963227844089 -0.20349638525588709 0 -0.30963520915519971 -0.19127497458877879 0 -0.28747356954123582 -0.18175541811538359 0 -0.30333262677819001 -0.2196286923743174 0 -0.27775956675475449 -0.22347822377171839 0 -0.28616963227844089 -0.20349638525588709 0 -0.30333262677819001 -0.2196286923743174 0 -0.28616963227844089 -0.20349638525588709 0 -0.30963520915519971 -0.19127497458877879 0 -0.30963520915519971 -0.19127497458877879 0 -0.30423037020376098 -0.171467055929589 0 -0.32265355533849782 -0.17992150013288971 0 -0.30963520915519971 -0.19127497458877879 0 -0.28747356954123582 -0.18175541811538359 0 -0.30963520915519971 -0.19127497458877879 0 -0.30423037020376098 -0.171467055929589 0 -0.28747356954123582 -0.18175541811538359 0 -0.30646692993491159 -0.15732080136616169 0 -0.30423037020376098 -0.171467055929589 0 -0.31781637217135889 -0.16314930349525189 0 -0.30646692993491159 -0.15732080136616169 0 -0.29667448075083019 -0.16165471551711519 0 -0.29587864259596008 -0.1506341316428299 0 -0.30646692993491159 -0.15732080136616169 0 -0.30423037020376098 -0.171467055929589 0 -0.29667448075083019 -0.16165471551711519 0 -0.30423037020376098 -0.171467055929589 0 -0.29114508867316452 -0.16904769991426549 0 -0.29667448075083019 -0.16165471551711519 0 -0.29114508867316452 -0.16904769991426549 0 -0.28747356954123582 -0.18175541811538359 0 -0.2801246361294526 -0.1609861734381281 0 -0.29114508867316452 -0.16904769991426549 0 -0.29667448075083019 -0.16165471551711519 0 -0.2801246361294526 -0.1609861734381281 0 -0.29667448075083019 -0.16165471551711519 0 -0.2801246361294526 -0.1609861734381281 0 -0.29587864259596008 -0.1506341316428299 0 -0.30423037020376098 -0.171467055929589 0 -0.29114508867316452 -0.16904769991426549 0 -0.28747356954123582 -0.18175541811538359 0 -0.2688684433766555 -0.19106288202310431 0 -0.28747356954123582 -0.18175541811538359 0 -0.26531192992727198 -0.1722358616419884 0 -0.28747356954123582 -0.18175541811538359 0 -0.26531192992727198 -0.1722358616419884 0 -0.24909357648288249 -0.19320171220448801 0 -0.24902456921953209 -0.17639246698618519 0 -0.2688684433766555 -0.19106288202310431 0 -0.24902456921953209 -0.17639246698618519 0 -0.2688684433766555 -0.19106288202310431 0 -0.26531192992727198 -0.1722358616419884 0 -0.24902456921953209 -0.17639246698618519 0 -0.26531192992727198 -0.1722358616419884 0 -0.25003963247768718 -0.16208663998204739 0 -0.26531192992727198 -0.1722358616419884 0 -0.25003963247768718 -0.16208663998204739 0 -0.26430607753631957 -0.14818220768488091 0 -0.28747356954123582 -0.18175541811538359 0 -0.26531192992727198 -0.1722358616419884 0 -0.2801246361294526 -0.1609861734381281 0 -0.26531192992727198 -0.1722358616419884 0 -0.2801246361294526 -0.1609861734381281 0 -0.26430607753631957 -0.14818220768488091 0 -0.2801246361294526 -0.1609861734381281 0 -0.26430607753631957 -0.14818220768488091 0 -0.28529267171009171 -0.142025134363335 0 -0.23793082060717269 -0.14396826160283149 0 -0.25003963247768718 -0.16208663998204739 0 -0.26430607753631957 -0.14818220768488091 0 -0.26430607753631957 -0.14818220768488091 0 -0.25765772953270638 -0.12725286383122411 0 -0.27407879499076843 -0.13001296053370159 0 -0.23793082060717269 -0.14396826160283149 0 -0.26430607753631957 -0.14818220768488091 0 -0.25765772953270638 -0.12725286383122411 0 -0.26430607753631957 -0.14818220768488091 0 -0.27407879499076843 -0.13001296053370159 0 -0.28529267171009171 -0.142025134363335 0 -0.28781061748288522 -0.1216331939079113 0 -0.30561798786043248 -0.13416300742775461 0 -0.28781061748288522 -0.1216331939079113 0 -0.27407879499076843 -0.13001296053370159 0 -0.28529267171009171 -0.142025134363335 0 -0.28781061748288522 -0.1216331939079113 0 -0.28529267171009171 -0.142025134363335 0 -0.29831583166361758 -0.13558234721862589 0 -0.28529267171009171 -0.142025134363335 0 -0.29547989226970989 -0.14234267338618301 0 -0.29831583166361758 -0.13558234721862589 0 -0.2801246361294526 -0.1609861734381281 0 -0.28529267171009171 -0.142025134363335 0 -0.29587864259596008 -0.1506341316428299 0 -0.28529267171009171 -0.142025134363335 0 -0.29587864259596008 -0.1506341316428299 0 -0.29547989226970989 -0.14234267338618301 0 -0.29587864259596008 -0.1506341316428299 0 -0.29547989226970989 -0.14234267338618301 0 -0.30136564284161738 -0.14233165653143751 0 -0.29587864259596008 -0.1506341316428299 0 -0.30136564284161738 -0.14233165653143751 0 -0.30487022008891218 -0.14819593116495891 0 -0.30646692993491159 -0.15732080136616169 0 -0.29587864259596008 -0.1506341316428299 0 -0.30487022008891218 -0.14819593116495891 0 -0.30646692993491159 -0.15732080136616169 0 -0.30487022008891218 -0.14819593116495891 0 -0.31428559298856729 -0.15123229662808249 0 -0.30840413316068538 -0.14177920286049531 0 -0.30487022008891218 -0.14819593116495891 0 -0.31428559298856729 -0.15123229662808249 0 -0.30136564284161738 -0.14233165653143751 0 -0.30840413316068538 -0.14177920286049531 0 -0.30487022008891218 -0.14819593116495891 0 -0.30561798786043248 -0.13416300742775461 0 -0.3154371020149524 -0.13456911072928859 0 -0.31571157524454369 -0.14126516597153521 0 -0.30136564284161738 -0.14233165653143751 0 -0.30840413316068538 -0.14177920286049531 0 -0.30561798786043248 -0.13416300742775461 0 -0.30561798786043248 -0.13416300742775461 0 -0.31571157524454369 -0.14126516597153521 0 -0.30840413316068538 -0.14177920286049531 0 -0.30561798786043248 -0.13416300742775461 0 -0.31571157524454369 -0.14126516597153521 0 -0.28781061748288522 -0.1216331939079113 0 -0.30561798786043248 -0.13416300742775461 0 -0.29831583166361758 -0.13558234721862589 0 -0.30136564284161738 -0.14233165653143751 0 -0.30561798786043248 -0.13416300742775461 0 -0.29831583166361758 -0.13558234721862589 0 -0.29547989226970989 -0.14234267338618301 0 -0.30136564284161738 -0.14233165653143751 0 -0.29831583166361758 -0.13558234721862589 0 -0.32505443932908379 -0.1376332013569849 0 -0.31825603281752712 -0.1269254007633791 0 -0.33587294312978461 -0.12749806895968491 0 -0.30561798786043248 -0.13416300742775461 0 -0.31825603281752712 -0.1269254007633791 0 -0.3154371020149524 -0.13456911072928859 0 -0.32505443932908379 -0.1376332013569849 0 -0.3154371020149524 -0.13456911072928859 0 -0.31571157524454369 -0.14126516597153521 0 -0.32505443932908379 -0.1376332013569849 0 -0.31825603281752712 -0.1269254007633791 0 -0.3154371020149524 -0.13456911072928859 0 -0.30840413316068538 -0.14177920286049531 0 -0.31571157524454369 -0.14126516597153521 0 -0.31428559298856729 -0.15123229662808249 0 -0.31571157524454369 -0.14126516597153521 0 -0.31428559298856729 -0.15123229662808249 0 -0.32703270214247432 -0.15165522847851229 0 -0.31428559298856729 -0.15123229662808249 0 -0.32703270214247432 -0.15165522847851229 0 -0.31781637217135889 -0.16314930349525189 0 -0.32505443932908379 -0.1376332013569849 0 -0.31571157524454369 -0.14126516597153521 0 -0.32703270214247432 -0.15165522847851229 0 -0.32505443932908379 -0.1376332013569849 0 -0.32703270214247432 -0.15165522847851229 0 -0.33982354762008188 -0.14495519111607191 0 -0.32703270214247432 -0.15165522847851229 0 -0.33982354762008188 -0.14495519111607191 0 -0.34539573294720122 -0.15867147345766119 0 -0.32505443932908379 -0.1376332013569849 0 -0.33982354762008188 -0.14495519111607191 0 -0.33587294312978461 -0.12749806895968491 0 -0.35163991421566482 -0.1215270112912081 0 -0.33587294312978461 -0.12749806895968491 0 -0.35757144972820792 -0.1389986435828601 0 -0.33982354762008188 -0.14495519111607191 0 -0.33587294312978461 -0.12749806895968491 0 -0.35757144972820792 -0.1389986435828601 0 -0.36985915891412019 -0.11938707488326521 0 -0.35757144972820792 -0.1389986435828601 0 -0.3777668901630421 -0.13394643063929401 0 -0.35163991421566482 -0.1215270112912081 0 -0.36985915891412019 -0.11938707488326521 0 -0.35757144972820792 -0.1389986435828601 0 -0.35757144972820792 -0.1389986435828601 0 -0.36237541352685743 -0.15425125703283801 0 -0.37766547346085683 -0.15144600416198159 0 -0.35757144972820792 -0.1389986435828601 0 -0.37766547346085683 -0.15144600416198159 0 -0.3777668901630421 -0.13394643063929401 0 -0.33982354762008188 -0.14495519111607191 0 -0.35757144972820792 -0.1389986435828601 0 -0.34539573294720122 -0.15867147345766119 0 -0.35757144972820792 -0.1389986435828601 0 -0.36237541352685743 -0.15425125703283801 0 -0.34539573294720122 -0.15867147345766119 0 -0.34539573294720122 -0.15867147345766119 0 -0.35643804304930399 -0.17067345324497729 0 -0.34109767364728782 -0.18405675346947559 0 -0.36237541352685743 -0.15425125703283801 0 -0.34539573294720122 -0.15867147345766119 0 -0.35643804304930399 -0.17067345324497729 0 -0.36237541352685743 -0.15425125703283801 0 -0.3741305950654103 -0.17193961091300511 0 -0.37766547346085683 -0.15144600416198159 0 -0.36237541352685743 -0.15425125703283801 0 -0.35643804304930399 -0.17067345324497729 0 -0.3741305950654103 -0.17193961091300511 0 -0.35643804304930399 -0.17067345324497729 0 -0.3741305950654103 -0.17193961091300511 0 -0.35919080005976323 -0.18444817135190661 0 -0.3741305950654103 -0.17193961091300511 0 -0.35919080005976323 -0.18444817135190661 0 -0.37209567462801812 -0.19764829365367059 0 -0.35643804304930399 -0.17067345324497729 0 -0.35919080005976323 -0.18444817135190661 0 -0.34109767364728782 -0.18405675346947559 0 -0.34109767364728782 -0.18405675346947559 0 -0.33214846261607373 -0.16786191635142381 0 -0.32265355533849782 -0.17992150013288971 0 -0.34539573294720122 -0.15867147345766119 0 -0.34109767364728782 -0.18405675346947559 0 -0.33214846261607373 -0.16786191635142381 0 -0.32703270214247432 -0.15165522847851229 0 -0.34539573294720122 -0.15867147345766119 0 -0.33214846261607373 -0.16786191635142381 0 -0.30423037020376098 -0.171467055929589 0 -0.31781637217135889 -0.16314930349525189 0 -0.32265355533849782 -0.17992150013288971 0 -0.33214846261607373 -0.16786191635142381 0 -0.31781637217135889 -0.16314930349525189 0 -0.32265355533849782 -0.17992150013288971 0 -0.32703270214247432 -0.15165522847851229 0 -0.33214846261607373 -0.16786191635142381 0 -0.31781637217135889 -0.16314930349525189 0 -0.30646692993491159 -0.15732080136616169 0 -0.31428559298856729 -0.15123229662808249 0 -0.31781637217135889 -0.16314930349525189 0 -0.30963520915519971 -0.19127497458877879 0 -0.33179684876916371 -0.2007945310621741 0 -0.30963520915519971 -0.19127497458877879 0 -0.32265355533849782 -0.17992150013288971 0 -0.33179684876916371 -0.2007945310621741 0 -0.30963520915519971 -0.19127497458877879 0 -0.33179684876916371 -0.2007945310621741 0 -0.32475307034528139 -0.2190056309583554 0 -0.30333262677819001 -0.2196286923743174 0 -0.30963520915519971 -0.19127497458877879 0 -0.32475307034528139 -0.2190056309583554 0 -0.33179684876916371 -0.2007945310621741 0 -0.35395848838312771 -0.21031408753556929 0 -0.33179684876916371 -0.2007945310621741 0 -0.35395848838312771 -0.21031408753556929 0 -0.32475307034528139 -0.2190056309583554 0 -0.34109767364728782 -0.18405675346947559 0 -0.33179684876916371 -0.2007945310621741 0 -0.35395848838312771 -0.21031408753556929 0 -0.34109767364728782 -0.18405675346947559 0 -0.32265355533849782 -0.17992150013288971 0 -0.33179684876916371 -0.2007945310621741 0 -0.35919080005976323 -0.18444817135190661 0 -0.34109767364728782 -0.18405675346947559 0 -0.35395848838312771 -0.21031408753556929 0 -0.35919080005976323 -0.18444817135190661 0 -0.37209567462801812 -0.19764829365367059 0 -0.35395848838312771 -0.21031408753556929 0 -0.37209567462801812 -0.19764829365367059 0 -0.35395848838312771 -0.21031408753556929 0 -0.37889137526228139 -0.2223088148270739 0 -0.36569898431644549 -0.24509394484435121 0 -0.37889137526228139 -0.2223088148270739 0 -0.35395848838312771 -0.21031408753556929 0 -0.34868372132696102 -0.23097794959607851 0 -0.37889137526228139 -0.2223088148270739 0 -0.34868372132696102 -0.23097794959607851 0 -0.36569898431644549 -0.24509394484435121 0 -0.37889137526228139 -0.2223088148270739 0 -0.34308423771481489 -0.25286804080927311 0 -0.34868372132696102 -0.23097794959607851 0 -0.36569898431644549 -0.24509394484435121 0 -0.321099140629927 -0.25778998348124121 0 -0.34308423771481489 -0.25286804080927311 0 -0.32320426889685627 -0.23683514003091269 0 -0.34308423771481489 -0.25286804080927311 0 -0.34868372132696102 -0.23097794959607851 0 -0.32320426889685627 -0.23683514003091269 0 -0.35395848838312771 -0.21031408753556929 0 -0.34868372132696102 -0.23097794959607851 0 -0.32475307034528139 -0.2190056309583554 0 -0.34868372132696102 -0.23097794959607851 0 -0.32475307034528139 -0.2190056309583554 0 -0.32320426889685627 -0.23683514003091269 0 -0.30333262677819001 -0.2196286923743174 0 -0.32475307034528139 -0.2190056309583554 0 -0.32320426889685627 -0.23683514003091269 0 -0.321099140629927 -0.25778998348124121 0 -0.29569117905825443 -0.24281310196210301 0 -0.32320426889685627 -0.23683514003091269 0 -0.43309198030049539 -0.25372594078729771 0 -0.42542271215988858 -0.2205049430465307 0 -0.40874840082738428 -0.2325586311544193 0 -0.43309198030049539 -0.25372594078729771 0 -0.42542271215988858 -0.2205049430465307 0 -0.44283490110740348 -0.22835286474738639 0 -0.42542271215988858 -0.2205049430465307 0 -0.40874840082738428 -0.2325586311544193 0 -0.40623112886794782 -0.21256295988070109 0 -0.40909065256511068 -0.25244936046849531 0 -0.43309198030049539 -0.25372594078729771 0 -0.40874840082738428 -0.2325586311544193 0 -0.40909065256511068 -0.25244936046849531 0 -0.40874840082738428 -0.2325586311544193 0 -0.3903351089779068 -0.2441590299362178 0 -0.36569898431644549 -0.24509394484435121 0 -0.3903351089779068 -0.2441590299362178 0 -0.37889137526228139 -0.2223088148270739 0 -0.40874840082738428 -0.2325586311544193 0 -0.37889137526228139 -0.2223088148270739 0 -0.40623112886794782 -0.21256295988070109 0 -0.40874840082738428 -0.2325586311544193 0 -0.3903351089779068 -0.2441590299362178 0 -0.37889137526228139 -0.2223088148270739 0 -0.37889137526228139 -0.2223088148270739 0 -0.40623112886794782 -0.21256295988070109 0 -0.39208376620811741 -0.19952368480979649 0 -0.37889137526228139 -0.2223088148270739 0 -0.39208376620811741 -0.19952368480979649 0 -0.37209567462801812 -0.19764829365367059 0 -0.37889137526228139 -0.2223088148270739 0 -0.39208376620811741 -0.19952368480979649 0 -0.37209567462801812 -0.19764829365367059 0 -0.39208376620811741 -0.19952368480979649 0 -0.3876953340703691 -0.1828005386393674 0 -0.39208376620811741 -0.19952368480979649 0 -0.40527615715395338 -0.17673855479251921 0 -0.39208376620811741 -0.19952368480979649 0 -0.42044164729203981 -0.1996186526889063 0 -0.40527615715395338 -0.17673855479251921 0 -0.40623112886794782 -0.21256295988070109 0 -0.39208376620811741 -0.19952368480979649 0 -0.42044164729203981 -0.1996186526889063 0 -0.42542271215988858 -0.2205049430465307 0 -0.40623112886794782 -0.21256295988070109 0 -0.42044164729203981 -0.1996186526889063 0 -0.42542271215988858 -0.2205049430465307 0 -0.42044164729203981 -0.1996186526889063 0 -0.44599611370667752 -0.20530682510913981 0 -0.42044164729203981 -0.1996186526889063 0 -0.43596138196482681 -0.19078593037640099 0 -0.44599611370667752 -0.20530682510913981 0 -0.42044164729203981 -0.1996186526889063 0 -0.43596138196482681 -0.19078593037640099 0 -0.42360337067769321 -0.17799142890278549 0 -0.43596138196482681 -0.19078593037640099 0 -0.42360337067769321 -0.17799142890278549 0 -0.43838772618383048 -0.17589405050466281 0 -0.42360337067769321 -0.17799142890278549 0 -0.4313134804802331 -0.16525939170346321 0 -0.43838772618383048 -0.17589405050466281 0 -0.42360337067769321 -0.17799142890278549 0 -0.4313134804802331 -0.16525939170346321 0 -0.42175317499666592 -0.16114828058918529 0 -0.4313134804802331 -0.16525939170346321 0 -0.43555633759959 -0.15572274868119851 0 -0.44299069828894411 -0.1647657353294574 0 -0.4313134804802331 -0.16525939170346321 0 -0.42720735709675972 -0.1544105799389795 0 -0.43555633759959 -0.15572274868119851 0 -0.4313134804802331 -0.16525939170346321 0 -0.42175317499666592 -0.16114828058918529 0 -0.42720735709675972 -0.1544105799389795 0 -0.42175317499666592 -0.16114828058918529 0 -0.41846854809978878 -0.15395342477524149 0 -0.42720735709675972 -0.1544105799389795 0 -0.40527615715395338 -0.17673855479251921 0 -0.41846854809978878 -0.15395342477524149 0 -0.42175317499666592 -0.16114828058918529 0 -0.40527615715395338 -0.17673855479251921 0 -0.41846854809978878 -0.15395342477524149 0 -0.40527615715395338 -0.17673855479251921 0 -0.40212676429218402 -0.1599615831538754 0 -0.41846854809978878 -0.15395342477524149 0 -0.42175317499666592 -0.16114828058918529 0 -0.41846854809978878 -0.15395342477524149 0 -0.42360337067769321 -0.17799142890278549 0 -0.42175317499666592 -0.16114828058918529 0 -0.40527615715395338 -0.17673855479251921 0 -0.42044164729203981 -0.1996186526889063 0 -0.42360337067769321 -0.17799142890278549 0 -0.40527615715395338 -0.17673855479251921 0 -0.39208376620811741 -0.19952368480979649 0 -0.40527615715395338 -0.17673855479251921 0 -0.3876953340703691 -0.1828005386393674 0 -0.40527615715395338 -0.17673855479251921 0 -0.3876953340703691 -0.1828005386393674 0 -0.3912587135673698 -0.1681086338540364 0 -0.3741305950654103 -0.17193961091300511 0 -0.37209567462801812 -0.19764829365367059 0 -0.3876953340703691 -0.1828005386393674 0 -0.3741305950654103 -0.17193961091300511 0 -0.3876953340703691 -0.1828005386393674 0 -0.3912587135673698 -0.1681086338540364 0 -0.3912587135673698 -0.1681086338540364 0 -0.39324916813857053 -0.15420446998412479 0 -0.37766547346085683 -0.15144600416198159 0 -0.3741305950654103 -0.17193961091300511 0 -0.3912587135673698 -0.1681086338540364 0 -0.37766547346085683 -0.15144600416198159 0 -0.40527615715395338 -0.17673855479251921 0 -0.3912587135673698 -0.1681086338540364 0 -0.40212676429218402 -0.1599615831538754 0 -0.3912587135673698 -0.1681086338540364 0 -0.40212676429218402 -0.1599615831538754 0 -0.39324916813857053 -0.15420446998412479 0 -0.40212676429218402 -0.1599615831538754 0 -0.40238123450123769 -0.14680283236345501 0 -0.39324916813857053 -0.15420446998412479 0 -0.40238123450123769 -0.14680283236345501 0 -0.39324916813857053 -0.15420446998412479 0 -0.38865348384030091 -0.1429479654235532 0 -0.38865348384030091 -0.1429479654235532 0 -0.37766547346085683 -0.15144600416198159 0 -0.3777668901630421 -0.13394643063929401 0 -0.39324916813857053 -0.15420446998412479 0 -0.38865348384030091 -0.1429479654235532 0 -0.37766547346085683 -0.15144600416198159 0 -0.3777668901630421 -0.13394643063929401 0 -0.39346782672421871 -0.13026452637577959 0 -0.38294047368348688 -0.12354566292245681 0 -0.38865348384030091 -0.1429479654235532 0 -0.3777668901630421 -0.13394643063929401 0 -0.39346782672421871 -0.13026452637577959 0 -0.36985915891412019 -0.11938707488326521 0 -0.3777668901630421 -0.13394643063929401 0 -0.38294047368348688 -0.12354566292245681 0 -0.40238123450123769 -0.14680283236345501 0 -0.39346782672421871 -0.13026452637577959 0 -0.40962772309596551 -0.13458791898849221 0 -0.40238123450123769 -0.14680283236345501 0 -0.38865348384030091 -0.1429479654235532 0 -0.39346782672421871 -0.13026452637577959 0 -0.39346782672421871 -0.13026452637577959 0 -0.40962772309596551 -0.13458791898849221 0 -0.40078689809214058 -0.1152224132017436 0 -0.41923084079662809 -0.1304467589748238 0 -0.40962772309596551 -0.13458791898849221 0 -0.40078689809214058 -0.1152224132017436 0 -0.41923084079662809 -0.1304467589748238 0 -0.40962772309596551 -0.13458791898849221 0 -0.42384490565900151 -0.1446676928325657 0 -0.40212676429218402 -0.1599615831538754 0 -0.40238123450123769 -0.14680283236345501 0 -0.41846854809978878 -0.15395342477524149 0 -0.40238123450123769 -0.14680283236345501 0 -0.40962772309596551 -0.13458791898849221 0 -0.41846854809978878 -0.15395342477524149 0 -0.40962772309596551 -0.13458791898849221 0 -0.41846854809978878 -0.15395342477524149 0 -0.42384490565900151 -0.1446676928325657 0 -0.40962772309596551 -0.13458791898849221 0 -0.41846854809978878 -0.15395342477524149 0 -0.41846854809978878 -0.15395342477524149 0 -0.42384490565900151 -0.1446676928325657 0 -0.42384490565900151 -0.1446676928325657 0 -0.42720735709675972 -0.1544105799389795 0 -0.43265416648092447 -0.14604781430532571 0 -0.42384490565900151 -0.1446676928325657 0 -0.43265416648092447 -0.14604781430532571 0 -0.42959433591287433 -0.13567905931842791 0 -0.41846854809978878 -0.15395342477524149 0 -0.42384490565900151 -0.1446676928325657 0 -0.42720735709675972 -0.1544105799389795 0 -0.43555633759959 -0.15572274868119851 0 -0.43265416648092447 -0.14604781430532571 0 -0.44329572744857509 -0.14896719545603579 0 -0.42720735709675972 -0.1544105799389795 0 -0.43555633759959 -0.15572274868119851 0 -0.43265416648092447 -0.14604781430532571 0 -0.43265416648092447 -0.14604781430532571 0 -0.42959433591287433 -0.13567905931842791 0 -0.44005180494653962 -0.14035418732521171 0 -0.43728711544283788 -0.13187305918953279 0 -0.44612926966579541 -0.12654003141111439 0 -0.42345808387896777 -0.12088122230642991 0 -0.43728711544283788 -0.13187305918953279 0 -0.42959433591287433 -0.13567905931842791 0 -0.44005180494653962 -0.14035418732521171 0 -0.43728711544283788 -0.13187305918953279 0 -0.42959433591287433 -0.13567905931842791 0 -0.42345808387896777 -0.12088122230642991 0 -0.41923084079662809 -0.1304467589748238 0 -0.42959433591287433 -0.13567905931842791 0 -0.42345808387896777 -0.12088122230642991 0 -0.41923084079662809 -0.1304467589748238 0 -0.42384490565900151 -0.1446676928325657 0 -0.42959433591287433 -0.13567905931842791 0 -0.44720208281001261 -0.1359107955864802 0 -0.44005180494653962 -0.14035418732521171 0 -0.45264340556062282 -0.143970928435837 0 -0.44720208281001261 -0.1359107955864802 0 -0.45264340556062282 -0.143970928435837 0 -0.45641204354094073 -0.13611228395314859 0 -0.44720208281001261 -0.1359107955864802 0 -0.44612926966579541 -0.12654003141111439 0 -0.45641204354094073 -0.13611228395314859 0 -0.43728711544283788 -0.13187305918953279 0 -0.44720208281001261 -0.1359107955864802 0 -0.44612926966579541 -0.12654003141111439 0 -0.43728711544283788 -0.13187305918953279 0 -0.44720208281001261 -0.1359107955864802 0 -0.44005180494653962 -0.14035418732521171 0 -0.43265416648092447 -0.14604781430532571 0 -0.44005180494653962 -0.14035418732521171 0 -0.44329572744857509 -0.14896719545603579 0 -0.43555633759959 -0.15572274868119851 0 -0.44329572744857509 -0.14896719545603579 0 -0.44585237926311161 -0.15600440364815549 0 -0.44329572744857509 -0.14896719545603579 0 -0.45206604111773763 -0.15215781214908961 0 -0.44585237926311161 -0.15600440364815549 0 -0.45206604111773763 -0.15215781214908961 0 -0.44585237926311161 -0.15600440364815549 0 -0.45505626860781501 -0.16007098466618899 0 -0.44329572744857509 -0.14896719545603579 0 -0.45206604111773763 -0.15215781214908961 0 -0.45264340556062282 -0.143970928435837 0 -0.44005180494653962 -0.14035418732521171 0 -0.44329572744857509 -0.14896719545603579 0 -0.45264340556062282 -0.143970928435837 0 -0.45264340556062282 -0.143970928435837 0 -0.46684725298953872 -0.14182332519405669 0 -0.45641204354094073 -0.13611228395314859 0 -0.45264340556062282 -0.143970928435837 0 -0.46088902379142321 -0.15201324565023219 0 -0.46684725298953872 -0.14182332519405669 0 -0.45206604111773763 -0.15215781214908961 0 -0.46088902379142321 -0.15201324565023219 0 -0.45505626860781501 -0.16007098466618899 0 -0.45206604111773763 -0.15215781214908961 0 -0.45264340556062282 -0.143970928435837 0 -0.46088902379142321 -0.15201324565023219 0 -0.46088902379142321 -0.15201324565023219 0 -0.47029165786973898 -0.1504513564439125 0 -0.46655530073683987 -0.16361593125027421 0 -0.46088902379142321 -0.15201324565023219 0 -0.46684725298953872 -0.14182332519405669 0 -0.47029165786973898 -0.1504513564439125 0 -0.44612926966579541 -0.12654003141111439 0 -0.46880045545262239 -0.1321988405158015 0 -0.45917630948634991 -0.12272435470562169 0 -0.44612926966579541 -0.12654003141111439 0 -0.46880045545262239 -0.1321988405158015 0 -0.44612926966579541 -0.12654003141111439 0 -0.45641204354094073 -0.13611228395314859 0 -0.46880045545262239 -0.1321988405158015 0 -0.46684725298953872 -0.14182332519405669 0 -0.46880045545262239 -0.1321988405158015 0 -0.46684725298953872 -0.14182332519405669 0 -0.45641204354094073 -0.13611228395314859 0 -0.46880045545262239 -0.1321988405158015 0 -0.46880045545262239 -0.1321988405158015 0 -0.48142668072875749 -0.12745923539429979 0 -0.47166928511243761 -0.11806256553800561 0 -0.46880045545262239 -0.1321988405158015 0 -0.48523698234997009 -0.1363014564499925 0 -0.4750561884246236 -0.14257130093019879 0 -0.46880045545262239 -0.1321988405158015 0 -0.48523698234997009 -0.1363014564499925 0 -0.46880045545262239 -0.1321988405158015 0 -0.48142668072875749 -0.12745923539429979 0 -0.48523698234997009 -0.1363014564499925 0 -0.46880045545262239 -0.1321988405158015 0 -0.47166928511243761 -0.11806256553800561 0 -0.46684725298953872 -0.14182332519405669 0 -0.46880045545262239 -0.1321988405158015 0 -0.4750561884246236 -0.14257130093019879 0 -0.48142668072875749 -0.12745923539429979 0 -0.48523698234997009 -0.1363014564499925 0 -0.50000000000000377 -0.1232740790733995 0 -0.48523698234997009 -0.1363014564499925 0 -0.5 -0.149139581324053 0 -0.50000000000000377 -0.1232740790733995 0 -0.5 -0.149139581324053 0 -0.48011645335129172 -0.1523844323423704 0 -0.48520601686328058 -0.16419295510886611 0 -0.48523698234997009 -0.1363014564499925 0 -0.5 -0.149139581324053 0 -0.48011645335129172 -0.1523844323423704 0 -0.48523698234997009 -0.1363014564499925 0 -0.48011645335129172 -0.1523844323423704 0 -0.4750561884246236 -0.14257130093019879 0 -0.46684725298953872 -0.14182332519405669 0 -0.4750561884246236 -0.14257130093019879 0 -0.47029165786973898 -0.1504513564439125 0 -0.48011645335129172 -0.1523844323423704 0 -0.47029165786973898 -0.1504513564439125 0 -0.46655530073683987 -0.16361593125027421 0 -0.48011645335129172 -0.1523844323423704 0 -0.4750561884246236 -0.14257130093019879 0 -0.47029165786973898 -0.1504513564439125 0 -0.48520601686328058 -0.16419295510886611 0 -0.47935833022827129 -0.180819747052926 0 -0.46655530073683987 -0.16361593125027421 0 -0.48011645335129172 -0.1523844323423704 0 -0.48520601686328058 -0.16419295510886611 0 -0.46655530073683987 -0.16361593125027421 0 -0.5 -0.149139581324053 0 -0.48520601686328058 -0.16419295510886611 0 -0.5 -0.17500508357470659 0 -0.48520601686328058 -0.16419295510886611 0 -0.5 -0.17500508357470659 0 -0.47935833022827129 -0.180819747052926 0 -0.5 -0.17500508357470659 0 -0.47935833022827129 -0.180819747052926 0 -0.5 -0.20087058582535999 0 -0.47935833022827129 -0.180819747052926 0 -0.45675455084832489 -0.18343917035285101 0 -0.47054814752869872 -0.19702913931303831 0 -0.45675455084832489 -0.18343917035285101 0 -0.46655530073683987 -0.16361593125027421 0 -0.45263110923619609 -0.16958310901817741 0 -0.47935833022827129 -0.180819747052926 0 -0.45675455084832489 -0.18343917035285101 0 -0.46655530073683987 -0.16361593125027421 0 -0.46088902379142321 -0.15201324565023219 0 -0.46655530073683987 -0.16361593125027421 0 -0.45505626860781501 -0.16007098466618899 0 -0.46655530073683987 -0.16361593125027421 0 -0.45505626860781501 -0.16007098466618899 0 -0.45263110923619609 -0.16958310901817741 0 -0.45505626860781501 -0.16007098466618899 0 -0.45263110923619609 -0.16958310901817741 0 -0.44299069828894411 -0.1647657353294574 0 -0.44585237926311161 -0.15600440364815549 0 -0.45505626860781501 -0.16007098466618899 0 -0.44299069828894411 -0.1647657353294574 0 -0.43555633759959 -0.15572274868119851 0 -0.44585237926311161 -0.15600440364815549 0 -0.44299069828894411 -0.1647657353294574 0 -0.4313134804802331 -0.16525939170346321 0 -0.44299069828894411 -0.1647657353294574 0 -0.43838772618383048 -0.17589405050466281 0 -0.45263110923619609 -0.16958310901817741 0 -0.44299069828894411 -0.1647657353294574 0 -0.43838772618383048 -0.17589405050466281 0 -0.43596138196482681 -0.19078593037640099 0 -0.45675455084832489 -0.18343917035285101 0 -0.43838772618383048 -0.17589405050466281 0 -0.45675455084832489 -0.18343917035285101 0 -0.45263110923619609 -0.16958310901817741 0 -0.43838772618383048 -0.17589405050466281 0 -0.43596138196482681 -0.19078593037640099 0 -0.45675455084832489 -0.18343917035285101 0 -0.44599611370667752 -0.20530682510913981 0 -0.42542271215988858 -0.2205049430465307 0 -0.44599611370667752 -0.20530682510913981 0 -0.44283490110740348 -0.22835286474738639 0 -0.44599611370667752 -0.20530682510913981 0 -0.47062030917687098 -0.21744599227032599 0 -0.44283490110740348 -0.22835286474738639 0 -0.44599611370667752 -0.20530682510913981 0 -0.47054814752869872 -0.19702913931303831 0 -0.47062030917687098 -0.21744599227032599 0 -0.45675455084832489 -0.18343917035285101 0 -0.44599611370667752 -0.20530682510913981 0 -0.47054814752869872 -0.19702913931303831 0 -0.47935833022827129 -0.180819747052926 0 -0.47054814752869872 -0.19702913931303831 0 -0.5 -0.20087058582535999 0 -0.5 -0.20087058582535999 0 -0.47062030917687098 -0.21744599227032599 0 -0.5 -0.2267360880760135 0 -0.47054814752869872 -0.19702913931303831 0 -0.5 -0.20087058582535999 0 -0.47062030917687098 -0.21744599227032599 0 -0.47062030917687098 -0.21744599227032599 0 -0.5 -0.2267360880760135 0 -0.48076974558635038 -0.2393307241689957 0 -0.47062030917687098 -0.21744599227032599 0 -0.48076974558635038 -0.2393307241689957 0 -0.45776820485501402 -0.24168441926058409 0 -0.5 -0.25260159032666712 0 -0.5 -0.2267360880760135 0 -0.48076974558635038 -0.2393307241689957 0 -0.4754602138998667 -0.25818553091138791 0 -0.48076974558635038 -0.2393307241689957 0 -0.45776820485501402 -0.24168441926058409 0 -0.47062030917687098 -0.21744599227032599 0 -0.45776820485501402 -0.24168441926058409 0 -0.44283490110740348 -0.22835286474738639 0 -0.43309198030049539 -0.25372594078729771 0 -0.44283490110740348 -0.22835286474738639 0 -0.43309198030049539 -0.25372594078729771 0 -0.45776820485501402 -0.24168441926058409 0 -0.44283490110740348 -0.22835286474738639 0 -0.41205227910413789 -0.054981018084040052 0 -0.42930583411535589 -0.039433637374997443 0 -0.40572588176379643 -0.033119237312305108 0 -0.42930583411535589 -0.039433637374997443 0 -0.4284201756545109 -0.062650471265371391 0 -0.44353298186918011 -0.053969628804331711 0 -0.41205227910413789 -0.054981018084040052 0 -0.42930583411535589 -0.039433637374997443 0 -0.4284201756545109 -0.062650471265371391 0 -0.42930583411535589 -0.039433637374997443 0 -0.43621968797711458 -0.016392020641276761 0 -0.41796149888294359 -0.01562249565668134 0 -0.42930583411535589 -0.039433637374997443 0 -0.43621968797711458 -0.016392020641276761 0 -0.44468551471724399 -0.036603055514600601 0 -0.43621968797711458 -0.016392020641276761 0 -0.43059654125743763 -0.00087909897144949727 0 -0.4435201827941605 0.0060807858078640404 0 -0.43621968797711458 -0.016392020641276761 0 -0.43059654125743763 -0.00087909897144949727 0 -0.41796149888294359 -0.01562249565668134 0 -0.41796149888294359 -0.01562249565668134 0 -0.39935962345507148 -0.01357199800785351 0 -0.41461169379042312 0.002548843807654291 0 -0.43059654125743763 -0.00087909897144949727 0 -0.41796149888294359 -0.01562249565668134 0 -0.41461169379042312 0.002548843807654291 0 -0.41796149888294359 -0.01562249565668134 0 -0.39935962345507148 -0.01357199800785351 0 -0.40572588176379643 -0.033119237312305108 0 -0.42930583411535589 -0.039433637374997443 0 -0.41796149888294359 -0.01562249565668134 0 -0.40572588176379643 -0.033119237312305108 0 -0.39935962345507148 -0.01357199800785351 0 -0.38162470574755181 -0.025531593640554039 0 -0.40572588176379643 -0.033119237312305108 0 -0.39935962345507148 -0.01357199800785351 0 -0.41461169379042312 0.002548843807654291 0 -0.39612903138702632 0.0063573482089935036 0 -0.39935962345507148 -0.01357199800785351 0 -0.38402542382712301 -0.0054964585463870017 0 -0.39612903138702632 0.0063573482089935036 0 -0.39935962345507148 -0.01357199800785351 0 -0.38402542382712301 -0.0054964585463870017 0 -0.38162470574755181 -0.025531593640554039 0 -0.36760158085974948 -0.004488683742273545 0 -0.38402542382712301 -0.0054964585463870017 0 -0.38162470574755181 -0.025531593640554039 0 -0.36921263659382492 -0.046060141185988432 0 -0.38162470574755181 -0.025531593640554039 0 -0.39102852996643378 -0.050357467876886393 0 -0.38162470574755181 -0.025531593640554039 0 -0.40572588176379643 -0.033119237312305108 0 -0.39102852996643378 -0.050357467876886393 0 -0.41205227910413789 -0.054981018084040052 0 -0.40572588176379643 -0.033119237312305108 0 -0.39102852996643378 -0.050357467876886393 0 -0.41205227910413789 -0.054981018084040052 0 -0.39102852996643378 -0.050357467876886393 0 -0.39943260753601378 -0.071224529631526173 0 -0.36921263659382492 -0.046060141185988432 0 -0.39102852996643378 -0.050357467876886393 0 -0.37973739042659771 -0.069114231857906494 0 -0.37973739042659771 -0.069114231857906494 0 -0.39026214425937039 -0.092168322529824431 0 -0.39943260753601378 -0.071224529631526173 0 -0.39102852996643378 -0.050357467876886393 0 -0.37973739042659771 -0.069114231857906494 0 -0.39943260753601378 -0.071224529631526173 0 -0.37092681214383288 -0.095243366243769972 0 -0.37973739042659771 -0.069114231857906494 0 -0.39026214425937039 -0.092168322529824431 0 -0.37973739042659771 -0.069114231857906494 0 -0.39026214425937039 -0.092168322529824431 0 -0.39026214425937039 -0.092168322529824431 0 -0.40530031963852692 -0.090740306857528832 0 -0.39943260753601378 -0.071224529631526173 0 -0.38294047368348688 -0.12354566292245681 0 -0.38448030226826141 -0.11115222852846759 0 -0.40078689809214058 -0.1152224132017436 0 -0.36985915891412019 -0.11938707488326521 0 -0.38294047368348688 -0.12354566292245681 0 -0.38448030226826141 -0.11115222852846759 0 -0.37092681214383288 -0.095243366243769972 0 -0.36985915891412019 -0.11938707488326521 0 -0.38448030226826141 -0.11115222852846759 0 -0.37092681214383288 -0.095243366243769972 0 -0.39026214425937039 -0.092168322529824431 0 -0.38448030226826141 -0.11115222852846759 0 -0.39026214425937039 -0.092168322529824431 0 -0.40530031963852692 -0.090740306857528832 0 -0.40078689809214058 -0.1152224132017436 0 -0.39026214425937039 -0.092168322529824431 0 -0.40078689809214058 -0.1152224132017436 0 -0.39026214425937039 -0.092168322529824431 0 -0.38448030226826141 -0.11115222852846759 0 -0.40078689809214058 -0.1152224132017436 0 -0.38448030226826141 -0.11115222852846759 0 -0.40078689809214058 -0.1152224132017436 0 -0.40962772309596551 -0.13458791898849221 0 -0.40078689809214058 -0.1152224132017436 0 -0.39346782672421871 -0.13026452637577959 0 -0.38294047368348688 -0.12354566292245681 0 -0.40078689809214058 -0.1152224132017436 0 -0.40078689809214058 -0.1152224132017436 0 -0.41826725837166789 -0.1118478052758882 0 -0.41287709935359129 -0.10293189374342231 0 -0.40078689809214058 -0.1152224132017436 0 -0.42345808387896777 -0.12088122230642991 0 -0.41923084079662809 -0.1304467589748238 0 -0.40078689809214058 -0.1152224132017436 0 -0.42345808387896777 -0.12088122230642991 0 -0.40078689809214058 -0.1152224132017436 0 -0.41826725837166789 -0.1118478052758882 0 -0.42345808387896777 -0.12088122230642991 0 -0.40530031963852692 -0.090740306857528832 0 -0.40078689809214058 -0.1152224132017436 0 -0.41287709935359129 -0.10293189374342231 0 -0.41826725837166789 -0.1118478052758882 0 -0.41287709935359129 -0.10293189374342231 0 -0.42854317031665068 -0.1101293971771251 0 -0.41287709935359129 -0.10293189374342231 0 -0.42901480134963421 -0.095427685002229562 0 -0.41914886261877288 -0.088198722329881019 0 -0.40530031963852692 -0.090740306857528832 0 -0.41287709935359129 -0.10293189374342231 0 -0.41914886261877288 -0.088198722329881019 0 -0.41287709935359129 -0.10293189374342231 0 -0.42901480134963421 -0.095427685002229562 0 -0.42854317031665068 -0.1101293971771251 0 -0.42901480134963421 -0.095427685002229562 0 -0.42854317031665068 -0.1101293971771251 0 -0.44130735007924632 -0.1013346453029033 0 -0.44612926966579541 -0.12654003141111439 0 -0.43743866223333039 -0.11771069739686491 0 -0.42345808387896777 -0.12088122230642991 0 -0.44612926966579541 -0.12654003141111439 0 -0.42345808387896777 -0.12088122230642991 0 -0.41826725837166789 -0.1118478052758882 0 -0.42854317031665068 -0.1101293971771251 0 -0.42345808387896777 -0.12088122230642991 0 -0.42854317031665068 -0.1101293971771251 0 -0.43743866223333039 -0.11771069739686491 0 -0.42345808387896777 -0.12088122230642991 0 -0.41205227910413789 -0.054981018084040052 0 -0.41579786747899972 -0.074599546151884813 0 -0.4284201756545109 -0.062650471265371391 0 -0.41205227910413789 -0.054981018084040052 0 -0.39943260753601378 -0.071224529631526173 0 -0.41579786747899972 -0.074599546151884813 0 -0.40530031963852692 -0.090740306857528832 0 -0.39943260753601378 -0.071224529631526173 0 -0.41579786747899972 -0.074599546151884813 0 -0.40530031963852692 -0.090740306857528832 0 -0.41579786747899972 -0.074599546151884813 0 -0.41914886261877288 -0.088198722329881019 0 -0.41579786747899972 -0.074599546151884813 0 -0.41914886261877288 -0.088198722329881019 0 -0.43043296032203598 -0.079802228742961459 0 -0.42901480134963421 -0.095427685002229562 0 -0.41914886261877288 -0.088198722329881019 0 -0.43043296032203598 -0.079802228742961459 0 -0.42901480134963421 -0.095427685002229562 0 -0.43043296032203598 -0.079802228742961459 0 -0.44402345731273551 -0.086678656501214701 0 -0.43043296032203598 -0.079802228742961459 0 -0.4284201756545109 -0.062650471265371391 0 -0.44404481606300028 -0.072017198272911018 0 -0.41579786747899972 -0.074599546151884813 0 -0.43043296032203598 -0.079802228742961459 0 -0.4284201756545109 -0.062650471265371391 0 -0.4284201756545109 -0.062650471265371391 0 -0.44404481606300028 -0.072017198272911018 0 -0.44353298186918011 -0.053969628804331711 0 -0.44404481606300028 -0.072017198272911018 0 -0.45892653486836982 -0.065584641223290926 0 -0.44353298186918011 -0.053969628804331711 0 -0.43043296032203598 -0.079802228742961459 0 -0.44404481606300028 -0.072017198272911018 0 -0.44402345731273551 -0.086678656501214701 0 -0.44404481606300028 -0.072017198272911018 0 -0.44402345731273551 -0.086678656501214701 0 -0.45893278635116969 -0.083417563100295966 0 -0.45893278635116969 -0.083417563100295966 0 -0.45858375999945422 -0.098767133027513027 0 -0.4765593594582519 -0.093966525057658498 0 -0.44402345731273551 -0.086678656501214701 0 -0.45893278635116969 -0.083417563100295966 0 -0.45858375999945422 -0.098767133027513027 0 -0.44404481606300028 -0.072017198272911018 0 -0.45893278635116969 -0.083417563100295966 0 -0.45892653486836982 -0.065584641223290926 0 -0.45893278635116969 -0.083417563100295966 0 -0.45892653486836982 -0.065584641223290926 0 -0.48144943380406191 -0.069870484577310571 0 -0.42854317031665068 -0.1101293971771251 0 -0.43743866223333039 -0.11771069739686491 0 -0.45010622771454423 -0.1140959813575653 0 -0.42854317031665068 -0.1101293971771251 0 -0.45010622771454423 -0.1140959813575653 0 -0.44612926966579541 -0.12654003141111439 0 -0.45010622771454423 -0.1140959813575653 0 -0.45917630948634991 -0.12272435470562169 0 -0.44612926966579541 -0.12654003141111439 0 -0.43743866223333039 -0.11771069739686491 0 -0.45010622771454423 -0.1140959813575653 0 -0.44402345731273551 -0.086678656501214701 0 -0.44130735007924632 -0.1013346453029033 0 -0.45858375999945422 -0.098767133027513027 0 -0.42854317031665068 -0.1101293971771251 0 -0.45010622771454423 -0.1140959813575653 0 -0.44130735007924632 -0.1013346453029033 0 -0.45010622771454423 -0.1140959813575653 0 -0.44130735007924632 -0.1013346453029033 0 -0.45858375999945422 -0.098767133027513027 0 -0.42901480134963421 -0.095427685002229562 0 -0.44402345731273551 -0.086678656501214701 0 -0.44130735007924632 -0.1013346453029033 0 -0.45010622771454423 -0.1140959813575653 0 -0.45917630948634991 -0.12272435470562169 0 -0.47166928511243761 -0.11806256553800561 0 -0.45010622771454423 -0.1140959813575653 0 -0.45858375999945422 -0.098767133027513027 0 -0.47166928511243761 -0.11806256553800561 0 -0.45010622771454423 -0.1140959813575653 0 -0.47166928511243761 -0.11806256553800561 0 -0.46880045545262239 -0.1321988405158015 0 -0.45917630948634991 -0.12272435470562169 0 -0.47166928511243761 -0.11806256553800561 0 -0.48142668072875749 -0.12745923539429979 0 -0.47166928511243761 -0.11806256553800561 0 -0.50000000000000377 -0.1232740790733995 0 -0.47166928511243761 -0.11806256553800561 0 -0.4765593594582519 -0.093966525057658498 0 -0.48766367343397221 -0.10822334412534219 0 -0.45858375999945422 -0.098767133027513027 0 -0.47166928511243761 -0.11806256553800561 0 -0.4765593594582519 -0.093966525057658498 0 -0.47166928511243761 -0.11806256553800561 0 -0.4765593594582519 -0.093966525057658498 0 -0.4765593594582519 -0.093966525057658498 0 -0.48766367343397221 -0.10822334412534219 0 -0.5 -0.093324404588145282 0 -0.48766367343397221 -0.10822334412534219 0 -0.50000000000000377 -0.1232740790733995 0 -0.5 -0.093324404588145282 0 -0.47166928511243761 -0.11806256553800561 0 -0.50000000000000377 -0.1232740790733995 0 -0.47166928511243761 -0.11806256553800561 0 -0.48766367343397221 -0.10822334412534219 0 -0.50000000000000377 -0.1232740790733995 0 -0.45892653486836982 -0.065584641223290926 0 -0.48144943380406191 -0.069870484577310571 0 -0.4703656708124998 -0.053417990170163417 0 -0.45893278635116969 -0.083417563100295966 0 -0.4765593594582519 -0.093966525057658498 0 -0.48144943380406191 -0.069870484577310571 0 -0.4765593594582519 -0.093966525057658498 0 -0.48144943380406191 -0.069870484577310571 0 -0.4765593594582519 -0.093966525057658498 0 -0.48144943380406191 -0.069870484577310571 0 -0.5 -0.093324404588145282 0 -0.48144943380406191 -0.069870484577310571 0 -0.5 -0.093324404588145282 0 -0.5 -0.063374730102890964 0 -0.48144943380406191 -0.069870484577310571 0 -0.5 -0.063374730102890964 0 -0.48633950814987198 -0.045774444096962581 0 -0.5 -0.063374730102890964 0 -0.48633950814987198 -0.045774444096962581 0 -0.5 -0.033425055617636763 0 -0.48633950814987198 -0.045774444096962581 0 -0.4796907117218922 -0.027993666259308402 0 -0.49122958249568222 -0.021678403616614501 0 -0.48633950814987198 -0.045774444096962581 0 -0.5 -0.033425055617636763 0 -0.49122958249568222 -0.021678403616614501 0 -0.48633950814987198 -0.045774444096962581 0 -0.49122958249568222 -0.021678403616614501 0 -0.48633950814987198 -0.045774444096962581 0 -0.46953881774240819 -0.036733281240829661 0 -0.4796907117218922 -0.027993666259308402 0 -0.48633950814987198 -0.045774444096962581 0 -0.46953881774240819 -0.036733281240829661 0 -0.4703656708124998 -0.053417990170163417 0 -0.48144943380406191 -0.069870484577310571 0 -0.48633950814987198 -0.045774444096962581 0 -0.48144943380406191 -0.069870484577310571 0 -0.48633950814987198 -0.045774444096962581 0 -0.4703656708124998 -0.053417990170163417 0 -0.45892653486836982 -0.065584641223290926 0 -0.4703656708124998 -0.053417990170163417 0 -0.45627001245175408 -0.046788895131811607 0 -0.46953881774240819 -0.036733281240829661 0 -0.4703656708124998 -0.053417990170163417 0 -0.45627001245175408 -0.046788895131811607 0 -0.46953881774240819 -0.036733281240829661 0 -0.45627001245175408 -0.046788895131811607 0 -0.45513388688239981 -0.025997513652040501 0 -0.45627001245175408 -0.046788895131811607 0 -0.44468551471724399 -0.036603055514600601 0 -0.44353298186918011 -0.053969628804331711 0 -0.42930583411535589 -0.039433637374997443 0 -0.44468551471724399 -0.036603055514600601 0 -0.44353298186918011 -0.053969628804331711 0 -0.45627001245175408 -0.046788895131811607 0 -0.44468551471724399 -0.036603055514600601 0 -0.45513388688239981 -0.025997513652040501 0 -0.45892653486836982 -0.065584641223290926 0 -0.45627001245175408 -0.046788895131811607 0 -0.44353298186918011 -0.053969628804331711 0 -0.43621968797711458 -0.016392020641276761 0 -0.4435201827941605 0.0060807858078640404 0 -0.43621968797711458 -0.016392020641276761 0 -0.44711659774425189 -0.0031388754220469149 0 -0.4435201827941605 0.0060807858078640404 0 -0.44711659774425189 -0.0031388754220469149 0 -0.45552738943214399 -0.003790160026333127 0 -0.4520048827967601 0.003111001443600566 0 -0.45055552738101279 -0.01296027551169013 0 -0.44711659774425189 -0.0031388754220469149 0 -0.45552738943214399 -0.003790160026333127 0 -0.43621968797711458 -0.016392020641276761 0 -0.45055552738101279 -0.01296027551169013 0 -0.44711659774425189 -0.0031388754220469149 0 -0.43621968797711458 -0.016392020641276761 0 -0.45055552738101279 -0.01296027551169013 0 -0.45513388688239981 -0.025997513652040501 0 -0.43621968797711458 -0.016392020641276761 0 -0.44468551471724399 -0.036603055514600601 0 -0.45513388688239981 -0.025997513652040501 0 -0.45055552738101279 -0.01296027551169013 0 -0.45513388688239981 -0.025997513652040501 0 -0.45878007486915362 -0.01548280781675335 0 -0.46953881774240819 -0.036733281240829661 0 -0.45513388688239981 -0.025997513652040501 0 -0.47058099146034083 -0.018317652170645109 0 -0.45513388688239981 -0.025997513652040501 0 -0.45878007486915362 -0.01548280781675335 0 -0.47058099146034083 -0.018317652170645109 0 -0.45878007486915362 -0.01548280781675335 0 -0.46401731822462211 -0.0037425928462180278 0 -0.47058099146034083 -0.018317652170645109 0 -0.45055552738101279 -0.01296027551169013 0 -0.45878007486915362 -0.01548280781675335 0 -0.45552738943214399 -0.003790160026333127 0 -0.45878007486915362 -0.01548280781675335 0 -0.45552738943214399 -0.003790160026333127 0 -0.46401731822462211 -0.0037425928462180278 0 -0.45552738943214399 -0.003790160026333127 0 -0.46401731822462211 -0.0037425928462180278 0 -0.45637860885265119 0.001720049009473169 0 -0.47493347121823531 -0.0070435263965043004 0 -0.47100114577962032 0.0023583530414499959 0 -0.47881750148044039 0.0015385149150728089 0 -0.46401731822462211 -0.0037425928462180278 0 -0.47493347121823531 -0.0070435263965043004 0 -0.47100114577962032 0.0023583530414499959 0 -0.46401731822462211 -0.0037425928462180278 0 -0.47493347121823531 -0.0070435263965043004 0 -0.47058099146034083 -0.018317652170645109 0 -0.47493347121823531 -0.0070435263965043004 0 -0.47058099146034083 -0.018317652170645109 0 -0.48076465876115798 -0.017464550171490151 0 -0.47493347121823531 -0.0070435263965043004 0 -0.48076465876115798 -0.017464550171490151 0 -0.48441921160323048 -0.0066332311471953287 0 -0.48441921160323048 -0.0066332311471953287 0 -0.48648764114448062 0.0027549744383498268 0 -0.47881750148044039 0.0015385149150728089 0 -0.47493347121823531 -0.0070435263965043004 0 -0.48441921160323048 -0.0066332311471953287 0 -0.47881750148044039 0.0015385149150728089 0 -0.46953881774240819 -0.036733281240829661 0 -0.47058099146034083 -0.018317652170645109 0 -0.4796907117218922 -0.027993666259308402 0 -0.47058099146034083 -0.018317652170645109 0 -0.48076465876115798 -0.017464550171490151 0 -0.4796907117218922 -0.027993666259308402 0 -0.48076465876115798 -0.017464550171490151 0 -0.4796907117218922 -0.027993666259308402 0 -0.49122958249568222 -0.021678403616614501 0 -0.5 -0.033425055617636763 0 -0.49122958249568222 -0.021678403616614501 0 -0.5 -0.003475381132382549 0 -0.49122958249568222 -0.021678403616614501 0 -0.5 -0.003475381132382549 0 -0.49611965684149228 0.0024176368637335581 0 -0.49122958249568222 -0.021678403616614501 0 -0.48441921160323048 -0.0066332311471953287 0 -0.49611965684149228 0.0024176368637335581 0 -0.49122958249568222 -0.021678403616614501 0 -0.49611965684149228 0.0024176368637335581 0 -0.48441921160323048 -0.0066332311471953287 0 -0.49611965684149228 0.0024176368637335581 0 -0.48648764114448062 0.0027549744383498268 0 -0.48076465876115798 -0.017464550171490151 0 -0.49122958249568222 -0.021678403616614501 0 -0.48441921160323048 -0.0066332311471953287 0 -0.5 -0.003475381132382549 0 -0.49611965684149228 0.0024176368637335581 0 -0.5 0.026474293352871551 0 -0.49611965684149228 0.0024176368637335581 0 -0.49018519287666412 0.01280538214402949 0 -0.5 0.026474293352871551 0 -0.49611965684149228 0.0024176368637335581 0 -0.48648764114448062 0.0027549744383498268 0 -0.49018519287666412 0.01280538214402949 0 -0.49018519287666412 0.01280538214402949 0 -0.48559160039974791 0.023195117866778251 0 -0.48272706599760012 0.0091848881984142733 0 -0.48648764114448062 0.0027549744383498268 0 -0.49018519287666412 0.01280538214402949 0 -0.48272706599760012 0.0091848881984142733 0 -0.5 0.026474293352871551 0 -0.48559160039974791 0.023195117866778251 0 -0.48778779903257702 0.03364187529423112 0 -0.49018519287666412 0.01280538214402949 0 -0.5 0.026474293352871551 0 -0.48559160039974791 0.023195117866778251 0 -0.48559160039974791 0.023195117866778251 0 -0.47176138759673952 0.017991255384676431 0 -0.47861503757298313 0.014921335782510739 0 -0.48559160039974791 0.023195117866778251 0 -0.46996542631049998 0.02868395088787723 0 -0.47176138759673952 0.017991255384676431 0 -0.48559160039974791 0.023195117866778251 0 -0.46996542631049998 0.02868395088787723 0 -0.47739391088158761 0.037341055608468329 0 -0.48559160039974791 0.023195117866778251 0 -0.48272706599760012 0.0091848881984142733 0 -0.47861503757298313 0.014921335782510739 0 -0.47176138759673952 0.017991255384676431 0 -0.47438009629784489 0.0093140816801740075 0 -0.47861503757298313 0.014921335782510739 0 -0.47176138759673952 0.017991255384676431 0 -0.47438009629784489 0.0093140816801740075 0 -0.46762998104504983 0.010467138648438521 0 -0.47438009629784489 0.0093140816801740075 0 -0.4698278417739758 0.0069434629573709578 0 -0.46762998104504983 0.010467138648438521 0 -0.4698278417739758 0.0069434629573709578 0 -0.47100114577962032 0.0023583530414499959 0 -0.46588313659748221 0.0047920537606029488 0 -0.47438009629784489 0.0093140816801740075 0 -0.4698278417739758 0.0069434629573709578 0 -0.47100114577962032 0.0023583530414499959 0 -0.47438009629784489 0.0093140816801740075 0 -0.47100114577962032 0.0023583530414499959 0 -0.47881750148044039 0.0015385149150728089 0 -0.47438009629784489 0.0093140816801740075 0 -0.47881750148044039 0.0015385149150728089 0 -0.48272706599760012 0.0091848881984142733 0 -0.48648764114448062 0.0027549744383498268 0 -0.47881750148044039 0.0015385149150728089 0 -0.48272706599760012 0.0091848881984142733 0 -0.47438009629784489 0.0093140816801740075 0 -0.48272706599760012 0.0091848881984142733 0 -0.47861503757298313 0.014921335782510739 0 -0.50000000000000577 0.056423967838125692 0 -0.48816568484897271 0.047557034348806371 0 -0.4813139071886916 0.060661486549950482 0 -0.50000000000000577 0.056423967838125692 0 -0.4813139071886916 0.060661486549950482 0 -0.5 0.026474293352871551 0 -0.50000000000000577 0.056423967838125692 0 -0.48816568484897271 0.047557034348806371 0 -0.5 0.026474293352871551 0 -0.48816568484897271 0.047557034348806371 0 -0.48778779903257702 0.03364187529423112 0 -0.48816568484897271 0.047557034348806371 0 -0.48778779903257702 0.03364187529423112 0 -0.47739391088158761 0.037341055608468329 0 -0.48816568484897271 0.047557034348806371 0 -0.47739391088158761 0.037341055608468329 0 -0.47141924533191998 0.049061248740820067 0 -0.48559160039974791 0.023195117866778251 0 -0.48778779903257702 0.03364187529423112 0 -0.47739391088158761 0.037341055608468329 0 -0.46996542631049998 0.02868395088787723 0 -0.47739391088158761 0.037341055608468329 0 -0.46228990870059983 0.037182611916531931 0 -0.47739391088158761 0.037341055608468329 0 -0.47141924533191998 0.049061248740820067 0 -0.46228990870059983 0.037182611916531931 0 -0.4813139071886916 0.060661486549950482 0 -0.47141924533191998 0.049061248740820067 0 -0.46262781437737699 0.064899005261773973 0 -0.48816568484897271 0.047557034348806371 0 -0.4813139071886916 0.060661486549950482 0 -0.47141924533191998 0.049061248740820067 0 -0.47141924533191998 0.049061248740820067 0 -0.45672424599429212 0.046726298759389287 0 -0.46262781437737699 0.064899005261773973 0 -0.45672424599429212 0.046726298759389287 0 -0.46262781437737699 0.064899005261773973 0 -0.45672424599429212 0.046726298759389287 0 -0.44712448163207907 0.055149145829161847 0 -0.46262781437737699 0.064899005261773973 0 -0.45672424599429212 0.046726298759389287 0 -0.46228990870059983 0.037182611916531931 0 -0.45082067761120609 0.028553592257004962 0 -0.45672424599429212 0.046726298759389287 0 -0.45082067761120609 0.028553592257004962 0 -0.47141924533191998 0.049061248740820067 0 -0.45672424599429212 0.046726298759389287 0 -0.46228990870059983 0.037182611916531931 0 -0.44476769053344711 0.042879438014174147 0 -0.43690943122466458 0.031796525049290703 0 -0.43313398625425931 0.052120067067068621 0 -0.45672424599429212 0.046726298759389287 0 -0.44476769053344711 0.042879438014174147 0 -0.45082067761120609 0.028553592257004962 0 -0.44476769053344711 0.042879438014174147 0 -0.45082067761120609 0.028553592257004962 0 -0.43690943122466458 0.031796525049290703 0 -0.44712448163207907 0.055149145829161847 0 -0.43313398625425931 0.052120067067068621 0 -0.44599317783061609 0.068671307173311269 0 -0.45672424599429212 0.046726298759389287 0 -0.44476769053344711 0.042879438014174147 0 -0.44712448163207907 0.055149145829161847 0 -0.44476769053344711 0.042879438014174147 0 -0.44712448163207907 0.055149145829161847 0 -0.43313398625425931 0.052120067067068621 0 -0.45762941386802819 0.011661615468957181 0 -0.45700487575502358 0.0063912577591023426 0 -0.46189763967669162 0.0084253749810587249 0 -0.45762941386802819 0.011661615468957181 0 -0.46189763967669162 0.0084253749810587249 0 -0.46222550276570162 0.013697568169309719 0 -0.45762941386802819 0.011661615468957181 0 -0.46222550276570162 0.013697568169309719 0 -0.45862433183081169 0.017820268453844011 0 -0.45762941386802819 0.011661615468957181 0 -0.45479490780377119 0.014510989373272019 0 -0.45345444586101852 0.0096553103067683749 0 -0.45762941386802819 0.011661615468957181 0 -0.45479490780377119 0.014510989373272019 0 -0.45862433183081169 0.017820268453844011 0 -0.45762941386802819 0.011661615468957181 0 -0.45345444586101852 0.0096553103067683749 0 -0.45700487575502358 0.0063912577591023426 0 -0.45345444586101852 0.0096553103067683749 0 -0.45700487575502358 0.0063912577591023426 0 -0.4520048827967601 0.003111001443600566 0 -0.45552738943214399 -0.003790160026333127 0 -0.45637860885265119 0.001720049009473169 0 -0.4520048827967601 0.003111001443600566 0 -0.45700487575502358 0.0063912577591023426 0 -0.45637860885265119 0.001720049009473169 0 -0.4520048827967601 0.003111001443600566 0 -0.46401731822462211 -0.0037425928462180278 0 -0.45637860885265119 0.001720049009473169 0 -0.46101292802886462 0.003542616079941649 0 -0.45700487575502358 0.0063912577591023426 0 -0.45637860885265119 0.001720049009473169 0 -0.46101292802886462 0.003542616079941649 0 -0.45700487575502358 0.0063912577591023426 0 -0.46101292802886462 0.003542616079941649 0 -0.46189763967669162 0.0084253749810587249 0 -0.46401731822462211 -0.0037425928462180278 0 -0.47100114577962032 0.0023583530414499959 0 -0.46588313659748221 0.0047920537606029488 0 -0.46101292802886462 0.003542616079941649 0 -0.46588313659748221 0.0047920537606029488 0 -0.46189763967669162 0.0084253749810587249 0 -0.46401731822462211 -0.0037425928462180278 0 -0.46101292802886462 0.003542616079941649 0 -0.46588313659748221 0.0047920537606029488 0 -0.4698278417739758 0.0069434629573709578 0 -0.46588313659748221 0.0047920537606029488 0 -0.46762998104504983 0.010467138648438521 0 -0.47176138759673952 0.017991255384676431 0 -0.46762998104504983 0.010467138648438521 0 -0.46222550276570162 0.013697568169309719 0 -0.46588313659748221 0.0047920537606029488 0 -0.46762998104504983 0.010467138648438521 0 -0.46189763967669162 0.0084253749810587249 0 -0.46762998104504983 0.010467138648438521 0 -0.46189763967669162 0.0084253749810587249 0 -0.46222550276570162 0.013697568169309719 0 -0.47176138759673952 0.017991255384676431 0 -0.46222550276570162 0.013697568169309719 0 -0.46381899706264579 0.020236833507302342 0 -0.46996542631049998 0.02868395088787723 0 -0.47176138759673952 0.017991255384676431 0 -0.46381899706264579 0.020236833507302342 0 -0.46222550276570162 0.013697568169309719 0 -0.46381899706264579 0.020236833507302342 0 -0.45862433183081169 0.017820268453844011 0 -0.46996542631049998 0.02868395088787723 0 -0.46381899706264579 0.020236833507302342 0 -0.45887081641813621 0.02667697686295635 0 -0.46996542631049998 0.02868395088787723 0 -0.46228990870059983 0.037182611916531931 0 -0.45887081641813621 0.02667697686295635 0 -0.45887081641813621 0.02667697686295635 0 -0.45082067761120609 0.028553592257004962 0 -0.45887081641813621 0.02667697686295635 0 -0.45440635306658772 0.020137627341266451 0 -0.45082067761120609 0.028553592257004962 0 -0.46228990870059983 0.037182611916531931 0 -0.45887081641813621 0.02667697686295635 0 -0.45082067761120609 0.028553592257004962 0 -0.45887081641813621 0.02667697686295635 0 -0.45862433183081169 0.017820268453844011 0 -0.45440635306658772 0.020137627341266451 0 -0.46381899706264579 0.020236833507302342 0 -0.45887081641813621 0.02667697686295635 0 -0.45862433183081169 0.017820268453844011 0 -0.45479490780377119 0.014510989373272019 0 -0.45440635306658772 0.020137627341266451 0 -0.45057723244744291 0.014337724742767521 0 -0.45479490780377119 0.014510989373272019 0 -0.45862433183081169 0.017820268453844011 0 -0.45440635306658772 0.020137627341266451 0 -0.45082067761120609 0.028553592257004962 0 -0.4435201827941605 0.0060807858078640404 0 -0.45440635306658772 0.020137627341266451 0 -0.45082067761120609 0.028553592257004962 0 -0.45057723244744291 0.014337724742767521 0 -0.44112059393882841 0.0091274772851460614 0 -0.43690943122466458 0.031796525049290703 0 -0.45082067761120609 0.028553592257004962 0 -0.44112059393882841 0.0091274772851460614 0 -0.43690943122466458 0.031796525049290703 0 -0.45082067761120609 0.028553592257004962 0 -0.45057723244744291 0.014337724742767521 0 -0.4435201827941605 0.0060807858078640404 0 -0.45082067761120609 0.028553592257004962 0 -0.43690943122466458 0.031796525049290703 0 -0.45082067761120609 0.028553592257004962 0 -0.44112059393882841 0.0091274772851460614 0 -0.4435201827941605 0.0060807858078640404 0 -0.45057723244744291 0.014337724742767521 0 -0.44928841018305993 0.0071750908055374487 0 -0.4435201827941605 0.0060807858078640404 0 -0.45345444586101852 0.0096553103067683749 0 -0.45057723244744291 0.014337724742767521 0 -0.44928841018305993 0.0071750908055374487 0 -0.45479490780377119 0.014510989373272019 0 -0.45345444586101852 0.0096553103067683749 0 -0.45057723244744291 0.014337724742767521 0 -0.44711659774425189 -0.0031388754220469149 0 -0.4479825183795581 0.0033070006587387849 0 -0.4435201827941605 0.0060807858078640404 0 -0.4520048827967601 0.003111001443600566 0 -0.44928841018305993 0.0071750908055374487 0 -0.4479825183795581 0.0033070006587387849 0 -0.45345444586101852 0.0096553103067683749 0 -0.4520048827967601 0.003111001443600566 0 -0.44928841018305993 0.0071750908055374487 0 -0.44928841018305993 0.0071750908055374487 0 -0.4479825183795581 0.0033070006587387849 0 -0.4435201827941605 0.0060807858078640404 0 -0.44711659774425189 -0.0031388754220469149 0 -0.4520048827967601 0.003111001443600566 0 -0.4479825183795581 0.0033070006587387849 0 -0.43059654125743763 -0.00087909897144949727 0 -0.44112059393882841 0.0091274772851460614 0 -0.4435201827941605 0.0060807858078640404 0 -0.43059654125743763 -0.00087909897144949727 0 -0.44112059393882841 0.0091274772851460614 0 -0.42918280372820161 0.011434927787017249 0 -0.43059654125743763 -0.00087909897144949727 0 -0.42918280372820161 0.011434927787017249 0 -0.41461169379042312 0.002548843807654291 0 -0.42918280372820161 0.011434927787017249 0 -0.41461169379042312 0.002548843807654291 0 -0.42075018556374683 0.019485116201285759 0 -0.41461169379042312 0.002548843807654291 0 -0.42075018556374683 0.019485116201285759 0 -0.40733634114817308 0.017788213238631341 0 -0.42075018556374683 0.019485116201285759 0 -0.40733634114817308 0.017788213238631341 0 -0.41526291069360871 0.036842673274867281 0 -0.42918280372820161 0.011434927787017249 0 -0.42075018556374683 0.019485116201285759 0 -0.43690943122466458 0.031796525049290703 0 -0.42075018556374683 0.019485116201285759 0 -0.43690943122466458 0.031796525049290703 0 -0.41526291069360871 0.036842673274867281 0 -0.44112059393882841 0.0091274772851460614 0 -0.42918280372820161 0.011434927787017249 0 -0.43690943122466458 0.031796525049290703 0 -0.43690943122466458 0.031796525049290703 0 -0.41526291069360871 0.036842673274867281 0 -0.43690943122466458 0.031796525049290703 0 -0.43313398625425931 0.052120067067068621 0 -0.41526291069360871 0.036842673274867281 0 -0.43690943122466458 0.031796525049290703 0 -0.43313398625425931 0.052120067067068621 0 -0.43313398625425931 0.052120067067068621 0 -0.42935854128385492 0.072443609084846664 0 -0.43313398625425931 0.052120067067068621 0 -0.41595331421444698 0.057553562393037619 0 -0.42935854128385492 0.072443609084846664 0 -0.41595331421444698 0.057553562393037619 0 -0.40590690396714729 0.04905494562468464 0 -0.39879500079798103 0.059934725330390307 0 -0.41595331421444698 0.057553562393037619 0 -0.41526291069360871 0.036842673274867281 0 -0.40590690396714729 0.04905494562468464 0 -0.43313398625425931 0.052120067067068621 0 -0.41595331421444698 0.057553562393037619 0 -0.41526291069360871 0.036842673274867281 0 -0.41526291069360871 0.036842673274867281 0 -0.39361639016255268 0.041888821500443332 0 -0.3922443251907089 0.024875874483676421 0 -0.41526291069360871 0.036842673274867281 0 -0.39361639016255268 0.041888821500443332 0 -0.41526291069360871 0.036842673274867281 0 -0.39361639016255268 0.041888821500443332 0 -0.40590690396714729 0.04905494562468464 0 -0.39361639016255268 0.041888821500443332 0 -0.39879500079798103 0.059934725330390307 0 -0.38625181815490311 0.052986250681370813 0 -0.39361639016255268 0.041888821500443332 0 -0.40590690396714729 0.04905494562468464 0 -0.39879500079798103 0.059934725330390307 0 -0.38625181815490311 0.052986250681370813 0 -0.38062601202758201 0.063186486168630221 0 -0.3719698696314967 0.04693496972601939 0 -0.39361639016255268 0.041888821500443332 0 -0.38625181815490311 0.052986250681370813 0 -0.3719698696314967 0.04693496972601939 0 -0.39879500079798103 0.059934725330390307 0 -0.38625181815490311 0.052986250681370813 0 -0.38062601202758201 0.063186486168630221 0 -0.39361639016255268 0.041888821500443332 0 -0.38026370425951489 0.036089164097603703 0 -0.3719698696314967 0.04693496972601939 0 -0.39361639016255268 0.041888821500443332 0 -0.3719698696314967 0.04693496972601939 0 -0.39361639016255268 0.041888821500443332 0 -0.38026370425951489 0.036089164097603703 0 -0.3922443251907089 0.024875874483676421 0 -0.38026370425951489 0.036089164097603703 0 -0.3922443251907089 0.024875874483676421 0 -0.37088066758443761 0.027250145542840259 0 -0.3922443251907089 0.024875874483676421 0 -0.37088066758443761 0.027250145542840259 0 -0.37919678091065828 0.011999614278239489 0 -0.3922443251907089 0.024875874483676421 0 -0.37088066758443761 0.027250145542840259 0 -0.36760158085974948 -0.004488683742273545 0 -0.38402542382712301 -0.0054964585463870017 0 -0.37919678091065828 0.011999614278239489 0 -0.37919678091065828 0.011999614278239489 0 -0.39612903138702632 0.0063573482089935036 0 -0.3922443251907089 0.024875874483676421 0 -0.38402542382712301 -0.0054964585463870017 0 -0.37919678091065828 0.011999614278239489 0 -0.39612903138702632 0.0063573482089935036 0 -0.41461169379042312 0.002548843807654291 0 -0.40733634114817308 0.017788213238631341 0 -0.39612903138702632 0.0063573482089935036 0 -0.40733634114817308 0.017788213238631341 0 -0.41526291069360871 0.036842673274867281 0 -0.3922443251907089 0.024875874483676421 0 -0.40733634114817308 0.017788213238631341 0 -0.39612903138702632 0.0063573482089935036 0 -0.3922443251907089 0.024875874483676421 0 -0.38730025292104753 0.095968756154585416 0 -0.40967514977829411 0.09452626301171807 0 -0.3993249751897881 0.1057537457165539 0 -0.38730025292104753 0.095968756154585416 0 -0.40967514977829411 0.09452626301171807 0 -0.3993249751897881 0.1057537457165539 0 -0.38705803702588309 0.1112579398871711 0 -0.38730025292104753 0.095968756154585416 0 -0.40241189838663072 0.1186427545127379 0 -0.38705803702588309 0.1112579398871711 0 -0.38553743362499759 0.13342089625716211 0 -0.3993249751897881 0.1057537457165539 0 -0.40241189838663072 0.1186427545127379 0 -0.41017953783708527 0.1083730150165567 0 -0.3993249751897881 0.1057537457165539 0 -0.40241189838663072 0.1186427545127379 0 -0.38705803702588309 0.1112579398871711 0 -0.38705803702588309 0.1112579398871711 0 -0.38553743362499759 0.13342089625716211 0 -0.3733223470021152 0.1196158063350172 0 -0.38705803702588309 0.1112579398871711 0 -0.37558930984549621 0.1065588620034935 0 -0.3733223470021152 0.1196158063350172 0 -0.37558930984549621 0.1065588620034935 0 -0.38730025292104753 0.095968756154585416 0 -0.36492535606380078 0.097411249297452596 0 -0.38730025292104753 0.095968756154585416 0 -0.36492535606380078 0.097411249297452596 0 -0.38705803702588309 0.1112579398871711 0 -0.37558930984549621 0.1065588620034935 0 -0.38730025292104753 0.095968756154585416 0 -0.38730025292104753 0.095968756154585416 0 -0.37558996584851528 0.08463692027173228 0 -0.36492535606380078 0.097411249297452596 0 -0.38730025292104753 0.095968756154585416 0 -0.37558996584851528 0.08463692027173228 0 -0.39618051305229041 0.079967520951942456 0 -0.37558996584851528 0.08463692027173228 0 -0.39618051305229041 0.079967520951942456 0 -0.38062601202758201 0.063186486168630221 0 -0.39618051305229041 0.079967520951942456 0 -0.37558996584851528 0.08463692027173228 0 -0.38062601202758201 0.063186486168630221 0 -0.39618051305229041 0.079967520951942456 0 -0.39879500079798103 0.059934725330390307 0 -0.38062601202758201 0.063186486168630221 0 -0.39618051305229041 0.079967520951942456 0 -0.39879500079798103 0.059934725330390307 0 -0.39618051305229041 0.079967520951942456 0 -0.4127695271680728 0.076205565018395413 0 -0.39618051305229041 0.079967520951942456 0 -0.4127695271680728 0.076205565018395413 0 -0.38730025292104753 0.095968756154585416 0 -0.39618051305229041 0.079967520951942456 0 -0.40967514977829411 0.09452626301171807 0 -0.39618051305229041 0.079967520951942456 0 -0.4127695271680728 0.076205565018395413 0 -0.40967514977829411 0.09452626301171807 0 -0.39618051305229041 0.079967520951942456 0 -0.40967514977829411 0.09452626301171807 0 -0.4127695271680728 0.076205565018395413 0 -0.42544517729410247 0.093509580937179287 0 -0.40967514977829411 0.09452626301171807 0 -0.4127695271680728 0.076205565018395413 0 -0.42935854128385492 0.072443609084846664 0 -0.41595331421444698 0.057553562393037619 0 -0.4127695271680728 0.076205565018395413 0 -0.42935854128385492 0.072443609084846664 0 -0.41595331421444698 0.057553562393037619 0 -0.39879500079798103 0.059934725330390307 0 -0.4127695271680728 0.076205565018395413 0 -0.43313398625425931 0.052120067067068621 0 -0.42935854128385492 0.072443609084846664 0 -0.44599317783061609 0.068671307173311269 0 -0.42935854128385492 0.072443609084846664 0 -0.43670077885520781 0.083659883849729139 0 -0.44599317783061609 0.068671307173311269 0 -0.42935854128385492 0.072443609084846664 0 -0.42544517729410247 0.093509580937179287 0 -0.42544517729410247 0.093509580937179287 0 -0.44629616629392399 0.092165333012994524 0 -0.43670077885520781 0.083659883849729139 0 -0.42544517729410247 0.093509580937179287 0 -0.44629616629392399 0.092165333012994524 0 -0.42935854128385492 0.072443609084846664 0 -0.43670077885520781 0.083659883849729139 0 -0.42544517729410247 0.093509580937179287 0 -0.4127695271680728 0.076205565018395413 0 -0.42935854128385492 0.072443609084846664 0 -0.42544517729410247 0.093509580937179287 0 -0.42544517729410247 0.093509580937179287 0 -0.43308644579309769 0.10043228543162599 0 -0.44629616629392399 0.092165333012994524 0 -0.43308644579309769 0.10043228543162599 0 -0.43177628733790252 0.1091300634751057 0 -0.44018182693408642 0.1071554465486196 0 -0.43308644579309769 0.10043228543162599 0 -0.43177628733790252 0.1091300634751057 0 -0.42367107274081489 0.1030597369360876 0 -0.43177628733790252 0.1091300634751057 0 -0.42367107274081489 0.1030597369360876 0 -0.4238724136666025 0.10984303715697109 0 -0.42544517729410247 0.093509580937179287 0 -0.43308644579309769 0.10043228543162599 0 -0.42367107274081489 0.1030597369360876 0 -0.42544517729410247 0.093509580937179287 0 -0.42367107274081489 0.1030597369360876 0 -0.42544517729410247 0.093509580937179287 0 -0.42367107274081489 0.1030597369360876 0 -0.40967514977829411 0.09452626301171807 0 -0.42544517729410247 0.093509580937179287 0 -0.40967514977829411 0.09452626301171807 0 -0.40967514977829411 0.09452626301171807 0 -0.4238724136666025 0.10984303715697109 0 -0.42367107274081489 0.1030597369360876 0 -0.40967514977829411 0.09452626301171807 0 -0.4238724136666025 0.10984303715697109 0 -0.41017953783708527 0.1083730150165567 0 -0.40967514977829411 0.09452626301171807 0 -0.4238724136666025 0.10984303715697109 0 -0.3993249751897881 0.1057537457165539 0 -0.41017953783708527 0.1083730150165567 0 -0.40967514977829411 0.09452626301171807 0 -0.40241189838663072 0.1186427545127379 0 -0.41600146829336232 0.1166400565883082 0 -0.41453370548102508 0.1267105636553047 0 -0.40241189838663072 0.1186427545127379 0 -0.41017953783708527 0.1083730150165567 0 -0.41600146829336232 0.1166400565883082 0 -0.41600146829336232 0.1166400565883082 0 -0.42414305525899748 0.1229935254138811 0 -0.4238724136666025 0.10984303715697109 0 -0.41017953783708527 0.1083730150165567 0 -0.41600146829336232 0.1166400565883082 0 -0.4238724136666025 0.10984303715697109 0 -0.41600146829336232 0.1166400565883082 0 -0.42414305525899748 0.1229935254138811 0 -0.41453370548102508 0.1267105636553047 0 -0.43177628733790252 0.1091300634751057 0 -0.4238724136666025 0.10984303715697109 0 -0.43806967755491072 0.1251598113022242 0 -0.42414305525899748 0.1229935254138811 0 -0.4238724136666025 0.10984303715697109 0 -0.43806967755491072 0.1251598113022242 0 -0.43177628733790252 0.1091300634751057 0 -0.44018182693408642 0.1071554465486196 0 -0.43806967755491072 0.1251598113022242 0 -0.4238724136666025 0.10984303715697109 0 -0.43806967755491072 0.1251598113022242 0 -0.44636597479958762 0.1160572901891332 0 -0.44018182693408642 0.1071554465486196 0 -0.43806967755491072 0.1251598113022242 0 -0.44636597479958762 0.1160572901891332 0 -0.43806967755491072 0.1251598113022242 0 -0.46294613148467401 0.1289782761535837 0 -0.44636597479958762 0.1160572901891332 0 -0.44018182693408642 0.1071554465486196 0 -0.45348587312188537 0.1066694989040709 0 -0.43308644579309769 0.10043228543162599 0 -0.44018182693408642 0.1071554465486196 0 -0.44629616629392399 0.092165333012994524 0 -0.44018182693408642 0.1071554465486196 0 -0.45348587312188537 0.1066694989040709 0 -0.44629616629392399 0.092165333012994524 0 -0.45348587312188537 0.1066694989040709 0 -0.45974878852589329 0.095076875532699473 0 -0.47681834031615888 0.10858110501329089 0 -0.45348587312188537 0.1066694989040709 0 -0.45974878852589329 0.095076875532699473 0 -0.44629616629392399 0.092165333012994524 0 -0.45348587312188537 0.1066694989040709 0 -0.47681834031615888 0.10858110501329089 0 -0.46294613148467401 0.1289782761535837 0 -0.45348587312188537 0.1066694989040709 0 -0.46294613148467401 0.1289782761535837 0 -0.44636597479958762 0.1160572901891332 0 -0.45348587312188537 0.1066694989040709 0 -0.46294613148467401 0.1289782761535837 0 -0.43670077885520781 0.083659883849729139 0 -0.44599317783061609 0.068671307173311269 0 -0.45343077630848438 0.08181948504089917 0 -0.44712448163207907 0.055149145829161847 0 -0.44599317783061609 0.068671307173311269 0 -0.46262781437737699 0.064899005261773973 0 -0.42935854128385492 0.072443609084846664 0 -0.44599317783061609 0.068671307173311269 0 -0.43670077885520781 0.083659883849729139 0 -0.44629616629392399 0.092165333012994524 0 -0.45343077630848438 0.08181948504089917 0 -0.45974878852589329 0.095076875532699473 0 -0.45343077630848438 0.08181948504089917 0 -0.46972307734676622 0.086740055137532968 0 -0.45974878852589329 0.095076875532699473 0 -0.44629616629392399 0.092165333012994524 0 -0.45343077630848438 0.08181948504089917 0 -0.44599317783061609 0.068671307173311269 0 -0.45343077630848438 0.08181948504089917 0 -0.46262781437737699 0.064899005261773973 0 -0.46262781437737699 0.064899005261773973 0 -0.46972307734676622 0.086740055137532968 0 -0.44599317783061609 0.068671307173311269 0 -0.46262781437737699 0.064899005261773973 0 -0.45343077630848438 0.08181948504089917 0 -0.46262781437737699 0.064899005261773973 0 -0.46972307734676622 0.086740055137532968 0 -0.4813139071886916 0.060661486549950482 0 -0.46262781437737699 0.064899005261773973 0 -0.48284785531367491 0.076032474764414562 0 -0.4813139071886916 0.060661486549950482 0 -0.46262781437737699 0.064899005261773973 0 -0.46262781437737699 0.064899005261773973 0 -0.48284785531367491 0.076032474764414562 0 -0.46972307734676622 0.086740055137532968 0 -0.48284785531367491 0.076032474764414562 0 -0.46972307734676622 0.086740055137532968 0 -0.48840917015807622 0.091538387244587141 0 -0.48840917015807622 0.091538387244587141 0 -0.49999999999999478 0.074495669475884263 0 -0.49999999999999989 0.096440364810139234 0 -0.48840917015807622 0.091538387244587141 0 -0.49999999999999478 0.074495669475884263 0 -0.48284785531367491 0.076032474764414562 0 -0.48840917015807622 0.091538387244587141 0 -0.49999999999999478 0.074495669475884263 0 -0.50000000000000577 0.056423967838125692 0 -0.4813139071886916 0.060661486549950482 0 -0.49999999999999478 0.074495669475884263 0 -0.4813139071886916 0.060661486549950482 0 -0.48284785531367491 0.076032474764414562 0 -0.49999999999999478 0.074495669475884263 0 -0.47681834031615888 0.10858110501329089 0 -0.482519979286122 0.1261322206877781 0 -0.46294613148467401 0.1289782761535837 0 -0.47681834031615888 0.10858110501329089 0 -0.482519979286122 0.1261322206877781 0 -0.47681834031615888 0.10858110501329089 0 -0.49171057813706331 0.1168648580605372 0 -0.482519979286122 0.1261322206877781 0 -0.47681834031615888 0.10858110501329089 0 -0.46294613148467401 0.1289782761535837 0 -0.46972307734676622 0.086740055137532968 0 -0.48840917015807622 0.091538387244587141 0 -0.47681834031615888 0.10858110501329089 0 -0.46972307734676622 0.086740055137532968 0 -0.47681834031615888 0.10858110501329089 0 -0.48840917015807622 0.091538387244587141 0 -0.47681834031615888 0.10858110501329089 0 -0.45974878852589329 0.095076875532699473 0 -0.46972307734676622 0.086740055137532968 0 -0.47681834031615888 0.10858110501329089 0 -0.48923452215282509 0.103356178782139 0 -0.49999999999999989 0.096440364810139234 0 -0.49171057813706331 0.1168648580605372 0 -0.49999999999999989 0.096440364810139234 0 -0.49171057813706331 0.1168648580605372 0 -0.48840917015807622 0.091538387244587141 0 -0.47681834031615888 0.10858110501329089 0 -0.48923452215282509 0.103356178782139 0 -0.48840917015807622 0.091538387244587141 0 -0.48923452215282509 0.103356178782139 0 -0.49999999999999989 0.096440364810139234 0 -0.49999999999999989 0.096440364810139234 0 -0.49171057813706331 0.1168648580605372 0 -0.5 0.12608263063289329 0 -0.47681834031615888 0.10858110501329089 0 -0.48923452215282509 0.103356178782139 0 -0.49171057813706331 0.1168648580605372 0 -0.49171057813706331 0.1168648580605372 0 -0.48955691868723278 0.1221713080909544 0 -0.482519979286122 0.1261322206877781 0 -0.49171057813706331 0.1168648580605372 0 -0.48955691868723278 0.1221713080909544 0 -0.49171057813706331 0.1168648580605372 0 -0.48955691868723278 0.1221713080909544 0 -0.5 0.12608263063289329 0 -0.5 0.12608263063289329 0 -0.49232811019944639 0.13571319988754249 0 -0.4938578731244686 0.14388004118922459 0 -0.48955691868723278 0.1221713080909544 0 -0.48342115627412691 0.1372893513109352 0 -0.48509528399674862 0.14583181475032481 0 -0.48955691868723278 0.1221713080909544 0 -0.5 0.12608263063289329 0 -0.49232811019944639 0.13571319988754249 0 -0.48955691868723278 0.1221713080909544 0 -0.49232811019944639 0.13571319988754249 0 -0.48509528399674862 0.14583181475032481 0 -0.48955691868723278 0.1221713080909544 0 -0.48509528399674862 0.14583181475032481 0 -0.48955691868723278 0.1221713080909544 0 -0.482519979286122 0.1261322206877781 0 -0.48342115627412691 0.1372893513109352 0 -0.48955691868723278 0.1221713080909544 0 -0.48342115627412691 0.1372893513109352 0 -0.482519979286122 0.1261322206877781 0 -0.47448154999821379 0.13393647712743931 0 -0.46294613148467401 0.1289782761535837 0 -0.482519979286122 0.1261322206877781 0 -0.48342115627412691 0.1372893513109352 0 -0.47448154999821379 0.13393647712743931 0 -0.47448154999821379 0.13393647712743931 0 -0.46903893294793059 0.1433460603574592 0 -0.46294613148467401 0.1289782761535837 0 -0.48342115627412691 0.1372893513109352 0 -0.47448154999821379 0.13393647712743931 0 -0.46903893294793059 0.1433460603574592 0 -0.48342115627412691 0.1372893513109352 0 -0.46903893294793059 0.1433460603574592 0 -0.47513173441119078 0.15771384456133331 0 -0.48342115627412691 0.1372893513109352 0 -0.48509528399674862 0.14583181475032481 0 -0.47513173441119078 0.15771384456133331 0 -0.48342115627412691 0.1372893513109352 0 -0.47513173441119078 0.15771384456133331 0 -0.46903893294793059 0.1433460603574592 0 -0.47513173441119078 0.15771384456133331 0 -0.46480178243427661 0.15361861463968021 0 -0.46903893294793059 0.1433460603574592 0 -0.47513173441119078 0.15771384456133331 0 -0.49186597142614802 0.15604766421971489 0 -0.48509528399674862 0.14583181475032481 0 -0.4938578731244686 0.14388004118922459 0 -0.49186597142614802 0.15604766421971489 0 -0.48509528399674862 0.14583181475032481 0 -0.48678091825491149 0.16268265665361151 0 -0.5 0.12608263063289329 0 -0.4938578731244686 0.14388004118922459 0 -0.5 0.15572489645564741 0 -0.49232811019944639 0.13571319988754249 0 -0.48509528399674862 0.14583181475032481 0 -0.4938578731244686 0.14388004118922459 0 -0.49186597142614802 0.15604766421971489 0 -0.4938578731244686 0.14388004118922459 0 -0.5 0.15572489645564741 0 -0.5 0.15572489645564741 0 -0.49399651186918853 0.1661967687080306 0 -0.5 0.18536716227840161 0 -0.49186597142614802 0.15604766421971489 0 -0.5 0.15572489645564741 0 -0.49399651186918853 0.1661967687080306 0 -0.49399651186918853 0.1661967687080306 0 -0.48292573609372208 0.17609332646870859 0 -0.49399651186918853 0.1661967687080306 0 -0.48678091825491149 0.16268265665361151 0 -0.48292573609372208 0.17609332646870859 0 -0.49186597142614802 0.15604766421971489 0 -0.49399651186918853 0.1661967687080306 0 -0.48678091825491149 0.16268265665361151 0 -0.49399651186918853 0.1661967687080306 0 -0.5 0.18536716227840161 0 -0.49138783211936138 0.1792999917907164 0 -0.5 0.18536716227840161 0 -0.49138783211936138 0.1792999917907164 0 -0.48862908051453502 0.18954270970772469 0 -0.49399651186918853 0.1661967687080306 0 -0.49138783211936138 0.1792999917907164 0 -0.48292573609372208 0.17609332646870859 0 -0.48292573609372208 0.17609332646870859 0 -0.48862908051453502 0.18954270970772469 0 -0.49138783211936138 0.1792999917907164 0 -0.48292573609372208 0.17609332646870859 0 -0.48862908051453502 0.18954270970772469 0 -0.47748177490671728 0.18095987578980441 0 -0.48292573609372208 0.17609332646870859 0 -0.48862908051453502 0.18954270970772469 0 -0.47748177490671728 0.18095987578980441 0 -0.48292573609372208 0.17609332646870859 0 -0.48002108788874959 0.16924370912127851 0 -0.47748177490671728 0.18095987578980441 0 -0.48002108788874959 0.16924370912127851 0 -0.47748177490671728 0.18095987578980441 0 -0.48292573609372208 0.17609332646870859 0 -0.48292573609372208 0.17609332646870859 0 -0.48002108788874959 0.16924370912127851 0 -0.47748177490671728 0.18095987578980441 0 -0.48002108788874959 0.16924370912127851 0 -0.46691782502150703 0.17795228092793691 0 -0.47748177490671728 0.18095987578980441 0 -0.46385659402778229 0.193139906557556 0 -0.47748177490671728 0.18095987578980441 0 -0.46691782502150703 0.17795228092793691 0 -0.46385659402778229 0.193139906557556 0 -0.48509528399674862 0.14583181475032481 0 -0.48002108788874959 0.16924370912127851 0 -0.47513173441119078 0.15771384456133331 0 -0.48509528399674862 0.14583181475032481 0 -0.48678091825491149 0.16268265665361151 0 -0.48002108788874959 0.16924370912127851 0 -0.47513173441119078 0.15771384456133331 0 -0.46691782502150703 0.17795228092793691 0 -0.48509528399674862 0.14583181475032481 0 -0.48002108788874959 0.16924370912127851 0 -0.48002108788874959 0.16924370912127851 0 -0.47513173441119078 0.15771384456133331 0 -0.46691782502150703 0.17795228092793691 0 -0.48002108788874959 0.16924370912127851 0 -0.47513173441119078 0.15771384456133331 0 -0.48678091825491149 0.16268265665361151 0 -0.48292573609372208 0.17609332646870859 0 -0.48002108788874959 0.16924370912127851 0 -0.47513173441119078 0.15771384456133331 0 -0.45866862224365063 0.16259954250473441 0 -0.46480178243427661 0.15361861463968021 0 -0.47513173441119078 0.15771384456133331 0 -0.45866862224365063 0.16259954250473441 0 -0.46691782502150703 0.17795228092793691 0 -0.45866862224365063 0.16259954250473441 0 -0.46691782502150703 0.17795228092793691 0 -0.45571830555797282 0.17396209009791089 0 -0.46691782502150703 0.17795228092793691 0 -0.45719096384996361 0.1839940479767827 0 -0.46385659402778229 0.193139906557556 0 -0.46691782502150703 0.17795228092793691 0 -0.45571830555797282 0.17396209009791089 0 -0.45719096384996361 0.1839940479767827 0 -0.45571830555797282 0.17396209009791089 0 -0.45719096384996361 0.1839940479767827 0 -0.44763789634992862 0.18135855141034549 0 -0.45571830555797282 0.17396209009791089 0 -0.44763789634992862 0.18135855141034549 0 -0.43824551998703581 0.16529712098265911 0 -0.44763789634992862 0.18135855141034549 0 -0.43824551998703581 0.16529712098265911 0 -0.43702594979372789 0.18202363607168681 0 -0.45719096384996361 0.1839940479767827 0 -0.44763789634992862 0.18135855141034549 0 -0.45182419829262738 0.19355741089016429 0 -0.44763789634992862 0.18135855141034549 0 -0.44369339864906687 0.1905943594902296 0 -0.43702594979372789 0.18202363607168681 0 -0.45866862224365063 0.16259954250473441 0 -0.43824551998703581 0.16529712098265911 0 -0.45059582573585583 0.14713769856812201 0 -0.45866862224365063 0.16259954250473441 0 -0.45571830555797282 0.17396209009791089 0 -0.43824551998703581 0.16529712098265911 0 -0.43824551998703581 0.16529712098265911 0 -0.45059582573585583 0.14713769856812201 0 -0.43329697710695142 0.1510635745045612 0 -0.43824551998703581 0.16529712098265911 0 -0.45059582573585583 0.14713769856812201 0 -0.45059582573585583 0.14713769856812201 0 -0.43806967755491072 0.1251598113022242 0 -0.42823801129908712 0.1366141583665974 0 -0.45059582573585583 0.14713769856812201 0 -0.43806967755491072 0.1251598113022242 0 -0.46294613148467401 0.1289782761535837 0 -0.46903893294793059 0.1433460603574592 0 -0.45059582573585583 0.14713769856812201 0 -0.46294613148467401 0.1289782761535837 0 -0.45059582573585583 0.14713769856812201 0 -0.46294613148467401 0.1289782761535837 0 -0.46903893294793059 0.1433460603574592 0 -0.46294613148467401 0.1289782761535837 0 -0.46903893294793059 0.1433460603574592 0 -0.45059582573585583 0.14713769856812201 0 -0.46480178243427661 0.15361861463968021 0 -0.45866862224365063 0.16259954250473441 0 -0.45059582573585583 0.14713769856812201 0 -0.46480178243427661 0.15361861463968021 0 -0.47140919036984552 0.24324699533267899 0 -0.47622041687324468 0.23589113099488901 0 -0.46780025776337691 0.23382628992496091 0 -0.47140919036984552 0.24324699533267899 0 -0.47622041687324468 0.23589113099488901 0 -0.48409586529763748 0.2443360010212681 0 -0.47622041687324468 0.23589113099488901 0 -0.48409586529763748 0.2443360010212681 0 -0.48692370066453011 0.23431758851297621 0 -0.47140919036984552 0.24324699533267899 0 -0.48409586529763748 0.2443360010212681 0 -0.47874644332747068 0.25510029245731491 0 -0.48409586529763748 0.2443360010212681 0 -0.4999999999999975 0.24465169392391009 0 -0.49038037276704011 0.25557132441729552 0 -0.48409586529763748 0.2443360010212681 0 -0.4999999999999975 0.24465169392391009 0 -0.48692370066453011 0.23431758851297621 0 -0.4999999999999975 0.24465169392391009 0 -0.48692370066453011 0.23431758851297621 0 -0.4999999999999975 0.24465169392391009 0 -0.48692370066453011 0.23431758851297621 0 -0.5 0.21500942810115581 0 -0.48692370066453011 0.23431758851297621 0 -0.48852981376459881 0.2195372037209751 0 -0.5 0.21500942810115581 0 -0.48852981376459881 0.2195372037209751 0 -0.47384740132906278 0.2239834831020423 0 -0.47895690893462572 0.21366752806292061 0 -0.48852981376459881 0.2195372037209751 0 -0.47384740132906278 0.2239834831020423 0 -0.48692370066453011 0.23431758851297621 0 -0.48852981376459881 0.2195372037209751 0 -0.47384740132906278 0.2239834831020423 0 -0.47622041687324468 0.23589113099488901 0 -0.48692370066453011 0.23431758851297621 0 -0.47384740132906278 0.2239834831020423 0 -0.48692370066453011 0.23431758851297621 0 -0.47384740132906278 0.2239834831020423 0 -0.47622041687324468 0.23589113099488901 0 -0.47384740132906278 0.2239834831020423 0 -0.46780025776337691 0.23382628992496091 0 -0.46898916070867191 0.22014405044645491 0 -0.47384740132906278 0.2239834831020423 0 -0.47895690893462572 0.21366752806292061 0 -0.46898916070867191 0.22014405044645491 0 -0.47384740132906278 0.2239834831020423 0 -0.46809245567754149 0.22428136856027811 0 -0.46898916070867191 0.22014405044645491 0 -0.47384740132906278 0.2239834831020423 0 -0.46898916070867191 0.22014405044645491 0 -0.47323546780769488 0.20055196311812959 0 -0.46898916070867191 0.22014405044645491 0 -0.47895690893462572 0.21366752806292061 0 -0.47323546780769488 0.20055196311812959 0 -0.47895690893462572 0.21366752806292061 0 -0.48878449447296329 0.2039959822397753 0 -0.47323546780769488 0.20055196311812959 0 -0.48852981376459881 0.2195372037209751 0 -0.47895690893462572 0.21366752806292061 0 -0.48878449447296329 0.2039959822397753 0 -0.48852981376459881 0.2195372037209751 0 -0.5 0.21500942810115581 0 -0.48878449447296329 0.2039959822397753 0 -0.5 0.18536716227840161 0 -0.48878449447296329 0.2039959822397753 0 -0.48862908051453502 0.18954270970772469 0 -0.5 0.18536716227840161 0 -0.5 0.21500942810115581 0 -0.48878449447296329 0.2039959822397753 0 -0.47748177490671728 0.18095987578980441 0 -0.47323546780769488 0.20055196311812959 0 -0.47748177490671728 0.18095987578980441 0 -0.47323546780769488 0.20055196311812959 0 -0.46385659402778229 0.193139906557556 0 -0.47748177490671728 0.18095987578980441 0 -0.48862908051453502 0.18954270970772469 0 -0.47323546780769488 0.20055196311812959 0 -0.48878449447296329 0.2039959822397753 0 -0.48862908051453502 0.18954270970772469 0 -0.47323546780769488 0.20055196311812959 0 -0.47323546780769488 0.20055196311812959 0 -0.46385659402778229 0.193139906557556 0 -0.46352694912601711 0.2048322709586721 0 -0.46385659402778229 0.193139906557556 0 -0.4502314131488474 0.20531993732530759 0 -0.46385659402778229 0.193139906557556 0 -0.45182419829262738 0.19355741089016429 0 -0.4502314131488474 0.20531993732530759 0 -0.46385659402778229 0.193139906557556 0 -0.4502314131488474 0.20531993732530759 0 -0.46352694912601711 0.2048322709586721 0 -0.45719096384996361 0.1839940479767827 0 -0.46385659402778229 0.193139906557556 0 -0.45182419829262738 0.19355741089016429 0 -0.4502314131488474 0.20531993732530759 0 -0.43174753566020319 0.19071226175364339 0 -0.44763789634992862 0.18135855141034549 0 -0.45182419829262738 0.19355741089016429 0 -0.44369339864906687 0.1905943594902296 0 -0.4502314131488474 0.20531993732530759 0 -0.44202151697784331 0.2034499617986352 0 -0.43174753566020319 0.19071226175364339 0 -0.44369339864906687 0.1905943594902296 0 -0.4502314131488474 0.20531993732530759 0 -0.43174753566020319 0.19071226175364339 0 -0.45182419829262738 0.19355741089016429 0 -0.44369339864906687 0.1905943594902296 0 -0.4502314131488474 0.20531993732530759 0 -0.4502314131488474 0.20531993732530759 0 -0.43414696991058022 0.21969838963834501 0 -0.4502314131488474 0.20531993732530759 0 -0.44097622777588652 0.21870461041154601 0 -0.43414696991058022 0.21969838963834501 0 -0.4502314131488474 0.20531993732530759 0 -0.43414696991058022 0.21969838963834501 0 -0.43485348961596271 0.21000844127733259 0 -0.4502314131488474 0.20531993732530759 0 -0.44202151697784331 0.2034499617986352 0 -0.43485348961596271 0.21000844127733259 0 -0.4502314131488474 0.20531993732530759 0 -0.44097622777588652 0.21870461041154601 0 -0.44814577207494488 0.21719185510645911 0 -0.4502314131488474 0.20531993732530759 0 -0.44814577207494488 0.21719185510645911 0 -0.4521035239001619 0.21550739706952771 0 -0.44814577207494488 0.21719185510645911 0 -0.4521035239001619 0.21550739706952771 0 -0.45213583372101329 0.22179388996415361 0 -0.4502314131488474 0.20531993732530759 0 -0.4521035239001619 0.21550739706952771 0 -0.45790107665584201 0.21772390588219021 0 -0.46898916070867191 0.22014405044645491 0 -0.4502314131488474 0.20531993732530759 0 -0.45790107665584201 0.21772390588219021 0 -0.4521035239001619 0.21550739706952771 0 -0.45790107665584201 0.21772390588219021 0 -0.45213583372101329 0.22179388996415361 0 -0.46898916070867191 0.22014405044645491 0 -0.4502314131488474 0.20531993732530759 0 -0.46352694912601711 0.2048322709586721 0 -0.46898916070867191 0.22014405044645491 0 -0.47323546780769488 0.20055196311812959 0 -0.46352694912601711 0.2048322709586721 0 -0.46898916070867191 0.22014405044645491 0 -0.4502314131488474 0.20531993732530759 0 -0.47384740132906278 0.2239834831020423 0 -0.46780025776337691 0.23382628992496091 0 -0.45712786856977761 0.2290466642444538 0 -0.47384740132906278 0.2239834831020423 0 -0.46809245567754149 0.22428136856027811 0 -0.45712786856977761 0.2290466642444538 0 -0.47384740132906278 0.2239834831020423 0 -0.45712786856977761 0.2290466642444538 0 -0.45790107665584201 0.21772390588219021 0 -0.46809245567754149 0.22428136856027811 0 -0.45712786856977761 0.2290466642444538 0 -0.46898916070867191 0.22014405044645491 0 -0.45790107665584201 0.21772390588219021 0 -0.46809245567754149 0.22428136856027811 0 -0.46898916070867191 0.22014405044645491 0 -0.46809245567754149 0.22428136856027811 0 -0.45790107665584201 0.21772390588219021 0 -0.45712786856977761 0.2290466642444538 0 -0.45213583372101329 0.22179388996415361 0 -0.45712786856977761 0.2290466642444538 0 -0.4404083358104921 0.23410984538686419 0 -0.45712786856977761 0.2290466642444538 0 -0.44559006955521901 0.22554666287466879 0 -0.45213583372101329 0.22179388996415361 0 -0.45712786856977761 0.2290466642444538 0 -0.44559006955521901 0.22554666287466879 0 -0.4404083358104921 0.23410984538686419 0 -0.44814577207494488 0.21719185510645911 0 -0.44559006955521901 0.22554666287466879 0 -0.45213583372101329 0.22179388996415361 0 -0.44097622777588652 0.21870461041154601 0 -0.44559006955521901 0.22554666287466879 0 -0.43454993949386711 0.22128657871431229 0 -0.44097622777588652 0.21870461041154601 0 -0.44814577207494488 0.21719185510645911 0 -0.44559006955521901 0.22554666287466879 0 -0.44559006955521901 0.22554666287466879 0 -0.4404083358104921 0.23410984538686419 0 -0.43454993949386711 0.22128657871431229 0 -0.4404083358104921 0.23410984538686419 0 -0.45858711411261111 0.2417962392944282 0 -0.44987037221171883 0.25482101094831611 0 -0.45712786856977761 0.2290466642444538 0 -0.4404083358104921 0.23410984538686419 0 -0.45858711411261111 0.2417962392944282 0 -0.4404083358104921 0.23410984538686419 0 -0.43535073689811121 0.24802721624926291 0 -0.44987037221171883 0.25482101094831611 0 -0.4404083358104921 0.23410984538686419 0 -0.44987037221171883 0.25482101094831611 0 -0.46780025776337691 0.23382628992496091 0 -0.45712786856977761 0.2290466642444538 0 -0.45858711411261111 0.2417962392944282 0 -0.47140919036984552 0.24324699533267899 0 -0.46780025776337691 0.23382628992496091 0 -0.45858711411261111 0.2417962392944282 0 -0.47140919036984552 0.24324699533267899 0 -0.45858711411261111 0.2417962392944282 0 -0.46578519863329582 0.25659275838981482 0 -0.41043671487978012 0.24813903361116141 0 -0.41733077143754832 0.2410984311582563 0 -0.39425320706460443 0.24808701692964799 0 -0.41098747859262807 0.23613833384476901 0 -0.41733077143754832 0.2410984311582563 0 -0.40349064825995151 0.23890897829117019 0 -0.41098747859262807 0.23613833384476901 0 -0.40838842839765183 0.229756958107699 0 -0.40349064825995151 0.23890897829117019 0 -0.41733077143754832 0.2410984311582563 0 -0.42336555289634531 0.23454784261753001 0 -0.41640261844793708 0.23274595445641161 0 -0.41098747859262807 0.23613833384476901 0 -0.41733077143754832 0.2410984311582563 0 -0.41640261844793708 0.23274595445641161 0 -0.41043671487978012 0.24813903361116141 0 -0.41733077143754832 0.2410984311582563 0 -0.42198451048501912 0.24165410790607419 0 -0.4404083358104921 0.23410984538686419 0 -0.41733077143754832 0.2410984311582563 0 -0.42336555289634531 0.23454784261753001 0 -0.4404083358104921 0.23410984538686419 0 -0.41733077143754832 0.2410984311582563 0 -0.43535073689811121 0.24802721624926291 0 -0.42198451048501912 0.24165410790607419 0 -0.42372073458691062 0.25401258507241897 0 -0.4404083358104921 0.23410984538686419 0 -0.43535073689811121 0.24802721624926291 0 -0.42198451048501912 0.24165410790607419 0 -0.4404083358104921 0.23410984538686419 0 -0.41733077143754832 0.2410984311582563 0 -0.42198451048501912 0.24165410790607419 0 -0.4404083358104921 0.23410984538686419 0 -0.42336555289634531 0.23454784261753001 0 -0.42783521806327979 0.23135990248147659 0 -0.42336555289634531 0.23454784261753001 0 -0.42783521806327979 0.23135990248147659 0 -0.42122494747513162 0.2296237428298539 0 -0.42591456385497573 0.2274410228105507 0 -0.42783521806327979 0.23135990248147659 0 -0.42122494747513162 0.2296237428298539 0 -0.42591456385497573 0.2274410228105507 0 -0.41854786256712062 0.22436637653129859 0 -0.42122494747513162 0.2296237428298539 0 -0.42591456385497573 0.2274410228105507 0 -0.42783521806327979 0.23135990248147659 0 -0.43147972447848382 0.22874118328355439 0 -0.42591456385497573 0.2274410228105507 0 -0.43147972447848382 0.22874118328355439 0 -0.42940682968320942 0.22514739605895809 0 -0.4404083358104921 0.23410984538686419 0 -0.42783521806327979 0.23135990248147659 0 -0.43147972447848382 0.22874118328355439 0 -0.4404083358104921 0.23410984538686419 0 -0.43454993949386711 0.22128657871431229 0 -0.43343749726242797 0.22621914534277229 0 -0.4404083358104921 0.23410984538686419 0 -0.43147972447848382 0.22874118328355439 0 -0.43343749726242797 0.22621914534277229 0 -0.4404083358104921 0.23410984538686419 0 -0.43454993949386711 0.22128657871431229 0 -0.43147972447848382 0.22874118328355439 0 -0.43343749726242797 0.22621914534277229 0 -0.42940682968320942 0.22514739605895809 0 -0.44097622777588652 0.21870461041154601 0 -0.43454993949386711 0.22128657871431229 0 -0.43414696991058022 0.21969838963834501 0 -0.43454993949386711 0.22128657871431229 0 -0.43343749726242797 0.22621914534277229 0 -0.43134265684608769 0.22181072327017259 0 -0.43343749726242797 0.22621914534277229 0 -0.43134265684608769 0.22181072327017259 0 -0.42940682968320942 0.22514739605895809 0 -0.43414696991058022 0.21969838963834501 0 -0.42997660295789808 0.21879586074483859 0 -0.43134265684608769 0.22181072327017259 0 -0.43454993949386711 0.22128657871431229 0 -0.43414696991058022 0.21969838963834501 0 -0.43134265684608769 0.22181072327017259 0 -0.42997660295789808 0.21879586074483859 0 -0.43134265684608769 0.22181072327017259 0 -0.42656286791925219 0.2223612206869007 0 -0.42591456385497573 0.2274410228105507 0 -0.42656286791925219 0.2223612206869007 0 -0.41854786256712062 0.22436637653129859 0 -0.42656286791925219 0.2223612206869007 0 -0.41854786256712062 0.22436637653129859 0 -0.42627282817189738 0.21457374562022141 0 -0.43134265684608769 0.22181072327017259 0 -0.42656286791925219 0.2223612206869007 0 -0.42940682968320942 0.22514739605895809 0 -0.42591456385497573 0.2274410228105507 0 -0.42656286791925219 0.2223612206869007 0 -0.42940682968320942 0.22514739605895809 0 -0.41854786256712062 0.22436637653129859 0 -0.40838842839765183 0.229756958107699 0 -0.40960257205325012 0.2074126281859448 0 -0.41854786256712062 0.22436637653129859 0 -0.41640261844793708 0.23274595445641161 0 -0.40838842839765183 0.229756958107699 0 -0.41854786256712062 0.22436637653129859 0 -0.42122494747513162 0.2296237428298539 0 -0.41640261844793708 0.23274595445641161 0 -0.42336555289634531 0.23454784261753001 0 -0.42122494747513162 0.2296237428298539 0 -0.41640261844793708 0.23274595445641161 0 -0.41098747859262807 0.23613833384476901 0 -0.41640261844793708 0.23274595445641161 0 -0.40838842839765183 0.229756958107699 0 -0.41854786256712062 0.22436637653129859 0 -0.40960257205325012 0.2074126281859448 0 -0.42627282817189738 0.21457374562022141 0 -0.40960257205325012 0.2074126281859448 0 -0.42618733366957451 0.20585369303338241 0 -0.42489270080070851 0.19811845540771189 0 -0.40960257205325012 0.2074126281859448 0 -0.42627282817189738 0.21457374562022141 0 -0.42618733366957451 0.20585369303338241 0 -0.42997660295789808 0.21879586074483859 0 -0.42627282817189738 0.21457374562022141 0 -0.43155769194167332 0.21553522450855281 0 -0.42997660295789808 0.21879586074483859 0 -0.42656286791925219 0.2223612206869007 0 -0.42627282817189738 0.21457374562022141 0 -0.43414696991058022 0.21969838963834501 0 -0.42997660295789808 0.21879586074483859 0 -0.43155769194167332 0.21553522450855281 0 -0.43414696991058022 0.21969838963834501 0 -0.43155769194167332 0.21553522450855281 0 -0.43485348961596271 0.21000844127733259 0 -0.42627282817189738 0.21457374562022141 0 -0.43155769194167332 0.21553522450855281 0 -0.43485348961596271 0.21000844127733259 0 -0.43485348961596271 0.21000844127733259 0 -0.42618733366957451 0.20585369303338241 0 -0.4321945247497041 0.2014461249545931 0 -0.44202151697784331 0.2034499617986352 0 -0.43485348961596271 0.21000844127733259 0 -0.4321945247497041 0.2014461249545931 0 -0.42627282817189738 0.21457374562022141 0 -0.43485348961596271 0.21000844127733259 0 -0.42618733366957451 0.20585369303338241 0 -0.42489270080070851 0.19811845540771189 0 -0.4321945247497041 0.2014461249545931 0 -0.43174753566020319 0.19071226175364339 0 -0.42618733366957451 0.20585369303338241 0 -0.42489270080070851 0.19811845540771189 0 -0.4321945247497041 0.2014461249545931 0 -0.44202151697784331 0.2034499617986352 0 -0.4321945247497041 0.2014461249545931 0 -0.43174753566020319 0.19071226175364339 0 -0.44202151697784331 0.2034499617986352 0 -0.43174753566020319 0.19071226175364339 0 -0.44369339864906687 0.1905943594902296 0 -0.43174753566020319 0.19071226175364339 0 -0.43702594979372789 0.18202363607168681 0 -0.42489270080070851 0.19811845540771189 0 -0.43174753566020319 0.19071226175364339 0 -0.42473153787081108 0.18516756911099599 0 -0.43174753566020319 0.19071226175364339 0 -0.42473153787081108 0.18516756911099599 0 -0.40960257205325012 0.2074126281859448 0 -0.4076705609913342 0.18983148992168419 0 -0.42473153787081108 0.18516756911099599 0 -0.40960257205325012 0.2074126281859448 0 -0.42473153787081108 0.18516756911099599 0 -0.40960257205325012 0.2074126281859448 0 -0.42489270080070851 0.19811845540771189 0 -0.42473153787081108 0.18516756911099599 0 -0.4076705609913342 0.18983148992168419 0 -0.39210169100609871 0.1979789397960354 0 -0.39888966439433321 0.18185531004364289 0 -0.40960257205325012 0.2074126281859448 0 -0.4076705609913342 0.18983148992168419 0 -0.39210169100609871 0.1979789397960354 0 -0.39210169100609871 0.1979789397960354 0 -0.38679544961612039 0.18028050442871479 0 -0.37362785887905919 0.20648123798227391 0 -0.38876916461332989 0.21488003352701621 0 -0.38339615745520339 0.233649742287037 0 -0.37362785887905919 0.20648123798227391 0 -0.39210169100609871 0.1979789397960354 0 -0.38876916461332989 0.21488003352701621 0 -0.37362785887905919 0.20648123798227391 0 -0.40960257205325012 0.2074126281859448 0 -0.39447360623568922 0.22965768726089381 0 -0.40960257205325012 0.2074126281859448 0 -0.38876916461332989 0.21488003352701621 0 -0.39447360623568922 0.22965768726089381 0 -0.40960257205325012 0.2074126281859448 0 -0.39210169100609871 0.1979789397960354 0 -0.38876916461332989 0.21488003352701621 0 -0.40838842839765183 0.229756958107699 0 -0.40960257205325012 0.2074126281859448 0 -0.39447360623568922 0.22965768726089381 0 -0.40838842839765183 0.229756958107699 0 -0.39447360623568922 0.22965768726089381 0 -0.40349064825995151 0.23890897829117019 0 -0.38876916461332989 0.21488003352701621 0 -0.39447360623568922 0.22965768726089381 0 -0.38339615745520339 0.233649742287037 0 -0.38339615745520339 0.233649742287037 0 -0.37362785887905919 0.20648123798227391 0 -0.39447360623568922 0.22965768726089381 0 -0.37955297187683812 0.24135174748520841 0 -0.37953854733362519 0.25254306176890989 0 -0.39447360623568922 0.22965768726089381 0 -0.39425320706460443 0.24808701692964799 0 -0.37953854733362519 0.25254306176890989 0 -0.39447360623568922 0.22965768726089381 0 -0.37953854733362519 0.25254306176890989 0 -0.39447360623568922 0.22965768726089381 0 -0.38339615745520339 0.233649742287037 0 -0.37955297187683812 0.24135174748520841 0 -0.38339615745520339 0.233649742287037 0 -0.37955297187683812 0.24135174748520841 0 -0.36807822273912838 0.2392344403747432 0 -0.37955297187683812 0.24135174748520841 0 -0.37245560190602828 0.2474017800549676 0 -0.37953854733362519 0.25254306176890989 0 -0.41733077143754832 0.2410984311582563 0 -0.39425320706460443 0.24808701692964799 0 -0.39447360623568922 0.22965768726089381 0 -0.39425320706460443 0.24808701692964799 0 -0.40349064825995151 0.23890897829117019 0 -0.41733077143754832 0.2410984311582563 0 -0.39425320706460443 0.24808701692964799 0 -0.40349064825995151 0.23890897829117019 0 -0.42177156631024798 0.14623374165803391 0 -0.41381752163520202 0.1520068474368069 0 -0.41247521861241132 0.13880643253443639 0 -0.42177156631024798 0.14623374165803391 0 -0.41381752163520202 0.1520068474368069 0 -0.42340817539013909 0.1581166233372048 0 -0.41381752163520202 0.1520068474368069 0 -0.41247521861241132 0.13880643253443639 0 -0.3989900271627364 0.15009944530384051 0 -0.41247521861241132 0.13880643253443639 0 -0.41453370548102508 0.1267105636553047 0 -0.42823801129908712 0.1366141583665974 0 -0.42177156631024798 0.14623374165803391 0 -0.41247521861241132 0.13880643253443639 0 -0.42823801129908712 0.1366141583665974 0 -0.40241189838663072 0.1186427545127379 0 -0.41453370548102508 0.1267105636553047 0 -0.40201305669346771 0.1328209829456039 0 -0.41247521861241132 0.13880643253443639 0 -0.41453370548102508 0.1267105636553047 0 -0.40201305669346771 0.1328209829456039 0 -0.42414305525899748 0.1229935254138811 0 -0.41453370548102508 0.1267105636553047 0 -0.42823801129908712 0.1366141583665974 0 -0.42414305525899748 0.1229935254138811 0 -0.43806967755491072 0.1251598113022242 0 -0.42823801129908712 0.1366141583665974 0 -0.45059582573585583 0.14713769856812201 0 -0.42823801129908712 0.1366141583665974 0 -0.43329697710695142 0.1510635745045612 0 -0.42177156631024798 0.14623374165803391 0 -0.42823801129908712 0.1366141583665974 0 -0.43329697710695142 0.1510635745045612 0 -0.42177156631024798 0.14623374165803391 0 -0.43329697710695142 0.1510635745045612 0 -0.42340817539013909 0.1581166233372048 0 -0.43824551998703581 0.16529712098265911 0 -0.43329697710695142 0.1510635745045612 0 -0.42340817539013909 0.1581166233372048 0 -0.43824551998703581 0.16529712098265911 0 -0.4253046050265587 0.1695147219125884 0 -0.42340817539013909 0.1581166233372048 0 -0.43824551998703581 0.16529712098265911 0 -0.42589521423821541 0.183456543397196 0 -0.43824551998703581 0.16529712098265911 0 -0.43702594979372789 0.18202363607168681 0 -0.42589521423821541 0.183456543397196 0 -0.43824551998703581 0.16529712098265911 0 -0.4253046050265587 0.1695147219125884 0 -0.42589521423821541 0.183456543397196 0 -0.43174753566020319 0.19071226175364339 0 -0.43702594979372789 0.18202363607168681 0 -0.42589521423821541 0.183456543397196 0 -0.42589521423821541 0.183456543397196 0 -0.42473153787081108 0.18516756911099599 0 -0.43174753566020319 0.19071226175364339 0 -0.42589521423821541 0.183456543397196 0 -0.42473153787081108 0.18516756911099599 0 -0.43174753566020319 0.19071226175364339 0 -0.42589521423821541 0.183456543397196 0 -0.42473153787081108 0.18516756911099599 0 -0.40826542856195103 0.17215452123404371 0 -0.4076705609913342 0.18983148992168419 0 -0.42473153787081108 0.18516756911099599 0 -0.40826542856195103 0.17215452123404371 0 -0.42589521423821541 0.183456543397196 0 -0.42473153787081108 0.18516756911099599 0 -0.40826542856195103 0.17215452123404371 0 -0.42589521423821541 0.183456543397196 0 -0.40826542856195103 0.17215452123404371 0 -0.4124426207004751 0.16677799435051879 0 -0.4253046050265587 0.1695147219125884 0 -0.42589521423821541 0.183456543397196 0 -0.4124426207004751 0.16677799435051879 0 -0.42589521423821541 0.183456543397196 0 -0.4124426207004751 0.16677799435051879 0 -0.41381752163520202 0.1520068474368069 0 -0.4124426207004751 0.16677799435051879 0 -0.3989900271627364 0.15009944530384051 0 -0.41381752163520202 0.1520068474368069 0 -0.42340817539013909 0.1581166233372048 0 -0.4124426207004751 0.16677799435051879 0 -0.4253046050265587 0.1695147219125884 0 -0.42340817539013909 0.1581166233372048 0 -0.4124426207004751 0.16677799435051879 0 -0.40826542856195103 0.17215452123404371 0 -0.4124426207004751 0.16677799435051879 0 -0.40102778127832073 0.16222040721632031 0 -0.4124426207004751 0.16677799435051879 0 -0.40102778127832073 0.16222040721632031 0 -0.3989900271627364 0.15009944530384051 0 -0.4124426207004751 0.16677799435051879 0 -0.3989900271627364 0.15009944530384051 0 -0.40102778127832073 0.16222040721632031 0 -0.3954117281649091 0.17099087767814569 0 -0.38208031697382039 0.1584436454680071 0 -0.40102778127832073 0.16222040721632031 0 -0.38208031697382039 0.1584436454680071 0 -0.3989900271627364 0.15009944530384051 0 -0.40826542856195103 0.17215452123404371 0 -0.40102778127832073 0.16222040721632031 0 -0.3954117281649091 0.17099087767814569 0 -0.39210169100609871 0.1979789397960354 0 -0.39888966439433321 0.18185531004364289 0 -0.38679544961612039 0.18028050442871479 0 -0.4076705609913342 0.18983148992168419 0 -0.40826542856195103 0.17215452123404371 0 -0.39888966439433321 0.18185531004364289 0 -0.40826542856195103 0.17215452123404371 0 -0.3954117281649091 0.17099087767814569 0 -0.39888966439433321 0.18185531004364289 0 -0.3954117281649091 0.17099087767814569 0 -0.39888966439433321 0.18185531004364289 0 -0.38679544961612039 0.18028050442871479 0 -0.38679544961612039 0.18028050442871479 0 -0.38208031697382039 0.1584436454680071 0 -0.36385956030291522 0.17931273367751119 0 -0.3954117281649091 0.17099087767814569 0 -0.38679544961612039 0.18028050442871479 0 -0.38208031697382039 0.1584436454680071 0 -0.38208031697382039 0.1584436454680071 0 -0.38553743362499759 0.13342089625716211 0 -0.36719901499070801 0.1369195831729304 0 -0.38208031697382039 0.1584436454680071 0 -0.3989900271627364 0.15009944530384051 0 -0.38553743362499759 0.13342089625716211 0 -0.3989900271627364 0.15009944530384051 0 -0.38553743362499759 0.13342089625716211 0 -0.3989900271627364 0.15009944530384051 0 -0.40201305669346771 0.1328209829456039 0 -0.38553743362499759 0.13342089625716211 0 -0.40241189838663072 0.1186427545127379 0 -0.40201305669346771 0.1328209829456039 0 -0.38553743362499759 0.13342089625716211 0 -0.41247521861241132 0.13880643253443639 0 -0.3989900271627364 0.15009944530384051 0 -0.40201305669346771 0.1328209829456039 0 -0.38553743362499759 0.13342089625716211 0 -0.36719901499070801 0.1369195831729304 0 -0.3733223470021152 0.1196158063350172 0 -0.36719901499070801 0.1369195831729304 0 -0.3733223470021152 0.1196158063350172 0 -0.35694571185984808 0.1213129410944602 0 -0.36719901499070801 0.1369195831729304 0 -0.35121701875669609 0.1365799805101878 0 -0.35694571185984808 0.1213129410944602 0 -0.35121701875669609 0.1365799805101878 0 -0.35694571185984808 0.1213129410944602 0 -0.34234431772772778 0.1234734061386261 0 -0.35121701875669609 0.1365799805101878 0 -0.35409126172677108 0.15214422937274841 0 -0.3323452591802914 0.1460357568309 0 -0.36719901499070801 0.1369195831729304 0 -0.35121701875669609 0.1365799805101878 0 -0.35409126172677108 0.15214422937274841 0 -0.38208031697382039 0.1584436454680071 0 -0.36719901499070801 0.1369195831729304 0 -0.35409126172677108 0.15214422937274841 0 -0.38208031697382039 0.1584436454680071 0 -0.35409126172677108 0.15214422937274841 0 -0.36385956030291522 0.17931273367751119 0 -0.35409126172677108 0.15214422937274841 0 -0.36385956030291522 0.17931273367751119 0 -0.35409126172677108 0.15214422937274841 0 -0.36385956030291522 0.17931273367751119 0 -0.34542350677884109 0.18015353795158551 0 -0.35409126172677108 0.15214422937274841 0 -0.34542350677884109 0.18015353795158551 0 -0.33107176261762661 0.16900614866254421 0 -0.34542350677884109 0.18015353795158551 0 -0.33107176261762661 0.16900614866254421 0 -0.32879383097670872 0.1941859201549139 0 -0.33107176261762661 0.16900614866254421 0 -0.32879383097670872 0.1941859201549139 0 -0.30852210975126892 0.17518997468716579 0 -0.32879383097670872 0.1941859201549139 0 -0.30852210975126892 0.17518997468716579 0 -0.32879383097670872 0.1941859201549139 0 -0.31084004039996749 0.1923896960997889 0 -0.30852210975126892 0.17518997468716579 0 -0.33107176261762661 0.16900614866254421 0 -0.3180629284745719 0.16007239789958189 0 -0.3323452591802914 0.1460357568309 0 -0.33107176261762661 0.16900614866254421 0 -0.3180629284745719 0.16007239789958189 0 -0.30852210975126892 0.17518997468716579 0 -0.3180629284745719 0.16007239789958189 0 -0.31276161669564201 0.1447594537292495 0 -0.3323452591802914 0.1460357568309 0 -0.31276161669564201 0.1447594537292495 0 -0.32333759292258513 0.1256726980054412 0 -0.3323452591802914 0.1460357568309 0 -0.31276161669564201 0.1447594537292495 0 -0.32333759292258513 0.1256726980054412 0 -0.30269462434898953 0.128928470670165 0 -0.35121701875669609 0.1365799805101878 0 -0.3323452591802914 0.1460357568309 0 -0.34234431772772778 0.1234734061386261 0 -0.32333759292258513 0.1256726980054412 0 -0.3323452591802914 0.1460357568309 0 -0.34234431772772778 0.1234734061386261 0 -0.35409126172677108 0.15214422937274841 0 -0.33107176261762661 0.16900614866254421 0 -0.3323452591802914 0.1460357568309 0 -0.35399039374227648 0.24872414955354211 0 -0.33697276924571601 0.2427247353279546 0 -0.34266004937055677 0.25821455341305599 0 -0.35399039374227648 0.24872414955354211 0 -0.36807822273912838 0.2392344403747432 0 -0.35163137670310579 0.22973028548409441 0 -0.35399039374227648 0.24872414955354211 0 -0.35163137670310579 0.22973028548409441 0 -0.33697276924571601 0.2427247353279546 0 -0.35399039374227648 0.24872414955354211 0 -0.36483867825705801 0.24946241242578249 0 -0.36807822273912838 0.2392344403747432 0 -0.36483867825705801 0.24946241242578249 0 -0.37245560190602828 0.2474017800549676 0 -0.36807822273912838 0.2392344403747432 0 -0.37955297187683812 0.24135174748520841 0 -0.37245560190602828 0.2474017800549676 0 -0.36807822273912838 0.2392344403747432 0 -0.38339615745520339 0.233649742287037 0 -0.36807822273912838 0.2392344403747432 0 -0.3665388155498675 0.22308011611506459 0 -0.36807822273912838 0.2392344403747432 0 -0.3665388155498675 0.22308011611506459 0 -0.35163137670310579 0.22973028548409441 0 -0.38339615745520339 0.233649742287037 0 -0.3665388155498675 0.22308011611506459 0 -0.37362785887905919 0.20648123798227391 0 -0.3665388155498675 0.22308011611506459 0 -0.35163137670310579 0.22973028548409441 0 -0.34930111827018412 0.20611865789020989 0 -0.3665388155498675 0.22308011611506459 0 -0.34930111827018412 0.20611865789020989 0 -0.37362785887905919 0.20648123798227391 0 -0.38679544961612039 0.18028050442871479 0 -0.36385956030291522 0.17931273367751119 0 -0.37362785887905919 0.20648123798227391 0 -0.36385956030291522 0.17931273367751119 0 -0.34930111827018412 0.20611865789020989 0 -0.37362785887905919 0.20648123798227391 0 -0.36385956030291522 0.17931273367751119 0 -0.37362785887905919 0.20648123798227391 0 -0.36385956030291522 0.17931273367751119 0 -0.34542350677884109 0.18015353795158551 0 -0.34930111827018412 0.20611865789020989 0 -0.34542350677884109 0.18015353795158551 0 -0.34930111827018412 0.20611865789020989 0 -0.32879383097670872 0.1941859201549139 0 -0.32879383097670872 0.1941859201549139 0 -0.3126220779638777 0.207294049519504 0 -0.31084004039996749 0.1923896960997889 0 -0.3126220779638777 0.207294049519504 0 -0.3280147264522178 0.22085355642758589 0 -0.29951137227837632 0.22336715529916221 0 -0.32879383097670872 0.1941859201549139 0 -0.3126220779638777 0.207294049519504 0 -0.3280147264522178 0.22085355642758589 0 -0.34930111827018412 0.20611865789020989 0 -0.32879383097670872 0.1941859201549139 0 -0.3280147264522178 0.22085355642758589 0 -0.35163137670310579 0.22973028548409441 0 -0.3280147264522178 0.22085355642758589 0 -0.33697276924571601 0.2427247353279546 0 -0.35163137670310579 0.22973028548409441 0 -0.34930111827018412 0.20611865789020989 0 -0.3280147264522178 0.22085355642758589 0 -0.3280147264522178 0.22085355642758589 0 -0.31737657300669908 0.24062655903877669 0 -0.29951137227837632 0.22336715529916221 0 -0.3280147264522178 0.22085355642758589 0 -0.31737657300669908 0.24062655903877669 0 -0.33697276924571601 0.2427247353279546 0 -0.31737657300669908 0.24062655903877669 0 -0.33697276924571601 0.2427247353279546 0 -0.32874076048385781 0.26112219366185208 0 -0.29767337890495782 0.24407184993012401 0 -0.28059026184646763 0.23379017568803251 0 -0.28405747160943501 0.25832370851674252 0 -0.31737657300669908 0.24062655903877669 0 -0.29767337890495782 0.24407184993012401 0 -0.29951137227837632 0.22336715529916221 0 -0.31737657300669908 0.24062655903877669 0 -0.29767337890495782 0.24407184993012401 0 -0.30758209034138839 0.262261807621402 0 -0.29767337890495782 0.24407184993012401 0 -0.29951137227837632 0.22336715529916221 0 -0.28059026184646763 0.23379017568803251 0 -0.29951137227837632 0.22336715529916221 0 -0.27919674603026029 0.20821201623299021 0 -0.28059026184646763 0.23379017568803251 0 -0.29951137227837632 0.22336715529916221 0 -0.29575771102752602 0.2009761132725813 0 -0.27919674603026029 0.20821201623299021 0 -0.3126220779638777 0.207294049519504 0 -0.29951137227837632 0.22336715529916221 0 -0.29575771102752602 0.2009761132725813 0 -0.29951137227837632 0.22336715529916221 0 -0.29575771102752602 0.2009761132725813 0 -0.3126220779638777 0.207294049519504 0 -0.31084004039996749 0.1923896960997889 0 -0.29575771102752602 0.2009761132725813 0 -0.31084004039996749 0.1923896960997889 0 -0.29575771102752602 0.2009761132725813 0 -0.29200404977667571 0.1785850712460004 0 -0.28446731545422549 0.19207598256110001 0 -0.29575771102752602 0.2009761132725813 0 -0.29200404977667571 0.1785850712460004 0 -0.29575771102752602 0.2009761132725813 0 -0.29200404977667571 0.1785850712460004 0 -0.28446731545422549 0.19207598256110001 0 -0.29575771102752602 0.2009761132725813 0 -0.27919674603026029 0.20821201623299021 0 -0.28446731545422549 0.19207598256110001 0 -0.27919674603026029 0.20821201623299021 0 -0.27083910806058042 0.18554654809498991 0 -0.26049401854676302 0.20169757637690361 0 -0.27919674603026029 0.20821201623299021 0 -0.27083910806058042 0.18554654809498991 0 -0.26049401854676302 0.20169757637690361 0 -0.2478771691703221 0.18597643835916239 0 -0.2472271737918712 0.19821686000465291 0 -0.26049401854676302 0.20169757637690361 0 -0.27083910806058042 0.18554654809498991 0 -0.25941087938739649 0.18007592907293429 0 -0.26049401854676302 0.20169757637690361 0 -0.25941087938739649 0.18007592907293429 0 -0.2478771691703221 0.18597643835916239 0 -0.26049401854676302 0.20169757637690361 0 -0.26270716451023202 0.22074957303227941 0 -0.24084024831293541 0.20983886062041651 0 -0.26049401854676302 0.20169757637690361 0 -0.27919674603026029 0.20821201623299021 0 -0.26270716451023202 0.22074957303227941 0 -0.28059026184646763 0.23379017568803251 0 -0.26270716451023202 0.22074957303227941 0 -0.26167914317137358 0.24594879361926031 0 -0.27919674603026029 0.20821201623299021 0 -0.28059026184646763 0.23379017568803251 0 -0.26270716451023202 0.22074957303227941 0 -0.26270716451023202 0.22074957303227941 0 -0.26167914317137358 0.24594879361926031 0 -0.24581436977621191 0.2304073522679074 0 -0.26167914317137358 0.24594879361926031 0 -0.24646631454805509 0.24550208357914341 0 -0.24581436977621191 0.2304073522679074 0 -0.28059026184646763 0.23379017568803251 0 -0.26167914317137358 0.24594879361926031 0 -0.28405747160943501 0.25832370851674252 0 -0.28825038852582779 0.15619402921941919 0 -0.28526995693509349 0.13841539536152669 0 -0.29849530956781928 0.14533741981843901 0 -0.28825038852582779 0.15619402921941919 0 -0.28526995693509349 0.13841539536152669 0 -0.28825038852582779 0.15619402921941919 0 -0.28526995693509349 0.13841539536152669 0 -0.2761214547593025 0.14482841493099061 0 -0.28825038852582779 0.15619402921941919 0 -0.2761214547593025 0.14482841493099061 0 -0.28526995693509349 0.13841539536152669 0 -0.30269462434898953 0.128928470670165 0 -0.29849530956781928 0.14533741981843901 0 -0.28526995693509349 0.13841539536152669 0 -0.28228952534435903 0.1206367615036342 0 -0.28526995693509349 0.13841539536152669 0 -0.27641310332306468 0.1341572021584371 0 -0.28228952534435903 0.1206367615036342 0 -0.28526995693509349 0.13841539536152669 0 -0.30269462434898953 0.128928470670165 0 -0.28228952534435903 0.1206367615036342 0 -0.31276161669564201 0.1447594537292495 0 -0.30269462434898953 0.128928470670165 0 -0.29849530956781928 0.14533741981843901 0 -0.28825038852582779 0.15619402921941919 0 -0.29849530956781928 0.14533741981843901 0 -0.30525441819620852 0.1571342914814326 0 -0.31276161669564201 0.1447594537292495 0 -0.29849530956781928 0.14533741981843901 0 -0.30525441819620852 0.1571342914814326 0 -0.3180629284745719 0.16007239789958189 0 -0.31276161669564201 0.1447594537292495 0 -0.30525441819620852 0.1571342914814326 0 -0.28825038852582779 0.15619402921941919 0 -0.30525441819620852 0.1571342914814326 0 -0.30852210975126892 0.17518997468716579 0 -0.28825038852582779 0.15619402921941919 0 -0.30852210975126892 0.17518997468716579 0 -0.3180629284745719 0.16007239789958189 0 -0.30525441819620852 0.1571342914814326 0 -0.30852210975126892 0.17518997468716579 0 -0.31084004039996749 0.1923896960997889 0 -0.30852210975126892 0.17518997468716579 0 -0.29200404977667571 0.1785850712460004 0 -0.28446731545422549 0.19207598256110001 0 -0.29200404977667571 0.1785850712460004 0 -0.27083910806058042 0.18554654809498991 0 -0.28825038852582779 0.15619402921941919 0 -0.29200404977667571 0.1785850712460004 0 -0.28825038852582779 0.15619402921941919 0 -0.29200404977667571 0.1785850712460004 0 -0.27516495814292002 0.1702133972714571 0 -0.28825038852582779 0.15619402921941919 0 -0.30852210975126892 0.17518997468716579 0 -0.29200404977667571 0.1785850712460004 0 -0.28825038852582779 0.15619402921941919 0 -0.27516495814292002 0.1702133972714571 0 -0.2709899160482836 0.15687985002819599 0 -0.27516495814292002 0.1702133972714571 0 -0.2709899160482836 0.15687985002819599 0 -0.26162110179380188 0.1652624341574683 0 -0.29200404977667571 0.1785850712460004 0 -0.27516495814292002 0.1702133972714571 0 -0.27083910806058042 0.18554654809498991 0 -0.27516495814292002 0.1702133972714571 0 -0.27083910806058042 0.18554654809498991 0 -0.25941087938739649 0.18007592907293429 0 -0.25941087938739649 0.18007592907293429 0 -0.24995263048411609 0.1704783397427152 0 -0.2478771691703221 0.18597643835916239 0 -0.25941087938739649 0.18007592907293429 0 -0.26162110179380188 0.1652624341574683 0 -0.24995263048411609 0.1704783397427152 0 -0.27516495814292002 0.1702133972714571 0 -0.25941087938739649 0.18007592907293429 0 -0.26162110179380188 0.1652624341574683 0 -0.2709899160482836 0.15687985002819599 0 -0.26162110179380188 0.1652624341574683 0 -0.25393692785613931 0.1550256105710959 0 -0.26162110179380188 0.1652624341574683 0 -0.25393692785613931 0.1550256105710959 0 -0.24995263048411609 0.1704783397427152 0 -0.2709899160482836 0.15687985002819599 0 -0.25393692785613931 0.1550256105710959 0 -0.263327267074289 0.1463272994930277 0 -0.25393692785613931 0.1550256105710959 0 -0.25100710053238262 0.14256546618606861 0 -0.263327267074289 0.1463272994930277 0 -0.25100710053238262 0.14256546618606861 0 -0.263327267074289 0.1463272994930277 0 -0.26399252099277382 0.1334628006425656 0 -0.2709899160482836 0.15687985002819599 0 -0.263327267074289 0.1463272994930277 0 -0.2761214547593025 0.14482841493099061 0 -0.28825038852582779 0.15619402921941919 0 -0.2709899160482836 0.15687985002819599 0 -0.2761214547593025 0.14482841493099061 0 -0.263327267074289 0.1463272994930277 0 -0.2761214547593025 0.14482841493099061 0 -0.26399252099277382 0.1334628006425656 0 -0.26399252099277382 0.1334628006425656 0 -0.28228952534435903 0.1206367615036342 0 -0.27641310332306468 0.1341572021584371 0 -0.26399252099277382 0.1334628006425656 0 -0.28228952534435903 0.1206367615036342 0 -0.28526995693509349 0.13841539536152669 0 -0.2761214547593025 0.14482841493099061 0 -0.27641310332306468 0.1341572021584371 0 -0.2761214547593025 0.14482841493099061 0 -0.27641310332306468 0.1341572021584371 0 -0.26399252099277382 0.1334628006425656 0 -0.2761214547593025 0.14482841493099061 0 -0.26399252099277382 0.1334628006425656 0 -0.25965792320607362 0.12940099541817421 0 -0.26399252099277382 0.1334628006425656 0 -0.25529521177584968 0.13394649129606151 0 -0.25965792320607362 0.12940099541817421 0 -0.26399252099277382 0.1334628006425656 0 -0.26914584881881221 0.11411538093446751 0 -0.25965792320607362 0.12940099541817421 0 -0.26399252099277382 0.1334628006425656 0 -0.25100710053238262 0.14256546618606861 0 -0.26399252099277382 0.1334628006425656 0 -0.25100710053238262 0.14256546618606861 0 -0.25529521177584968 0.13394649129606151 0 -0.24964446852777181 0.13261493155280701 0 -0.25100710053238262 0.14256546618606861 0 -0.26399252099277382 0.1334628006425656 0 -0.25529521177584968 0.13394649129606151 0 -0.25965792320607362 0.12940099541817421 0 -0.25417857664130289 0.1242664847673165 0 -0.25907888395580481 0.12155568545067991 0 -0.25965792320607362 0.12940099541817421 0 -0.25448303463337429 0.12899112215010181 0 -0.25417857664130289 0.1242664847673165 0 -0.25965792320607362 0.12940099541817421 0 -0.25417857664130289 0.1242664847673165 0 -0.25965792320607362 0.12940099541817421 0 -0.25529521177584968 0.13394649129606151 0 -0.25448303463337429 0.12899112215010181 0 -0.25448303463337429 0.12899112215010181 0 -0.24824707843623489 0.12578158396356739 0 -0.24964446852777181 0.13261493155280701 0 -0.25529521177584968 0.13394649129606151 0 -0.25448303463337429 0.12899112215010181 0 -0.24964446852777181 0.13261493155280701 0 -0.25448303463337429 0.12899112215010181 0 -0.25417857664130289 0.1242664847673165 0 -0.24824707843623489 0.12578158396356739 0 -0.25417857664130289 0.1242664847673165 0 -0.24957446628960209 0.1172886197127147 0 -0.24824707843623489 0.12578158396356739 0 -0.25417857664130289 0.1242664847673165 0 -0.25638414763734391 0.1167949241659279 0 -0.25907888395580481 0.12155568545067991 0 -0.25417857664130289 0.1242664847673165 0 -0.25638414763734391 0.1167949241659279 0 -0.24957446628960209 0.1172886197127147 0 -0.25638414763734391 0.1167949241659279 0 -0.25478591689589342 0.1088736405992687 0 -0.24957446628960209 0.1172886197127147 0 -0.25638414763734391 0.1167949241659279 0 -0.2600947320921449 0.11475354574946769 0 -0.25478591689589342 0.1088736405992687 0 -0.2600947320921449 0.11475354574946769 0 -0.26418206277047712 0.1192493874003144 0 -0.26282539091684859 0.1084939945961331 0 -0.2600947320921449 0.11475354574946769 0 -0.25478591689589342 0.1088736405992687 0 -0.26282539091684859 0.1084939945961331 0 -0.25965792320607362 0.12940099541817421 0 -0.26418206277047712 0.1192493874003144 0 -0.25907888395580481 0.12155568545067991 0 -0.25965792320607362 0.12940099541817421 0 -0.26914584881881221 0.11411538093446751 0 -0.25965792320607362 0.12940099541817421 0 -0.26418206277047712 0.1192493874003144 0 -0.26914584881881221 0.11411538093446751 0 -0.2600947320921449 0.11475354574946769 0 -0.26418206277047712 0.1192493874003144 0 -0.25907888395580481 0.12155568545067991 0 -0.25638414763734391 0.1167949241659279 0 -0.2600947320921449 0.11475354574946769 0 -0.25907888395580481 0.12155568545067991 0 -0.26418206277047712 0.1192493874003144 0 -0.26282539091684859 0.1084939945961331 0 -0.2696149331604355 0.098344202550996879 0 -0.25478591689589342 0.1088736405992687 0 -0.25843484717399567 0.099518080126909478 0 -0.2490249111450448 0.096245607722758475 0 -0.25843484717399567 0.099518080126909478 0 -0.25744469204883519 0.089158201810431353 0 -0.2490249111450448 0.096245607722758475 0 -0.25478591689589342 0.1088736405992687 0 -0.26282539091684859 0.1084939945961331 0 -0.25843484717399567 0.099518080126909478 0 -0.26282539091684859 0.1084939945961331 0 -0.25843484717399567 0.099518080126909478 0 -0.2696149331604355 0.098344202550996879 0 -0.25843484717399567 0.099518080126909478 0 -0.26263998121044008 0.09364786696669028 0 -0.25744469204883519 0.089158201810431353 0 -0.25843484717399567 0.099518080126909478 0 -0.2696149331604355 0.098344202550996879 0 -0.26263998121044008 0.09364786696669028 0 -0.26418206277047712 0.1192493874003144 0 -0.2696149331604355 0.098344202550996879 0 -0.2696149331604355 0.098344202550996879 0 -0.27863377443155068 0.098829766450760664 0 -0.26914584881881221 0.11411538093446751 0 -0.27863377443155068 0.098829766450760664 0 -0.26914584881881221 0.11411538093446751 0 -0.26399252099277382 0.1334628006425656 0 -0.26914584881881221 0.11411538093446751 0 -0.28228952534435903 0.1206367615036342 0 -0.26418206277047712 0.1192493874003144 0 -0.2696149331604355 0.098344202550996879 0 -0.26914584881881221 0.11411538093446751 0 -0.27863377443155068 0.098829766450760664 0 -0.26914584881881221 0.11411538093446751 0 -0.28228952534435903 0.1206367615036342 0 -0.27863377443155068 0.098829766450760664 0 -0.28228952534435903 0.1206367615036342 0 -0.28228952534435903 0.1206367615036342 0 -0.29251707651521469 0.1034756859007865 0 -0.29793818936776362 0.1096671856441388 0 -0.28228952534435903 0.1206367615036342 0 -0.29793818936776362 0.1096671856441388 0 -0.30269462434898953 0.128928470670165 0 -0.28228952534435903 0.1206367615036342 0 -0.29793818936776362 0.1096671856441388 0 -0.27863377443155068 0.098829766450760664 0 -0.28228952534435903 0.1206367615036342 0 -0.29251707651521469 0.1034756859007865 0 -0.27863377443155068 0.098829766450760664 0 -0.29251707651521469 0.1034756859007865 0 -0.29017853594191523 0.080230466566195216 0 -0.29251707651521469 0.1034756859007865 0 -0.3135868533911681 0.098697609784643259 0 -0.29793818936776362 0.1096671856441388 0 -0.31275141586137162 0.11380250981165189 0 -0.3135868533911681 0.098697609784643259 0 -0.29251707651521469 0.1034756859007865 0 -0.29793818936776362 0.1096671856441388 0 -0.3135868533911681 0.098697609784643259 0 -0.29793818936776362 0.1096671856441388 0 -0.3135868533911681 0.098697609784643259 0 -0.29251707651521469 0.1034756859007865 0 -0.30099646802421731 0.091122416508888179 0 -0.3135868533911681 0.098697609784643259 0 -0.30269462434898953 0.128928470670165 0 -0.29793818936776362 0.1096671856441388 0 -0.31275141586137162 0.11380250981165189 0 -0.30770340624857029 0.082085903783926717 0 -0.30172329745227933 0.061631166681629483 0 -0.31637402114390001 0.066743669139946921 0 -0.30770340624857029 0.082085903783926717 0 -0.29017853594191523 0.080230466566195216 0 -0.30172329745227933 0.061631166681629483 0 -0.30172329745227933 0.061631166681629483 0 -0.31637402114390001 0.066743669139946921 0 -0.30770340624857029 0.082085903783926717 0 -0.30099646802421731 0.091122416508888179 0 -0.29017853594191523 0.080230466566195216 0 -0.30770340624857029 0.082085903783926717 0 -0.30099646802421731 0.091122416508888179 0 -0.3135868533911681 0.098697609784643259 0 -0.29251707651521469 0.1034756859007865 0 -0.30099646802421731 0.091122416508888179 0 -0.29017853594191523 0.080230466566195216 0 -0.27863377443155068 0.098829766450760664 0 -0.29017853594191523 0.080230466566195216 0 -0.27504780355039349 0.077439017701679255 0 -0.27863377443155068 0.098829766450760664 0 -0.29017853594191523 0.080230466566195216 0 -0.29017853594191523 0.080230466566195216 0 -0.28794478783017968 0.067074957580721628 0 -0.30172329745227933 0.061631166681629483 0 -0.29017853594191523 0.080230466566195216 0 -0.28794478783017968 0.067074957580721628 0 -0.27504780355039349 0.077439017701679255 0 -0.28794478783017968 0.067074957580721628 0 -0.27504780355039349 0.077439017701679255 0 -0.28103238827700322 0.054410886902276523 0 -0.29017853594191523 0.080230466566195216 0 -0.30172329745227933 0.061631166681629483 0 -0.27504780355039349 0.077439017701679255 0 -0.27145954912850578 0.056034647356773062 0 -0.27504780355039349 0.077439017701679255 0 -0.25988982308859748 0.064652692907788703 0 -0.27145954912850578 0.056034647356773062 0 -0.27504780355039349 0.077439017701679255 0 -0.28103238827700322 0.054410886902276523 0 -0.27504780355039349 0.077439017701679255 0 -0.28103238827700322 0.054410886902276523 0 -0.27145954912850578 0.056034647356773062 0 -0.27863377443155068 0.098829766450760664 0 -0.27504780355039349 0.077439017701679255 0 -0.2696149331604355 0.098344202550996879 0 -0.27863377443155068 0.098829766450760664 0 -0.27504780355039349 0.077439017701679255 0 -0.2696149331604355 0.098344202550996879 0 -0.27504780355039349 0.077439017701679255 0 -0.26506545245849389 0.087570983378423409 0 -0.2696149331604355 0.098344202550996879 0 -0.27504780355039349 0.077439017701679255 0 -0.27504780355039349 0.077439017701679255 0 -0.26506545245849389 0.087570983378423409 0 -0.25970056119494112 0.078797890411802254 0 -0.2696149331604355 0.098344202550996879 0 -0.26263998121044008 0.09364786696669028 0 -0.26506545245849389 0.087570983378423409 0 -0.26263998121044008 0.09364786696669028 0 -0.26506545245849389 0.087570983378423409 0 -0.25744469204883519 0.089158201810431353 0 -0.26506545245849389 0.087570983378423409 0 -0.25970056119494112 0.078797890411802254 0 -0.25744469204883519 0.089158201810431353 0 -0.25970056119494112 0.078797890411802254 0 -0.25744469204883519 0.089158201810431353 0 -0.24976180809408241 0.081585985454475179 0 -0.25744469204883519 0.089158201810431353 0 -0.24976180809408241 0.081585985454475179 0 -0.2490249111450448 0.096245607722758475 0 -0.27504780355039349 0.077439017701679255 0 -0.25970056119494112 0.078797890411802254 0 -0.25988982308859748 0.064652692907788703 0 -0.25970056119494112 0.078797890411802254 0 -0.24941040641799569 0.072543547962933969 0 -0.24976180809408241 0.081585985454475179 0 -0.25970056119494112 0.078797890411802254 0 -0.25988982308859748 0.064652692907788703 0 -0.24941040641799569 0.072543547962933969 0 -0.25988982308859748 0.064652692907788703 0 -0.25033167758740738 0.063270345931912539 0 -0.24941040641799569 0.072543547962933969 0 -0.25988982308859748 0.064652692907788703 0 -0.24941040641799569 0.072543547962933969 0 -0.25988982308859748 0.064652692907788703 0 -0.25127344042153787 0.052392004008869092 0 -0.25988982308859748 0.064652692907788703 0 -0.25729131276850581 0.051833636408778673 0 -0.25127344042153787 0.052392004008869092 0 -0.25988982308859748 0.064652692907788703 0 -0.25033167758740738 0.063270345931912539 0 -0.25127344042153787 0.052392004008869092 0 -0.25729131276850581 0.051833636408778673 0 -0.27057561992610318 0.050761903068758323 0 -0.2434840224862716 0.04130804526443832 0 -0.25988982308859748 0.064652692907788703 0 -0.25729131276850581 0.051833636408778673 0 -0.27145954912850578 0.056034647356773062 0 -0.25729131276850581 0.051833636408778673 0 -0.25127344042153787 0.052392004008869092 0 -0.2434840224862716 0.04130804526443832 0 -0.25729131276850581 0.051833636408778673 0 -0.25127344042153787 0.052392004008869092 0 -0.27057561992610318 0.050761903068758323 0 -0.26638378934381512 0.025757128140005608 0 -0.2434840224862716 0.04130804526443832 0 -0.27057561992610318 0.050761903068758323 0 -0.2434840224862716 0.04130804526443832 0 -0.27576320070651361 0.033903421183028512 0 -0.27737845819442852 0.044125418538963047 0 -0.27057561992610318 0.050761903068758323 0 -0.27576320070651361 0.033903421183028512 0 -0.27057561992610318 0.050761903068758323 0 -0.26638378934381512 0.025757128140005608 0 -0.27057561992610318 0.050761903068758323 0 -0.26638378934381512 0.025757128140005608 0 -0.27576320070651361 0.033903421183028512 0 -0.27737845819442852 0.044125418538963047 0 -0.28625376210260989 0.034319521352042262 0 -0.27737845819442852 0.044125418538963047 0 -0.27598203190406551 0.052648519396376693 0 -0.27057561992610318 0.050761903068758323 0 -0.27598203190406551 0.052648519396376693 0 -0.28103238827700322 0.054410886902276523 0 -0.27145954912850578 0.056034647356773062 0 -0.27598203190406551 0.052648519396376693 0 -0.28282116429750231 0.047527841536110269 0 -0.27737845819442852 0.044125418538963047 0 -0.27598203190406551 0.052648519396376693 0 -0.28282116429750231 0.047527841536110269 0 -0.27598203190406551 0.052648519396376693 0 -0.27145954912850578 0.056034647356773062 0 -0.27598203190406551 0.052648519396376693 0 -0.28103238827700322 0.054410886902276523 0 -0.27598203190406551 0.052648519396376693 0 -0.28103238827700322 0.054410886902276523 0 -0.28282116429750231 0.047527841536110269 0 -0.25988982308859748 0.064652692907788703 0 -0.27145954912850578 0.056034647356773062 0 -0.25729131276850581 0.051833636408778673 0 -0.27145954912850578 0.056034647356773062 0 -0.27057561992610318 0.050761903068758323 0 -0.27598203190406551 0.052648519396376693 0 -0.27145954912850578 0.056034647356773062 0 -0.27057561992610318 0.050761903068758323 0 -0.27145954912850578 0.056034647356773062 0 -0.27057561992610318 0.050761903068758323 0 -0.27598203190406551 0.052648519396376693 0 -0.27057561992610318 0.050761903068758323 0 -0.26219195876152818 0.00075235321125272092 0 -0.24747936783635979 0.019387135744552111 0 -0.24108948540814429 0.0001228137568196347 0 -0.26219195876152818 0.00075235321125272092 0 -0.26638378934381512 0.025757128140005608 0 -0.24747936783635979 0.019387135744552111 0 -0.26219195876152818 0.00075235321125272092 0 -0.26638378934381512 0.025757128140005608 0 -0.26638378934381512 0.025757128140005608 0 -0.24747936783635979 0.019387135744552111 0 -0.2434840224862716 0.04130804526443832 0 -0.27576320070651361 0.033903421183028512 0 -0.26638378934381512 0.025757128140005608 0 -0.28286549406593958 0.016146860066302809 0 -0.26898680858242718 -0.004809513156808054 0 -0.28286549406593958 0.016146860066302809 0 -0.26898680858242718 -0.004809513156808054 0 -0.28499676550050229 -0.0019309530639492691 0 -0.28286549406593958 0.016146860066302809 0 -0.26898680858242718 -0.004809513156808054 0 -0.26219195876152818 0.00075235321125272092 0 -0.28286549406593958 0.016146860066302809 0 -0.26219195876152818 0.00075235321125272092 0 -0.26638378934381512 0.025757128140005608 0 -0.28286549406593958 0.016146860066302809 0 -0.28499676550050229 -0.0019309530639492691 0 -0.29252860209690912 0.0073895292923086501 0 -0.28286549406593958 0.016146860066302809 0 -0.28499676550050229 -0.0019309530639492691 0 -0.29743990844707258 -0.0030710653019683691 0 -0.29252860209690912 0.0073895292923086501 0 -0.29252860209690912 0.0073895292923086501 0 -0.29526651945739768 0.017375167997717711 0 -0.28286549406593958 0.016146860066302809 0 -0.29252860209690912 0.0073895292923086501 0 -0.29526651945739768 0.017375167997717711 0 -0.30207432301363329 0.0084276367634403687 0 -0.27576320070651361 0.033903421183028512 0 -0.28286549406593958 0.016146860066302809 0 -0.28625376210260989 0.034319521352042262 0 -0.28286549406593958 0.016146860066302809 0 -0.2967441795494522 0.037103233289413701 0 -0.29526651945739768 0.017375167997717711 0 -0.28286549406593958 0.016146860066302809 0 -0.2967441795494522 0.037103233289413701 0 -0.28286549406593958 0.016146860066302809 0 -0.28625376210260989 0.034319521352042262 0 -0.2967441795494522 0.037103233289413701 0 -0.29526651945739768 0.017375167997717711 0 -0.30457139272525019 0.02050736112087307 0 -0.2967441795494522 0.037103233289413701 0 -0.30457139272525019 0.02050736112087307 0 -0.2967441795494522 0.037103233289413701 0 -0.31960252026218539 0.01998846017542846 0 -0.2967441795494522 0.037103233289413701 0 -0.31567285750029961 0.033385719709882952 0 -0.31960252026218539 0.01998846017542846 0 -0.2967441795494522 0.037103233289413701 0 -0.31960252026218539 0.01998846017542846 0 -0.30457139272525019 0.02050736112087307 0 -0.31095837849857982 0.012484691747884189 0 -0.31960252026218539 0.01998846017542846 0 -0.29526651945739768 0.017375167997717711 0 -0.30457139272525019 0.02050736112087307 0 -0.30207432301363329 0.0084276367634403687 0 -0.30457139272525019 0.02050736112087307 0 -0.30207432301363329 0.0084276367634403687 0 -0.31095837849857982 0.012484691747884189 0 -0.31132612188382319 -0.0011984883802009631 0 -0.30207432301363329 0.0084276367634403687 0 -0.31095837849857982 0.012484691747884189 0 -0.29743990844707258 -0.0030710653019683691 0 -0.29252860209690912 0.0073895292923086501 0 -0.30207432301363329 0.0084276367634403687 0 -0.31132612188382319 -0.0011984883802009631 0 -0.29743990844707258 -0.0030710653019683691 0 -0.30207432301363329 0.0084276367634403687 0 -0.28103238827700322 0.054410886902276523 0 -0.29389886682116861 0.050704801677172028 0 -0.30172329745227933 0.061631166681629483 0 -0.28794478783017968 0.067074957580721628 0 -0.28103238827700322 0.054410886902276523 0 -0.30172329745227933 0.061631166681629483 0 -0.28103238827700322 0.054410886902276523 0 -0.30172329745227933 0.061631166681629483 0 -0.28103238827700322 0.054410886902276523 0 -0.28282116429750231 0.047527841536110269 0 -0.28103238827700322 0.054410886902276523 0 -0.29389886682116861 0.050704801677172028 0 -0.28282116429750231 0.047527841536110269 0 -0.27737845819442852 0.044125418538963047 0 -0.28282116429750231 0.047527841536110269 0 -0.28625376210260989 0.034319521352042262 0 -0.28282116429750231 0.047527841536110269 0 -0.28625376210260989 0.034319521352042262 0 -0.2967441795494522 0.037103233289413701 0 -0.28282116429750231 0.047527841536110269 0 -0.28625376210260989 0.034319521352042262 0 -0.28282116429750231 0.047527841536110269 0 -0.2967441795494522 0.037103233289413701 0 -0.29389886682116861 0.050704801677172028 0 -0.28282116429750231 0.047527841536110269 0 -0.2967441795494522 0.037103233289413701 0 -0.2967441795494522 0.037103233289413701 0 -0.30717330452960467 0.052850879976429802 0 -0.2967441795494522 0.037103233289413701 0 -0.30717330452960467 0.052850879976429802 0 -0.31567285750029961 0.033385719709882952 0 -0.29389886682116861 0.050704801677172028 0 -0.2967441795494522 0.037103233289413701 0 -0.30717330452960467 0.052850879976429802 0 -0.29389886682116861 0.050704801677172028 0 -0.30717330452960467 0.052850879976429802 0 -0.30172329745227933 0.061631166681629483 0 -0.30717330452960467 0.052850879976429802 0 -0.30172329745227933 0.061631166681629483 0 -0.30717330452960467 0.052850879976429802 0 -0.30172329745227933 0.061631166681629483 0 -0.31637402114390001 0.066743669139946921 0 -0.30717330452960467 0.052850879976429802 0 -0.31637402114390001 0.066743669139946921 0 -0.30717330452960467 0.052850879976429802 0 -0.32434262027711769 0.052794862462864398 0 -0.31637402114390001 0.066743669139946921 0 -0.32434262027711769 0.052794862462864398 0 -0.31952096862537022 0.03295805610259963 0 -0.33778111855861931 0.047035870624306857 0 -0.30717330452960467 0.052850879976429802 0 -0.32434262027711769 0.052794862462864398 0 -0.31952096862537022 0.03295805610259963 0 -0.30717330452960467 0.052850879976429802 0 -0.31567285750029961 0.033385719709882952 0 -0.31952096862537022 0.03295805610259963 0 -0.30717330452960467 0.052850879976429802 0 -0.31952096862537022 0.03295805610259963 0 -0.31567285750029961 0.033385719709882952 0 -0.31952096862537022 0.03295805610259963 0 -0.32289190621589231 0.02752727443751599 0 -0.31567285750029961 0.033385719709882952 0 -0.31952096862537022 0.03295805610259963 0 -0.31952096862537022 0.03295805610259963 0 -0.34951700997816643 0.02962441660200477 0 -0.31952096862537022 0.03295805610259963 0 -0.33778111855861931 0.047035870624306857 0 -0.34951700997816643 0.02962441660200477 0 -0.32434262027711769 0.052794862462864398 0 -0.33778111855861931 0.047035870624306857 0 -0.34061256539079082 0.064729164585506316 0 -0.32161918177025722 0.0064607347314644542 0 -0.31960252026218539 0.01998846017542846 0 -0.34246086097491812 0.002873687061442511 0 -0.31132612188382319 -0.0011984883802009631 0 -0.31095837849857982 0.012484691747884189 0 -0.32161918177025722 0.0064607347314644542 0 -0.31132612188382319 -0.0011984883802009631 0 -0.32497020850440511 -0.002694343940230548 0 -0.32161918177025722 0.0064607347314644542 0 -0.31095837849857982 0.012484691747884189 0 -0.32161918177025722 0.0064607347314644542 0 -0.31960252026218539 0.01998846017542846 0 -0.31960252026218539 0.01998846017542846 0 -0.32289190621589231 0.02752727443751599 0 -0.32970676417224271 0.020997171704672819 0 -0.31567285750029961 0.033385719709882952 0 -0.31960252026218539 0.01998846017542846 0 -0.32289190621589231 0.02752727443751599 0 -0.31952096862537022 0.03295805610259963 0 -0.32289190621589231 0.02752727443751599 0 -0.32289190621589231 0.02752727443751599 0 -0.33749012194741779 0.02103957864736276 0 -0.34631413619932411 0.026168983592362732 0 -0.31952096862537022 0.03295805610259963 0 -0.34631413619932411 0.026168983592362732 0 -0.34951700997816643 0.02962441660200477 0 -0.31952096862537022 0.03295805610259963 0 -0.32289190621589231 0.02752727443751599 0 -0.34631413619932411 0.026168983592362732 0 -0.33749012194741779 0.02103957864736276 0 -0.33513966236291898 0.015816207462863541 0 -0.34599244898559828 0.015453923848357649 0 -0.33749012194741779 0.02103957864736276 0 -0.34599244898559828 0.015453923848357649 0 -0.34631413619932411 0.026168983592362732 0 -0.31960252026218539 0.01998846017542846 0 -0.33513966236291898 0.015816207462863541 0 -0.32970676417224271 0.020997171704672819 0 -0.32289190621589231 0.02752727443751599 0 -0.33749012194741779 0.02103957864736276 0 -0.32970676417224271 0.020997171704672819 0 -0.33749012194741779 0.02103957864736276 0 -0.33513966236291898 0.015816207462863541 0 -0.32970676417224271 0.020997171704672819 0 -0.32497020850440511 -0.002694343940230548 0 -0.32161918177025722 0.0064607347314644542 0 -0.34246086097491812 0.002873687061442511 0 -0.31960252026218539 0.01998846017542846 0 -0.34246086097491812 0.002873687061442511 0 -0.31960252026218539 0.01998846017542846 0 -0.33513966236291898 0.015816207462863541 0 -0.34246086097491812 0.002873687061442511 0 -0.33513966236291898 0.015816207462863541 0 -0.34246086097491812 0.002873687061442511 0 -0.34599244898559828 0.015453923848357649 0 -0.36760158085974948 -0.004488683742273545 0 -0.34246086097491812 0.002873687061442511 0 -0.35961383093719429 0.012228698907688089 0 -0.34246086097491812 0.002873687061442511 0 -0.34599244898559828 0.015453923848357649 0 -0.35961383093719429 0.012228698907688089 0 -0.3550959572858583 0.021241133572589471 0 -0.34951700997816643 0.02962441660200477 0 -0.37088066758443761 0.027250145542840259 0 -0.34599244898559828 0.015453923848357649 0 -0.3550959572858583 0.021241133572589471 0 -0.35961383093719429 0.012228698907688089 0 -0.34599244898559828 0.015453923848357649 0 -0.3550959572858583 0.021241133572589471 0 -0.34631413619932411 0.026168983592362732 0 -0.3550959572858583 0.021241133572589471 0 -0.34631413619932411 0.026168983592362732 0 -0.34951700997816643 0.02962441660200477 0 -0.34631413619932411 0.026168983592362732 0 -0.34951700997816643 0.02962441660200477 0 -0.3550959572858583 0.021241133572589471 0 -0.37088066758443761 0.027250145542840259 0 -0.35961383093719429 0.012228698907688089 0 -0.34951700997816643 0.02962441660200477 0 -0.37088066758443761 0.027250145542840259 0 -0.37919678091065828 0.011999614278239489 0 -0.37088066758443761 0.027250145542840259 0 -0.35961383093719429 0.012228698907688089 0 -0.36760158085974948 -0.004488683742273545 0 -0.37919678091065828 0.011999614278239489 0 -0.35961383093719429 0.012228698907688089 0 -0.33778111855861931 0.047035870624306857 0 -0.35446700450307977 0.05532912934050143 0 -0.34061256539079082 0.064729164585506316 0 -0.33778111855861931 0.047035870624306857 0 -0.34951700997816643 0.02962441660200477 0 -0.35446700450307977 0.05532912934050143 0 -0.34951700997816643 0.02962441660200477 0 -0.36507151100287383 0.046405451385317847 0 -0.34951700997816643 0.02962441660200477 0 -0.35446700450307977 0.05532912934050143 0 -0.36507151100287383 0.046405451385317847 0 -0.34951700997816643 0.02962441660200477 0 -0.37088066758443761 0.027250145542840259 0 -0.36924661805120768 0.037213106877042379 0 -0.34951700997816643 0.02962441660200477 0 -0.36507151100287383 0.046405451385317847 0 -0.36924661805120768 0.037213106877042379 0 -0.38026370425951489 0.036089164097603703 0 -0.37088066758443761 0.027250145542840259 0 -0.36924661805120768 0.037213106877042379 0 -0.36507151100287383 0.046405451385317847 0 -0.36924661805120768 0.037213106877042379 0 -0.3719698696314967 0.04693496972601939 0 -0.38026370425951489 0.036089164097603703 0 -0.36924661805120768 0.037213106877042379 0 -0.3719698696314967 0.04693496972601939 0 -0.38062601202758201 0.063186486168630221 0 -0.36507151100287383 0.046405451385317847 0 -0.38062601202758201 0.063186486168630221 0 -0.36507151100287383 0.046405451385317847 0 -0.3719698696314967 0.04693496972601939 0 -0.38062601202758201 0.063186486168630221 0 -0.35446700450307977 0.05532912934050143 0 -0.36507151100287383 0.046405451385317847 0 -0.37558996584851528 0.08463692027173228 0 -0.38062601202758201 0.063186486168630221 0 -0.35414096154165398 0.070269536620984577 0 -0.38062601202758201 0.063186486168630221 0 -0.35446700450307977 0.05532912934050143 0 -0.35414096154165398 0.070269536620984577 0 -0.35446700450307977 0.05532912934050143 0 -0.35414096154165398 0.070269536620984577 0 -0.34061256539079082 0.064729164585506316 0 -0.35499941864474022 0.089306319591522229 0 -0.33440887144096532 0.093975718911313483 0 -0.35414096154165398 0.070269536620984577 0 -0.35499941864474022 0.089306319591522229 0 -0.3299428641489438 0.087232190085054701 0 -0.37558996584851528 0.08463692027173228 0 -0.35499941864474022 0.089306319591522229 0 -0.37558996584851528 0.08463692027173228 0 -0.35414096154165398 0.070269536620984577 0 -0.35499941864474022 0.089306319591522229 0 -0.37558996584851528 0.08463692027173228 0 -0.35499941864474022 0.089306319591522229 0 -0.36492535606380078 0.097411249297452596 0 -0.37558930984549621 0.1065588620034935 0 -0.36533483527957289 0.10936192491045239 0 -0.36492535606380078 0.097411249297452596 0 -0.36533483527957289 0.10936192491045239 0 -0.36492535606380078 0.097411249297452596 0 -0.35584156507286802 0.1090730822879192 0 -0.36533483527957289 0.10936192491045239 0 -0.3733223470021152 0.1196158063350172 0 -0.35694571185984808 0.1213129410944602 0 -0.37558930984549621 0.1065588620034935 0 -0.36533483527957289 0.10936192491045239 0 -0.3733223470021152 0.1196158063350172 0 -0.35694571185984808 0.1213129410944602 0 -0.34560397577228069 0.1122828572944346 0 -0.35584156507286802 0.1090730822879192 0 -0.36533483527957289 0.10936192491045239 0 -0.35694571185984808 0.1213129410944602 0 -0.35584156507286802 0.1090730822879192 0 -0.35694571185984808 0.1213129410944602 0 -0.34560397577228069 0.1122828572944346 0 -0.34234431772772778 0.1234734061386261 0 -0.36492535606380078 0.097411249297452596 0 -0.34939782491901072 0.1043435861576992 0 -0.34255045920655419 0.098853742440319789 0 -0.36492535606380078 0.097411249297452596 0 -0.34255045920655419 0.098853742440319789 0 -0.35499941864474022 0.089306319591522229 0 -0.36492535606380078 0.097411249297452596 0 -0.34255045920655419 0.098853742440319789 0 -0.35499941864474022 0.089306319591522229 0 -0.34255045920655419 0.098853742440319789 0 -0.33440887144096532 0.093975718911313483 0 -0.36492535606380078 0.097411249297452596 0 -0.35584156507286802 0.1090730822879192 0 -0.34939782491901072 0.1043435861576992 0 -0.34560397577228069 0.1122828572944346 0 -0.34939782491901072 0.1043435861576992 0 -0.34051713942317069 0.10319900909495799 0 -0.34560397577228069 0.1122828572944346 0 -0.35584156507286802 0.1090730822879192 0 -0.34939782491901072 0.1043435861576992 0 -0.34939782491901072 0.1043435861576992 0 -0.34255045920655419 0.098853742440319789 0 -0.34051713942317069 0.10319900909495799 0 -0.34051713942317069 0.10319900909495799 0 -0.33440887144096532 0.093975718911313483 0 -0.34255045920655419 0.098853742440319789 0 -0.34051713942317069 0.10319900909495799 0 -0.33440887144096532 0.093975718911313483 0 -0.34051713942317069 0.10319900909495799 0 -0.33406388932295111 0.1038205899649457 0 -0.33440887144096532 0.093975718911313483 0 -0.34051713942317069 0.10319900909495799 0 -0.33406388932295111 0.1038205899649457 0 -0.335129727151317 0.11206104689964019 0 -0.34560397577228069 0.1122828572944346 0 -0.34051713942317069 0.10319900909495799 0 -0.335129727151317 0.11206104689964019 0 -0.33406388932295111 0.1038205899649457 0 -0.335129727151317 0.11206104689964019 0 -0.32619981927635178 0.10604658495387249 0 -0.33406388932295111 0.1038205899649457 0 -0.33440887144096532 0.093975718911313483 0 -0.32619981927635178 0.10604658495387249 0 -0.32333759292258513 0.1256726980054412 0 -0.335129727151317 0.11206104689964019 0 -0.32619981927635178 0.10604658495387249 0 -0.32333759292258513 0.1256726980054412 0 -0.34234431772772778 0.1234734061386261 0 -0.335129727151317 0.11206104689964019 0 -0.34560397577228069 0.1122828572944346 0 -0.34234431772772778 0.1234734061386261 0 -0.335129727151317 0.11206104689964019 0 -0.32333759292258513 0.1256726980054412 0 -0.31275141586137162 0.11380250981165189 0 -0.32619981927635178 0.10604658495387249 0 -0.32333759292258513 0.1256726980054412 0 -0.30269462434898953 0.128928470670165 0 -0.31275141586137162 0.11380250981165189 0 -0.33440887144096532 0.093975718911313483 0 -0.3135868533911681 0.098697609784643259 0 -0.33440887144096532 0.093975718911313483 0 -0.32619981927635178 0.10604658495387249 0 -0.3135868533911681 0.098697609784643259 0 -0.31275141586137162 0.11380250981165189 0 -0.32619981927635178 0.10604658495387249 0 -0.3135868533911681 0.098697609784643259 0 -0.30770340624857029 0.082085903783926717 0 -0.31637402114390001 0.066743669139946921 0 -0.3299428641489438 0.087232190085054701 0 -0.33440887144096532 0.093975718911313483 0 -0.3135868533911681 0.098697609784643259 0 -0.3299428641489438 0.087232190085054701 0 -0.30770340624857029 0.082085903783926717 0 -0.3135868533911681 0.098697609784643259 0 -0.3299428641489438 0.087232190085054701 0 -0.3135868533911681 0.098697609784643259 0 -0.3299428641489438 0.087232190085054701 0 -0.31637402114390001 0.066743669139946921 0 -0.3299428641489438 0.087232190085054701 0 -0.32434262027711769 0.052794862462864398 0 -0.31637402114390001 0.066743669139946921 0 -0.32914640674794449 0.071200708544534114 0 -0.31637402114390001 0.066743669139946921 0 -0.32914640674794449 0.071200708544534114 0 -0.3299428641489438 0.087232190085054701 0 -0.31637402114390001 0.066743669139946921 0 -0.32914640674794449 0.071200708544534114 0 -0.32914640674794449 0.071200708544534114 0 -0.34061256539079082 0.064729164585506316 0 -0.3299428641489438 0.087232190085054701 0 -0.35414096154165398 0.070269536620984577 0 -0.34061256539079082 0.064729164585506316 0 -0.3299428641489438 0.087232190085054701 0 -0.32434262027711769 0.052794862462864398 0 -0.32914640674794449 0.071200708544534114 0 -0.34061256539079082 0.064729164585506316 0 -0.35414096154165398 0.070269536620984577 0 -0.3299428641489438 0.087232190085054701 0 -0.35499941864474022 0.089306319591522229 0 -0.33440887144096532 0.093975718911313483 0 -0.3299428641489438 0.087232190085054701 0 -0.33440887144096532 0.093975718911313483 0 -0.3299428641489438 0.087232190085054701 0 -0.39489299170277509 0.47455012033027921 0 -0.38556188426203208 0.5 0 -0.4133676430502744 0.5 0 -0.39489299170277509 0.47455012033027921 0 -0.38556188426203208 0.5 0 -0.36405067062163232 0.48028926433953512 0 -0.39489299170277509 0.47455012033027921 0 -0.37175587269468641 0.45991955253372813 0 -0.36405067062163232 0.48028926433953512 0 -0.39489299170277509 0.47455012033027921 0 -0.39071884002075558 0.44910627578763163 0 -0.37175587269468641 0.45991955253372813 0 -0.37538081396359169 0.43982484532242078 0 -0.39071884002075558 0.44910627578763163 0 -0.38882753234256129 0.43192816712441617 0 -0.37538081396359169 0.43982484532242078 0 -0.39071884002075558 0.44910627578763163 0 -0.37175587269468641 0.45991955253372813 0 -0.39071884002075558 0.44910627578763163 0 -0.40055593987219612 0.433462545915345 0 -0.38882753234256129 0.43192816712441617 0 -0.39071884002075558 0.44910627578763163 0 -0.41409509386096982 0.45564169727689602 0 -0.40055593987219612 0.433462545915345 0 -0.39489299170277509 0.47455012033027921 0 -0.39071884002075558 0.44910627578763163 0 -0.41409509386096982 0.45564169727689602 0 -0.41409509386096982 0.45564169727689602 0 -0.42763424784974358 0.47782084863844693 0 -0.44646904861131792 0.46167976462988569 0 -0.41409509386096982 0.45564169727689602 0 -0.43486093393488939 0.44351644011633068 0 -0.44646904861131792 0.46167976462988569 0 -0.41409509386096982 0.45564169727689602 0 -0.42763424784974358 0.47782084863844693 0 -0.41409509386096982 0.45564169727689602 0 -0.40055593987219612 0.433462545915345 0 -0.41409509386096982 0.45564169727689602 0 -0.41861165440804138 0.43766255437953272 0 -0.40055593987219612 0.433462545915345 0 -0.41409509386096982 0.45564169727689602 0 -0.41861165440804138 0.43766255437953272 0 -0.43486093393488939 0.44351644011633068 0 -0.39489299170277509 0.47455012033027921 0 -0.42763424784974358 0.47782084863844693 0 -0.4133676430502744 0.5 0 -0.39489299170277509 0.47455012033027921 0 -0.41409509386096982 0.45564169727689602 0 -0.42763424784974358 0.47782084863844693 0 -0.42763424784974358 0.47782084863844693 0 -0.44117340183851661 0.49999999999999822 0 -0.42763424784974358 0.47782084863844693 0 -0.4133676430502744 0.5 0 -0.44117340183851661 0.49999999999999822 0 -0.44117340183851661 0.49999999999999822 0 -0.44906353612911992 0.48156434098680928 0 -0.46645574522790079 0.5 0 -0.42763424784974358 0.47782084863844693 0 -0.44117340183851661 0.49999999999999822 0 -0.44906353612911992 0.48156434098680928 0 -0.42763424784974358 0.47782084863844693 0 -0.44906353612911992 0.48156434098680928 0 -0.44646904861131792 0.46167976462988569 0 -0.4691035686143018 0.48083988231494179 0 -0.44646904861131792 0.46167976462988569 0 -0.44906353612911992 0.48156434098680928 0 -0.4691035686143018 0.48083988231494179 0 -0.44646904861131792 0.46167976462988569 0 -0.44906353612911992 0.48156434098680928 0 -0.46645574522790079 0.5 0 -0.4691035686143018 0.48083988231494179 0 -0.4691035686143018 0.48083988231494179 0 -0.49173808861728507 0.49999999999999861 0 -0.46645574522790079 0.5 0 -0.4691035686143018 0.48083988231494179 0 -0.49173808861728507 0.49999999999999861 0 -0.4691035686143018 0.48083988231494179 0 -0.48677721820737802 0.47779699692455541 0 -0.49173808861728507 0.49999999999999861 0 -0.48677721820737802 0.47779699692455541 0 -0.5 0.5 0 -0.5 0.4528103964209238 0 -0.4691035686143018 0.48083988231494179 0 -0.48677721820737802 0.47779699692455541 0 -0.47304443380530309 0.45533470588691138 0 -0.48677721820737802 0.47779699692455541 0 -0.5 0.5 0 -0.49173808861728507 0.49999999999999861 0 -0.5 0.4528103964209238 0 -0.47304443380530309 0.45533470588691138 0 -0.48394378969843699 0.43665819720796978 0 -0.48677721820737802 0.47779699692455541 0 -0.5 0.4528103964209238 0 -0.47304443380530309 0.45533470588691138 0 -0.47304443380530309 0.45533470588691138 0 -0.45609134640560911 0.4403868251042925 0 -0.48394378969843699 0.43665819720796978 0 -0.47304443380530309 0.45533470588691138 0 -0.45609134640560911 0.4403868251042925 0 -0.44646904861131792 0.46167976462988569 0 -0.4691035686143018 0.48083988231494179 0 -0.47304443380530309 0.45533470588691138 0 -0.44646904861131792 0.46167976462988569 0 -0.43486093393488939 0.44351644011633068 0 -0.45609134640560911 0.4403868251042925 0 -0.44646904861131792 0.46167976462988569 0 -0.43486093393488939 0.44351644011633068 0 -0.45609134640560911 0.4403868251042925 0 -0.43903752638850868 0.4222113591910468 0 -0.43903752638850868 0.4222113591910468 0 -0.45417713113482239 0.40762594837423222 0 -0.43832041546479977 0.40172222871594648 0 -0.43903752638850868 0.4222113591910468 0 -0.45417713113482239 0.40762594837423222 0 -0.46909446082783007 0.42259972000684431 0 -0.45417713113482239 0.40762594837423222 0 -0.46909446082783007 0.42259972000684431 0 -0.46954520695370611 0.40810500502147162 0 -0.45609134640560911 0.4403868251042925 0 -0.43903752638850868 0.4222113591910468 0 -0.46909446082783007 0.42259972000684431 0 -0.43903752638850868 0.4222113591910468 0 -0.46909446082783007 0.42259972000684431 0 -0.48394378969843699 0.43665819720796978 0 -0.46909446082783007 0.42259972000684431 0 -0.49999999999999989 0.42298808082264178 0 -0.45609134640560911 0.4403868251042925 0 -0.48394378969843699 0.43665819720796978 0 -0.46909446082783007 0.42259972000684431 0 -0.48337108485897029 0.40874115168257902 0 -0.49999999999999989 0.42298808082264178 0 -0.49999999999999989 0.38943661929146972 0 -0.46909446082783007 0.42259972000684431 0 -0.48337108485897029 0.40874115168257902 0 -0.49999999999999989 0.42298808082264178 0 -0.46909446082783007 0.42259972000684431 0 -0.46954520695370611 0.40810500502147162 0 -0.48337108485897029 0.40874115168257902 0 -0.46909446082783007 0.42259972000684431 0 -0.49999999999999989 0.42298808082264178 0 -0.5 0.4528103964209238 0 -0.48394378969843699 0.43665819720796978 0 -0.49999999999999989 0.42298808082264178 0 -0.49999999999999989 0.38943661929146972 0 -0.47182424415338292 0.3855749284122218 0 -0.48699427047412891 0.37424226404452038 0 -0.49999999999999989 0.38943661929146972 0 -0.47182424415338292 0.3855749284122218 0 -0.48337108485897029 0.40874115168257902 0 -0.49999999999999989 0.38943661929146972 0 -0.47030624059692822 0.39479509475575042 0 -0.46954520695370611 0.40810500502147162 0 -0.48337108485897029 0.40874115168257902 0 -0.47030624059692822 0.39479509475575042 0 -0.47030624059692822 0.39479509475575042 0 -0.47182424415338292 0.3855749284122218 0 -0.46558438103991601 0.39165358422976709 0 -0.47030624059692822 0.39479509475575042 0 -0.47182424415338292 0.3855749284122218 0 -0.49999999999999989 0.38943661929146972 0 -0.47030624059692822 0.39479509475575042 0 -0.47182424415338292 0.3855749284122218 0 -0.47182424415338292 0.3855749284122218 0 -0.45402564786071359 0.37358804916444471 0 -0.46548331890984662 0.37022020494876989 0 -0.47182424415338292 0.3855749284122218 0 -0.45916914084298688 0.38822644340192108 0 -0.44769413258793123 0.38226772230727202 0 -0.47182424415338292 0.3855749284122218 0 -0.44769413258793123 0.38226772230727202 0 -0.47182424415338292 0.3855749284122218 0 -0.44769413258793123 0.38226772230727202 0 -0.45402564786071359 0.37358804916444471 0 -0.47182424415338292 0.3855749284122218 0 -0.45916914084298688 0.38822644340192108 0 -0.46558438103991601 0.39165358422976709 0 -0.45417713113482239 0.40762594837423222 0 -0.46954520695370611 0.40810500502147162 0 -0.46103789856636601 0.39801787034917507 0 -0.46954520695370611 0.40810500502147162 0 -0.47030624059692822 0.39479509475575042 0 -0.46103789856636601 0.39801787034917507 0 -0.45916914084298688 0.38822644340192108 0 -0.46103789856636601 0.39801787034917507 0 -0.46558438103991601 0.39165358422976709 0 -0.47030624059692822 0.39479509475575042 0 -0.46103789856636601 0.39801787034917507 0 -0.46558438103991601 0.39165358422976709 0 -0.45916914084298688 0.38822644340192108 0 -0.46103789856636601 0.39801787034917507 0 -0.44994319180787978 0.39461520911011311 0 -0.45417713113482239 0.40762594837423222 0 -0.46103789856636601 0.39801787034917507 0 -0.44994319180787978 0.39461520911011311 0 -0.45417713113482239 0.40762594837423222 0 -0.44994319180787978 0.39461520911011311 0 -0.43832041546479977 0.40172222871594648 0 -0.44994319180787978 0.39461520911011311 0 -0.43832041546479977 0.40172222871594648 0 -0.43734081087181848 0.38978642170248379 0 -0.44769413258793123 0.38226772230727202 0 -0.43730482272815069 0.37321961231913447 0 -0.45402564786071359 0.37358804916444471 0 -0.45916914084298688 0.38822644340192108 0 -0.44994319180787978 0.39461520911011311 0 -0.44769413258793123 0.38226772230727202 0 -0.44994319180787978 0.39461520911011311 0 -0.44769413258793123 0.38226772230727202 0 -0.43734081087181848 0.38978642170248379 0 -0.44769413258793123 0.38226772230727202 0 -0.42356402102247959 0.37896051620232157 0 -0.44769413258793123 0.38226772230727202 0 -0.43734081087181848 0.38978642170248379 0 -0.42356402102247959 0.37896051620232157 0 -0.44769413258793123 0.38226772230727202 0 -0.42356402102247959 0.37896051620232157 0 -0.43730482272815069 0.37321961231913447 0 -0.43734081087181848 0.38978642170248379 0 -0.42356402102247959 0.37896051620232157 0 -0.4258382157122288 0.3939679342110089 0 -0.42356402102247959 0.37896051620232157 0 -0.40904366876005721 0.39357121109795551 0 -0.39943390945702789 0.37565331009737118 0 -0.42356402102247959 0.37896051620232157 0 -0.39943390945702789 0.37565331009737118 0 -0.42356402102247959 0.37896051620232157 0 -0.40904366876005721 0.39357121109795551 0 -0.4258382157122288 0.3939679342110089 0 -0.40904366876005721 0.39357121109795551 0 -0.42092216244198882 0.40579929333633702 0 -0.4258382157122288 0.3939679342110089 0 -0.40904366876005721 0.39357121109795551 0 -0.42092216244198882 0.40579929333633702 0 -0.40866528556994808 0.40655697943653818 0 -0.43832041546479977 0.40172222871594648 0 -0.42092216244198882 0.40579929333633702 0 -0.4258382157122288 0.3939679342110089 0 -0.43832041546479977 0.40172222871594648 0 -0.43734081087181848 0.38978642170248379 0 -0.4258382157122288 0.3939679342110089 0 -0.43903752638850868 0.4222113591910468 0 -0.42092216244198882 0.40579929333633702 0 -0.40898059194918729 0.42182299837524928 0 -0.43903752638850868 0.4222113591910468 0 -0.43832041546479977 0.40172222871594648 0 -0.42092216244198882 0.40579929333633702 0 -0.41861165440804138 0.43766255437953272 0 -0.43903752638850868 0.4222113591910468 0 -0.40898059194918729 0.42182299837524928 0 -0.41861165440804138 0.43766255437953272 0 -0.43486093393488939 0.44351644011633068 0 -0.43903752638850868 0.4222113591910468 0 -0.43903752638850868 0.4222113591910468 0 -0.40898059194918729 0.42182299837524928 0 -0.41861165440804138 0.43766255437953272 0 -0.40898059194918729 0.42182299837524928 0 -0.40055593987219612 0.433462545915345 0 -0.42092216244198882 0.40579929333633702 0 -0.40898059194918729 0.42182299837524928 0 -0.40866528556994808 0.40655697943653818 0 -0.40898059194918729 0.42182299837524928 0 -0.40866528556994808 0.40655697943653818 0 -0.39571471912855899 0.40503441493661119 0 -0.40898059194918729 0.42182299837524928 0 -0.37892365750986601 0.42143463755945182 0 -0.40898059194918729 0.42182299837524928 0 -0.37892365750986601 0.42143463755945182 0 -0.39571471912855899 0.40503441493661119 0 -0.40898059194918729 0.42182299837524928 0 -0.38882753234256129 0.43192816712441617 0 -0.37892365750986601 0.42143463755945182 0 -0.40898059194918729 0.42182299837524928 0 -0.40055593987219612 0.433462545915345 0 -0.38882753234256129 0.43192816712441617 0 -0.37538081396359169 0.43982484532242078 0 -0.38882753234256129 0.43192816712441617 0 -0.37892365750986601 0.42143463755945182 0 -0.37892365750986601 0.42143463755945182 0 -0.37574485273575192 0.40100363198788119 0 -0.39571471912855899 0.40503441493661119 0 -0.37574485273575192 0.40100363198788119 0 -0.39571471912855899 0.40503441493661119 0 -0.37574485273575192 0.40100363198788119 0 -0.38851953333458128 0.38919766825539143 0 -0.39571471912855899 0.40503441493661119 0 -0.37574485273575192 0.40100363198788119 0 -0.38851953333458128 0.38919766825539143 0 -0.37103411106942352 0.37285810611397929 0 -0.38851953333458128 0.38919766825539143 0 -0.39943390945702789 0.37565331009737118 0 -0.37103411106942352 0.37285810611397929 0 -0.40904366876005721 0.39357121109795551 0 -0.38851953333458128 0.38919766825539143 0 -0.39943390945702789 0.37565331009737118 0 -0.40904366876005721 0.39357121109795551 0 -0.38851953333458128 0.38919766825539143 0 -0.39571471912855899 0.40503441493661119 0 -0.40904366876005721 0.39357121109795551 0 -0.40866528556994808 0.40655697943653818 0 -0.39571471912855899 0.40503441493661119 0 -0.39023237312745201 0.35776202772306298 0 -0.40843151781898912 0.34595955817796481 0 -0.41335588660269451 0.36375840173745649 0 -0.39023237312745201 0.35776202772306298 0 -0.38598293812771178 0.34498203859092208 0 -0.40843151781898912 0.34595955817796481 0 -0.39943390945702789 0.37565331009737118 0 -0.39023237312745201 0.35776202772306298 0 -0.41335588660269451 0.36375840173745649 0 -0.39943390945702789 0.37565331009737118 0 -0.39023237312745201 0.35776202772306298 0 -0.37103411106942352 0.37285810611397929 0 -0.39023237312745201 0.35776202772306298 0 -0.37197010723877211 0.35178857060051533 0 -0.37103411106942352 0.37285810611397929 0 -0.39023237312745201 0.35776202772306298 0 -0.38598293812771178 0.34498203859092208 0 -0.37197010723877211 0.35178857060051533 0 -0.38598293812771178 0.34498203859092208 0 -0.37364623965521909 0.33725472376834259 0 -0.37197010723877211 0.35178857060051533 0 -0.38598293812771178 0.34498203859092208 0 -0.3856344527981268 0.3321453126847248 0 -0.37364623965521909 0.33725472376834259 0 -0.3856344527981268 0.3321453126847248 0 -0.37486932739658901 0.32791068817876412 0 -0.37364623965521909 0.33725472376834259 0 -0.3811898693172851 0.31891116270078651 0 -0.37960688551718907 0.3118567167260593 0 -0.36675995067273642 0.32190399008444642 0 -0.3811898693172851 0.31891116270078651 0 -0.38687483605579182 0.31020397474263289 0 -0.37960688551718907 0.3118567167260593 0 -0.3856344527981268 0.3321453126847248 0 -0.3811898693172851 0.31891116270078651 0 -0.37486932739658901 0.32791068817876412 0 -0.3856344527981268 0.3321453126847248 0 -0.3811898693172851 0.31891116270078651 0 -0.39177725719143358 0.31959447829832399 0 -0.3811898693172851 0.31891116270078651 0 -0.39177725719143358 0.31959447829832399 0 -0.38687483605579182 0.31020397474263289 0 -0.40557352250745582 0.3267020959359046 0 -0.39177725719143358 0.31959447829832399 0 -0.39820804030055162 0.30836532487037699 0 -0.3856344527981268 0.3321453126847248 0 -0.40557352250745582 0.3267020959359046 0 -0.39177725719143358 0.31959447829832399 0 -0.40557352250745582 0.3267020959359046 0 -0.41347883284948678 0.31191254886300351 0 -0.39820804030055162 0.30836532487037699 0 -0.39177725719143358 0.31959447829832399 0 -0.39820804030055162 0.30836532487037699 0 -0.38687483605579182 0.31020397474263289 0 -0.3856344527981268 0.3321453126847248 0 -0.40843151781898912 0.34595955817796481 0 -0.38598293812771178 0.34498203859092208 0 -0.3856344527981268 0.3321453126847248 0 -0.40843151781898912 0.34595955817796481 0 -0.3856344527981268 0.3321453126847248 0 -0.40557352250745582 0.3267020959359046 0 -0.40843151781898912 0.34595955817796481 0 -0.40557352250745582 0.3267020959359046 0 -0.42781497981311628 0.33276291431159399 0 -0.40843151781898912 0.34595955817796481 0 -0.40557352250745582 0.3267020959359046 0 -0.42781497981311628 0.33276291431159399 0 -0.41347883284948678 0.31191254886300351 0 -0.42781497981311628 0.33276291431159399 0 -0.43115063472496262 0.31049125041674158 0 -0.41347883284948678 0.31191254886300351 0 -0.42781497981311628 0.33276291431159399 0 -0.44915629966393722 0.32239810121082152 0 -0.43115063472496262 0.31049125041674158 0 -0.42781497981311628 0.33276291431159399 0 -0.40843151781898912 0.34595955817796481 0 -0.43122858283985133 0.35977380367120471 0 -0.40843151781898912 0.34595955817796481 0 -0.43122858283985133 0.35977380367120471 0 -0.40843151781898912 0.34595955817796481 0 -0.41335588660269451 0.36375840173745649 0 -0.43122858283985133 0.35977380367120471 0 -0.42356402102247959 0.37896051620232157 0 -0.39943390945702789 0.37565331009737118 0 -0.41335588660269451 0.36375840173745649 0 -0.42356402102247959 0.37896051620232157 0 -0.43730482272815069 0.37321961231913447 0 -0.43122858283985133 0.35977380367120471 0 -0.42356402102247959 0.37896051620232157 0 -0.41335588660269451 0.36375840173745649 0 -0.43122858283985133 0.35977380367120471 0 -0.43730482272815069 0.37321961231913447 0 -0.43122858283985133 0.35977380367120471 0 -0.45402564786071359 0.37358804916444471 0 -0.43122858283985133 0.35977380367120471 0 -0.45402564786071359 0.37358804916444471 0 -0.43122858283985133 0.35977380367120471 0 -0.44964025164253812 0.36130093468917301 0 -0.45402564786071359 0.37358804916444471 0 -0.43122858283985133 0.35977380367120471 0 -0.44964025164253812 0.36130093468917301 0 -0.45348146315186078 0.34876845535940099 0 -0.42781497981311628 0.33276291431159399 0 -0.43122858283985133 0.35977380367120471 0 -0.45348146315186078 0.34876845535940099 0 -0.45348146315186078 0.34876845535940099 0 -0.45982531271772659 0.36307343056164137 0 -0.47625807090756361 0.35864441165677191 0 -0.45348146315186078 0.34876845535940099 0 -0.47625807090756361 0.35864441165677191 0 -0.46254259565397288 0.33299111900149431 0 -0.44964025164253812 0.36130093468917301 0 -0.45348146315186078 0.34876845535940099 0 -0.45982531271772659 0.36307343056164137 0 -0.45982531271772659 0.36307343056164137 0 -0.46548331890984662 0.37022020494876989 0 -0.47625807090756361 0.35864441165677191 0 -0.45402564786071359 0.37358804916444471 0 -0.45982531271772659 0.36307343056164137 0 -0.46548331890984662 0.37022020494876989 0 -0.44964025164253812 0.36130093468917301 0 -0.45402564786071359 0.37358804916444471 0 -0.45982531271772659 0.36307343056164137 0 -0.47182424415338292 0.3855749284122218 0 -0.47625807090756361 0.35864441165677191 0 -0.47182424415338292 0.3855749284122218 0 -0.47625807090756361 0.35864441165677191 0 -0.48699427047412891 0.37424226404452038 0 -0.47182424415338292 0.3855749284122218 0 -0.46548331890984662 0.37022020494876989 0 -0.47625807090756361 0.35864441165677191 0 -0.47625807090756361 0.35864441165677191 0 -0.48069189766174419 0.33171389490132203 0 -0.47625807090756361 0.35864441165677191 0 -0.48923749214232692 0.34559014748012429 0 -0.48069189766174419 0.33171389490132203 0 -0.47625807090756361 0.35864441165677191 0 -0.48923749214232692 0.34559014748012429 0 -0.5 0.3604796342179577 0 -0.48923749214232692 0.34559014748012429 0 -0.5 0.3604796342179577 0 -0.5 0.33152264914444579 0 -0.47625807090756361 0.35864441165677191 0 -0.5 0.3604796342179577 0 -0.48699427047412891 0.37424226404452038 0 -0.49999999999999989 0.38943661929146972 0 -0.5 0.3604796342179577 0 -0.48699427047412891 0.37424226404452038 0 -0.49022545486711488 0.31945324508908512 0 -0.48069189766174419 0.33171389490132203 0 -0.48512572441592489 0.30478337814587192 0 -0.49022545486711488 0.31945324508908512 0 -0.5 0.33152264914444579 0 -0.48069189766174419 0.33171389490132203 0 -0.49022545486711488 0.31945324508908512 0 -0.5 0.33152264914444579 0 -0.5 0.30256566407093383 0 -0.48923749214232692 0.34559014748012429 0 -0.5 0.33152264914444579 0 -0.48069189766174419 0.33171389490132203 0 -0.47625807090756361 0.35864441165677191 0 -0.48069189766174419 0.33171389490132203 0 -0.46254259565397288 0.33299111900149431 0 -0.48069189766174419 0.33171389490132203 0 -0.46889257864627432 0.31594101106140171 0 -0.48512572441592489 0.30478337814587192 0 -0.48069189766174419 0.33171389490132203 0 -0.48512572441592489 0.30478337814587192 0 -0.48069189766174419 0.33171389490132203 0 -0.46889257864627432 0.31594101106140171 0 -0.46254259565397288 0.33299111900149431 0 -0.46889257864627432 0.31594101106140171 0 -0.46254259565397288 0.33299111900149431 0 -0.44915629966393722 0.32239810121082152 0 -0.46889257864627432 0.31594101106140171 0 -0.44915629966393722 0.32239810121082152 0 -0.45857374220865033 0.30780460618625177 0 -0.45348146315186078 0.34876845535940099 0 -0.46254259565397288 0.33299111900149431 0 -0.44915629966393722 0.32239810121082152 0 -0.42781497981311628 0.33276291431159399 0 -0.45348146315186078 0.34876845535940099 0 -0.44915629966393722 0.32239810121082152 0 -0.44915629966393722 0.32239810121082152 0 -0.44683022947601481 0.29929709142479072 0 -0.45857374220865033 0.30780460618625177 0 -0.44915629966393722 0.32239810121082152 0 -0.44683022947601481 0.29929709142479072 0 -0.43115063472496262 0.31049125041674158 0 -0.44683022947601481 0.29929709142479072 0 -0.459332408612943 0.27553217650976908 0 -0.44223118813430379 0.27338001189733507 0 -0.44683022947601481 0.29929709142479072 0 -0.44223118813430379 0.27338001189733507 0 -0.42948471824876022 0.28617070103850778 0 -0.46879444501416723 0.29624334207122222 0 -0.459332408612943 0.27553217650976908 0 -0.44683022947601481 0.29929709142479072 0 -0.46879444501416723 0.29624334207122222 0 -0.459332408612943 0.27553217650976908 0 -0.46879444501416723 0.29624334207122222 0 -0.47591555847566558 0.28469431878273338 0 -0.459332408612943 0.27553217650976908 0 -0.44683022947601481 0.29929709142479072 0 -0.45857374220865033 0.30780460618625177 0 -0.46879444501416723 0.29624334207122222 0 -0.46889257864627432 0.31594101106140171 0 -0.45857374220865033 0.30780460618625177 0 -0.46879444501416723 0.29624334207122222 0 -0.46889257864627432 0.31594101106140171 0 -0.46879444501416723 0.29624334207122222 0 -0.48512572441592489 0.30478337814587192 0 -0.47591555847566558 0.28469431878273338 0 -0.48512572441592489 0.30478337814587192 0 -0.48955955117010569 0.27785286139042192 0 -0.46879444501416723 0.29624334207122222 0 -0.47591555847566558 0.28469431878273338 0 -0.48512572441592489 0.30478337814587192 0 -0.48512572441592489 0.30478337814587192 0 -0.48955955117010569 0.27785286139042192 0 -0.48512572441592489 0.30478337814587192 0 -0.5 0.30256566407093383 0 -0.48955955117010569 0.27785286139042192 0 -0.5 0.30256566407093383 0 -0.5 0.27360867899742181 0 -0.48955955117010569 0.27785286139042192 0 -0.49022545486711488 0.31945324508908512 0 -0.48512572441592489 0.30478337814587192 0 -0.5 0.30256566407093383 0 -0.4999999999999975 0.24465169392391009 0 -0.49038037276704011 0.25557132441729552 0 -0.5 0.27360867899742181 0 -0.49038037276704011 0.25557132441729552 0 -0.5 0.27360867899742181 0 -0.4872694196427001 0.26568599470947568 0 -0.49038037276704011 0.25557132441729552 0 -0.4872694196427001 0.26568599470947568 0 -0.47874644332747068 0.25510029245731491 0 -0.48409586529763748 0.2443360010212681 0 -0.49038037276704011 0.25557132441729552 0 -0.47874644332747068 0.25510029245731491 0 -0.5 0.27360867899742181 0 -0.48955955117010569 0.27785286139042192 0 -0.4872694196427001 0.26568599470947568 0 -0.48955955117010569 0.27785286139042192 0 -0.4872694196427001 0.26568599470947568 0 -0.47676566316518648 0.26905983579638182 0 -0.47591555847566558 0.28469431878273338 0 -0.48955955117010569 0.27785286139042192 0 -0.47676566316518648 0.26905983579638182 0 -0.47591555847566558 0.28469431878273338 0 -0.47676566316518648 0.26905983579638182 0 -0.459332408612943 0.27553217650976908 0 -0.47676566316518648 0.26905983579638182 0 -0.47874644332747068 0.25510029245731491 0 -0.46578519863329582 0.25659275838981482 0 -0.4872694196427001 0.26568599470947568 0 -0.47676566316518648 0.26905983579638182 0 -0.47874644332747068 0.25510029245731491 0 -0.47140919036984552 0.24324699533267899 0 -0.47874644332747068 0.25510029245731491 0 -0.46578519863329582 0.25659275838981482 0 -0.459332408612943 0.27553217650976908 0 -0.44987037221171883 0.25482101094831611 0 -0.45858711411261111 0.2417962392944282 0 -0.46578519863329582 0.25659275838981482 0 -0.44987037221171883 0.25482101094831611 0 -0.46578519863329582 0.25659275838981482 0 -0.459332408612943 0.27553217650976908 0 -0.44987037221171883 0.25482101094831611 0 -0.47676566316518648 0.26905983579638182 0 -0.46578519863329582 0.25659275838981482 0 -0.459332408612943 0.27553217650976908 0 -0.459332408612943 0.27553217650976908 0 -0.44223118813430379 0.27338001189733507 0 -0.44987037221171883 0.25482101094831611 0 -0.44223118813430379 0.27338001189733507 0 -0.44987037221171883 0.25482101094831611 0 -0.42936932043256382 0.26465243768367192 0 -0.43535073689811121 0.24802721624926291 0 -0.44987037221171883 0.25482101094831611 0 -0.42936932043256382 0.26465243768367192 0 -0.43535073689811121 0.24802721624926291 0 -0.42936932043256382 0.26465243768367192 0 -0.42372073458691062 0.25401258507241897 0 -0.41043671487978012 0.24813903361116141 0 -0.42198451048501912 0.24165410790607419 0 -0.40817837053194839 0.2617165784506672 0 -0.42198451048501912 0.24165410790607419 0 -0.42372073458691062 0.25401258507241897 0 -0.40817837053194839 0.2617165784506672 0 -0.42936932043256382 0.26465243768367192 0 -0.42372073458691062 0.25401258507241897 0 -0.40817837053194839 0.2617165784506672 0 -0.42198451048501912 0.24165410790607419 0 -0.40817837053194839 0.2617165784506672 0 -0.42936932043256382 0.26465243768367192 0 -0.40817837053194839 0.2617165784506672 0 -0.41463770205689571 0.27740801226235129 0 -0.42936932043256382 0.26465243768367192 0 -0.41463770205689571 0.27740801226235129 0 -0.42948471824876022 0.28617070103850778 0 -0.44223118813430379 0.27338001189733507 0 -0.42936932043256382 0.26465243768367192 0 -0.42948471824876022 0.28617070103850778 0 -0.42948471824876022 0.28617070103850778 0 -0.43115063472496262 0.31049125041674158 0 -0.41178387049232829 0.29272129514364931 0 -0.44683022947601481 0.29929709142479072 0 -0.42948471824876022 0.28617070103850778 0 -0.43115063472496262 0.31049125041674158 0 -0.43115063472496262 0.31049125041674158 0 -0.41347883284948678 0.31191254886300351 0 -0.41178387049232829 0.29272129514364931 0 -0.41347883284948678 0.31191254886300351 0 -0.41178387049232829 0.29272129514364931 0 -0.39820804030055162 0.30836532487037699 0 -0.41463770205689571 0.27740801226235129 0 -0.41178387049232829 0.29272129514364931 0 -0.39437223057887771 0.2817790489952603 0 -0.41463770205689571 0.27740801226235129 0 -0.42948471824876022 0.28617070103850778 0 -0.41178387049232829 0.29272129514364931 0 -0.41178387049232829 0.29272129514364931 0 -0.39270713155227699 0.29541483336055979 0 -0.39437223057887771 0.2817790489952603 0 -0.41178387049232829 0.29272129514364931 0 -0.39270713155227699 0.29541483336055979 0 -0.39820804030055162 0.30836532487037699 0 -0.39270713155227699 0.29541483336055979 0 -0.39820804030055162 0.30836532487037699 0 -0.38821120514386698 0.30365150308844829 0 -0.39820804030055162 0.30836532487037699 0 -0.38687483605579182 0.31020397474263289 0 -0.38821120514386698 0.30365150308844829 0 -0.38056609062580699 0.30184151953985328 0 -0.37960688551718907 0.3118567167260593 0 -0.36675995067273642 0.32190399008444642 0 -0.38687483605579182 0.31020397474263289 0 -0.3838147543356637 0.30688842852424852 0 -0.37960688551718907 0.3118567167260593 0 -0.38687483605579182 0.31020397474263289 0 -0.3838147543356637 0.30688842852424852 0 -0.38821120514386698 0.30365150308844829 0 -0.39270713155227699 0.29541483336055979 0 -0.38821120514386698 0.30365150308844829 0 -0.38056609062580699 0.30184151953985328 0 -0.3838147543356637 0.30688842852424852 0 -0.38821120514386698 0.30365150308844829 0 -0.38056609062580699 0.30184151953985328 0 -0.37702319674223472 0.30038153216959818 0 -0.37660916402755878 0.29641208408479458 0 -0.37335978936544573 0.30007870569940459 0 -0.37702319674223472 0.30038153216959818 0 -0.38056609062580699 0.30184151953985328 0 -0.37660916402755878 0.29641208408479458 0 -0.37702319674223472 0.30038153216959818 0 -0.37755774295012728 0.30319381935434009 0 -0.37335978936544573 0.30007870569940459 0 -0.37702319674223472 0.30038153216959818 0 -0.37755774295012728 0.30319381935434009 0 -0.38056609062580699 0.30184151953985328 0 -0.3838147543356637 0.30688842852424852 0 -0.38056609062580699 0.30184151953985328 0 -0.37960688551718907 0.3118567167260593 0 -0.39437223057887771 0.2817790489952603 0 -0.38056609062580699 0.30184151953985328 0 -0.39270713155227699 0.29541483336055979 0 -0.39437223057887771 0.2817790489952603 0 -0.38056609062580699 0.30184151953985328 0 -0.39437223057887771 0.2817790489952603 0 -0.38056609062580699 0.30184151953985328 0 -0.38026381911308271 0.28906345461131538 0 -0.39437223057887771 0.2817790489952603 0 -0.38026381911308271 0.28906345461131538 0 -0.38161651625618748 0.27984037801288453 0 -0.38056609062580699 0.30184151953985328 0 -0.38026381911308271 0.28906345461131538 0 -0.37660916402755878 0.29641208408479458 0 -0.38026381911308271 0.28906345461131538 0 -0.37660916402755878 0.29641208408479458 0 -0.37398983029070793 0.29082320666409361 0 -0.38026381911308271 0.28906345461131538 0 -0.3744290828993575 0.28368449037100663 0 -0.37398983029070793 0.29082320666409361 0 -0.38026381911308271 0.28906345461131538 0 -0.38161651625618748 0.27984037801288453 0 -0.3744290828993575 0.28368449037100663 0 -0.38161651625618748 0.27984037801288453 0 -0.38254162876578057 0.26862912564028618 0 -0.37289141478335519 0.27388713531172132 0 -0.38161651625618748 0.27984037801288453 0 -0.37289141478335519 0.27388713531172132 0 -0.3744290828993575 0.28368449037100663 0 -0.39437223057887771 0.2817790489952603 0 -0.38254162876578057 0.26862912564028618 0 -0.393358335449772 0.2642540838886227 0 -0.39437223057887771 0.2817790489952603 0 -0.38161651625618748 0.27984037801288453 0 -0.38254162876578057 0.26862912564028618 0 -0.38254162876578057 0.26862912564028618 0 -0.37509452161898382 0.26363015914875232 0 -0.37289141478335519 0.27388713531172132 0 -0.38254162876578057 0.26862912564028618 0 -0.37509452161898382 0.26363015914875232 0 -0.38366299195356829 0.26003732964035903 0 -0.37509452161898382 0.26363015914875232 0 -0.38366299195356829 0.26003732964035903 0 -0.37117564269166059 0.25507560270103968 0 -0.39425320706460443 0.24808701692964799 0 -0.38366299195356829 0.26003732964035903 0 -0.393358335449772 0.2642540838886227 0 -0.37953854733362519 0.25254306176890989 0 -0.38366299195356829 0.26003732964035903 0 -0.37117564269166059 0.25507560270103968 0 -0.37953854733362519 0.25254306176890989 0 -0.37117564269166059 0.25507560270103968 0 -0.39425320706460443 0.24808701692964799 0 -0.37953854733362519 0.25254306176890989 0 -0.38366299195356829 0.26003732964035903 0 -0.39425320706460443 0.24808701692964799 0 -0.37953854733362519 0.25254306176890989 0 -0.38254162876578057 0.26862912564028618 0 -0.38366299195356829 0.26003732964035903 0 -0.393358335449772 0.2642540838886227 0 -0.39425320706460443 0.24808701692964799 0 -0.40817837053194839 0.2617165784506672 0 -0.393358335449772 0.2642540838886227 0 -0.41043671487978012 0.24813903361116141 0 -0.39425320706460443 0.24808701692964799 0 -0.40817837053194839 0.2617165784506672 0 -0.40817837053194839 0.2617165784506672 0 -0.39437223057887771 0.2817790489952603 0 -0.393358335449772 0.2642540838886227 0 -0.40817837053194839 0.2617165784506672 0 -0.39437223057887771 0.2817790489952603 0 -0.40817837053194839 0.2617165784506672 0 -0.41463770205689571 0.27740801226235129 0 -0.39437223057887771 0.2817790489952603 0 -0.35393073858614832 0.26605951848032838 0 -0.34010494796101648 0.28161782828492771 0 -0.34266004937055677 0.25821455341305599 0 -0.35393073858614832 0.26605951848032838 0 -0.3561602462531796 0.27847758162160918 0 -0.34010494796101648 0.28161782828492771 0 -0.35393073858614832 0.26605951848032838 0 -0.3561602462531796 0.27847758162160918 0 -0.36315879298373638 0.27338031498865573 0 -0.35399039374227648 0.24872414955354211 0 -0.35393073858614832 0.26605951848032838 0 -0.34266004937055677 0.25821455341305599 0 -0.35399039374227648 0.24872414955354211 0 -0.35393073858614832 0.26605951848032838 0 -0.36191183317902142 0.25696272487395649 0 -0.36633585907063548 0.26550999025686861 0 -0.36191183317902142 0.25696272487395649 0 -0.37117564269166059 0.25507560270103968 0 -0.35393073858614832 0.26605951848032838 0 -0.36633585907063548 0.26550999025686861 0 -0.36191183317902142 0.25696272487395649 0 -0.35399039374227648 0.24872414955354211 0 -0.36483867825705801 0.24946241242578249 0 -0.36191183317902142 0.25696272487395649 0 -0.36483867825705801 0.24946241242578249 0 -0.36191183317902142 0.25696272487395649 0 -0.37117564269166059 0.25507560270103968 0 -0.37245560190602828 0.2474017800549676 0 -0.37953854733362519 0.25254306176890989 0 -0.37117564269166059 0.25507560270103968 0 -0.36483867825705801 0.24946241242578249 0 -0.37245560190602828 0.2474017800549676 0 -0.37117564269166059 0.25507560270103968 0 -0.37509452161898382 0.26363015914875232 0 -0.36633585907063548 0.26550999025686861 0 -0.37117564269166059 0.25507560270103968 0 -0.36633585907063548 0.26550999025686861 0 -0.36315879298373638 0.27338031498865573 0 -0.37289141478335519 0.27388713531172132 0 -0.37509452161898382 0.26363015914875232 0 -0.36633585907063548 0.26550999025686861 0 -0.37289141478335519 0.27388713531172132 0 -0.35393073858614832 0.26605951848032838 0 -0.36633585907063548 0.26550999025686861 0 -0.36315879298373638 0.27338031498865573 0 -0.3561602462531796 0.27847758162160918 0 -0.36315879298373638 0.27338031498865573 0 -0.36671059122788491 0.2809765649884135 0 -0.36315879298373638 0.27338031498865573 0 -0.36671059122788491 0.2809765649884135 0 -0.37289141478335519 0.27388713531172132 0 -0.36671059122788491 0.2809765649884135 0 -0.37289141478335519 0.27388713531172132 0 -0.3744290828993575 0.28368449037100663 0 -0.36671059122788491 0.2809765649884135 0 -0.3744290828993575 0.28368449037100663 0 -0.36915538280662169 0.28711829082625601 0 -0.3744290828993575 0.28368449037100663 0 -0.36915538280662169 0.28711829082625601 0 -0.37398983029070793 0.29082320666409361 0 -0.37398983029070793 0.29082320666409361 0 -0.3721255313099221 0.29555625916969308 0 -0.36912403774855901 0.29217858379317241 0 -0.37660916402755878 0.29641208408479458 0 -0.37398983029070793 0.29082320666409361 0 -0.3721255313099221 0.29555625916969308 0 -0.3721255313099221 0.29555625916969308 0 -0.36912403774855901 0.29217858379317241 0 -0.36755402274200372 0.29888917469176951 0 -0.36915538280662169 0.28711829082625601 0 -0.37398983029070793 0.29082320666409361 0 -0.36912403774855901 0.29217858379317241 0 -0.36283952219193022 0.29138819122094223 0 -0.36755402274200372 0.29888917469176951 0 -0.3605743312344023 0.30030924793363312 0 -0.36915538280662169 0.28711829082625601 0 -0.36912403774855901 0.29217858379317241 0 -0.36283952219193022 0.29138819122094223 0 -0.36912403774855901 0.29217858379317241 0 -0.36283952219193022 0.29138819122094223 0 -0.36755402274200372 0.29888917469176951 0 -0.36671059122788491 0.2809765649884135 0 -0.36915538280662169 0.28711829082625601 0 -0.36283952219193022 0.29138819122094223 0 -0.3561602462531796 0.27847758162160918 0 -0.36671059122788491 0.2809765649884135 0 -0.36283952219193022 0.29138819122094223 0 -0.37755774295012728 0.30319381935434009 0 -0.36878396113671091 0.30632466799303892 0 -0.36323076296240181 0.32289807648436197 0 -0.37755774295012728 0.30319381935434009 0 -0.38056609062580699 0.30184151953985328 0 -0.36675995067273642 0.32190399008444642 0 -0.36878396113671091 0.30632466799303892 0 -0.36274026119491237 0.30623732457834119 0 -0.36323076296240181 0.32289807648436197 0 -0.38056609062580699 0.30184151953985328 0 -0.36675995067273642 0.32190399008444642 0 -0.37755774295012728 0.30319381935434009 0 -0.36878396113671091 0.30632466799303892 0 -0.37335978936544573 0.30007870569940459 0 -0.36878396113671091 0.30632466799303892 0 -0.37335978936544573 0.30007870569940459 0 -0.36755402274200372 0.29888917469176951 0 -0.37660916402755878 0.29641208408479458 0 -0.3721255313099221 0.29555625916969308 0 -0.37335978936544573 0.30007870569940459 0 -0.3721255313099221 0.29555625916969308 0 -0.37335978936544573 0.30007870569940459 0 -0.36755402274200372 0.29888917469176951 0 -0.36755402274200372 0.29888917469176951 0 -0.3605743312344023 0.30030924793363312 0 -0.36274026119491237 0.30623732457834119 0 -0.36878396113671091 0.30632466799303892 0 -0.36755402274200372 0.29888917469176951 0 -0.36274026119491237 0.30623732457834119 0 -0.36274026119491237 0.30623732457834119 0 -0.35146913543817521 0.30211346290800312 0 -0.36323076296240181 0.32289807648436197 0 -0.35146913543817521 0.30211346290800312 0 -0.34096160786313751 0.3086859869774744 0 -0.34418548838822488 0.31803845869753478 0 -0.3605743312344023 0.30030924793363312 0 -0.36274026119491237 0.30623732457834119 0 -0.35146913543817521 0.30211346290800312 0 -0.36283952219193022 0.29138819122094223 0 -0.3605743312344023 0.30030924793363312 0 -0.35146913543817521 0.30211346290800312 0 -0.35146913543817521 0.30211346290800312 0 -0.34010494796101648 0.28161782828492771 0 -0.3561602462531796 0.27847758162160918 0 -0.36283952219193022 0.29138819122094223 0 -0.35146913543817521 0.30211346290800312 0 -0.3561602462531796 0.27847758162160918 0 -0.35146913543817521 0.30211346290800312 0 -0.34010494796101648 0.28161782828492771 0 -0.34010494796101648 0.28161782828492771 0 -0.32544232935081108 0.28741627171751172 0 -0.32237247532769059 0.27533729275543778 0 -0.35146913543817521 0.30211346290800312 0 -0.34010494796101648 0.28161782828492771 0 -0.33560874851476208 0.29946858486196959 0 -0.34010494796101648 0.28161782828492771 0 -0.33560874851476208 0.29946858486196959 0 -0.32544232935081108 0.28741627171751172 0 -0.33560874851476208 0.29946858486196959 0 -0.31682737297892799 0.31757041618983739 0 -0.33258305911138758 0.31512344144239018 0 -0.35146913543817521 0.30211346290800312 0 -0.33560874851476208 0.29946858486196959 0 -0.34096160786313751 0.3086859869774744 0 -0.33560874851476208 0.29946858486196959 0 -0.34096160786313751 0.3086859869774744 0 -0.33258305911138758 0.31512344144239018 0 -0.33560874851476208 0.29946858486196959 0 -0.31389961565945268 0.29837302479495131 0 -0.31682737297892799 0.31757041618983739 0 -0.33560874851476208 0.29946858486196959 0 -0.31682737297892799 0.31757041618983739 0 -0.33560874851476208 0.29946858486196959 0 -0.31389961565945268 0.29837302479495131 0 -0.32544232935081108 0.28741627171751172 0 -0.31389961565945268 0.29837302479495131 0 -0.32544232935081108 0.28741627171751172 0 -0.30999224850137908 0.28426836249149551 0 -0.32544232935081108 0.28741627171751172 0 -0.32237247532769059 0.27533729275543778 0 -0.30999224850137908 0.28426836249149551 0 -0.32237247532769059 0.27533729275543778 0 -0.32874076048385781 0.26112219366185208 0 -0.30758209034138839 0.262261807621402 0 -0.32237247532769059 0.27533729275543778 0 -0.30758209034138839 0.262261807621402 0 -0.30999224850137908 0.28426836249149551 0 -0.34010494796101648 0.28161782828492771 0 -0.32874076048385781 0.26112219366185208 0 -0.34010494796101648 0.28161782828492771 0 -0.34266004937055677 0.25821455341305599 0 -0.32874076048385781 0.26112219366185208 0 -0.34010494796101648 0.28161782828492771 0 -0.32237247532769059 0.27533729275543778 0 -0.32874076048385781 0.26112219366185208 0 -0.33697276924571601 0.2427247353279546 0 -0.34266004937055677 0.25821455341305599 0 -0.32874076048385781 0.26112219366185208 0 -0.31737657300669908 0.24062655903877669 0 -0.32874076048385781 0.26112219366185208 0 -0.30758209034138839 0.262261807621402 0 -0.31737657300669908 0.24062655903877669 0 -0.32874076048385781 0.26112219366185208 0 -0.30758209034138839 0.262261807621402 0 -0.29535950726253091 0.27301403891217879 0 -0.30999224850137908 0.28426836249149551 0 -0.28235147927719723 0.27928476048378792 0 -0.29535950726253091 0.27301403891217879 0 -0.28405747160943501 0.25832370851674252 0 -0.28235147927719723 0.27928476048378792 0 -0.29535950726253091 0.27301403891217879 0 -0.2971374558390531 0.2912242307397635 0 -0.30758209034138839 0.262261807621402 0 -0.29535950726253091 0.27301403891217879 0 -0.28405747160943501 0.25832370851674252 0 -0.29767337890495782 0.24407184993012401 0 -0.30758209034138839 0.262261807621402 0 -0.28405747160943501 0.25832370851674252 0 -0.26167914317137358 0.24594879361926031 0 -0.28405747160943501 0.25832370851674252 0 -0.26787990181476251 0.27048500477863979 0 -0.28235147927719723 0.27928476048378792 0 -0.26787990181476251 0.27048500477863979 0 -0.27256137932555702 0.28794463191001268 0 -0.28235147927719723 0.27928476048378792 0 -0.28405747160943501 0.25832370851674252 0 -0.26787990181476251 0.27048500477863979 0 -0.26787990181476251 0.27048500477863979 0 -0.26037951681760069 0.28714305349917479 0 -0.24625042068741179 0.26426508064286031 0 -0.26037951681760069 0.28714305349917479 0 -0.24625042068741179 0.26426508064286031 0 -0.26167914317137358 0.24594879361926031 0 -0.24625042068741179 0.26426508064286031 0 -0.24646631454805509 0.24550208357914341 0 -0.26167914317137358 0.24594879361926031 0 -0.26787990181476251 0.27048500477863979 0 -0.24625042068741179 0.26426508064286031 0 -0.26353395275116342 0.30486023956924618 0 -0.25404126920174203 0.30074513647233991 0 -0.26263976171914089 0.29665573583056082 0 -0.26353395275116342 0.30486023956924618 0 -0.26263976171914089 0.29665573583056082 0 -0.27013539022088739 0.30048607560457408 0 -0.26353395275116342 0.30486023956924618 0 -0.25404126920174203 0.30074513647233991 0 -0.25973350083257563 0.31470308736704122 0 -0.26353395275116342 0.30486023956924618 0 -0.27197450918069621 0.31147038939540128 0 -0.25973350083257563 0.31470308736704122 0 -0.25973350083257563 0.31470308736704122 0 -0.2450172565205653 0.31304908197236531 0 -0.2456827818410823 0.29929770528224292 0 -0.25404126920174203 0.30074513647233991 0 -0.25973350083257563 0.31470308736704122 0 -0.2456827818410823 0.29929770528224292 0 -0.25973350083257563 0.31470308736704122 0 -0.2456827818410823 0.29929770528224292 0 -0.25404126920174203 0.30074513647233991 0 -0.26037951681760069 0.28714305349917479 0 -0.24006211596432489 0.28356882637725001 0 -0.25404126920174203 0.30074513647233991 0 -0.26037951681760069 0.28714305349917479 0 -0.26263976171914089 0.29665573583056082 0 -0.26037951681760069 0.28714305349917479 0 -0.26263976171914089 0.29665573583056082 0 -0.27256137932555702 0.28794463191001268 0 -0.26263976171914089 0.29665573583056082 0 -0.27256137932555702 0.28794463191001268 0 -0.27013539022088739 0.30048607560457408 0 -0.26787990181476251 0.27048500477863979 0 -0.26037951681760069 0.28714305349917479 0 -0.27256137932555702 0.28794463191001268 0 -0.28235147927719723 0.27928476048378792 0 -0.27256137932555702 0.28794463191001268 0 -0.2820326576383792 0.29983321412164499 0 -0.27256137932555702 0.28794463191001268 0 -0.27013539022088739 0.30048607560457408 0 -0.2820326576383792 0.29983321412164499 0 -0.27013539022088739 0.30048607560457408 0 -0.27197450918069621 0.31147038939540128 0 -0.2820326576383792 0.29983321412164499 0 -0.27197450918069621 0.31147038939540128 0 -0.2820326576383792 0.29983321412164499 0 -0.28389515654803332 0.31816089919678581 0 -0.26353395275116342 0.30486023956924618 0 -0.27013539022088739 0.30048607560457408 0 -0.27197450918069621 0.31147038939540128 0 -0.2820326576383792 0.29983321412164499 0 -0.29838953877178293 0.31029028276913012 0 -0.28389515654803332 0.31816089919678581 0 -0.2820326576383792 0.29983321412164499 0 -0.2971374558390531 0.2912242307397635 0 -0.29838953877178293 0.31029028276913012 0 -0.28235147927719723 0.27928476048378792 0 -0.2820326576383792 0.29983321412164499 0 -0.2971374558390531 0.2912242307397635 0 -0.29535950726253091 0.27301403891217879 0 -0.2971374558390531 0.2912242307397635 0 -0.30999224850137908 0.28426836249149551 0 -0.31389961565945268 0.29837302479495131 0 -0.2971374558390531 0.2912242307397635 0 -0.30999224850137908 0.28426836249149551 0 -0.31389961565945268 0.29837302479495131 0 -0.2971374558390531 0.2912242307397635 0 -0.29838953877178293 0.31029028276913012 0 -0.31389961565945268 0.29837302479495131 0 -0.29838953877178293 0.31029028276913012 0 -0.31682737297892799 0.31757041618983739 0 -0.29838953877178293 0.31029028276913012 0 -0.29395380077855537 0.32946555242043168 0 -0.31682737297892799 0.31757041618983739 0 -0.29804599744309368 0.33567224751770491 0 -0.29395380077855537 0.32946555242043168 0 -0.31682737297892799 0.31757041618983739 0 -0.29804599744309368 0.33567224751770491 0 -0.31682737297892799 0.31757041618983739 0 -0.29804599744309368 0.33567224751770491 0 -0.31133697578144082 0.35583087058817359 0 -0.31682576527042722 0.33763624585729279 0 -0.29804599744309368 0.33567224751770491 0 -0.31682576527042722 0.33763624585729279 0 -0.31682737297892799 0.31757041618983739 0 -0.29804599744309368 0.33567224751770491 0 -0.28783493881556332 0.34551385153663677 0 -0.29804599744309368 0.33567224751770491 0 -0.28842505514176509 0.33534417277603201 0 -0.28783493881556332 0.34551385153663677 0 -0.29804599744309368 0.33567224751770491 0 -0.29395380077855537 0.32946555242043168 0 -0.28842505514176509 0.33534417277603201 0 -0.29804599744309368 0.33567224751770491 0 -0.29395380077855537 0.32946555242043168 0 -0.28382468298091929 0.32839637507881958 0 -0.28842505514176509 0.33534417277603201 0 -0.27378421982406898 0.33010846945183953 0 -0.29395380077855537 0.32946555242043168 0 -0.28382468298091929 0.32839637507881958 0 -0.28842505514176509 0.33534417277603201 0 -0.28842505514176509 0.33534417277603201 0 -0.27378421982406898 0.33010846945183953 0 -0.28783493881556332 0.34551385153663677 0 -0.29838953877178293 0.31029028276913012 0 -0.29395380077855537 0.32946555242043168 0 -0.28389515654803332 0.31816089919678581 0 -0.29395380077855537 0.32946555242043168 0 -0.28382468298091929 0.32839637507881958 0 -0.28389515654803332 0.31816089919678581 0 -0.27197450918069621 0.31147038939540128 0 -0.27378421982406898 0.33010846945183953 0 -0.25973350083257563 0.31470308736704122 0 -0.27197450918069621 0.31147038939540128 0 -0.28389515654803332 0.31816089919678581 0 -0.27378421982406898 0.33010846945183953 0 -0.27378421982406898 0.33010846945183953 0 -0.25973350083257563 0.31470308736704122 0 -0.28382468298091929 0.32839637507881958 0 -0.28389515654803332 0.31816089919678581 0 -0.27378421982406898 0.33010846945183953 0 -0.27378421982406898 0.33010846945183953 0 -0.25513945157750401 0.34018899623773352 0 -0.26873287089091752 0.34654575363404733 0 -0.27378421982406898 0.33010846945183953 0 -0.26873287089091752 0.34654575363404733 0 -0.28783493881556332 0.34551385153663677 0 -0.27378421982406898 0.33010846945183953 0 -0.28783493881556332 0.34551385153663677 0 -0.27378421982406898 0.33010846945183953 0 -0.25513945157750401 0.34018899623773352 0 -0.250954521962239 0.32574295231807221 0 -0.27378421982406898 0.33010846945183953 0 -0.250954521962239 0.32574295231807221 0 -0.25973350083257563 0.31470308736704122 0 -0.250954521962239 0.32574295231807221 0 -0.25973350083257563 0.31470308736704122 0 -0.2450172565205653 0.31304908197236531 0 -0.25175548383290353 0.36493711302424092 0 -0.26531818958941522 0.37861840841054872 0 -0.24466530149434931 0.37769245548415392 0 -0.25175548383290353 0.36493711302424092 0 -0.25756233860237832 0.35358112341311237 0 -0.2693434056350732 0.36333632753091383 0 -0.25175548383290353 0.36493711302424092 0 -0.2693434056350732 0.36333632753091383 0 -0.26531818958941522 0.37861840841054872 0 -0.25756233860237832 0.35358112341311237 0 -0.26873287089091752 0.34654575363404733 0 -0.2693434056350732 0.36333632753091383 0 -0.25513945157750401 0.34018899623773352 0 -0.25756233860237832 0.35358112341311237 0 -0.24046711451865549 0.35278193549151199 0 -0.25513945157750401 0.34018899623773352 0 -0.25756233860237832 0.35358112341311237 0 -0.26873287089091752 0.34654575363404733 0 -0.26873287089091752 0.34654575363404733 0 -0.2693434056350732 0.36333632753091383 0 -0.28783493881556332 0.34551385153663677 0 -0.2693434056350732 0.36333632753091383 0 -0.28783493881556332 0.34551385153663677 0 -0.2693434056350732 0.36333632753091383 0 -0.28633968758416811 0.37352146630595467 0 -0.26531818958941522 0.37861840841054872 0 -0.2693434056350732 0.36333632753091383 0 -0.28633968758416811 0.37352146630595467 0 -0.29045547811524952 0.36178879352139931 0 -0.28633968758416811 0.37352146630595467 0 -0.29045547811524952 0.36178879352139931 0 -0.30110819037080933 0.37388949535392252 0 -0.2693434056350732 0.36333632753091383 0 -0.29045547811524952 0.36178879352139931 0 -0.28783493881556332 0.34551385153663677 0 -0.29045547811524952 0.36178879352139931 0 -0.28783493881556332 0.34551385153663677 0 -0.30465113992400822 0.36395134241858201 0 -0.28783493881556332 0.34551385153663677 0 -0.30465113992400822 0.36395134241858201 0 -0.29804599744309368 0.33567224751770491 0 -0.28783493881556332 0.34551385153663677 0 -0.3004672629910265 0.35024207801527429 0 -0.29804599744309368 0.33567224751770491 0 -0.31133697578144082 0.35583087058817359 0 -0.29804599744309368 0.33567224751770491 0 -0.3004672629910265 0.35024207801527429 0 -0.31133697578144082 0.35583087058817359 0 -0.28783493881556332 0.34551385153663677 0 -0.3004672629910265 0.35024207801527429 0 -0.30465113992400822 0.36395134241858201 0 -0.3004672629910265 0.35024207801527429 0 -0.31133697578144082 0.35583087058817359 0 -0.30465113992400822 0.36395134241858201 0 -0.31133697578144082 0.35583087058817359 0 -0.30465113992400822 0.36395134241858201 0 -0.31225472683300459 0.37307423611538398 0 -0.29045547811524952 0.36178879352139931 0 -0.30110819037080933 0.37388949535392252 0 -0.30465113992400822 0.36395134241858201 0 -0.30110819037080933 0.37388949535392252 0 -0.30465113992400822 0.36395134241858201 0 -0.31225472683300459 0.37307423611538398 0 -0.31133697578144082 0.35583087058817359 0 -0.31225472683300459 0.37307423611538398 0 -0.32462795411979067 0.37598949365864059 0 -0.31133697578144082 0.35583087058817359 0 -0.32462795411979067 0.37598949365864059 0 -0.31133697578144082 0.35583087058817359 0 -0.32638715020252351 0.35757812195897049 0 -0.32462795411979067 0.37598949365864059 0 -0.34227121706323638 0.35172426889054059 0 -0.32462795411979067 0.37598949365864059 0 -0.34227121706323638 0.35172426889054059 0 -0.33920606135120079 0.37741899080522912 0 -0.32462795411979067 0.37598949365864059 0 -0.34227121706323638 0.35172426889054059 0 -0.32638715020252351 0.35757812195897049 0 -0.32462795411979067 0.37598949365864059 0 -0.34227121706323638 0.35172426889054059 0 -0.32731245384562591 0.34676785469852739 0 -0.34346239625255182 0.33388610573374899 0 -0.34227121706323638 0.35172426889054059 0 -0.32731245384562591 0.34676785469852739 0 -0.32638715020252351 0.35757812195897049 0 -0.31133697578144082 0.35583087058817359 0 -0.32731245384562591 0.34676785469852739 0 -0.31682576527042722 0.33763624585729279 0 -0.31133697578144082 0.35583087058817359 0 -0.32731245384562591 0.34676785469852739 0 -0.32638715020252351 0.35757812195897049 0 -0.32731245384562591 0.34676785469852739 0 -0.31682576527042722 0.33763624585729279 0 -0.33011584640182629 0.32852445954242432 0 -0.31682576527042722 0.33763624585729279 0 -0.31682737297892799 0.31757041618983739 0 -0.33011584640182629 0.32852445954242432 0 -0.31682737297892799 0.31757041618983739 0 -0.33258305911138758 0.31512344144239018 0 -0.33011584640182629 0.32852445954242432 0 -0.34346239625255182 0.33388610573374899 0 -0.33011584640182629 0.32852445954242432 0 -0.34418548838822488 0.31803845869753478 0 -0.33258305911138758 0.31512344144239018 0 -0.33011584640182629 0.32852445954242432 0 -0.34418548838822488 0.31803845869753478 0 -0.34096160786313751 0.3086859869774744 0 -0.33258305911138758 0.31512344144239018 0 -0.34418548838822488 0.31803845869753478 0 -0.32731245384562591 0.34676785469852739 0 -0.34346239625255182 0.33388610573374899 0 -0.33011584640182629 0.32852445954242432 0 -0.34227121706323638 0.35172426889054059 0 -0.35991448000668191 0.32745904412244042 0 -0.34227121706323638 0.35172426889054059 0 -0.34346239625255182 0.33388610573374899 0 -0.35991448000668191 0.32745904412244042 0 -0.34227121706323638 0.35172426889054059 0 -0.35991448000668191 0.32745904412244042 0 -0.3616025635236032 0.34240098224965643 0 -0.34346239625255182 0.33388610573374899 0 -0.34418548838822488 0.31803845869753478 0 -0.35237296460019352 0.32082123379856109 0 -0.35146913543817521 0.30211346290800312 0 -0.34418548838822488 0.31803845869753478 0 -0.35237296460019352 0.32082123379856109 0 -0.34346239625255182 0.33388610573374899 0 -0.35237296460019352 0.32082123379856109 0 -0.35991448000668191 0.32745904412244042 0 -0.35146913543817521 0.30211346290800312 0 -0.35237296460019352 0.32082123379856109 0 -0.36323076296240181 0.32289807648436197 0 -0.35146913543817521 0.30211346290800312 0 -0.36323076296240181 0.32289807648436197 0 -0.35237296460019352 0.32082123379856109 0 -0.36323076296240181 0.32289807648436197 0 -0.35991448000668191 0.32745904412244042 0 -0.37755774295012728 0.30319381935434009 0 -0.36675995067273642 0.32190399008444642 0 -0.36323076296240181 0.32289807648436197 0 -0.37755774295012728 0.30319381935434009 0 -0.36323076296240181 0.32289807648436197 0 -0.36675995067273642 0.32190399008444642 0 -0.35991448000668191 0.32745904412244042 0 -0.36735851225096589 0.33138588568073002 0 -0.36675995067273642 0.32190399008444642 0 -0.36323076296240181 0.32289807648436197 0 -0.35991448000668191 0.32745904412244042 0 -0.36323076296240181 0.32289807648436197 0 -0.35991448000668191 0.32745904412244042 0 -0.36675995067273642 0.32190399008444642 0 -0.37486932739658901 0.32791068817876412 0 -0.36735851225096589 0.33138588568073002 0 -0.3811898693172851 0.31891116270078651 0 -0.36675995067273642 0.32190399008444642 0 -0.37486932739658901 0.32791068817876412 0 -0.35991448000668191 0.32745904412244042 0 -0.3616025635236032 0.34240098224965643 0 -0.36735851225096589 0.33138588568073002 0 -0.37486932739658901 0.32791068817876412 0 -0.36735851225096589 0.33138588568073002 0 -0.37364623965521909 0.33725472376834259 0 -0.3616025635236032 0.34240098224965643 0 -0.36735851225096589 0.33138588568073002 0 -0.37364623965521909 0.33725472376834259 0 -0.3616025635236032 0.34240098224965643 0 -0.37197010723877211 0.35178857060051533 0 -0.35929301869643271 0.3595232069482871 0 -0.3616025635236032 0.34240098224965643 0 -0.37364623965521909 0.33725472376834259 0 -0.37197010723877211 0.35178857060051533 0 -0.37103411106942352 0.37285810611397929 0 -0.35929301869643271 0.3595232069482871 0 -0.35143659405378441 0.37400043063711902 0 -0.37197010723877211 0.35178857060051533 0 -0.37103411106942352 0.37285810611397929 0 -0.35929301869643271 0.3595232069482871 0 -0.34227121706323638 0.35172426889054059 0 -0.35143659405378441 0.37400043063711902 0 -0.33920606135120079 0.37741899080522912 0 -0.34227121706323638 0.35172426889054059 0 -0.35929301869643271 0.3595232069482871 0 -0.35143659405378441 0.37400043063711902 0 -0.34227121706323638 0.35172426889054059 0 -0.3616025635236032 0.34240098224965643 0 -0.35929301869643271 0.3595232069482871 0 -0.35577498634294469 0.3969728490391512 0 -0.3358051199501374 0.39294206609042132 0 -0.34201822524350872 0.40236557461761668 0 -0.35577498634294469 0.3969728490391512 0 -0.3358051199501374 0.39294206609042132 0 -0.35577498634294469 0.3969728490391512 0 -0.34807894485568031 0.38525403099241168 0 -0.3358051199501374 0.39294206609042132 0 -0.35577498634294469 0.3969728490391512 0 -0.36229910190065229 0.40970319805130462 0 -0.35000809200533872 0.40872945253394127 0 -0.35577498634294469 0.3969728490391512 0 -0.35000809200533872 0.40872945253394127 0 -0.34201822524350872 0.40236557461761668 0 -0.35143659405378441 0.37400043063711902 0 -0.34807894485568031 0.38525403099241168 0 -0.33920606135120079 0.37741899080522912 0 -0.35143659405378441 0.37400043063711902 0 -0.34807894485568031 0.38525403099241168 0 -0.360413897811517 0.38601780975410849 0 -0.35577498634294469 0.3969728490391512 0 -0.34807894485568031 0.38525403099241168 0 -0.360413897811517 0.38601780975410849 0 -0.37574485273575192 0.40100363198788119 0 -0.37103411106942352 0.37285810611397929 0 -0.360413897811517 0.38601780975410849 0 -0.37103411106942352 0.37285810611397929 0 -0.35143659405378441 0.37400043063711902 0 -0.360413897811517 0.38601780975410849 0 -0.37574485273575192 0.40100363198788119 0 -0.35577498634294469 0.3969728490391512 0 -0.360413897811517 0.38601780975410849 0 -0.37574485273575192 0.40100363198788119 0 -0.35577498634294469 0.3969728490391512 0 -0.36229910190065229 0.40970319805130462 0 -0.37574485273575192 0.40100363198788119 0 -0.35577498634294469 0.3969728490391512 0 -0.37892365750986601 0.42143463755945182 0 -0.36229910190065229 0.40970319805130462 0 -0.34886672307054473 0.4210462767436543 0 -0.37892365750986601 0.42143463755945182 0 -0.34886672307054473 0.4210462767436543 0 -0.37892365750986601 0.42143463755945182 0 -0.37574485273575192 0.40100363198788119 0 -0.36229910190065229 0.40970319805130462 0 -0.37538081396359169 0.43982484532242078 0 -0.37892365750986601 0.42143463755945182 0 -0.3640881866638967 0.43179277659042731 0 -0.37892365750986601 0.42143463755945182 0 -0.3640881866638967 0.43179277659042731 0 -0.34886672307054473 0.4210462767436543 0 -0.3640881866638967 0.43179277659042731 0 -0.34886672307054473 0.4210462767436543 0 -0.35318155211158442 0.44486534673618211 0 -0.34886672307054473 0.4210462767436543 0 -0.33869978255989158 0.43518837098833862 0 -0.35318155211158442 0.44486534673618211 0 -0.36229910190065229 0.40970319805130462 0 -0.34886672307054473 0.4210462767436543 0 -0.35000809200533872 0.40872945253394127 0 -0.34886672307054473 0.4210462767436543 0 -0.35000809200533872 0.40872945253394127 0 -0.33925561363432311 0.41448288927489851 0 -0.35000809200533872 0.40872945253394127 0 -0.33925561363432311 0.41448288927489851 0 -0.34201822524350872 0.40236557461761668 0 -0.33925561363432311 0.41448288927489851 0 -0.32599869708845741 0.42326998448596292 0 -0.3299421618381978 0.39629767627987739 0 -0.33925561363432311 0.41448288927489851 0 -0.33869978255989158 0.43518837098833862 0 -0.32599869708845741 0.42326998448596292 0 -0.33869978255989158 0.43518837098833862 0 -0.32599869708845741 0.42326998448596292 0 -0.32205523233871702 0.4502422926920483 0 -0.34886672307054473 0.4210462767436543 0 -0.33925561363432311 0.41448288927489851 0 -0.33869978255989158 0.43518837098833862 0 -0.32599869708845741 0.42326998448596292 0 -0.30231461620130817 0.43616180549618461 0 -0.32205523233871702 0.4502422926920483 0 -0.32599869708845741 0.42326998448596292 0 -0.32205523233871702 0.4502422926920483 0 -0.32599869708845741 0.42326998448596292 0 -0.31856278261698251 0.40465240929181578 0 -0.30583689965984789 0.41127387952771433 0 -0.32599869708845741 0.42326998448596292 0 -0.3299421618381978 0.39629767627987739 0 -0.32599869708845741 0.42326998448596292 0 -0.31856278261698251 0.40465240929181578 0 -0.3299421618381978 0.39629767627987739 0 -0.31856278261698251 0.40465240929181578 0 -0.32139337816327268 0.39670646465040288 0 -0.30939356662958473 0.39739507448605371 0 -0.3358051199501374 0.39294206609042132 0 -0.31892351024528198 0.38953462694150642 0 -0.32139337816327268 0.39670646465040288 0 -0.31892351024528198 0.38953462694150642 0 -0.30939356662958473 0.39739507448605371 0 -0.32139337816327268 0.39670646465040288 0 -0.3299421618381978 0.39629767627987739 0 -0.31892351024528198 0.38953462694150642 0 -0.31856278261698251 0.40465240929181578 0 -0.32139337816327268 0.39670646465040288 0 -0.3299421618381978 0.39629767627987739 0 -0.33925561363432311 0.41448288927489851 0 -0.3299421618381978 0.39629767627987739 0 -0.34201822524350872 0.40236557461761668 0 -0.3358051199501374 0.39294206609042132 0 -0.3299421618381978 0.39629767627987739 0 -0.31892351024528198 0.38953462694150642 0 -0.3358051199501374 0.39294206609042132 0 -0.3299421618381978 0.39629767627987739 0 -0.34201822524350872 0.40236557461761668 0 -0.3358051199501374 0.39294206609042132 0 -0.34201822524350872 0.40236557461761668 0 -0.3358051199501374 0.39294206609042132 0 -0.32462795411979067 0.37598949365864059 0 -0.3358051199501374 0.39294206609042132 0 -0.33920606135120079 0.37741899080522912 0 -0.32462795411979067 0.37598949365864059 0 -0.34807894485568031 0.38525403099241168 0 -0.3358051199501374 0.39294206609042132 0 -0.33920606135120079 0.37741899080522912 0 -0.3358051199501374 0.39294206609042132 0 -0.32462795411979067 0.37598949365864059 0 -0.31853708075642317 0.38436642550338568 0 -0.32462795411979067 0.37598949365864059 0 -0.31853708075642317 0.38436642550338568 0 -0.3358051199501374 0.39294206609042132 0 -0.31853708075642317 0.38436642550338568 0 -0.31892351024528198 0.38953462694150642 0 -0.31853708075642317 0.38436642550338568 0 -0.31892351024528198 0.38953462694150642 0 -0.30995113532358992 0.38207702496058688 0 -0.31225472683300459 0.37307423611538398 0 -0.31634272425820209 0.37887679505949928 0 -0.30995113532358992 0.38207702496058688 0 -0.31853708075642317 0.38436642550338568 0 -0.31634272425820209 0.37887679505949928 0 -0.30995113532358992 0.38207702496058688 0 -0.32462795411979067 0.37598949365864059 0 -0.31853708075642317 0.38436642550338568 0 -0.31634272425820209 0.37887679505949928 0 -0.31225472683300459 0.37307423611538398 0 -0.32462795411979067 0.37598949365864059 0 -0.31634272425820209 0.37887679505949928 0 -0.30110819037080933 0.37388949535392252 0 -0.31225472683300459 0.37307423611538398 0 -0.30995113532358992 0.38207702496058688 0 -0.31892351024528198 0.38953462694150642 0 -0.30204190054042651 0.38612718779259181 0 -0.31892351024528198 0.38953462694150642 0 -0.30995113532358992 0.38207702496058688 0 -0.30204190054042651 0.38612718779259181 0 -0.30110819037080933 0.37388949535392252 0 -0.30995113532358992 0.38207702496058688 0 -0.30204190054042651 0.38612718779259181 0 -0.30204190054042651 0.38612718779259181 0 -0.30939356662958473 0.39739507448605371 0 -0.29008274683884361 0.39998054543431688 0 -0.30939356662958473 0.39739507448605371 0 -0.29008274683884361 0.39998054543431688 0 -0.30583689965984789 0.41127387952771433 0 -0.31892351024528198 0.38953462694150642 0 -0.30204190054042651 0.38612718779259181 0 -0.30939356662958473 0.39739507448605371 0 -0.31856278261698251 0.40465240929181578 0 -0.30939356662958473 0.39739507448605371 0 -0.30583689965984789 0.41127387952771433 0 -0.30204190054042651 0.38612718779259181 0 -0.29008274683884361 0.39998054543431688 0 -0.28212022874920822 0.38703900483815151 0 -0.28633968758416811 0.37352146630595467 0 -0.30110819037080933 0.37388949535392252 0 -0.30204190054042651 0.38612718779259181 0 -0.28633968758416811 0.37352146630595467 0 -0.30204190054042651 0.38612718779259181 0 -0.28212022874920822 0.38703900483815151 0 -0.28212022874920822 0.38703900483815151 0 -0.26867275567893317 0.39295930200029738 0 -0.26531818958941522 0.37861840841054872 0 -0.28633968758416811 0.37352146630595467 0 -0.28212022874920822 0.38703900483815151 0 -0.26531818958941522 0.37861840841054872 0 -0.29008274683884361 0.39998054543431688 0 -0.26867275567893317 0.39295930200029738 0 -0.27234931265318019 0.41006404786671879 0 -0.26867275567893317 0.39295930200029738 0 -0.25897147026851802 0.40494654613692171 0 -0.27234931265318019 0.41006404786671879 0 -0.29008274683884361 0.39998054543431688 0 -0.28212022874920822 0.38703900483815151 0 -0.26867275567893317 0.39295930200029738 0 -0.26867275567893317 0.39295930200029738 0 -0.25897147026851802 0.40494654613692171 0 -0.25433046415127092 0.39084318969012882 0 -0.25897147026851802 0.40494654613692171 0 -0.25433046415127092 0.39084318969012882 0 -0.24944235966793371 0.40195745254293302 0 -0.25433046415127092 0.39084318969012882 0 -0.26531818958941522 0.37861840841054872 0 -0.24466530149434931 0.37769245548415392 0 -0.26867275567893317 0.39295930200029738 0 -0.25433046415127092 0.39084318969012882 0 -0.26531818958941522 0.37861840841054872 0 -0.26251792993396611 0.43668284464809271 0 -0.25147459497330998 0.43245482731428381 0 -0.25568563878340889 0.41835735499381499 0 -0.25897147026851802 0.40494654613692171 0 -0.25568563878340889 0.41835735499381499 0 -0.27234931265318019 0.41006404786671879 0 -0.25897147026851802 0.40494654613692171 0 -0.24707317266057849 0.41195204374791122 0 -0.24944235966793371 0.40195745254293302 0 -0.25897147026851802 0.40494654613692171 0 -0.25568563878340889 0.41835735499381499 0 -0.24707317266057849 0.41195204374791122 0 -0.25568563878340889 0.41835735499381499 0 -0.27234931265318019 0.41006404786671879 0 -0.27900012749235847 0.42725958024499983 0 -0.27234931265318019 0.41006404786671879 0 -0.27900012749235847 0.42725958024499983 0 -0.29090012677011129 0.41667262676501199 0 -0.26251792993396611 0.43668284464809271 0 -0.25568563878340889 0.41835735499381499 0 -0.27900012749235847 0.42725958024499983 0 -0.25568563878340889 0.41835735499381499 0 -0.27900012749235847 0.42725958024499983 0 -0.26251792993396611 0.43668284464809271 0 -0.27900012749235847 0.42725958024499983 0 -0.28259728745066198 0.4463602534947424 0 -0.27900012749235847 0.42725958024499983 0 -0.29090012677011129 0.41667262676501199 0 -0.30231461620130817 0.43616180549618461 0 -0.27900012749235847 0.42725958024499983 0 -0.30231461620130817 0.43616180549618461 0 -0.28259728745066198 0.4463602534947424 0 -0.27900012749235847 0.42725958024499983 0 -0.30231461620130817 0.43616180549618461 0 -0.29008274683884361 0.39998054543431688 0 -0.29090012677011129 0.41667262676501199 0 -0.30583689965984789 0.41127387952771433 0 -0.29008274683884361 0.39998054543431688 0 -0.27234931265318019 0.41006404786671879 0 -0.29090012677011129 0.41667262676501199 0 -0.29090012677011129 0.41667262676501199 0 -0.30583689965984789 0.41127387952771433 0 -0.30231461620130817 0.43616180549618461 0 -0.32599869708845741 0.42326998448596292 0 -0.30583689965984789 0.41127387952771433 0 -0.30231461620130817 0.43616180549618461 0 -0.30231461620130817 0.43616180549618461 0 -0.29727594627880682 0.45660684135346702 0 -0.32205523233871702 0.4502422926920483 0 -0.29727594627880682 0.45660684135346702 0 -0.30618502729152869 0.46789744363585212 0 -0.29078877894560679 0.47397994859954579 0 -0.29727594627880682 0.45660684135346702 0 -0.30618502729152869 0.46789744363585212 0 -0.32205523233871702 0.4502422926920483 0 -0.29727594627880682 0.45660684135346702 0 -0.27973513180640958 0.46410762794492849 0 -0.29078877894560679 0.47397994859954579 0 -0.29727594627880682 0.45660684135346702 0 -0.28259728745066198 0.4463602534947424 0 -0.27973513180640958 0.46410762794492849 0 -0.30231461620130817 0.43616180549618461 0 -0.29727594627880682 0.45660684135346702 0 -0.28259728745066198 0.4463602534947424 0 -0.26251792993396611 0.43668284464809271 0 -0.28259728745066198 0.4463602534947424 0 -0.26694282370713007 0.45299745958115611 0 -0.26694282370713007 0.45299745958115611 0 -0.27973513180640958 0.46410762794492849 0 -0.26306832597180629 0.46976303543305847 0 -0.28259728745066198 0.4463602534947424 0 -0.26694282370713007 0.45299745958115611 0 -0.27973513180640958 0.46410762794492849 0 -0.26694282370713007 0.45299745958115611 0 -0.26306832597180629 0.46976303543305847 0 -0.24679544337280659 0.44807353638495823 0 -0.26306832597180629 0.46976303543305847 0 -0.246670724337647 0.47275866351528117 0 -0.24679544337280659 0.44807353638495823 0 -0.26251792993396611 0.43668284464809271 0 -0.26694282370713007 0.45299745958115611 0 -0.24679544337280659 0.44807353638495823 0 -0.26251792993396611 0.43668284464809271 0 -0.25147459497330998 0.43245482731428381 0 -0.24679544337280659 0.44807353638495823 0 -0.26850515525437801 0.49628204785188629 0 -0.24654600530248569 0.49744379064560418 0 -0.25690608372156631 0.48515325523322389 0 -0.26850515525437801 0.49628204785188629 0 -0.24654600530248569 0.49744379064560418 0 -0.26850515525437801 0.49628204785188629 0 -0.24654600530248569 0.49744379064560418 0 -0.24653309032081999 0.49999999999999911 0 -0.25690608372156631 0.48515325523322389 0 -0.246670724337647 0.47275866351528117 0 -0.24654600530248569 0.49744379064560418 0 -0.27433884910906248 0.5 0 -0.26850515525437801 0.49628204785188629 0 -0.24653309032081999 0.49999999999999911 0 -0.25690608372156631 0.48515325523322389 0 -0.26799531991770248 0.48520441971463008 0 -0.26850515525437801 0.49628204785188629 0 -0.25690608372156631 0.48515325523322389 0 -0.26306832597180629 0.46976303543305847 0 -0.246670724337647 0.47275866351528117 0 -0.25690608372156631 0.48515325523322389 0 -0.26306832597180629 0.46976303543305847 0 -0.26799531991770248 0.48520441971463008 0 -0.27973513180640958 0.46410762794492849 0 -0.26306832597180629 0.46976303543305847 0 -0.277436339772 0.4797734551674866 0 -0.26306832597180629 0.46976303543305847 0 -0.277436339772 0.4797734551674866 0 -0.26799531991770248 0.48520441971463008 0 -0.26850515525437801 0.49628204785188629 0 -0.29046430520627031 0.49512030505816851 0 -0.27610028003758758 0.48909505694804278 0 -0.26850515525437801 0.49628204785188629 0 -0.29046430520627031 0.49512030505816851 0 -0.27433884910906248 0.5 0 -0.26850515525437801 0.49628204785188629 0 -0.29046430520627031 0.49512030505816851 0 -0.277436339772 0.4797734551674866 0 -0.27610028003758758 0.48909505694804278 0 -0.26799531991770248 0.48520441971463008 0 -0.27610028003758758 0.48909505694804278 0 -0.26799531991770248 0.48520441971463008 0 -0.26850515525437801 0.49628204785188629 0 -0.27433884910906248 0.5 0 -0.29046430520627031 0.49512030505816851 0 -0.30214460789730491 0.5 0 -0.277436339772 0.4797734551674866 0 -0.27610028003758758 0.48909505694804278 0 -0.29046430520627031 0.49512030505816851 0 -0.27973513180640958 0.46410762794492849 0 -0.277436339772 0.4797734551674866 0 -0.29078877894560679 0.47397994859954579 0 -0.277436339772 0.4797734551674866 0 -0.29046430520627031 0.49512030505816851 0 -0.29078877894560679 0.47397994859954579 0 -0.29046430520627031 0.49512030505816851 0 -0.29078877894560679 0.47397994859954579 0 -0.30269341130553662 0.48144353463606571 0 -0.30269341130553662 0.48144353463606571 0 -0.3124234551581625 0.49395856226445067 0 -0.31811176758897652 0.47721460089813372 0 -0.30618502729152869 0.46789744363585212 0 -0.29078877894560679 0.47397994859954579 0 -0.30269341130553662 0.48144353463606571 0 -0.30618502729152869 0.46789744363585212 0 -0.30269341130553662 0.48144353463606571 0 -0.31811176758897652 0.47721460089813372 0 -0.29046430520627031 0.49512030505816851 0 -0.3124234551581625 0.49395856226445067 0 -0.29046430520627031 0.49512030505816851 0 -0.30269341130553662 0.48144353463606571 0 -0.3124234551581625 0.49395856226445067 0 -0.29046430520627031 0.49512030505816851 0 -0.3124234551581625 0.49395856226445067 0 -0.30214460789730491 0.5 0 -0.3124234551581625 0.49395856226445067 0 -0.32440816511652598 0.48853746155764138 0 -0.31811176758897652 0.47721460089813372 0 -0.3124234551581625 0.49395856226445067 0 -0.32440816511652598 0.48853746155764138 0 -0.32995036668554728 0.5 0 -0.3124234551581625 0.49395856226445067 0 -0.30214460789730491 0.5 0 -0.32995036668554728 0.5 0 -0.32440816511652598 0.48853746155764138 0 -0.32995036668554728 0.5 0 -0.33714707103341768 0.48297668306798108 0 -0.32995036668554728 0.5 0 -0.33714707103341768 0.48297668306798108 0 -0.35775612547378988 0.5 0 -0.33714707103341768 0.48297668306798108 0 -0.3322190396903279 0.46570800746228402 0 -0.34543090062295578 0.46631616185085462 0 -0.33714707103341768 0.48297668306798108 0 -0.31811176758897652 0.47721460089813372 0 -0.3322190396903279 0.46570800746228402 0 -0.32440816511652598 0.48853746155764138 0 -0.33714707103341768 0.48297668306798108 0 -0.31811176758897652 0.47721460089813372 0 -0.30618502729152869 0.46789744363585212 0 -0.31811176758897652 0.47721460089813372 0 -0.32205523233871702 0.4502422926920483 0 -0.31811176758897652 0.47721460089813372 0 -0.32205523233871702 0.4502422926920483 0 -0.31811176758897652 0.47721460089813372 0 -0.32205523233871702 0.4502422926920483 0 -0.3322190396903279 0.46570800746228402 0 -0.33869978255989158 0.43518837098833862 0 -0.33835022686757249 0.45179029880240212 0 -0.35318155211158442 0.44486534673618211 0 -0.33869978255989158 0.43518837098833862 0 -0.32205523233871702 0.4502422926920483 0 -0.33835022686757249 0.45179029880240212 0 -0.32205523233871702 0.4502422926920483 0 -0.33835022686757249 0.45179029880240212 0 -0.3322190396903279 0.46570800746228402 0 -0.33835022686757249 0.45179029880240212 0 -0.3322190396903279 0.46570800746228402 0 -0.34543090062295578 0.46631616185085462 0 -0.34543090062295578 0.46631616185085462 0 -0.35318155211158442 0.44486534673618211 0 -0.37175587269468641 0.45991955253372813 0 -0.33835022686757249 0.45179029880240212 0 -0.34543090062295578 0.46631616185085462 0 -0.35318155211158442 0.44486534673618211 0 -0.37538081396359169 0.43982484532242078 0 -0.35318155211158442 0.44486534673618211 0 -0.37175587269468641 0.45991955253372813 0 -0.37538081396359169 0.43982484532242078 0 -0.3640881866638967 0.43179277659042731 0 -0.35318155211158442 0.44486534673618211 0 -0.34543090062295578 0.46631616185085462 0 -0.37175587269468641 0.45991955253372813 0 -0.36405067062163232 0.48028926433953512 0 -0.38556188426203208 0.5 0 -0.36405067062163232 0.48028926433953512 0 -0.35775612547378988 0.5 0 -0.33714707103341768 0.48297668306798108 0 -0.36405067062163232 0.48028926433953512 0 -0.35775612547378988 0.5 0 -0.33714707103341768 0.48297668306798108 0 -0.34543090062295578 0.46631616185085462 0 -0.36405067062163232 0.48028926433953512 0 -0.15524387574373491 0.47313099805610659 0 -0.13762824545901681 0.47796704311223098 0 -0.1659498925513786 0.48821739532940139 0 -0.15524387574373491 0.47313099805610659 0 -0.13762824545901681 0.47796704311223098 0 -0.14454837416875041 0.45901507440307099 0 -0.13762824545901681 0.47796704311223098 0 -0.1659498925513786 0.48821739532940139 0 -0.15103710788112659 0.49174395566214968 0 -0.1381272083349151 0.5 0 -0.13762824545901681 0.47796704311223098 0 -0.15103710788112659 0.49174395566214968 0 -0.13762824545901681 0.47796704311223098 0 -0.1659498925513786 0.48821739532940139 0 -0.15103710788112659 0.49174395566214968 0 -0.1381272083349151 0.5 0 -0.16394700742733809 0.5 0 -0.1381272083349151 0.5 0 -0.13762824545901681 0.47796704311223098 0 -0.1193475938167666 0.48446108402926802 0 -0.13762824545901681 0.47796704311223098 0 -0.1294134865506549 0.46171504414127501 0 -0.10930659836665479 0.46771669089506163 0 -0.13762824545901681 0.47796704311223098 0 -0.1294134865506549 0.46171504414127501 0 -0.14454837416875041 0.45901507440307099 0 -0.1294134865506549 0.46171504414127501 0 -0.1350657150251742 0.44727137425359431 0 -0.14454837416875041 0.45901507440307099 0 -0.13624442315839061 0.43231421562475381 0 -0.1227755107625234 0.45001545325990822 0 -0.1350657150251742 0.44727137425359431 0 -0.13624442315839061 0.43231421562475381 0 -0.1227755107625234 0.45001545325990822 0 -0.1294134865506549 0.46171504414127501 0 -0.1350657150251742 0.44727137425359431 0 -0.1227755107625234 0.45001545325990822 0 -0.1350657150251742 0.44727137425359431 0 -0.14415205640226231 0.44646331749810952 0 -0.14163389064521431 0.43652715909217438 0 -0.1350657150251742 0.44727137425359431 0 -0.14163389064521431 0.43652715909217438 0 -0.13624442315839061 0.43231421562475381 0 -0.14415205640226231 0.44646331749810952 0 -0.1536633160729565 0.44590759201804148 0 -0.14163389064521431 0.43652715909217438 0 -0.1350657150251742 0.44727137425359431 0 -0.14415205640226231 0.44646331749810952 0 -0.14454837416875041 0.45901507440307099 0 -0.14415205640226231 0.44646331749810952 0 -0.1536633160729565 0.44590759201804148 0 -0.14454837416875041 0.45901507440307099 0 -0.1536633160729565 0.44590759201804148 0 -0.15184215151169869 0.43110603188125662 0 -0.14163389064521431 0.43652715909217438 0 -0.15524387574373491 0.47313099805610659 0 -0.14454837416875041 0.45901507440307099 0 -0.16335243961637699 0.45983226355948947 0 -0.1536633160729565 0.44590759201804148 0 -0.14454837416875041 0.45901507440307099 0 -0.16335243961637699 0.45983226355948947 0 -0.1536633160729565 0.44590759201804148 0 -0.1680351797122919 0.43766662601992917 0 -0.15184215151169869 0.43110603188125662 0 -0.16335243961637699 0.45983226355948947 0 -0.1680351797122919 0.43766662601992917 0 -0.1816243046057687 0.45200915444430101 0 -0.1536633160729565 0.44590759201804148 0 -0.16335243961637699 0.45983226355948947 0 -0.1680351797122919 0.43766662601992917 0 -0.1680351797122919 0.43766662601992917 0 -0.1816243046057687 0.45200915444430101 0 -0.18551212714848489 0.42813159859157079 0 -0.16335243961637699 0.45983226355948947 0 -0.1783850400334813 0.46485757799264071 0 -0.17655962306806941 0.47991613177974413 0 -0.16335243961637699 0.45983226355948947 0 -0.1816243046057687 0.45200915444430101 0 -0.1783850400334813 0.46485757799264071 0 -0.1816243046057687 0.45200915444430101 0 -0.1783850400334813 0.46485757799264071 0 -0.19200379284371019 0.46767276218702819 0 -0.1783850400334813 0.46485757799264071 0 -0.17655962306806941 0.47991613177974413 0 -0.19200379284371019 0.46767276218702819 0 -0.17655962306806941 0.47991613177974413 0 -0.1906753434333604 0.48318334533709473 0 -0.19200379284371019 0.46767276218702819 0 -0.16335243961637699 0.45983226355948947 0 -0.17655962306806941 0.47991613177974413 0 -0.16527645774489 0.47527419718118541 0 -0.16335243961637699 0.45983226355948947 0 -0.17655962306806941 0.47991613177974413 0 -0.17655962306806941 0.47991613177974413 0 -0.16527645774489 0.47527419718118541 0 -0.1659498925513786 0.48821739532940139 0 -0.15524387574373491 0.47313099805610659 0 -0.16527645774489 0.47527419718118541 0 -0.1659498925513786 0.48821739532940139 0 -0.15524387574373491 0.47313099805610659 0 -0.16335243961637699 0.45983226355948947 0 -0.16527645774489 0.47527419718118541 0 -0.15103710788112659 0.49174395566214968 0 -0.16394700742733809 0.5 0 -0.1659498925513786 0.48821739532940139 0 -0.17655962306806941 0.47991613177974413 0 -0.1659498925513786 0.48821739532940139 0 -0.1897668065197613 0.49999999999999911 0 -0.16394700742733809 0.5 0 -0.1659498925513786 0.48821739532940139 0 -0.1897668065197613 0.49999999999999911 0 -0.17655962306806941 0.47991613177974413 0 -0.1897668065197613 0.49999999999999911 0 -0.17655962306806941 0.47991613177974413 0 -0.1897668065197613 0.49999999999999911 0 -0.1906753434333604 0.48318334533709473 0 -0.1897668065197613 0.49999999999999911 0 -0.20565179715382931 0.48036581894121211 0 -0.21304710084790451 0.49242593167335152 0 -0.1897668065197613 0.49999999999999911 0 -0.1906753434333604 0.48318334533709473 0 -0.20565179715382931 0.48036581894121211 0 -0.20565179715382931 0.48036581894121211 0 -0.20997814635502091 0.46336345420696939 0 -0.19200379284371019 0.46767276218702819 0 -0.1906753434333604 0.48318334533709473 0 -0.20565179715382931 0.48036581894121211 0 -0.19200379284371019 0.46767276218702819 0 -0.20565179715382931 0.48036581894121211 0 -0.2243267132015386 0.47133791255236962 0 -0.20997814635502091 0.46336345420696939 0 -0.20565179715382931 0.48036581894121211 0 -0.22053106375346621 0.48387268196176608 0 -0.2243267132015386 0.47133791255236962 0 -0.1897668065197613 0.49999999999999911 0 -0.21304710084790451 0.49242593167335152 0 -0.21951468040077521 0.49887387546118228 0 -0.20565179715382931 0.48036581894121211 0 -0.21304710084790451 0.49242593167335152 0 -0.22053106375346621 0.48387268196176608 0 -0.21951468040077521 0.49887387546118228 0 -0.23088944315724169 0.49320722498138281 0 -0.22440373491999219 0.49117507731151311 0 -0.21951468040077521 0.49887387546118228 0 -0.23088944315724169 0.49320722498138281 0 -0.24654600530248569 0.49744379064560418 0 -0.21304710084790451 0.49242593167335152 0 -0.21951468040077521 0.49887387546118228 0 -0.22440373491999219 0.49117507731151311 0 -0.21951468040077521 0.49887387546118228 0 -0.24654600530248569 0.49744379064560418 0 -0.23088944315724169 0.49320722498138281 0 -0.23309335200571371 0.48533615650723172 0 -0.22440373491999219 0.49117507731151311 0 -0.21304710084790451 0.49242593167335152 0 -0.22440373491999219 0.49117507731151311 0 -0.22053106375346621 0.48387268196176608 0 -0.23309335200571371 0.48533615650723172 0 -0.22440373491999219 0.49117507731151311 0 -0.22053106375346621 0.48387268196176608 0 -0.23309335200571371 0.48533615650723172 0 -0.22053106375346621 0.48387268196176608 0 -0.2243267132015386 0.47133791255236962 0 -0.23309335200571371 0.48533615650723172 0 -0.2243267132015386 0.47133791255236962 0 -0.246670724337647 0.47275866351528117 0 -0.23309335200571371 0.48533615650723172 0 -0.246670724337647 0.47275866351528117 0 -0.24654600530248569 0.49744379064560418 0 -0.23088944315724169 0.49320722498138281 0 -0.23309335200571371 0.48533615650723172 0 -0.24654600530248569 0.49744379064560418 0 -0.246670724337647 0.47275866351528117 0 -0.24654600530248569 0.49744379064560418 0 -0.21951468040077521 0.49887387546118228 0 -0.24654600530248569 0.49744379064560418 0 -0.24653309032081999 0.49999999999999911 0 -0.24654600530248569 0.49744379064560418 0 -0.24653309032081999 0.49999999999999911 0 -0.246670724337647 0.47275866351528117 0 -0.24679544337280659 0.44807353638495823 0 -0.246670724337647 0.47275866351528117 0 -0.24679544337280659 0.44807353638495823 0 -0.22452009993714311 0.4523138631537838 0 -0.2243267132015386 0.47133791255236962 0 -0.246670724337647 0.47275866351528117 0 -0.22452009993714311 0.4523138631537838 0 -0.2243267132015386 0.47133791255236962 0 -0.22452009993714311 0.4523138631537838 0 -0.20997814635502091 0.46336345420696939 0 -0.24679544337280659 0.44807353638495823 0 -0.22452009993714311 0.4523138631537838 0 -0.22812443792859649 0.43261402139574429 0 -0.22452009993714311 0.4523138631537838 0 -0.21367294594307071 0.43836984863833028 0 -0.22812443792859649 0.43261402139574429 0 -0.22452009993714311 0.4523138631537838 0 -0.21367294594307071 0.43836984863833028 0 -0.2012720101033717 0.4472019566518366 0 -0.21367294594307071 0.43836984863833028 0 -0.2012720101033717 0.4472019566518366 0 -0.20237903292288681 0.43042187733055681 0 -0.22452009993714311 0.4523138631537838 0 -0.20997814635502091 0.46336345420696939 0 -0.2012720101033717 0.4472019566518366 0 -0.20997814635502091 0.46336345420696939 0 -0.19200379284371019 0.46767276218702819 0 -0.2012720101033717 0.4472019566518366 0 -0.1816243046057687 0.45200915444430101 0 -0.19200379284371019 0.46767276218702819 0 -0.2012720101033717 0.4472019566518366 0 -0.1816243046057687 0.45200915444430101 0 -0.2012720101033717 0.4472019566518366 0 -0.18551212714848489 0.42813159859157079 0 -0.2012720101033717 0.4472019566518366 0 -0.20237903292288681 0.43042187733055681 0 -0.18551212714848489 0.42813159859157079 0 -0.20237903292288681 0.43042187733055681 0 -0.19923645581584731 0.41629843476461342 0 -0.18551212714848489 0.42813159859157079 0 -0.19923645581584731 0.41629843476461342 0 -0.18856800527572179 0.40614289288162292 0 -0.18551212714848489 0.42813159859157079 0 -0.19923645581584731 0.41629843476461342 0 -0.2115251537266053 0.41528084707405072 0 -0.20905666136550979 0.40055290449144559 0 -0.2115251537266053 0.41528084707405072 0 -0.22403311405643811 0.41842677705434411 0 -0.20905666136550979 0.40055290449144559 0 -0.22403311405643811 0.41842677705434411 0 -0.20905666136550979 0.40055290449144559 0 -0.19923645581584731 0.41629843476461342 0 -0.2115251537266053 0.41528084707405072 0 -0.21377438366862611 0.42584527198579969 0 -0.2115251537266053 0.41528084707405072 0 -0.21377438366862611 0.42584527198579969 0 -0.22403311405643811 0.41842677705434411 0 -0.21367294594307071 0.43836984863833028 0 -0.20237903292288681 0.43042187733055681 0 -0.21377438366862611 0.42584527198579969 0 -0.20237903292288681 0.43042187733055681 0 -0.19923645581584731 0.41629843476461342 0 -0.21377438366862611 0.42584527198579969 0 -0.21367294594307071 0.43836984863833028 0 -0.21377438366862611 0.42584527198579969 0 -0.22812443792859649 0.43261402139574429 0 -0.22812443792859649 0.43261402139574429 0 -0.22403311405643811 0.41842677705434411 0 -0.2347303183772774 0.41986353032304918 0 -0.21377438366862611 0.42584527198579969 0 -0.22812443792859649 0.43261402139574429 0 -0.22403311405643811 0.41842677705434411 0 -0.22403311405643811 0.41842677705434411 0 -0.23237115007445941 0.40945512974263021 0 -0.20905666136550979 0.40055290449144559 0 -0.22403311405643811 0.41842677705434411 0 -0.23237115007445941 0.40945512974263021 0 -0.2347303183772774 0.41986353032304918 0 -0.25568563878340889 0.41835735499381499 0 -0.23237115007445941 0.40945512974263021 0 -0.2347303183772774 0.41986353032304918 0 -0.24707317266057849 0.41195204374791122 0 -0.22788996105301049 0.40507238477624391 0 -0.23237115007445941 0.40945512974263021 0 -0.24707317266057849 0.41195204374791122 0 -0.22788996105301049 0.40507238477624391 0 -0.25568563878340889 0.41835735499381499 0 -0.23237115007445941 0.40945512974263021 0 -0.24707317266057849 0.41195204374791122 0 -0.25568563878340889 0.41835735499381499 0 -0.23237115007445941 0.40945512974263021 0 -0.25568563878340889 0.41835735499381499 0 -0.2347303183772774 0.41986353032304918 0 -0.24089936780305829 0.42670557323026942 0 -0.25147459497330998 0.43245482731428381 0 -0.24679544337280659 0.44807353638495823 0 -0.24089936780305829 0.42670557323026942 0 -0.24679544337280659 0.44807353638495823 0 -0.22812443792859649 0.43261402139574429 0 -0.24089936780305829 0.42670557323026942 0 -0.25147459497330998 0.43245482731428381 0 -0.25568563878340889 0.41835735499381499 0 -0.24089936780305829 0.42670557323026942 0 -0.22812443792859649 0.43261402139574429 0 -0.2347303183772774 0.41986353032304918 0 -0.24089936780305829 0.42670557323026942 0 -0.2345901414124264 0.38400434201240791 0 -0.24316252258666129 0.39115847757936267 0 -0.23449110129558709 0.39268609709586477 0 -0.2345901414124264 0.38400434201240791 0 -0.24466530149434931 0.37769245548415392 0 -0.24316252258666129 0.39115847757936267 0 -0.2345901414124264 0.38400434201240791 0 -0.24466530149434931 0.37769245548415392 0 -0.23248540059263861 0.37451275265472889 0 -0.25433046415127092 0.39084318969012882 0 -0.24466530149434931 0.37769245548415392 0 -0.24316252258666129 0.39115847757936267 0 -0.25433046415127092 0.39084318969012882 0 -0.24316252258666129 0.39115847757936267 0 -0.24944235966793371 0.40195745254293302 0 -0.24707317266057849 0.41195204374791122 0 -0.2353013657267346 0.40116808277035088 0 -0.22788996105301049 0.40507238477624391 0 -0.24316252258666129 0.39115847757936267 0 -0.24944235966793371 0.40195745254293302 0 -0.24145576749840059 0.39976732865068793 0 -0.24707317266057849 0.41195204374791122 0 -0.24944235966793371 0.40195745254293302 0 -0.24145576749840059 0.39976732865068793 0 -0.24707317266057849 0.41195204374791122 0 -0.24145576749840059 0.39976732865068793 0 -0.2353013657267346 0.40116808277035088 0 -0.24145576749840059 0.39976732865068793 0 -0.2353013657267346 0.40116808277035088 0 -0.23449110129558709 0.39268609709586477 0 -0.24316252258666129 0.39115847757936267 0 -0.24145576749840059 0.39976732865068793 0 -0.23449110129558709 0.39268609709586477 0 -0.2353013657267346 0.40116808277035088 0 -0.23449110129558709 0.39268609709586477 0 -0.22840461365561279 0.39708673913604198 0 -0.23237115007445941 0.40945512974263021 0 -0.22788996105301049 0.40507238477624391 0 -0.20905666136550979 0.40055290449144559 0 -0.23237115007445941 0.40945512974263021 0 -0.20905666136550979 0.40055290449144559 0 -0.23449110129558709 0.39268609709586477 0 -0.22840461365561279 0.39708673913604198 0 -0.22708517559421601 0.38973074132887708 0 -0.2353013657267346 0.40116808277035088 0 -0.22840461365561279 0.39708673913604198 0 -0.22788996105301049 0.40507238477624391 0 -0.22840461365561279 0.39708673913604198 0 -0.22788996105301049 0.40507238477624391 0 -0.22457780404934161 0.39879102584587822 0 -0.22788996105301049 0.40507238477624391 0 -0.22457780404934161 0.39879102584587822 0 -0.2192304458077497 0.39791671219940428 0 -0.22278619568099331 0.39508826727182278 0 -0.22056819711030581 0.39112953709101361 0 -0.22708517559421601 0.38973074132887708 0 -0.22840461365561279 0.39708673913604198 0 -0.22278619568099331 0.39508826727182278 0 -0.22708517559421601 0.38973074132887708 0 -0.22840461365561279 0.39708673913604198 0 -0.22457780404934161 0.39879102584587822 0 -0.22278619568099331 0.39508826727182278 0 -0.22278619568099331 0.39508826727182278 0 -0.2192304458077497 0.39791671219940428 0 -0.2185408378808453 0.39403605729903041 0 -0.22457780404934161 0.39879102584587822 0 -0.22278619568099331 0.39508826727182278 0 -0.2192304458077497 0.39791671219940428 0 -0.22278619568099331 0.39508826727182278 0 -0.22056819711030581 0.39112953709101361 0 -0.2185408378808453 0.39403605729903041 0 -0.2219521910117345 0.3861693333947957 0 -0.22708517559421601 0.38973074132887708 0 -0.2282693577600102 0.3812802763548121 0 -0.2219521910117345 0.3861693333947957 0 -0.2178195858124049 0.38583170221560947 0 -0.21829570761162351 0.38874276632497079 0 -0.22056819711030581 0.39112953709101361 0 -0.2219521910117345 0.3861693333947957 0 -0.21829570761162351 0.38874276632497079 0 -0.2219521910117345 0.3861693333947957 0 -0.2207687403676 0.37980614518076761 0 -0.2178195858124049 0.38583170221560947 0 -0.22056819711030581 0.39112953709101361 0 -0.2219521910117345 0.3861693333947957 0 -0.22708517559421601 0.38973074132887708 0 -0.2345901414124264 0.38400434201240791 0 -0.23449110129558709 0.39268609709586477 0 -0.22708517559421601 0.38973074132887708 0 -0.2345901414124264 0.38400434201240791 0 -0.22708517559421601 0.38973074132887708 0 -0.2282693577600102 0.3812802763548121 0 -0.2345901414124264 0.38400434201240791 0 -0.2282693577600102 0.3812802763548121 0 -0.23248540059263861 0.37451275265472889 0 -0.2282693577600102 0.3812802763548121 0 -0.22551114783908541 0.37210376702034509 0 -0.23248540059263861 0.37451275265472889 0 -0.2282693577600102 0.3812802763548121 0 -0.2207687403676 0.37980614518076761 0 -0.22551114783908541 0.37210376702034509 0 -0.2219521910117345 0.3861693333947957 0 -0.2282693577600102 0.3812802763548121 0 -0.2207687403676 0.37980614518076761 0 -0.2207687403676 0.37980614518076761 0 -0.21237265176420861 0.38697288886841802 0 -0.21888536387194121 0.36704012429723831 0 -0.21237265176420861 0.38697288886841802 0 -0.2063798596882159 0.39735823529684322 0 -0.1906560680844378 0.37859243987576019 0 -0.21237265176420861 0.38697288886841802 0 -0.21888536387194121 0.36704012429723831 0 -0.2207687403676 0.37980614518076761 0 -0.2178195858124049 0.38583170221560947 0 -0.21237265176420861 0.38697288886841802 0 -0.22056819711030581 0.39112953709101361 0 -0.21829570761162351 0.38874276632497079 0 -0.21602103518689261 0.39153626726220397 0 -0.2178195858124049 0.38583170221560947 0 -0.21524543586827091 0.38808149881398141 0 -0.21237265176420861 0.38697288886841802 0 -0.2178195858124049 0.38583170221560947 0 -0.21829570761162351 0.38874276632497079 0 -0.21524543586827091 0.38808149881398141 0 -0.21829570761162351 0.38874276632497079 0 -0.21524543586827091 0.38808149881398141 0 -0.21602103518689261 0.39153626726220397 0 -0.21524543586827091 0.38808149881398141 0 -0.21237265176420861 0.38697288886841802 0 -0.21602103518689261 0.39153626726220397 0 -0.21524543586827091 0.38808149881398141 0 -0.21237265176420861 0.38697288886841802 0 -0.22788996105301049 0.40507238477624391 0 -0.2087067494454424 0.39819272580457721 0 -0.20905666136550979 0.40055290449144559 0 -0.22788996105301049 0.40507238477624391 0 -0.2192304458077497 0.39791671219940428 0 -0.2087067494454424 0.39819272580457721 0 -0.22788996105301049 0.40507238477624391 0 -0.2087067494454424 0.39819272580457721 0 -0.21237265176420861 0.38697288886841802 0 -0.21409831561828521 0.39450950267070722 0 -0.2087067494454424 0.39819272580457721 0 -0.2192304458077497 0.39791671219940428 0 -0.21409831561828521 0.39450950267070722 0 -0.2087067494454424 0.39819272580457721 0 -0.2192304458077497 0.39791671219940428 0 -0.2185408378808453 0.39403605729903041 0 -0.21409831561828521 0.39450950267070722 0 -0.2185408378808453 0.39403605729903041 0 -0.21602103518689261 0.39153626726220397 0 -0.21409831561828521 0.39450950267070722 0 -0.22056819711030581 0.39112953709101361 0 -0.2185408378808453 0.39403605729903041 0 -0.21602103518689261 0.39153626726220397 0 -0.21237265176420861 0.38697288886841802 0 -0.21602103518689261 0.39153626726220397 0 -0.21409831561828521 0.39450950267070722 0 -0.21237265176420861 0.38697288886841802 0 -0.2087067494454424 0.39819272580457721 0 -0.21237265176420861 0.38697288886841802 0 -0.2063798596882159 0.39735823529684322 0 -0.2087067494454424 0.39819272580457721 0 -0.2063798596882159 0.39735823529684322 0 -0.2087067494454424 0.39819272580457721 0 -0.20905666136550979 0.40055290449144559 0 -0.20091663371703999 0.39744477887127122 0 -0.2063798596882159 0.39735823529684322 0 -0.20905666136550979 0.40055290449144559 0 -0.20091663371703999 0.39744477887127122 0 -0.2063798596882159 0.39735823529684322 0 -0.20905666136550979 0.40055290449144559 0 -0.2063798596882159 0.39735823529684322 0 -0.2087067494454424 0.39819272580457721 0 -0.20905666136550979 0.40055290449144559 0 -0.19923645581584731 0.41629843476461342 0 -0.20905666136550979 0.40055290449144559 0 -0.20091663371703999 0.39744477887127122 0 -0.19923645581584731 0.41629843476461342 0 -0.20091663371703999 0.39744477887127122 0 -0.19432601840784211 0.39303537638228803 0 -0.19923645581584731 0.41629843476461342 0 -0.18856800527572179 0.40614289288162292 0 -0.19432601840784211 0.39303537638228803 0 -0.19923645581584731 0.41629843476461342 0 -0.19432601840784211 0.39303537638228803 0 -0.2063798596882159 0.39735823529684322 0 -0.19432601840784211 0.39303537638228803 0 -0.2063798596882159 0.39735823529684322 0 -0.20091663371703999 0.39744477887127122 0 -0.19432601840784211 0.39303537638228803 0 -0.2063798596882159 0.39735823529684322 0 -0.1906560680844378 0.37859243987576019 0 -0.21237265176420861 0.38697288886841802 0 -0.1906560680844378 0.37859243987576019 0 -0.21237265176420861 0.38697288886841802 0 -0.1906560680844378 0.37859243987576019 0 -0.20296133096728899 0.36712553801451342 0 -0.2063798596882159 0.39735823529684322 0 -0.19432601840784211 0.39303537638228803 0 -0.1906560680844378 0.37859243987576019 0 -0.19432601840784211 0.39303537638228803 0 -0.1906560680844378 0.37859243987576019 0 -0.1906560680844378 0.37859243987576019 0 -0.17348233705183749 0.37196508176756699 0 -0.19432601840784211 0.39303537638228803 0 -0.17226211490274859 0.38512261730919489 0 -0.19432601840784211 0.39303537638228803 0 -0.1906560680844378 0.37859243987576019 0 -0.17226211490274859 0.38512261730919489 0 -0.1906560680844378 0.37859243987576019 0 -0.17226211490274859 0.38512261730919489 0 -0.17348233705183749 0.37196508176756699 0 -0.17226211490274859 0.38512261730919489 0 -0.1501982113976543 0.37720985823610381 0 -0.17226211490274859 0.38512261730919489 0 -0.1501982113976543 0.37720985823610381 0 -0.16306281734286929 0.37490882024305999 0 -0.17226211490274859 0.38512261730919489 0 -0.16306281734286929 0.37490882024305999 0 -0.17348233705183749 0.37196508176756699 0 -0.17226211490274859 0.38512261730919489 0 -0.157354276250051 0.39925258897276189 0 -0.1501982113976543 0.37720985823610381 0 -0.17226211490274859 0.38512261730919489 0 -0.157354276250051 0.39925258897276189 0 -0.17486956054207181 0.4079763266621772 0 -0.18856800527572179 0.40614289288162292 0 -0.19432601840784211 0.39303537638228803 0 -0.17226211490274859 0.38512261730919489 0 -0.18856800527572179 0.40614289288162292 0 -0.17226211490274859 0.38512261730919489 0 -0.17486956054207181 0.4079763266621772 0 -0.18856800527572179 0.40614289288162292 0 -0.17486956054207181 0.4079763266621772 0 -0.18551212714848489 0.42813159859157079 0 -0.17486956054207181 0.4079763266621772 0 -0.18551212714848489 0.42813159859157079 0 -0.16428450524248381 0.42014577912047929 0 -0.1680351797122919 0.43766662601992917 0 -0.18551212714848489 0.42813159859157079 0 -0.16428450524248381 0.42014577912047929 0 -0.1680351797122919 0.43766662601992917 0 -0.16428450524248381 0.42014577912047929 0 -0.15184215151169869 0.43110603188125662 0 -0.157354276250051 0.39925258897276189 0 -0.16428450524248381 0.42014577912047929 0 -0.14809373629030489 0.41674150259518011 0 -0.157354276250051 0.39925258897276189 0 -0.17486956054207181 0.4079763266621772 0 -0.16428450524248381 0.42014577912047929 0 -0.14809373629030489 0.41674150259518011 0 -0.13708124880948441 0.4206565168744838 0 -0.13808431337144161 0.40074644409064392 0 -0.16428450524248381 0.42014577912047929 0 -0.14809373629030489 0.41674150259518011 0 -0.15184215151169869 0.43110603188125662 0 -0.14809373629030489 0.41674150259518011 0 -0.13624442315839061 0.43231421562475381 0 -0.14809373629030489 0.41674150259518011 0 -0.15184215151169869 0.43110603188125662 0 -0.13624442315839061 0.43231421562475381 0 -0.15184215151169869 0.43110603188125662 0 -0.14163389064521431 0.43652715909217438 0 -0.13624442315839061 0.43231421562475381 0 -0.13624442315839061 0.43231421562475381 0 -0.1244297334730869 0.4272764835040414 0 -0.11523573852528859 0.43769027782701359 0 -0.14163389064521431 0.43652715909217438 0 -0.13624442315839061 0.43231421562475381 0 -0.13624442315839061 0.43231421562475381 0 -0.1259704153452291 0.42428302994518391 0 -0.13708124880948441 0.4206565168744838 0 -0.14809373629030489 0.41674150259518011 0 -0.13624442315839061 0.43231421562475381 0 -0.13708124880948441 0.4206565168744838 0 -0.13624442315839061 0.43231421562475381 0 -0.1259704153452291 0.42428302994518391 0 -0.1244297334730869 0.4272764835040414 0 -0.13624442315839061 0.43231421562475381 0 -0.1259704153452291 0.42428302994518391 0 -0.1259704153452291 0.42428302994518391 0 -0.1244297334730869 0.4272764835040414 0 -0.1259704153452291 0.42428302994518391 0 -0.13708124880948441 0.4206565168744838 0 -0.13808431337144161 0.40074644409064392 0 -0.1259704153452291 0.42428302994518391 0 -0.13808431337144161 0.40074644409064392 0 -0.1259704153452291 0.42428302994518391 0 -0.13808431337144161 0.40074644409064392 0 -0.12383595548414859 0.40779885420034301 0 -0.13808431337144161 0.40074644409064392 0 -0.1214923807050364 0.39452588651853709 0 -0.12383595548414859 0.40779885420034301 0 -0.13808431337144161 0.40074644409064392 0 -0.13303612468219811 0.38530026937690071 0 -0.1214923807050364 0.39452588651853709 0 -0.13303612468219811 0.38530026937690071 0 -0.1328083900415602 0.3711206349635861 0 -0.11735694522763999 0.37843776867175322 0 -0.13808431337144161 0.40074644409064392 0 -0.13303612468219811 0.38530026937690071 0 -0.1501982113976543 0.37720985823610381 0 -0.14056156457940239 0.37735200309640637 0 -0.13303612468219811 0.38530026937690071 0 -0.1328083900415602 0.3711206349635861 0 -0.13808431337144161 0.40074644409064392 0 -0.1501982113976543 0.37720985823610381 0 -0.14056156457940239 0.37735200309640637 0 -0.13303612468219811 0.38530026937690071 0 -0.1501982113976543 0.37720985823610381 0 -0.14056156457940239 0.37735200309640637 0 -0.14620353219619711 0.37577724980903482 0 -0.1501982113976543 0.37720985823610381 0 -0.14620353219619711 0.37577724980903482 0 -0.1501982113976543 0.37720985823610381 0 -0.157354276250051 0.39925258897276189 0 -0.14809373629030489 0.41674150259518011 0 -0.13808431337144161 0.40074644409064392 0 -0.157354276250051 0.39925258897276189 0 -0.13808431337144161 0.40074644409064392 0 -0.1501982113976543 0.37720985823610381 0 -0.14978526732883579 0.34959734326449438 0 -0.1349775419262422 0.35710604701876991 0 -0.15630860601923699 0.36533772365937439 0 -0.14620353219619711 0.37577724980903482 0 -0.1349775419262422 0.35710604701876991 0 -0.15630860601923699 0.36533772365937439 0 -0.1349775419262422 0.35710604701876991 0 -0.15630860601923699 0.36533772365937439 0 -0.1501982113976543 0.37720985823610381 0 -0.15630860601923699 0.36533772365937439 0 -0.14620353219619711 0.37577724980903482 0 -0.1501982113976543 0.37720985823610381 0 -0.15630860601923699 0.36533772365937439 0 -0.14620353219619711 0.37577724980903482 0 -0.1328083900415602 0.3711206349635861 0 -0.1349775419262422 0.35710604701876991 0 -0.14056156457940239 0.37735200309640637 0 -0.14620353219619711 0.37577724980903482 0 -0.1328083900415602 0.3711206349635861 0 -0.1328083900415602 0.3711206349635861 0 -0.1349775419262422 0.35710604701876991 0 -0.1214095853587191 0.36413711033090462 0 -0.14978526732883579 0.34959734326449438 0 -0.1349775419262422 0.35710604701876991 0 -0.13628078380655459 0.34312545983138559 0 -0.1349775419262422 0.35710604701876991 0 -0.13628078380655459 0.34312545983138559 0 -0.12273676033142369 0.34296785535702928 0 -0.12809363909794799 0.33351291963834501 0 -0.13628078380655459 0.34312545983138559 0 -0.12273676033142369 0.34296785535702928 0 -0.12809363909794799 0.33351291963834501 0 -0.1389914366274892 0.33097900649586393 0 -0.1311274610351692 0.32031545001377659 0 -0.12809363909794799 0.33351291963834501 0 -0.1389914366274892 0.33097900649586393 0 -0.13628078380655459 0.34312545983138559 0 -0.1311274610351692 0.32031545001377659 0 -0.12891667901855169 0.30648747599881693 0 -0.1204582426008957 0.31405081811486402 0 -0.12809363909794799 0.33351291963834501 0 -0.1311274610351692 0.32031545001377659 0 -0.119321205064779 0.32709915625813007 0 -0.1389914366274892 0.33097900649586393 0 -0.1311274610351692 0.32031545001377659 0 -0.14476099821437191 0.3200822413325336 0 -0.1311274610351692 0.32031545001377659 0 -0.14476099821437191 0.3200822413325336 0 -0.1401500050077788 0.30901778163218041 0 -0.14476099821437191 0.3200822413325336 0 -0.15361481563473189 0.30850199542457951 0 -0.1401500050077788 0.30901778163218041 0 -0.1389914366274892 0.33097900649586393 0 -0.14476099821437191 0.3200822413325336 0 -0.15117971624128479 0.33022115591659212 0 -0.14476099821437191 0.3200822413325336 0 -0.15117971624128479 0.33022115591659212 0 -0.15872144613206521 0.32100303066185082 0 -0.14476099821437191 0.3200822413325336 0 -0.15872144613206521 0.32100303066185082 0 -0.15361481563473189 0.30850199542457951 0 -0.14978526732883579 0.34959734326449438 0 -0.13628078380655459 0.34312545983138559 0 -0.1466739458882057 0.33850124590923591 0 -0.1389914366274892 0.33097900649586393 0 -0.13628078380655459 0.34312545983138559 0 -0.1466739458882057 0.33850124590923591 0 -0.1389914366274892 0.33097900649586393 0 -0.1466739458882057 0.33850124590923591 0 -0.15117971624128479 0.33022115591659212 0 -0.1466739458882057 0.33850124590923591 0 -0.15117971624128479 0.33022115591659212 0 -0.15713252543686421 0.33858326403784328 0 -0.14978526732883579 0.34959734326449438 0 -0.1466739458882057 0.33850124590923591 0 -0.15713252543686421 0.33858326403784328 0 -0.1756532646059186 0.32775219861475202 0 -0.16515241666408059 0.34815472376344159 0 -0.15713252543686421 0.33858326403784328 0 -0.16338202318819561 0.33142855965568419 0 -0.16515241666408059 0.34815472376344159 0 -0.16338202318819561 0.33142855965568419 0 -0.1756532646059186 0.32775219861475202 0 -0.16515241666408059 0.34815472376344159 0 -0.15713252543686421 0.33858326403784328 0 -0.16515241666408059 0.34815472376344159 0 -0.15117971624128479 0.33022115591659212 0 -0.15713252543686421 0.33858326403784328 0 -0.16338202318819561 0.33142855965568419 0 -0.15872144613206521 0.32100303066185082 0 -0.17205595754548131 0.31299715274576978 0 -0.15361481563473189 0.30850199542457951 0 -0.16338202318819561 0.33142855965568419 0 -0.15872144613206521 0.32100303066185082 0 -0.16769138205074649 0.32340354316006492 0 -0.15117971624128479 0.33022115591659212 0 -0.16338202318819561 0.33142855965568419 0 -0.15872144613206521 0.32100303066185082 0 -0.16769138205074649 0.32340354316006492 0 -0.17205595754548131 0.31299715274576978 0 -0.1756532646059186 0.32775219861475202 0 -0.16338202318819561 0.33142855965568419 0 -0.16769138205074649 0.32340354316006492 0 -0.1756532646059186 0.32775219861475202 0 -0.15872144613206521 0.32100303066185082 0 -0.16769138205074649 0.32340354316006492 0 -0.17205595754548131 0.31299715274576978 0 -0.1756532646059186 0.32775219861475202 0 -0.1861541125477541 0.30734967346606129 0 -0.17205595754548131 0.31299715274576978 0 -0.1756532646059186 0.32775219861475202 0 -0.1861541125477541 0.30734967346606129 0 -0.1795184795037772 0.32288507949383077 0 -0.19267192342744621 0.3246913687960562 0 -0.1861541125477541 0.30734967346606129 0 -0.1756532646059186 0.32775219861475202 0 -0.1795184795037772 0.32288507949383077 0 -0.1861541125477541 0.30734967346606129 0 -0.1756532646059186 0.32775219861475202 0 -0.17765590813861171 0.33637264943429862 0 -0.16515241666408059 0.34815472376344159 0 -0.1795184795037772 0.32288507949383077 0 -0.1837250852246288 0.34281375515845952 0 -0.1795184795037772 0.32288507949383077 0 -0.1837250852246288 0.34281375515845952 0 -0.19267192342744621 0.3246913687960562 0 -0.1795184795037772 0.32288507949383077 0 -0.17765590813861171 0.33637264943429862 0 -0.1837250852246288 0.34281375515845952 0 -0.17765590813861171 0.33637264943429862 0 -0.1837250852246288 0.34281375515845952 0 -0.17629210283785621 0.34511629255737508 0 -0.17765590813861171 0.33637264943429862 0 -0.17629210283785621 0.34511629255737508 0 -0.16515241666408059 0.34815472376344159 0 -0.1756532646059186 0.32775219861475202 0 -0.1795184795037772 0.32288507949383077 0 -0.17765590813861171 0.33637264943429862 0 -0.1837250852246288 0.34281375515845952 0 -0.1786350013241037 0.35312404187330038 0 -0.1837250852246288 0.34281375515845952 0 -0.1786350013241037 0.35312404187330038 0 -0.18752877055023451 0.36083360684280869 0 -0.1837250852246288 0.34281375515845952 0 -0.18752877055023451 0.36083360684280869 0 -0.1786350013241037 0.35312404187330038 0 -0.1779042423742585 0.3633735818196015 0 -0.18752877055023451 0.36083360684280869 0 -0.1786350013241037 0.35312404187330038 0 -0.16515241666408059 0.34815472376344159 0 -0.1779042423742585 0.3633735818196015 0 -0.1786350013241037 0.35312404187330038 0 -0.17629210283785621 0.34511629255737508 0 -0.16515241666408059 0.34815472376344159 0 -0.1837250852246288 0.34281375515845952 0 -0.1786350013241037 0.35312404187330038 0 -0.17629210283785621 0.34511629255737508 0 -0.16515241666408059 0.34815472376344159 0 -0.15630860601923699 0.36533772365937439 0 -0.16700090767254661 0.36319550409851198 0 -0.16515241666408059 0.34815472376344159 0 -0.15630860601923699 0.36533772365937439 0 -0.14978526732883579 0.34959734326449438 0 -0.16515241666408059 0.34815472376344159 0 -0.15630860601923699 0.36533772365937439 0 -0.16515241666408059 0.34815472376344159 0 -0.16700090767254661 0.36319550409851198 0 -0.1779042423742585 0.3633735818196015 0 -0.16515241666408059 0.34815472376344159 0 -0.1779042423742585 0.3633735818196015 0 -0.14978526732883579 0.34959734326449438 0 -0.15713252543686421 0.33858326403784328 0 -0.16515241666408059 0.34815472376344159 0 -0.15630860601923699 0.36533772365937439 0 -0.17348233705183749 0.37196508176756699 0 -0.16306281734286929 0.37490882024305999 0 -0.15630860601923699 0.36533772365937439 0 -0.17348233705183749 0.37196508176756699 0 -0.15630860601923699 0.36533772365937439 0 -0.16700090767254661 0.36319550409851198 0 -0.17348233705183749 0.37196508176756699 0 -0.1501982113976543 0.37720985823610381 0 -0.16306281734286929 0.37490882024305999 0 -0.15630860601923699 0.36533772365937439 0 -0.1906560680844378 0.37859243987576019 0 -0.1779042423742585 0.3633735818196015 0 -0.18752877055023451 0.36083360684280869 0 -0.1906560680844378 0.37859243987576019 0 -0.17348233705183749 0.37196508176756699 0 -0.1779042423742585 0.3633735818196015 0 -0.16700090767254661 0.36319550409851198 0 -0.17348233705183749 0.37196508176756699 0 -0.1779042423742585 0.3633735818196015 0 -0.1906560680844378 0.37859243987576019 0 -0.1779042423742585 0.3633735818196015 0 -0.20296133096728899 0.36712553801451342 0 -0.18752877055023451 0.36083360684280869 0 -0.2062881596575144 0.3508195708282052 0 -0.1906560680844378 0.37859243987576019 0 -0.18752877055023451 0.36083360684280869 0 -0.1906560680844378 0.37859243987576019 0 -0.20296133096728899 0.36712553801451342 0 -0.18752877055023451 0.36083360684280869 0 -0.1837250852246288 0.34281375515845952 0 -0.18752877055023451 0.36083360684280869 0 -0.19563233307298411 0.34343039824836258 0 -0.18752877055023451 0.36083360684280869 0 -0.2062881596575144 0.3508195708282052 0 -0.19563233307298411 0.34343039824836258 0 -0.2062881596575144 0.3508195708282052 0 -0.20366971947123841 0.33802879575539141 0 -0.19563233307298411 0.34343039824836258 0 -0.2062881596575144 0.3508195708282052 0 -0.21888536387194121 0.36704012429723831 0 -0.22539807597967329 0.34710735972605838 0 -0.2062881596575144 0.3508195708282052 0 -0.22539807597967329 0.34710735972605838 0 -0.21328730110874281 0.33554282483529962 0 -0.20296133096728899 0.36712553801451342 0 -0.2062881596575144 0.3508195708282052 0 -0.21888536387194121 0.36704012429723831 0 -0.21237265176420861 0.38697288886841802 0 -0.20296133096728899 0.36712553801451342 0 -0.21888536387194121 0.36704012429723831 0 -0.22551114783908541 0.37210376702034509 0 -0.22873070844617741 0.3638061590518859 0 -0.21888536387194121 0.36704012429723831 0 -0.2207687403676 0.37980614518076761 0 -0.22551114783908541 0.37210376702034509 0 -0.21888536387194121 0.36704012429723831 0 -0.23248540059263861 0.37451275265472889 0 -0.22873070844617741 0.3638061590518859 0 -0.23920765390189611 0.36635541769700181 0 -0.22551114783908541 0.37210376702034509 0 -0.23248540059263861 0.37451275265472889 0 -0.22873070844617741 0.3638061590518859 0 -0.22873070844617741 0.3638061590518859 0 -0.21888536387194121 0.36704012429723831 0 -0.22539807597967329 0.34710735972605838 0 -0.22873070844617741 0.3638061590518859 0 -0.22539807597967329 0.34710735972605838 0 -0.22873070844617741 0.3638061590518859 0 -0.22539807597967329 0.34710735972605838 0 -0.24046711451865549 0.35278193549151199 0 -0.21888536387194121 0.36704012429723831 0 -0.22539807597967329 0.34710735972605838 0 -0.25175548383290353 0.36493711302424092 0 -0.25756233860237832 0.35358112341311237 0 -0.24046711451865549 0.35278193549151199 0 -0.22539807597967329 0.34710735972605838 0 -0.24046711451865549 0.35278193549151199 0 -0.24128221962405619 0.33704368478509672 0 -0.25175548383290353 0.36493711302424092 0 -0.24046711451865549 0.35278193549151199 0 -0.23920765390189611 0.36635541769700181 0 -0.25175548383290353 0.36493711302424092 0 -0.24466530149434931 0.37769245548415392 0 -0.23920765390189611 0.36635541769700181 0 -0.24466530149434931 0.37769245548415392 0 -0.23248540059263861 0.37451275265472889 0 -0.23920765390189611 0.36635541769700181 0 -0.22873070844617741 0.3638061590518859 0 -0.24046711451865549 0.35278193549151199 0 -0.23920765390189611 0.36635541769700181 0 -0.250954521962239 0.32574295231807221 0 -0.23445193408220971 0.31939718015210722 0 -0.2450172565205653 0.31304908197236531 0 -0.250954521962239 0.32574295231807221 0 -0.23445193408220971 0.31939718015210722 0 -0.24128221962405619 0.33704368478509672 0 -0.23445193408220971 0.31939718015210722 0 -0.2450172565205653 0.31304908197236531 0 -0.23426354388472009 0.30610448474236313 0 -0.25513945157750401 0.34018899623773352 0 -0.250954521962239 0.32574295231807221 0 -0.24128221962405619 0.33704368478509672 0 -0.25513945157750401 0.34018899623773352 0 -0.24046711451865549 0.35278193549151199 0 -0.24128221962405619 0.33704368478509672 0 -0.22539807597967329 0.34710735972605838 0 -0.23445193408220971 0.31939718015210722 0 -0.24128221962405619 0.33704368478509672 0 -0.22539807597967329 0.34710735972605838 0 -0.23445193408220971 0.31939718015210722 0 -0.21967737333318629 0.31844267303871998 0 -0.22539807597967329 0.34710735972605838 0 -0.21967737333318629 0.31844267303871998 0 -0.21328730110874281 0.33554282483529962 0 -0.22539807597967329 0.34710735972605838 0 -0.23445193408220971 0.31939718015210722 0 -0.22539807597967329 0.34710735972605838 0 -0.21967737333318629 0.31844267303871998 0 -0.23445193408220971 0.31939718015210722 0 -0.21967737333318629 0.31844267303871998 0 -0.23426354388472009 0.30610448474236313 0 -0.21967737333318629 0.31844267303871998 0 -0.21328730110874281 0.33554282483529962 0 -0.20700548626929499 0.32899501649554369 0 -0.21967737333318629 0.31844267303871998 0 -0.20599146831942061 0.32096787610370248 0 -0.20161876163026379 0.30656898243365288 0 -0.20599146831942061 0.32096787610370248 0 -0.20700548626929499 0.32899501649554369 0 -0.19711788254601609 0.33118860406031919 0 -0.21967737333318629 0.31844267303871998 0 -0.20599146831942061 0.32096787610370248 0 -0.20700548626929499 0.32899501649554369 0 -0.21328730110874281 0.33554282483529962 0 -0.20700548626929499 0.32899501649554369 0 -0.20366971947123841 0.33802879575539141 0 -0.2062881596575144 0.3508195708282052 0 -0.21328730110874281 0.33554282483529962 0 -0.20366971947123841 0.33802879575539141 0 -0.1837250852246288 0.34281375515845952 0 -0.19267192342744621 0.3246913687960562 0 -0.1837250852246288 0.34281375515845952 0 -0.19711788254601609 0.33118860406031919 0 -0.19267192342744621 0.3246913687960562 0 -0.20366971947123841 0.33802879575539141 0 -0.19563233307298411 0.34343039824836258 0 -0.19711788254601609 0.33118860406031919 0 -0.20700548626929499 0.32899501649554369 0 -0.20366971947123841 0.33802879575539141 0 -0.19711788254601609 0.33118860406031919 0 -0.1837250852246288 0.34281375515845952 0 -0.19563233307298411 0.34343039824836258 0 -0.19711788254601609 0.33118860406031919 0 -0.19711788254601609 0.33118860406031919 0 -0.20161876163026379 0.30656898243365288 0 -0.19267192342744621 0.3246913687960562 0 -0.20161876163026379 0.30656898243365288 0 -0.1861541125477541 0.30734967346606129 0 -0.19711788254601609 0.33118860406031919 0 -0.19267192342744621 0.3246913687960562 0 -0.20161876163026379 0.30656898243365288 0 -0.20599146831942061 0.32096787610370248 0 -0.19711788254601609 0.33118860406031919 0 -0.20161876163026379 0.30656898243365288 0 -0.19267192342744621 0.3246913687960562 0 -0.20161876163026379 0.30656898243365288 0 -0.20161876163026379 0.30656898243365288 0 -0.19052112724495099 0.29593520262569839 0 -0.1861541125477541 0.30734967346606129 0 -0.2050429829953973 0.28783863380673269 0 -0.17974139769670211 0.2823337635967742 0 -0.20161876163026379 0.30656898243365288 0 -0.19052112724495099 0.29593520262569839 0 -0.2050429829953973 0.28783863380673269 0 -0.19052112724495099 0.29593520262569839 0 -0.2050429829953973 0.28783863380673269 0 -0.17974139769670211 0.2823337635967742 0 -0.2050429829953973 0.28783863380673269 0 -0.19471490787330631 0.27551960978177081 0 -0.17974139769670211 0.2823337635967742 0 -0.20161876163026379 0.30656898243365288 0 -0.21030097249418189 0.28898261547485471 0 -0.21395667068669921 0.28977798635138169 0 -0.20161876163026379 0.30656898243365288 0 -0.2050429829953973 0.28783863380673269 0 -0.21030097249418189 0.28898261547485471 0 -0.2050429829953973 0.28783863380673269 0 -0.2127912471989126 0.28393840663542042 0 -0.21151285398591921 0.27753277026902068 0 -0.2050429829953973 0.28783863380673269 0 -0.21030097249418189 0.28898261547485471 0 -0.2050429829953973 0.28783863380673269 0 -0.21030097249418189 0.28898261547485471 0 -0.2127912471989126 0.28393840663542042 0 -0.21030097249418189 0.28898261547485471 0 -0.21395667068669921 0.28977798635138169 0 -0.21395667068669921 0.28977798635138169 0 -0.2127912471989126 0.28393840663542042 0 -0.22379356235478909 0.28265649102431561 0 -0.21395667068669921 0.28977798635138169 0 -0.2127912471989126 0.28393840663542042 0 -0.21030097249418189 0.28898261547485471 0 -0.21395667068669921 0.28977798635138169 0 -0.2127912471989126 0.28393840663542042 0 -0.21030097249418189 0.28898261547485471 0 -0.2127912471989126 0.28393840663542042 0 -0.21967737333318629 0.31844267303871998 0 -0.20161876163026379 0.30656898243365288 0 -0.21395667068669921 0.28977798635138169 0 -0.21967737333318629 0.31844267303871998 0 -0.21395667068669921 0.28977798635138169 0 -0.20161876163026379 0.30656898243365288 0 -0.2050429829953973 0.28783863380673269 0 -0.20161876163026379 0.30656898243365288 0 -0.21030097249418189 0.28898261547485471 0 -0.21967737333318629 0.31844267303871998 0 -0.21395667068669921 0.28977798635138169 0 -0.23426354388472009 0.30610448474236313 0 -0.23426354388472009 0.30610448474236313 0 -0.23045528601025439 0.29336759288899789 0 -0.23761593192509539 0.29558465232271353 0 -0.21395667068669921 0.28977798635138169 0 -0.23045528601025439 0.29336759288899789 0 -0.22379356235478909 0.28265649102431561 0 -0.23045528601025439 0.29336759288899789 0 -0.24006211596432489 0.28356882637725001 0 -0.21395667068669921 0.28977798635138169 0 -0.23426354388472009 0.30610448474236313 0 -0.23045528601025439 0.29336759288899789 0 -0.21395667068669921 0.28977798635138169 0 -0.22379356235478909 0.28265649102431561 0 -0.23045528601025439 0.29336759288899789 0 -0.23761593192509539 0.29558465232271353 0 -0.24006211596432489 0.28356882637725001 0 -0.2456827818410823 0.29929770528224292 0 -0.25404126920174203 0.30074513647233991 0 -0.24006211596432489 0.28356882637725001 0 -0.2456827818410823 0.29929770528224292 0 -0.23045528601025439 0.29336759288899789 0 -0.23761593192509539 0.29558465232271353 0 -0.24006211596432489 0.28356882637725001 0 -0.25404126920174203 0.30074513647233991 0 -0.24006211596432489 0.28356882637725001 0 -0.2450172565205653 0.31304908197236531 0 -0.23426354388472009 0.30610448474236313 0 -0.2456827818410823 0.29929770528224292 0 -0.23426354388472009 0.30610448474236313 0 -0.23761593192509539 0.29558465232271353 0 -0.2456827818410823 0.29929770528224292 0 -0.24625042068741179 0.26426508064286031 0 -0.23212132455722281 0.24138710778654551 0 -0.24646631454805509 0.24550208357914341 0 -0.24625042068741179 0.26426508064286031 0 -0.23212132455722281 0.24138710778654551 0 -0.24625042068741179 0.26426508064286031 0 -0.2250928350229453 0.25292163524428368 0 -0.23212132455722281 0.24138710778654551 0 -0.26037951681760069 0.28714305349917479 0 -0.24006211596432489 0.28356882637725001 0 -0.24625042068741179 0.26426508064286031 0 -0.24006211596432489 0.28356882637725001 0 -0.24625042068741179 0.26426508064286031 0 -0.2260829627269077 0.2663925162821601 0 -0.24006211596432489 0.28356882637725001 0 -0.2260829627269077 0.2663925162821601 0 -0.22379356235478909 0.28265649102431561 0 -0.24006211596432489 0.28356882637725001 0 -0.22727485292936031 0.27591359196757609 0 -0.24006211596432489 0.28356882637725001 0 -0.22727485292936031 0.27591359196757609 0 -0.2260829627269077 0.2663925162821601 0 -0.22379356235478909 0.28265649102431561 0 -0.22727485292936031 0.27591359196757609 0 -0.21916077067141951 0.27103653418657903 0 -0.22727485292936031 0.27591359196757609 0 -0.2260829627269077 0.2663925162821601 0 -0.21916077067141951 0.27103653418657903 0 -0.2260829627269077 0.2663925162821601 0 -0.21916077067141951 0.27103653418657903 0 -0.219522907968977 0.26579258796510441 0 -0.24625042068741179 0.26426508064286031 0 -0.2260829627269077 0.2663925162821601 0 -0.2250928350229453 0.25292163524428368 0 -0.2260829627269077 0.2663925162821601 0 -0.2121038094894917 0.24921620618706919 0 -0.2260829627269077 0.2663925162821601 0 -0.219522907968977 0.26579258796510441 0 -0.21664125500520931 0.25980005857922228 0 -0.2260829627269077 0.2663925162821601 0 -0.2250928350229453 0.25292163524428368 0 -0.2121038094894917 0.24921620618706919 0 -0.208573396242446 0.26852741999690127 0 -0.2121038094894917 0.24921620618706919 0 -0.2260829627269077 0.2663925162821601 0 -0.21664125500520931 0.25980005857922228 0 -0.2121038094894917 0.24921620618706919 0 -0.208573396242446 0.26852741999690127 0 -0.19847446918091749 0.25736130383407751 0 -0.2121038094894917 0.24921620618706919 0 -0.21664125500520931 0.25980005857922228 0 -0.208573396242446 0.26852741999690127 0 -0.2121038094894917 0.24921620618706919 0 -0.21664125500520931 0.25980005857922228 0 -0.21620664347237159 0.26594124281245601 0 -0.208573396242446 0.26852741999690127 0 -0.219522907968977 0.26579258796510441 0 -0.21664125500520931 0.25980005857922228 0 -0.21620664347237159 0.26594124281245601 0 -0.2050429829953973 0.28783863380673269 0 -0.208573396242446 0.26852741999690127 0 -0.2050429829953973 0.28783863380673269 0 -0.21151285398591921 0.27753277026902068 0 -0.208573396242446 0.26852741999690127 0 -0.2127912471989126 0.28393840663542042 0 -0.21916077067141951 0.27103653418657903 0 -0.2127912471989126 0.28393840663542042 0 -0.22379356235478909 0.28265649102431561 0 -0.21916077067141951 0.27103653418657903 0 -0.2127912471989126 0.28393840663542042 0 -0.21916077067141951 0.27103653418657903 0 -0.21151285398591921 0.27753277026902068 0 -0.2127912471989126 0.28393840663542042 0 -0.21151285398591921 0.27753277026902068 0 -0.21916077067141951 0.27103653418657903 0 -0.21620664347237159 0.26594124281245601 0 -0.208573396242446 0.26852741999690127 0 -0.21916077067141951 0.27103653418657903 0 -0.21151285398591921 0.27753277026902068 0 -0.208573396242446 0.26852741999690127 0 -0.21916077067141951 0.27103653418657903 0 -0.219522907968977 0.26579258796510441 0 -0.21620664347237159 0.26594124281245601 0 -0.2050429829953973 0.28783863380673269 0 -0.208573396242446 0.26852741999690127 0 -0.19471490787330631 0.27551960978177081 0 -0.208573396242446 0.26852741999690127 0 -0.1987120725033808 0.26690177500242152 0 -0.19471490787330631 0.27551960978177081 0 -0.1987120725033808 0.26690177500242152 0 -0.19471490787330631 0.27551960978177081 0 -0.1869683068365415 0.26626206407440378 0 -0.19847446918091749 0.25736130383407751 0 -0.18464767838559679 0.25049223878500199 0 -0.1869683068365415 0.26626206407440378 0 -0.19847446918091749 0.25736130383407751 0 -0.19648852076111289 0.24343219406896049 0 -0.2121038094894917 0.24921620618706919 0 -0.208573396242446 0.26852741999690127 0 -0.1987120725033808 0.26690177500242152 0 -0.19847446918091749 0.25736130383407751 0 -0.1987120725033808 0.26690177500242152 0 -0.19847446918091749 0.25736130383407751 0 -0.1869683068365415 0.26626206407440378 0 -0.19847446918091749 0.25736130383407751 0 -0.18464767838559679 0.25049223878500199 0 -0.19648852076111289 0.24343219406896049 0 -0.18464767838559679 0.25049223878500199 0 -0.17024674266260831 0.26408138757583061 0 -0.1869683068365415 0.26626206407440378 0 -0.18464767838559679 0.25049223878500199 0 -0.17024674266260831 0.26408138757583061 0 -0.16958305356179451 0.2481989936065177 0 -0.17024674266260831 0.26408138757583061 0 -0.1539614220325887 0.2535618054154064 0 -0.15443981239800689 0.27682889338681571 0 -0.17024674266260831 0.26408138757583061 0 -0.1539614220325887 0.2535618054154064 0 -0.16958305356179451 0.2481989936065177 0 -0.17024674266260831 0.26408138757583061 0 -0.17974139769670211 0.2823337635967742 0 -0.15443981239800689 0.27682889338681571 0 -0.17974139769670211 0.2823337635967742 0 -0.15443981239800689 0.27682889338681571 0 -0.17024674266260831 0.26408138757583061 0 -0.1869683068365415 0.26626206407440378 0 -0.17974139769670211 0.2823337635967742 0 -0.19471490787330631 0.27551960978177081 0 -0.1869683068365415 0.26626206407440378 0 -0.17974139769670211 0.2823337635967742 0 -0.19052112724495099 0.29593520262569839 0 -0.17974139769670211 0.2823337635967742 0 -0.17882772487495979 0.29874331004413029 0 -0.17974139769670211 0.2823337635967742 0 -0.17882772487495979 0.29874331004413029 0 -0.16566602933991051 0.29510075778634781 0 -0.17205595754548131 0.31299715274576978 0 -0.17882772487495979 0.29874331004413029 0 -0.16566602933991051 0.29510075778634781 0 -0.19052112724495099 0.29593520262569839 0 -0.1861541125477541 0.30734967346606129 0 -0.17882772487495979 0.29874331004413029 0 -0.17205595754548131 0.31299715274576978 0 -0.1861541125477541 0.30734967346606129 0 -0.17882772487495979 0.29874331004413029 0 -0.17205595754548131 0.31299715274576978 0 -0.16566602933991051 0.29510075778634781 0 -0.15361481563473189 0.30850199542457951 0 -0.17974139769670211 0.2823337635967742 0 -0.16566602933991051 0.29510075778634781 0 -0.15443981239800689 0.27682889338681571 0 -0.16566602933991051 0.29510075778634781 0 -0.14083718702827969 0.29278352896941839 0 -0.15443981239800689 0.27682889338681571 0 -0.16566602933991051 0.29510075778634781 0 -0.14083718702827969 0.29278352896941839 0 -0.15361481563473189 0.30850199542457951 0 -0.14083718702827969 0.29278352896941839 0 -0.15361481563473189 0.30850199542457951 0 -0.1401500050077788 0.30901778163218041 0 -0.14083718702827969 0.29278352896941839 0 -0.12891667901855169 0.30648747599881693 0 -0.1244559503007249 0.29511977913865572 0 -0.14083718702827969 0.29278352896941839 0 -0.1401500050077788 0.30901778163218041 0 -0.12891667901855169 0.30648747599881693 0 -0.1311274610351692 0.32031545001377659 0 -0.1401500050077788 0.30901778163218041 0 -0.12891667901855169 0.30648747599881693 0 -0.14083718702827969 0.29278352896941839 0 -0.12284197801624699 0.28095417648403259 0 -0.1244559503007249 0.29511977913865572 0 -0.13727347711331059 0.26943622851994509 0 -0.12028023580015811 0.26182730098009199 0 -0.12284197801624699 0.28095417648403259 0 -0.14083718702827969 0.29278352896941839 0 -0.13727347711331059 0.26943622851994509 0 -0.12284197801624699 0.28095417648403259 0 -0.13727347711331059 0.26943622851994509 0 -0.1312802274045832 0.25066166588390548 0 -0.12028023580015811 0.26182730098009199 0 -0.13727347711331059 0.26943622851994509 0 -0.1312802274045832 0.25066166588390548 0 -0.1539614220325887 0.2535618054154064 0 -0.13727347711331059 0.26943622851994509 0 -0.1539614220325887 0.2535618054154064 0 -0.15443981239800689 0.27682889338681571 0 -0.14083718702827969 0.29278352896941839 0 -0.13727347711331059 0.26943622851994509 0 -0.15443981239800689 0.27682889338681571 0 -0.1068899535629859 0.26997417547326391 0 -0.093995705333090693 0.27185874400195631 0 -0.089864983184404265 0.25660839634379939 0 -0.1068899535629859 0.26997417547326391 0 -0.1103347456988836 0.28831588879129011 0 -0.099914324434277654 0.28129206490731179 0 -0.1068899535629859 0.26997417547326391 0 -0.093995705333090693 0.27185874400195631 0 -0.099914324434277654 0.28129206490731179 0 -0.093995705333090693 0.27185874400195631 0 -0.099914324434277654 0.28129206490731179 0 -0.090846772445701635 0.28450380064968289 0 -0.1068899535629859 0.26997417547326391 0 -0.089864983184404265 0.25660839634379939 0 -0.11095354651722571 0.24912079121846531 0 -0.1312802274045832 0.25066166588390548 0 -0.12028023580015811 0.26182730098009199 0 -0.11095354651722571 0.24912079121846531 0 -0.1068899535629859 0.26997417547326391 0 -0.12028023580015811 0.26182730098009199 0 -0.11095354651722571 0.24912079121846531 0 -0.1068899535629859 0.26997417547326391 0 -0.12284197801624699 0.28095417648403259 0 -0.1103347456988836 0.28831588879129011 0 -0.1068899535629859 0.26997417547326391 0 -0.12028023580015811 0.26182730098009199 0 -0.12284197801624699 0.28095417648403259 0 -0.12284197801624699 0.28095417648403259 0 -0.1244559503007249 0.29511977913865572 0 -0.1103347456988836 0.28831588879129011 0 -0.1103347456988836 0.28831588879129011 0 -0.1153520285246331 0.30202886520641031 0 -0.1053183064747 0.29960454853029889 0 -0.1244559503007249 0.29511977913865572 0 -0.1103347456988836 0.28831588879129011 0 -0.1153520285246331 0.30202886520641031 0 -0.12891667901855169 0.30648747599881693 0 -0.1153520285246331 0.30202886520641031 0 -0.1204582426008957 0.31405081811486402 0 -0.12891667901855169 0.30648747599881693 0 -0.1244559503007249 0.29511977913865572 0 -0.1153520285246331 0.30202886520641031 0 -0.1153520285246331 0.30202886520641031 0 -0.10757383936134531 0.31432314309718629 0 -0.1204582426008957 0.31405081811486402 0 -0.1153520285246331 0.30202886520641031 0 -0.1053183064747 0.29960454853029889 0 -0.10757383936134531 0.31432314309718629 0 -0.1053183064747 0.29960454853029889 0 -0.095826473657911485 0.30154712993624239 0 -0.10757383936134531 0.31432314309718629 0 -0.095826473657911485 0.30154712993624239 0 -0.10757383936134531 0.31432314309718629 0 -0.1053183064747 0.29960454853029889 0 -0.095826473657911485 0.30154712993624239 0 -0.097504445130726439 0.29180771562036589 0 -0.1103347456988836 0.28831588879129011 0 -0.097504445130726439 0.29180771562036589 0 -0.099914324434277654 0.28129206490731179 0 -0.1103347456988836 0.28831588879129011 0 -0.1053183064747 0.29960454853029889 0 -0.097504445130726439 0.29180771562036589 0 -0.097504445130726439 0.29180771562036589 0 -0.099914324434277654 0.28129206490731179 0 -0.090846772445701635 0.28450380064968289 0 -0.095826473657911485 0.30154712993624239 0 -0.086581714595924453 0.28519407156823279 0 -0.081540292160641681 0.28600999187171861 0 -0.097504445130726439 0.29180771562036589 0 -0.090846772445701635 0.28450380064968289 0 -0.086581714595924453 0.28519407156823279 0 -0.090846772445701635 0.28450380064968289 0 -0.086581714595924453 0.28519407156823279 0 -0.082361742517192693 0.27772936110340068 0 -0.095826473657911485 0.30154712993624239 0 -0.097504445130726439 0.29180771562036589 0 -0.086581714595924453 0.28519407156823279 0 -0.095826473657911485 0.30154712993624239 0 -0.086581714595924453 0.28519407156823279 0 -0.090846772445701635 0.28450380064968289 0 -0.086581714595924453 0.28519407156823279 0 -0.095826473657911485 0.30154712993624239 0 -0.081540292160641681 0.28600999187171861 0 -0.081540292160641681 0.28600999187171861 0 -0.080010924817602358 0.28434670685991947 0 -0.086581714595924453 0.28519407156823279 0 -0.082361742517192693 0.27772936110340068 0 -0.086581714595924453 0.28519407156823279 0 -0.080010924817602358 0.28434670685991947 0 -0.082361742517192693 0.27772936110340068 0 -0.086581714595924453 0.28519407156823279 0 -0.081540292160641681 0.28600999187171861 0 -0.086581714595924453 0.28519407156823279 0 -0.081540292160641681 0.28600999187171861 0 -0.080010924817602358 0.28434670685991947 0 -0.095826473657911485 0.30154712993624239 0 -0.081500047347027219 0.30722491678981773 0 -0.10211840383922551 0.32509638607342362 0 -0.095826473657911485 0.30154712993624239 0 -0.081540292160641681 0.28600999187171861 0 -0.081500047347027219 0.30722491678981773 0 -0.081500047347027219 0.30722491678981773 0 -0.060881690854828127 0.28935344750621278 0 -0.081500047347027219 0.30722491678981773 0 -0.06144263305936172 0.30975985499095182 0 -0.072388998725557679 0.31921834881778699 0 -0.081500047347027219 0.30722491678981773 0 -0.060881690854828127 0.28935344750621278 0 -0.06144263305936172 0.30975985499095182 0 -0.081540292160641681 0.28600999187171861 0 -0.080010924817602358 0.28434670685991947 0 -0.060881690854828127 0.28935344750621278 0 -0.081540292160641681 0.28600999187171861 0 -0.081500047347027219 0.30722491678981773 0 -0.060881690854828127 0.28935344750621278 0 -0.081540292160641681 0.28600999187171861 0 -0.060881690854828127 0.28935344750621278 0 -0.080010924817602358 0.28434670685991947 0 -0.06891770397089203 0.28100974650849719 0 -0.060881690854828127 0.28935344750621278 0 -0.080010924817602358 0.28434670685991947 0 -0.06479206455230449 0.26779522085423801 0 -0.06479206455230449 0.26779522085423801 0 -0.082361742517192693 0.27772936110340068 0 -0.072451411930741241 0.26019897297323691 0 -0.080010924817602358 0.28434670685991947 0 -0.06891770397089203 0.28100974650849719 0 -0.06479206455230449 0.26779522085423801 0 -0.082361742517192693 0.27772936110340068 0 -0.072451411930741241 0.26019897297323691 0 -0.080010924817602358 0.28434670685991947 0 -0.06479206455230449 0.26779522085423801 0 -0.082361742517192693 0.27772936110340068 0 -0.082361742517192693 0.27772936110340068 0 -0.089864983184404265 0.25660839634379939 0 -0.093995705333090693 0.27185874400195631 0 -0.082361742517192693 0.27772936110340068 0 -0.089864983184404265 0.25660839634379939 0 -0.080010924817602358 0.28434670685991947 0 -0.082361742517192693 0.27772936110340068 0 -0.093995705333090693 0.27185874400195631 0 -0.090846772445701635 0.28450380064968289 0 -0.082361742517192693 0.27772936110340068 0 -0.089864983184404265 0.25660839634379939 0 -0.072451411930741241 0.26019897297323691 0 -0.084909817891176437 0.24784320227871631 0 -0.082361742517192693 0.27772936110340068 0 -0.089864983184404265 0.25660839634379939 0 -0.072451411930741241 0.26019897297323691 0 -0.072451411930741241 0.26019897297323691 0 -0.084909817891176437 0.24784320227871631 0 -0.071423605748982696 0.25838088616658211 0 -0.0676227815044987 0.25583539391149163 0 -0.072915420794760738 0.24639139995760401 0 -0.071423605748982696 0.25838088616658211 0 -0.072915420794760738 0.24639139995760401 0 -0.084909817891176437 0.24784320227871631 0 -0.071423605748982696 0.25838088616658211 0 -0.072451411930741241 0.26019897297323691 0 -0.084909817891176437 0.24784320227871631 0 -0.071423605748982696 0.25838088616658211 0 -0.072451411930741241 0.26019897297323691 0 -0.068347579951402893 0.25886351798231672 0 -0.071423605748982696 0.25838088616658211 0 -0.072451411930741241 0.26019897297323691 0 -0.06479206455230449 0.26779522085423801 0 -0.068347579951402893 0.25886351798231672 0 -0.063849985052532116 0.25899027592772889 0 -0.06479206455230449 0.26779522085423801 0 -0.063849985052532116 0.25899027592772889 0 -0.059653188003827712 0.26220636322664131 0 -0.06479206455230449 0.26779522085423801 0 -0.072451411930741241 0.26019897297323691 0 -0.068347579951402893 0.25886351798231672 0 -0.06479206455230449 0.26779522085423801 0 -0.072451411930741241 0.26019897297323691 0 -0.068347579951402893 0.25886351798231672 0 -0.063849985052532116 0.25899027592772889 0 -0.0676227815044987 0.25583539391149163 0 -0.0676227815044987 0.25583539391149163 0 -0.064712478575736129 0.25282925044640969 0 -0.072915420794760738 0.24639139995760401 0 -0.071423605748982696 0.25838088616658211 0 -0.068347579951402893 0.25886351798231672 0 -0.0676227815044987 0.25583539391149163 0 -0.063849985052532116 0.25899027592772889 0 -0.0676227815044987 0.25583539391149163 0 -0.064712478575736129 0.25282925044640969 0 -0.064712478575736129 0.25282925044640969 0 -0.058385095657061223 0.25594665726573879 0 -0.059665981296547051 0.24568162203931529 0 -0.058385095657061223 0.25594665726573879 0 -0.051164090418747747 0.25312880362289952 0 -0.059665981296547051 0.24568162203931529 0 -0.063849985052532116 0.25899027592772889 0 -0.064712478575736129 0.25282925044640969 0 -0.058385095657061223 0.25594665726573879 0 -0.059653188003827712 0.26220636322664131 0 -0.052256717626109797 0.26172702382054858 0 -0.053544771613629867 0.26971181384820458 0 -0.063849985052532116 0.25899027592772889 0 -0.058385095657061223 0.25594665726573879 0 -0.059653188003827712 0.26220636322664131 0 -0.06479206455230449 0.26779522085423801 0 -0.059653188003827712 0.26220636322664131 0 -0.058385095657061223 0.25594665726573879 0 -0.059653188003827712 0.26220636322664131 0 -0.052256717626109797 0.26172702382054858 0 -0.052256717626109797 0.26172702382054858 0 -0.051164090418747747 0.25312880362289952 0 -0.044139537781178788 0.26067742413446421 0 -0.052256717626109797 0.26172702382054858 0 -0.047066900211852288 0.26822582894580621 0 -0.044139537781178788 0.26067742413446421 0 -0.058385095657061223 0.25594665726573879 0 -0.052256717626109797 0.26172702382054858 0 -0.051164090418747747 0.25312880362289952 0 -0.06891770397089203 0.28100974650849719 0 -0.06479206455230449 0.26779522085423801 0 -0.051368792897103888 0.28110790845396572 0 -0.06479206455230449 0.26779522085423801 0 -0.051368792897103888 0.28110790845396572 0 -0.06479206455230449 0.26779522085423801 0 -0.059653188003827712 0.26220636322664131 0 -0.053544771613629867 0.26971181384820458 0 -0.06479206455230449 0.26779522085423801 0 -0.053544771613629867 0.26971181384820458 0 -0.051368792897103888 0.28110790845396572 0 -0.047066900211852288 0.26822582894580621 0 -0.053544771613629867 0.26971181384820458 0 -0.046023902262863133 0.27647509260221648 0 -0.052256717626109797 0.26172702382054858 0 -0.047066900211852288 0.26822582894580621 0 -0.053544771613629867 0.26971181384820458 0 -0.053544771613629867 0.26971181384820458 0 -0.051368792897103888 0.28110790845396572 0 -0.046023902262863133 0.27647509260221648 0 -0.051368792897103888 0.28110790845396572 0 -0.046023902262863133 0.27647509260221648 0 -0.051368792897103888 0.28110790845396572 0 -0.046023902262863133 0.27647509260221648 0 -0.037724296909993578 0.28263384314914719 0 -0.046023902262863133 0.27647509260221648 0 -0.035793593140652183 0.26947971709787383 0 -0.037724296909993578 0.28263384314914719 0 -0.047066900211852288 0.26822582894580621 0 -0.035793593140652183 0.26947971709787383 0 -0.044139537781178788 0.26067742413446421 0 -0.047066900211852288 0.26822582894580621 0 -0.046023902262863133 0.27647509260221648 0 -0.035793593140652183 0.26947971709787383 0 -0.035793593140652183 0.26947971709787383 0 -0.027669886692409901 0.28024166997622391 0 -0.037724296909993578 0.28263384314914719 0 -0.035793593140652183 0.26947971709787383 0 -0.044139537781178788 0.26067742413446421 0 -0.033074366645123962 0.25046226796462451 0 -0.051164090418747747 0.25312880362289952 0 -0.042933441299488867 0.25132212986177549 0 -0.044139537781178788 0.26067742413446421 0 -0.042933441299488867 0.25132212986177549 0 -0.044139537781178788 0.26067742413446421 0 -0.033074366645123962 0.25046226796462451 0 -0.033074366645123962 0.25046226796462451 0 -0.024171673373767438 0.26254926720664162 0 -0.01944836177611171 0.24838787954432581 0 -0.035793593140652183 0.26947971709787383 0 -0.033074366645123962 0.25046226796462451 0 -0.024171673373767438 0.26254926720664162 0 -0.024171673373767438 0.26254926720664162 0 -0.0093065408195293787 0.26808480785676941 0 -0.01944836177611171 0.24838787954432581 0 -0.035793593140652183 0.26947971709787383 0 -0.024171673373767438 0.26254926720664162 0 -0.027669886692409901 0.28024166997622391 0 -0.027669886692409901 0.28024166997622391 0 -0.0093065408195293787 0.26808480785676941 0 -0.01261014928209923 0.28423869010515601 0 -0.024171673373767438 0.26254926720664162 0 -0.027669886692409901 0.28024166997622391 0 -0.0093065408195293787 0.26808480785676941 0 -0.0093065408195293787 0.26808480785676941 0 -0.01261014928209923 0.28423869010515601 0 0.00098394795991902555 0.28003402474780498 0 -0.0093065408195293787 0.26808480785676941 0 -0.0028794500280274371 0.2473374118160242 0 -0.01944836177611171 0.24838787954432581 0 -0.0018193191166929329 0.29891229501245009 0 -0.025678207936909579 0.29505089437463128 0 -0.01181913129182134 0.30765463681126559 0 -0.0018193191166929329 0.29891229501245009 0 -0.025678207936909579 0.29505089437463128 0 -0.01181913129182134 0.30765463681126559 0 -0.023887963460079879 0.30836234438239801 0 -0.0107254178884356 0.32141645382111161 0 -0.01181913129182134 0.30765463681126559 0 -0.0018193191166929329 0.29891229501245009 0 0.0030152519430094241 0.31453119646573691 0 -0.0018193191166929329 0.29891229501245009 0 -0.01261014928209923 0.28423869010515601 0 0.00098394795991902555 0.28003402474780498 0 -0.0018193191166929329 0.29891229501245009 0 -0.01261014928209923 0.28423869010515601 0 -0.025678207936909579 0.29505089437463128 0 -0.027669886692409901 0.28024166997622391 0 -0.01261014928209923 0.28423869010515601 0 -0.025678207936909579 0.29505089437463128 0 -0.027669886692409901 0.28024166997622391 0 -0.025678207936909579 0.29505089437463128 0 -0.037724296909993578 0.28263384314914719 0 -0.027669886692409901 0.28024166997622391 0 -0.025678207936909579 0.29505089437463128 0 -0.025678207936909579 0.29505089437463128 0 -0.023887963460079879 0.30836234438239801 0 -0.025678207936909579 0.29505089437463128 0 -0.023887963460079879 0.30836234438239801 0 -0.039578312673764243 0.29280125594003809 0 -0.01181913129182134 0.30765463681126559 0 -0.025678207936909579 0.29505089437463128 0 -0.023887963460079879 0.30836234438239801 0 -0.023887963460079879 0.30836234438239801 0 -0.039578312673764243 0.29280125594003809 0 -0.023887963460079879 0.30836234438239801 0 -0.039578312673764243 0.29280125594003809 0 -0.048020945365948663 0.30500249651733469 0 -0.023887963460079879 0.30836234438239801 0 -0.048020945365948663 0.30500249651733469 0 -0.042559825678648862 0.32048678544367137 0 -0.025678207936909579 0.29505089437463128 0 -0.037724296909993578 0.28263384314914719 0 -0.039578312673764243 0.29280125594003809 0 -0.025678207936909579 0.29505089437463128 0 -0.039578312673764243 0.29280125594003809 0 -0.051368792897103888 0.28110790845396572 0 -0.039578312673764243 0.29280125594003809 0 -0.051368792897103888 0.28110790845396572 0 -0.037724296909993578 0.28263384314914719 0 -0.039578312673764243 0.29280125594003809 0 -0.051368792897103888 0.28110790845396572 0 -0.039578312673764243 0.29280125594003809 0 -0.060881690854828127 0.28935344750621278 0 -0.039578312673764243 0.29280125594003809 0 -0.060881690854828127 0.28935344750621278 0 -0.06891770397089203 0.28100974650849719 0 -0.051368792897103888 0.28110790845396572 0 -0.060881690854828127 0.28935344750621278 0 -0.039578312673764243 0.29280125594003809 0 -0.060881690854828127 0.28935344750621278 0 -0.048020945365948663 0.30500249651733469 0 -0.051368792897103888 0.28110790845396572 0 -0.060881690854828127 0.28935344750621278 0 -0.048020945365948663 0.30500249651733469 0 -0.06144263305936172 0.30975985499095182 0 -0.042559825678648862 0.32048678544367137 0 -0.060881690854828127 0.28935344750621278 0 -0.048020945365948663 0.30500249651733469 0 -0.06144263305936172 0.30975985499095182 0 -0.06144263305936172 0.30975985499095182 0 -0.057140802826726587 0.32663392235006339 0 -0.042559825678648862 0.32048678544367137 0 -0.057140802826726587 0.32663392235006339 0 -0.045818826064889448 0.33354111494582561 0 -0.042559825678648862 0.32048678544367137 0 -0.057140802826726587 0.32663392235006339 0 -0.053499095508060618 0.34120151107162061 0 -0.068149107719353536 0.33563280233269732 0 -0.057140802826726587 0.32663392235006339 0 -0.053499095508060618 0.34120151107162061 0 -0.045818826064889448 0.33354111494582561 0 -0.053499095508060618 0.34120151107162061 0 -0.041313144327142247 0.34101947187470072 0 -0.045818826064889448 0.33354111494582561 0 -0.041313144327142247 0.34101947187470072 0 -0.045818826064889448 0.33354111494582561 0 -0.034785289166849351 0.33352921818477022 0 -0.045818826064889448 0.33354111494582561 0 -0.034785289166849351 0.33352921818477022 0 -0.042559825678648862 0.32048678544367137 0 -0.041313144327142247 0.34101947187470072 0 -0.034785289166849351 0.33352921818477022 0 -0.03117157631752537 0.3429542637565286 0 -0.023887963460079879 0.30836234438239801 0 -0.042559825678648862 0.32048678544367137 0 -0.02774575028353268 0.32666516599388729 0 -0.034785289166849351 0.33352921818477022 0 -0.042559825678648862 0.32048678544367137 0 -0.02774575028353268 0.32666516599388729 0 -0.023887963460079879 0.30836234438239801 0 -0.020102612329358699 0.33650850709400759 0 -0.0107254178884356 0.32141645382111161 0 -0.023887963460079879 0.30836234438239801 0 -0.02774575028353268 0.32666516599388729 0 -0.020102612329358699 0.33650850709400759 0 -0.023887963460079879 0.30836234438239801 0 -0.020102612329358699 0.33650850709400759 0 -0.023887963460079879 0.30836234438239801 0 -0.0107254178884356 0.32141645382111161 0 -0.02774575028353268 0.32666516599388729 0 -0.020102612329358699 0.33650850709400759 0 -0.034785289166849351 0.33352921818477022 0 -0.02774575028353268 0.32666516599388729 0 -0.020102612329358699 0.33650850709400759 0 -0.034785289166849351 0.33352921818477022 0 -0.03117157631752537 0.3429542637565286 0 -0.020102612329358699 0.33650850709400759 0 -0.03117157631752537 0.3429542637565286 0 -0.020102612329358699 0.33650850709400759 0 -0.018720277411054 0.34678692571064451 0 -0.020102612329358699 0.33650850709400759 0 -0.018720277411054 0.34678692571064451 0 -0.020102612329358699 0.33650850709400759 0 -0.0131381541385872 0.34547779928268407 0 -0.018720277411054 0.34678692571064451 0 -0.020102612329358699 0.33650850709400759 0 -0.0131381541385872 0.34547779928268407 0 -0.020102612329358699 0.33650850709400759 0 -0.008168180912223471 0.33602171207242371 0 -0.0107254178884356 0.32141645382111161 0 -0.020102612329358699 0.33650850709400759 0 -0.008168180912223471 0.33602171207242371 0 -0.0131381541385872 0.34547779928268407 0 -0.008168180912223471 0.33602171207242371 0 0.0024371276832097252 0.33447056325982411 0 0.00068815211205307844 0.34223523690449309 0 -0.008168180912223471 0.33602171207242371 0 -0.0131381541385872 0.34547779928268407 0 0.00068815211205307844 0.34223523690449309 0 -0.0107254178884356 0.32141645382111161 0 0.0032776194458498981 0.33073915365893419 0 0.0024371276832097252 0.33447056325982411 0 -0.008168180912223471 0.33602171207242371 0 -0.0107254178884356 0.32141645382111161 0 0.0024371276832097252 0.33447056325982411 0 -0.0107254178884356 0.32141645382111161 0 0.0024371276832097252 0.33447056325982411 0 -0.0107254178884356 0.32141645382111161 0 0.00063675055893517793 0.32328312616982818 0 0.0032776194458498981 0.33073915365893419 0 -0.0107254178884356 0.32141645382111161 0 0.0030152519430094241 0.31453119646573691 0 0.00063675055893517793 0.32328312616982818 0 -0.01181913129182134 0.30765463681126559 0 -0.0107254178884356 0.32141645382111161 0 0.0030152519430094241 0.31453119646573691 0 -0.0041794056526042161 0.36384502843755762 0 -0.0080455913418213676 0.38100917333558221 0 -0.011545606085483001 0.37035237353726019 0 -0.01667830148865581 0.36197013714342008 0 -0.014281344412804689 0.37979282823332128 0 -0.0041794056526042161 0.36384502843755762 0 -0.0080455913418213676 0.38100917333558221 0 0.001150257802333904 0.37218443526046402 0 -0.011545606085483001 0.37035237353726019 0 -0.0041794056526042161 0.36384502843755762 0 -0.0080455913418213676 0.38100917333558221 0 -0.01667830148865581 0.36197013714342008 0 -0.014281344412804689 0.37979282823332128 0 -0.0041794056526042161 0.36384502843755762 0 -0.01667830148865581 0.36197013714342008 0 -0.0041794056526042161 0.36384502843755762 0 -0.011140622592694081 0.35532621080836307 0 -0.01667830148865581 0.36197013714342008 0 -0.011545606085483001 0.37035237353726019 0 -0.0041794056526042161 0.36384502843755762 0 -0.01667830148865581 0.36197013714342008 0 -0.0041794056526042161 0.36384502843755762 0 0.0001016014555435055 0.36448719899905768 0 -0.0041794056526042161 0.36384502843755762 0 0.0001016014555435055 0.36448719899905768 0 0.001150257802333904 0.37218443526046402 0 -0.0041794056526042161 0.36384502843755762 0 -0.002986974272574112 0.35855116346750959 0 0.0001016014555435055 0.36448719899905768 0 -0.0041794056526042161 0.36384502843755762 0 -0.002986974272574112 0.35855116346750959 0 -0.002986974272574112 0.35855116346750959 0 -0.0131381541385872 0.34547779928268407 0 0.00068815211205307844 0.34223523690449309 0 -0.0041794056526042161 0.36384502843755762 0 -0.002986974272574112 0.35855116346750959 0 -0.011140622592694081 0.35532621080836307 0 -0.002986974272574112 0.35855116346750959 0 0.00068815211205307844 0.34223523690449309 0 -0.0131381541385872 0.34547779928268407 0 0.00068815211205307844 0.34223523690449309 0 -0.0131381541385872 0.34547779928268407 0 -0.011140622592694081 0.35532621080836307 0 -0.018720277411054 0.34678692571064451 0 -0.011140622592694081 0.35532621080836307 0 -0.018720277411054 0.34678692571064451 0 -0.01667830148865581 0.36197013714342008 0 -0.002986974272574112 0.35855116346750959 0 -0.0131381541385872 0.34547779928268407 0 -0.002986974272574112 0.35855116346750959 0 -0.0131381541385872 0.34547779928268407 0 -0.011140622592694081 0.35532621080836307 0 -0.018720277411054 0.34678692571064451 0 -0.030061033355854489 0.35488224139679492 0 -0.01667830148865581 0.36197013714342008 0 -0.03117157631752537 0.3429542637565286 0 -0.018720277411054 0.34678692571064451 0 -0.043249481279942763 0.35253954482601008 0 -0.018720277411054 0.34678692571064451 0 -0.030061033355854489 0.35488224139679492 0 -0.043249481279942763 0.35253954482601008 0 -0.018720277411054 0.34678692571064451 0 -0.01667830148865581 0.36197013714342008 0 -0.018720277411054 0.34678692571064451 0 -0.043249481279942763 0.35253954482601008 0 -0.030061033355854489 0.35488224139679492 0 -0.01667830148865581 0.36197013714342008 0 -0.041596073243765602 0.35823235790710473 0 -0.0131381541385872 0.34547779928268407 0 -0.018720277411054 0.34678692571064451 0 -0.031222988852221072 0.36612465705122371 0 -0.01667830148865581 0.36197013714342008 0 -0.041596073243765602 0.35823235790710473 0 -0.01667830148865581 0.36197013714342008 0 -0.041596073243765602 0.35823235790710473 0 -0.01667830148865581 0.36197013714342008 0 -0.02072758592548482 0.37339846111204489 0 -0.014281344412804689 0.37979282823332128 0 -0.031222988852221072 0.36612465705122371 0 -0.01667830148865581 0.36197013714342008 0 -0.02402582462065261 0.36921596580461769 0 -0.01667830148865581 0.36197013714342008 0 -0.02072758592548482 0.37339846111204489 0 -0.02402582462065261 0.36921596580461769 0 -0.02402582462065261 0.36921596580461769 0 -0.028801108459020001 0.37109740760827381 0 -0.026700945513074972 0.37586294977960671 0 -0.02072758592548482 0.37339846111204489 0 -0.02402582462065261 0.36921596580461769 0 -0.026700945513074972 0.37586294977960671 0 -0.031222988852221072 0.36612465705122371 0 -0.02402582462065261 0.36921596580461769 0 -0.028801108459020001 0.37109740760827381 0 -0.031222988852221072 0.36612465705122371 0 -0.028801108459020001 0.37109740760827381 0 -0.033254674850131373 0.37318605779764707 0 -0.028801108459020001 0.37109740760827381 0 -0.033254674850131373 0.37318605779764707 0 -0.026700945513074972 0.37586294977960671 0 -0.031222988852221072 0.36612465705122371 0 -0.036579994692376723 0.36969753491054252 0 -0.039537988571094168 0.36578555330352402 0 -0.033254674850131373 0.37318605779764707 0 -0.039531892278341009 0.37361411869263561 0 -0.038295824535547182 0.37803051746238509 0 -0.033254674850131373 0.37318605779764707 0 -0.036579994692376723 0.36969753491054252 0 -0.039531892278341009 0.37361411869263561 0 -0.031222988852221072 0.36612465705122371 0 -0.033254674850131373 0.37318605779764707 0 -0.036579994692376723 0.36969753491054252 0 -0.031222988852221072 0.36612465705122371 0 -0.039537988571094168 0.36578555330352402 0 -0.041596073243765602 0.35823235790710473 0 -0.039537988571094168 0.36578555330352402 0 -0.044906121574996363 0.36375896665937207 0 -0.042563476007853963 0.36915769835741152 0 -0.039537988571094168 0.36578555330352402 0 -0.044906121574996363 0.36375896665937207 0 -0.041596073243765602 0.35823235790710473 0 -0.044906121574996363 0.36375896665937207 0 -0.042563476007853963 0.36915769835741152 0 -0.047762720361533437 0.36728505886413199 0 -0.042563476007853963 0.36915769835741152 0 -0.04713920426734327 0.37434655365944491 0 -0.047762720361533437 0.36728505886413199 0 -0.039531892278341009 0.37361411869263561 0 -0.042563476007853963 0.36915769835741152 0 -0.04713920426734327 0.37434655365944491 0 -0.036579994692376723 0.36969753491054252 0 -0.039537988571094168 0.36578555330352402 0 -0.042563476007853963 0.36915769835741152 0 -0.036579994692376723 0.36969753491054252 0 -0.039531892278341009 0.37361411869263561 0 -0.042563476007853963 0.36915769835741152 0 -0.041313144327142247 0.34101947187470072 0 -0.03117157631752537 0.3429542637565286 0 -0.043249481279942763 0.35253954482601008 0 -0.030061033355854489 0.35488224139679492 0 -0.043249481279942763 0.35253954482601008 0 -0.041596073243765602 0.35823235790710473 0 -0.053499095508060618 0.34120151107162061 0 -0.041313144327142247 0.34101947187470072 0 -0.043249481279942763 0.35253954482601008 0 -0.053499095508060618 0.34120151107162061 0 -0.043249481279942763 0.35253954482601008 0 -0.066513844998875207 0.35449457867078799 0 -0.041596073243765602 0.35823235790710473 0 -0.066513844998875207 0.35449457867078799 0 -0.043249481279942763 0.35253954482601008 0 -0.041596073243765602 0.35823235790710473 0 -0.066513844998875207 0.35449457867078799 0 -0.041596073243765602 0.35823235790710473 0 -0.058028025130744093 0.36240999231730497 0 -0.066513844998875207 0.35449457867078799 0 -0.044906121574996363 0.36375896665937207 0 -0.041596073243765602 0.35823235790710473 0 -0.058028025130744093 0.36240999231730497 0 -0.051995370800508263 0.36941695226313598 0 -0.04713920426734327 0.37434655365944491 0 -0.055051533442412232 0.37362620421166209 0 -0.051995370800508263 0.36941695226313598 0 -0.04713920426734327 0.37434655365944491 0 -0.047762720361533437 0.36728505886413199 0 -0.044906121574996363 0.36375896665937207 0 -0.047762720361533437 0.36728505886413199 0 -0.058028025130744093 0.36240999231730497 0 -0.051995370800508263 0.36941695226313598 0 -0.047762720361533437 0.36728505886413199 0 -0.058028025130744093 0.36240999231730497 0 -0.058028025130744093 0.36240999231730497 0 -0.055051533442412232 0.37362620421166209 0 -0.061330546677696128 0.37463217708822222 0 -0.051995370800508263 0.36941695226313598 0 -0.058028025130744093 0.36240999231730497 0 -0.055051533442412232 0.37362620421166209 0 -0.058028025130744093 0.36240999231730497 0 -0.061330546677696128 0.37463217708822222 0 -0.068207334565341643 0.37256525745018682 0 -0.072627904975830049 0.36687489661654099 0 -0.083981908967526428 0.36623169928325189 0 -0.066513844998875207 0.35449457867078799 0 -0.058028025130744093 0.36240999231730497 0 -0.068207334565341643 0.37256525745018682 0 -0.072627904975830049 0.36687489661654099 0 -0.058028025130744093 0.36240999231730497 0 -0.072627904975830049 0.36687489661654099 0 -0.066513844998875207 0.35449457867078799 0 -0.068207334565341643 0.37256525745018682 0 -0.072627904975830049 0.36687489661654099 0 -0.074296989381219092 0.37382552593362889 0 -0.072627904975830049 0.36687489661654099 0 -0.074296989381219092 0.37382552593362889 0 -0.079622100299710563 0.3728284361101975 0 -0.074296989381219092 0.37382552593362889 0 -0.079622100299710563 0.3728284361101975 0 -0.078118068880294489 0.37804568649981579 0 -0.079622100299710563 0.3728284361101975 0 -0.083981908967526428 0.36623169928325189 0 -0.086632967906845618 0.37958111179560527 0 -0.072627904975830049 0.36687489661654099 0 -0.079622100299710563 0.3728284361101975 0 -0.083981908967526428 0.36623169928325189 0 -0.083981908967526428 0.36623169928325189 0 -0.091431616753984812 0.35075679943447141 0 -0.096077085514692032 0.36785809746646181 0 -0.083981908967526428 0.36623169928325189 0 -0.096077085514692032 0.36785809746646181 0 -0.086632967906845618 0.37958111179560527 0 -0.091431616753984812 0.35075679943447141 0 -0.066513844998875207 0.35449457867078799 0 -0.083189603277821447 0.34095728328990788 0 -0.091431616753984812 0.35075679943447141 0 -0.066513844998875207 0.35449457867078799 0 -0.083981908967526428 0.36623169928325189 0 -0.091431616753984812 0.35075679943447141 0 -0.066513844998875207 0.35449457867078799 0 -0.091431616753984812 0.35075679943447141 0 -0.083189603277821447 0.34095728328990788 0 -0.10093124895733829 0.34330881031635108 0 -0.053499095508060618 0.34120151107162061 0 -0.066513844998875207 0.35449457867078799 0 -0.068149107719353536 0.33563280233269732 0 -0.066513844998875207 0.35449457867078799 0 -0.068149107719353536 0.33563280233269732 0 -0.083189603277821447 0.34095728328990788 0 -0.068149107719353536 0.33563280233269732 0 -0.083189603277821447 0.34095728328990788 0 -0.080126966370801134 0.32928782491308278 0 -0.06144263305936172 0.30975985499095182 0 -0.057140802826726587 0.32663392235006339 0 -0.072388998725557679 0.31921834881778699 0 -0.057140802826726587 0.32663392235006339 0 -0.068149107719353536 0.33563280233269732 0 -0.072388998725557679 0.31921834881778699 0 -0.068149107719353536 0.33563280233269732 0 -0.072388998725557679 0.31921834881778699 0 -0.080126966370801134 0.32928782491308278 0 -0.081500047347027219 0.30722491678981773 0 -0.10211840383922551 0.32509638607342362 0 -0.081500047347027219 0.30722491678981773 0 -0.085623850229837428 0.32261807213323362 0 -0.10211840383922551 0.32509638607342362 0 -0.085623850229837428 0.32261807213323362 0 -0.09198483486657566 0.33226288407205667 0 -0.10211840383922551 0.32509638607342362 0 -0.081500047347027219 0.30722491678981773 0 -0.072388998725557679 0.31921834881778699 0 -0.085623850229837428 0.32261807213323362 0 -0.072388998725557679 0.31921834881778699 0 -0.085623850229837428 0.32261807213323362 0 -0.080126966370801134 0.32928782491308278 0 -0.085623850229837428 0.32261807213323362 0 -0.080126966370801134 0.32928782491308278 0 -0.09198483486657566 0.33226288407205667 0 -0.083189603277821447 0.34095728328990788 0 -0.09198483486657566 0.33226288407205667 0 -0.10093124895733829 0.34330881031635108 0 -0.083189603277821447 0.34095728328990788 0 -0.080126966370801134 0.32928782491308278 0 -0.09198483486657566 0.33226288407205667 0 -0.09198483486657566 0.33226288407205667 0 -0.10093124895733829 0.34330881031635108 0 -0.10444281199864081 0.33590898395471508 0 -0.10093124895733829 0.34330881031635108 0 -0.10444281199864081 0.33590898395471508 0 -0.12273676033142369 0.34296785535702928 0 -0.09198483486657566 0.33226288407205667 0 -0.10444281199864081 0.33590898395471508 0 -0.10211840383922551 0.32509638607342362 0 -0.095826473657911485 0.30154712993624239 0 -0.10211840383922551 0.32509638607342362 0 -0.1093889856449056 0.32553786335103602 0 -0.095826473657911485 0.30154712993624239 0 -0.10757383936134531 0.31432314309718629 0 -0.1093889856449056 0.32553786335103602 0 -0.095826473657911485 0.30154712993624239 0 -0.1093889856449056 0.32553786335103602 0 -0.10211840383922551 0.32509638607342362 0 -0.1093889856449056 0.32553786335103602 0 -0.1163317987956564 0.33084283613559279 0 -0.10757383936134531 0.31432314309718629 0 -0.119321205064779 0.32709915625813007 0 -0.1204582426008957 0.31405081811486402 0 -0.10757383936134531 0.31432314309718629 0 -0.1093889856449056 0.32553786335103602 0 -0.119321205064779 0.32709915625813007 0 -0.10757383936134531 0.31432314309718629 0 -0.119321205064779 0.32709915625813007 0 -0.1093889856449056 0.32553786335103602 0 -0.119321205064779 0.32709915625813007 0 -0.1163317987956564 0.33084283613559279 0 -0.1311274610351692 0.32031545001377659 0 -0.119321205064779 0.32709915625813007 0 -0.1204582426008957 0.31405081811486402 0 -0.10211840383922551 0.32509638607342362 0 -0.1163317987956564 0.33084283613559279 0 -0.12273676033142369 0.34296785535702928 0 -0.10444281199864081 0.33590898395471508 0 -0.10211840383922551 0.32509638607342362 0 -0.12273676033142369 0.34296785535702928 0 -0.10211840383922551 0.32509638607342362 0 -0.12273676033142369 0.34296785535702928 0 -0.12809363909794799 0.33351291963834501 0 -0.119321205064779 0.32709915625813007 0 -0.1163317987956564 0.33084283613559279 0 -0.12809363909794799 0.33351291963834501 0 -0.1163317987956564 0.33084283613559279 0 -0.12273676033142369 0.34296785535702928 0 -0.1349775419262422 0.35710604701876991 0 -0.11364647783324749 0.34887437037816538 0 -0.1214095853587191 0.36413711033090462 0 -0.1349775419262422 0.35710604701876991 0 -0.11364647783324749 0.34887437037816538 0 -0.1349775419262422 0.35710604701876991 0 -0.12273676033142369 0.34296785535702928 0 -0.11364647783324749 0.34887437037816538 0 -0.10093124895733829 0.34330881031635108 0 -0.12273676033142369 0.34296785535702928 0 -0.11364647783324749 0.34887437037816538 0 -0.11364647783324749 0.34887437037816538 0 -0.1214095853587191 0.36413711033090462 0 -0.1082585717649054 0.36514673062224817 0 -0.1328083900415602 0.3711206349635861 0 -0.1214095853587191 0.36413711033090462 0 -0.11735694522763999 0.37843776867175322 0 -0.1214095853587191 0.36413711033090462 0 -0.1082585717649054 0.36514673062224817 0 -0.11735694522763999 0.37843776867175322 0 -0.1082585717649054 0.36514673062224817 0 -0.096077085514692032 0.36785809746646181 0 -0.1029394954926169 0.35454134127968079 0 -0.1082585717649054 0.36514673062224817 0 -0.098688790589999298 0.3795499731601899 0 -0.11735694522763999 0.37843776867175322 0 -0.1082585717649054 0.36514673062224817 0 -0.096077085514692032 0.36785809746646181 0 -0.098688790589999298 0.3795499731601899 0 -0.11364647783324749 0.34887437037816538 0 -0.1082585717649054 0.36514673062224817 0 -0.1029394954926169 0.35454134127968079 0 -0.091431616753984812 0.35075679943447141 0 -0.096077085514692032 0.36785809746646181 0 -0.1029394954926169 0.35454134127968079 0 -0.091431616753984812 0.35075679943447141 0 -0.10093124895733829 0.34330881031635108 0 -0.1029394954926169 0.35454134127968079 0 -0.10093124895733829 0.34330881031635108 0 -0.11364647783324749 0.34887437037816538 0 -0.1029394954926169 0.35454134127968079 0 -0.10979671251488719 0.41164005624700728 0 -0.093623009684545372 0.39899708254883071 0 -0.1063284969272895 0.39192806999109919 0 -0.093623009684545372 0.39899708254883071 0 -0.089172670795036518 0.38776849011111392 0 -0.1063284969272895 0.39192806999109919 0 -0.10979671251488719 0.41164005624700728 0 -0.093623009684545372 0.39899708254883071 0 -0.1063284969272895 0.39192806999109919 0 -0.098688790589999298 0.3795499731601899 0 -0.089172670795036518 0.38776849011111392 0 -0.1063284969272895 0.39192806999109919 0 -0.098688790589999298 0.3795499731601899 0 -0.11735694522763999 0.37843776867175322 0 -0.096077085514692032 0.36785809746646181 0 -0.098688790589999298 0.3795499731601899 0 -0.086632967906845618 0.37958111179560527 0 -0.1063284969272895 0.39192806999109919 0 -0.11735694522763999 0.37843776867175322 0 -0.1214923807050364 0.39452588651853709 0 -0.13303612468219811 0.38530026937690071 0 -0.11735694522763999 0.37843776867175322 0 -0.1214923807050364 0.39452588651853709 0 -0.1214923807050364 0.39452588651853709 0 -0.10979671251488719 0.41164005624700728 0 -0.12383595548414859 0.40779885420034301 0 -0.1063284969272895 0.39192806999109919 0 -0.1214923807050364 0.39452588651853709 0 -0.10979671251488719 0.41164005624700728 0 -0.1259704153452291 0.42428302994518391 0 -0.10979671251488719 0.41164005624700728 0 -0.1112126406713691 0.42608869376496022 0 -0.1259704153452291 0.42428302994518391 0 -0.10979671251488719 0.41164005624700728 0 -0.1259704153452291 0.42428302994518391 0 -0.10979671251488719 0.41164005624700728 0 -0.12383595548414859 0.40779885420034301 0 -0.1259704153452291 0.42428302994518391 0 -0.1244297334730869 0.4272764835040414 0 -0.1112126406713691 0.42608869376496022 0 -0.1244297334730869 0.4272764835040414 0 -0.1112126406713691 0.42608869376496022 0 -0.11523573852528859 0.43769027782701359 0 -0.1112126406713691 0.42608869376496022 0 -0.098359403805852508 0.43636700177652582 0 -0.092059515790145277 0.41658699873088512 0 -0.1112126406713691 0.42608869376496022 0 -0.098359403805852508 0.43636700177652582 0 -0.11523573852528859 0.43769027782701359 0 -0.10979671251488719 0.41164005624700728 0 -0.1112126406713691 0.42608869376496022 0 -0.092059515790145277 0.41658699873088512 0 -0.10979671251488719 0.41164005624700728 0 -0.092059515790145277 0.41658699873088512 0 -0.093623009684545372 0.39899708254883071 0 -0.092059515790145277 0.41658699873088512 0 -0.07037860674125726 0.41008946054005829 0 -0.082362398410455978 0.40214278949546878 0 -0.092059515790145277 0.41658699873088512 0 -0.080455004977953465 0.43226162754143188 0 -0.07037860674125726 0.41008946054005829 0 -0.098359403805852508 0.43636700177652582 0 -0.092059515790145277 0.41658699873088512 0 -0.080455004977953465 0.43226162754143188 0 -0.080455004977953465 0.43226162754143188 0 -0.063307906628310998 0.43382481222946251 0 -0.07037860674125726 0.41008946054005829 0 -0.063307906628310998 0.43382481222946251 0 -0.07037860674125726 0.41008946054005829 0 -0.063307906628310998 0.43382481222946251 0 -0.07037860674125726 0.41008946054005829 0 -0.058687525430113609 0.41928478070503938 0 -0.07037860674125726 0.41008946054005829 0 -0.069844019095377852 0.3877401080448511 0 -0.051006434948720293 0.40755172643713761 0 -0.07037860674125726 0.41008946054005829 0 -0.082362398410455978 0.40214278949546878 0 -0.077449306854203523 0.38635410885065402 0 -0.07037860674125726 0.41008946054005829 0 -0.077449306854203523 0.38635410885065402 0 -0.07037860674125726 0.41008946054005829 0 -0.077449306854203523 0.38635410885065402 0 -0.069844019095377852 0.3877401080448511 0 -0.092059515790145277 0.41658699873088512 0 -0.082362398410455978 0.40214278949546878 0 -0.093623009684545372 0.39899708254883071 0 -0.093623009684545372 0.39899708254883071 0 -0.077449306854203523 0.38635410885065402 0 -0.093623009684545372 0.39899708254883071 0 -0.089172670795036518 0.38776849011111392 0 -0.077449306854203523 0.38635410885065402 0 -0.082362398410455978 0.40214278949546878 0 -0.093623009684545372 0.39899708254883071 0 -0.077449306854203523 0.38635410885065402 0 -0.098688790589999298 0.3795499731601899 0 -0.086632967906845618 0.37958111179560527 0 -0.089172670795036518 0.38776849011111392 0 -0.086632967906845618 0.37958111179560527 0 -0.089172670795036518 0.38776849011111392 0 -0.078586443088277863 0.38253690150154018 0 -0.089172670795036518 0.38776849011111392 0 -0.078586443088277863 0.38253690150154018 0 -0.077449306854203523 0.38635410885065402 0 -0.086632967906845618 0.37958111179560527 0 -0.078586443088277863 0.38253690150154018 0 -0.078118068880294489 0.37804568649981579 0 -0.079622100299710563 0.3728284361101975 0 -0.086632967906845618 0.37958111179560527 0 -0.078118068880294489 0.37804568649981579 0 -0.074296989381219092 0.37382552593362889 0 -0.078118068880294489 0.37804568649981579 0 -0.072909538184918715 0.37881335299140328 0 -0.078586443088277863 0.38253690150154018 0 -0.078118068880294489 0.37804568649981579 0 -0.07533034421307605 0.38153030697086382 0 -0.078118068880294489 0.37804568649981579 0 -0.07533034421307605 0.38153030697086382 0 -0.072909538184918715 0.37881335299140328 0 -0.07533034421307605 0.38153030697086382 0 -0.072909538184918715 0.37881335299140328 0 -0.071324856361867764 0.38325889999244439 0 -0.072909538184918715 0.37881335299140328 0 -0.071324856361867764 0.38325889999244439 0 -0.066816216070952755 0.37922864632172387 0 -0.068207334565341643 0.37256525745018682 0 -0.074296989381219092 0.37382552593362889 0 -0.072909538184918715 0.37881335299140328 0 -0.075712814550021462 0.38499669386911539 0 -0.077449306854203523 0.38635410885065402 0 -0.069844019095377852 0.3877401080448511 0 -0.075712814550021462 0.38499669386911539 0 -0.077449306854203523 0.38635410885065402 0 -0.078586443088277863 0.38253690150154018 0 -0.07533034421307605 0.38153030697086382 0 -0.075712814550021462 0.38499669386911539 0 -0.078586443088277863 0.38253690150154018 0 -0.077449306854203523 0.38635410885065402 0 -0.078586443088277863 0.38253690150154018 0 -0.075712814550021462 0.38499669386911539 0 -0.077449306854203523 0.38635410885065402 0 -0.07533034421307605 0.38153030697086382 0 -0.075712814550021462 0.38499669386911539 0 -0.071324856361867764 0.38325889999244439 0 -0.075712814550021462 0.38499669386911539 0 -0.071324856361867764 0.38325889999244439 0 -0.069844019095377852 0.3877401080448511 0 -0.069844019095377852 0.3877401080448511 0 -0.065147433613186242 0.38523072207045389 0 -0.057109863342006448 0.39396786567846831 0 -0.071324856361867764 0.38325889999244439 0 -0.069844019095377852 0.3877401080448511 0 -0.065147433613186242 0.38523072207045389 0 -0.068207334565341643 0.37256525745018682 0 -0.072909538184918715 0.37881335299140328 0 -0.066816216070952755 0.37922864632172387 0 -0.071324856361867764 0.38325889999244439 0 -0.065147433613186242 0.38523072207045389 0 -0.066816216070952755 0.37922864632172387 0 -0.065147433613186242 0.38523072207045389 0 -0.066816216070952755 0.37922864632172387 0 -0.060642213195726449 0.38195809031478201 0 -0.061330546677696128 0.37463217708822222 0 -0.066816216070952755 0.37922864632172387 0 -0.060642213195726449 0.38195809031478201 0 -0.061330546677696128 0.37463217708822222 0 -0.068207334565341643 0.37256525745018682 0 -0.066816216070952755 0.37922864632172387 0 -0.061330546677696128 0.37463217708822222 0 -0.057839250183329707 0.37800355178598671 0 -0.060642213195726449 0.38195809031478201 0 -0.055051533442412232 0.37362620421166209 0 -0.057839250183329707 0.37800355178598671 0 -0.053492469876355822 0.38174850791083398 0 -0.055051533442412232 0.37362620421166209 0 -0.061330546677696128 0.37463217708822222 0 -0.057839250183329707 0.37800355178598671 0 -0.057839250183329707 0.37800355178598671 0 -0.060642213195726449 0.38195809031478201 0 -0.053492469876355822 0.38174850791083398 0 -0.060642213195726449 0.38195809031478201 0 -0.053492469876355822 0.38174850791083398 0 -0.057109863342006448 0.39396786567846831 0 -0.065147433613186242 0.38523072207045389 0 -0.060642213195726449 0.38195809031478201 0 -0.057109863342006448 0.39396786567846831 0 -0.053492469876355822 0.38174850791083398 0 -0.057109863342006448 0.39396786567846831 0 -0.046189971643804 0.38563129249772071 0 -0.055051533442412232 0.37362620421166209 0 -0.048575628078135653 0.3794824683704815 0 -0.053492469876355822 0.38174850791083398 0 -0.04713920426734327 0.37434655365944491 0 -0.055051533442412232 0.37362620421166209 0 -0.048575628078135653 0.3794824683704815 0 -0.048575628078135653 0.3794824683704815 0 -0.053492469876355822 0.38174850791083398 0 -0.046189971643804 0.38563129249772071 0 -0.069844019095377852 0.3877401080448511 0 -0.057109863342006448 0.39396786567846831 0 -0.051006434948720293 0.40755172643713761 0 -0.069844019095377852 0.3877401080448511 0 -0.051006434948720293 0.40755172643713761 0 -0.057109863342006448 0.39396786567846831 0 -0.043643013881266998 0.39527459794301578 0 -0.051006434948720293 0.40755172643713761 0 -0.057109863342006448 0.39396786567846831 0 -0.043643013881266998 0.39527459794301578 0 -0.032577727341914393 0.38748851950702318 0 -0.057109863342006448 0.39396786567846831 0 -0.032577727341914393 0.38748851950702318 0 -0.040936155916544079 0.40284032338139569 0 -0.043643013881266998 0.39527459794301578 0 -0.051006434948720293 0.40755172643713761 0 -0.040936155916544079 0.40284032338139569 0 -0.043643013881266998 0.39527459794301578 0 -0.034370346801040112 0.40109168266258488 0 -0.043643013881266998 0.39527459794301578 0 -0.035103164328632523 0.39359312146863279 0 -0.034370346801040112 0.40109168266258488 0 -0.035103164328632523 0.39359312146863279 0 -0.034370346801040112 0.40109168266258488 0 -0.03042403338509329 0.39238978629384452 0 -0.043643013881266998 0.39527459794301578 0 -0.035103164328632523 0.39359312146863279 0 -0.032577727341914393 0.38748851950702318 0 -0.035103164328632523 0.39359312146863279 0 -0.032577727341914393 0.38748851950702318 0 -0.03042403338509329 0.39238978629384452 0 -0.040936155916544079 0.40284032338139569 0 -0.034370346801040112 0.40109168266258488 0 -0.035665839611380673 0.40990454061120413 0 -0.057109863342006448 0.39396786567846831 0 -0.046189971643804 0.38563129249772071 0 -0.032577727341914393 0.38748851950702318 0 -0.042830873347280467 0.3789885947930452 0 -0.046189971643804 0.38563129249772071 0 -0.037633117652702892 0.38218678707983261 0 -0.042830873347280467 0.3789885947930452 0 -0.037633117652702892 0.38218678707983261 0 -0.038295824535547182 0.37803051746238509 0 -0.039531892278341009 0.37361411869263561 0 -0.042830873347280467 0.3789885947930452 0 -0.038295824535547182 0.37803051746238509 0 -0.04713920426734327 0.37434655365944491 0 -0.048575628078135653 0.3794824683704815 0 -0.042830873347280467 0.3789885947930452 0 -0.039531892278341009 0.37361411869263561 0 -0.04713920426734327 0.37434655365944491 0 -0.042830873347280467 0.3789885947930452 0 -0.048575628078135653 0.3794824683704815 0 -0.042830873347280467 0.3789885947930452 0 -0.046189971643804 0.38563129249772071 0 -0.046189971643804 0.38563129249772071 0 -0.032577727341914393 0.38748851950702318 0 -0.037633117652702892 0.38218678707983261 0 -0.032577727341914393 0.38748851950702318 0 -0.03293603471786119 0.38286744889382379 0 -0.02899774776526198 0.38163099628876079 0 -0.032577727341914393 0.38748851950702318 0 -0.03293603471786119 0.38286744889382379 0 -0.037633117652702892 0.38218678707983261 0 -0.03293603471786119 0.38286744889382379 0 -0.033950330498272528 0.37949650625164111 0 -0.037633117652702892 0.38218678707983261 0 -0.03293603471786119 0.38286744889382379 0 -0.033950330498272528 0.37949650625164111 0 -0.02899774776526198 0.38163099628876079 0 -0.033950330498272528 0.37949650625164111 0 -0.037633117652702892 0.38218678707983261 0 -0.038295824535547182 0.37803051746238509 0 -0.033254674850131373 0.37318605779764707 0 -0.033950330498272528 0.37949650625164111 0 -0.038295824535547182 0.37803051746238509 0 -0.033254674850131373 0.37318605779764707 0 -0.033950330498272528 0.37949650625164111 0 -0.026700945513074972 0.37586294977960671 0 -0.032577727341914393 0.38748851950702318 0 -0.0080455913418213676 0.38100917333558221 0 -0.032577727341914393 0.38748851950702318 0 -0.023884054020430531 0.37978208630275351 0 -0.014281344412804689 0.37979282823332128 0 -0.032577727341914393 0.38748851950702318 0 -0.01718364103011082 0.39073283188216751 0 -0.0080455913418213676 0.38100917333558221 0 -0.032577727341914393 0.38748851950702318 0 -0.0080455913418213676 0.38100917333558221 0 -0.014281344412804689 0.37979282823332128 0 -0.033950330498272528 0.37949650625164111 0 -0.02899774776526198 0.38163099628876079 0 -0.026700945513074972 0.37586294977960671 0 -0.02899774776526198 0.38163099628876079 0 -0.023884054020430531 0.37978208630275351 0 -0.026700945513074972 0.37586294977960671 0 -0.02072758592548482 0.37339846111204489 0 -0.023884054020430531 0.37978208630275351 0 -0.026700945513074972 0.37586294977960671 0 -0.02072758592548482 0.37339846111204489 0 -0.023884054020430531 0.37978208630275351 0 -0.014281344412804689 0.37979282823332128 0 -0.032577727341914393 0.38748851950702318 0 -0.02899774776526198 0.38163099628876079 0 -0.023884054020430531 0.37978208630275351 0 -0.032577727341914393 0.38748851950702318 0 -0.025290582983321999 0.39225950924495068 0 -0.01718364103011082 0.39073283188216751 0 -0.03042403338509329 0.39238978629384452 0 -0.025290582983321999 0.39225950924495068 0 -0.0209769301761695 0.39842689929676778 0 -0.032577727341914393 0.38748851950702318 0 -0.03042403338509329 0.39238978629384452 0 -0.025290582983321999 0.39225950924495068 0 -0.03042403338509329 0.39238978629384452 0 -0.020532662567774449 0.41276426397874372 0 -0.034370346801040112 0.40109168266258488 0 -0.03042403338509329 0.39238978629384452 0 -0.020532662567774449 0.41276426397874372 0 -0.03042403338509329 0.39238978629384452 0 -0.0209769301761695 0.39842689929676778 0 -0.020532662567774449 0.41276426397874372 0 -0.0209769301761695 0.39842689929676778 0 -0.013097030378423269 0.40343531593127452 0 -0.020532662567774449 0.41276426397874372 0 -0.0209769301761695 0.39842689929676778 0 -0.01718364103011082 0.39073283188216751 0 -0.013097030378423269 0.40343531593127452 0 -0.025290582983321999 0.39225950924495068 0 -0.0209769301761695 0.39842689929676778 0 -0.01718364103011082 0.39073283188216751 0 -0.01718364103011082 0.39073283188216751 0 -0.013097030378423269 0.40343531593127452 0 -0.0080455913418213676 0.38100917333558221 0 -0.013097030378423269 0.40343531593127452 0 -0.0080455913418213676 0.38100917333558221 0 -0.013097030378423269 0.40343531593127452 0 -0.0024500114761617699 0.39007727404992448 0 -0.0080455913418213676 0.38100917333558221 0 -0.013097030378423269 0.40343531593127452 0 -0.0024500114761617699 0.39007727404992448 0 -0.0041407497796918259 0.4126946011504517 0 -0.013097030378423269 0.40343531593127452 0 -0.0024500114761617699 0.39007727404992448 0 -0.0024500114761617699 0.39007727404992448 0 -0.0080455913418213676 0.38100917333558221 0 0.0081970074261016289 0.37671923216857628 0 -0.011545606085483001 0.37035237353726019 0 -0.0080455913418213676 0.38100917333558221 0 -0.014281344412804689 0.37979282823332128 0 -0.0090473534328034469 0.43642197320796999 0 -0.016888937090431742 0.4202696952075492 0 0.001140924859785797 0.42442078218371693 0 -0.0090473534328034469 0.43642197320796999 0 -0.016888937090431742 0.4202696952075492 0 -0.0090473534328034469 0.43642197320796999 0 0.0052292096928386721 0.43797530083799202 0 0.001140924859785797 0.42442078218371693 0 -0.013097030378423269 0.40343531593127452 0 -0.016888937090431742 0.4202696952075492 0 -0.013097030378423269 0.40343531593127452 0 -0.0041407497796918259 0.4126946011504517 0 -0.016888937090431742 0.4202696952075492 0 -0.0041407497796918259 0.4126946011504517 0 -0.016888937090431742 0.4202696952075492 0 0.001140924859785797 0.42442078218371693 0 -0.013097030378423269 0.40343531593127452 0 -0.016888937090431742 0.4202696952075492 0 -0.020532662567774449 0.41276426397874372 0 -0.016888937090431742 0.4202696952075492 0 -0.020532662567774449 0.41276426397874372 0 -0.032168850802060771 0.42736334482942218 0 -0.020532662567774449 0.41276426397874372 0 -0.032168850802060771 0.42736334482942218 0 -0.035665839611380673 0.40990454061120413 0 -0.016888937090431742 0.4202696952075492 0 -0.020532662567774449 0.41276426397874372 0 -0.013097030378423269 0.40343531593127452 0 -0.020532662567774449 0.41276426397874372 0 -0.034370346801040112 0.40109168266258488 0 -0.020532662567774449 0.41276426397874372 0 -0.035665839611380673 0.40990454061120413 0 -0.020532662567774449 0.41276426397874372 0 -0.032168850802060771 0.42736334482942218 0 -0.016888937090431742 0.4202696952075492 0 -0.032168850802060771 0.42736334482942218 0 -0.021107209764115412 0.43899694971898778 0 -0.016888937090431742 0.4202696952075492 0 -0.021107209764115412 0.43899694971898778 0 -0.0090473534328034469 0.43642197320796999 0 -0.016888937090431742 0.4202696952075492 0 -0.021107209764115412 0.43899694971898778 0 -0.032168850802060771 0.42736334482942218 0 -0.032699126294609582 0.44573887461471262 0 -0.021107209764115412 0.43899694971898778 0 -0.032168850802060771 0.42736334482942218 0 -0.021107209764115412 0.43899694971898778 0 -0.032168850802060771 0.42736334482942218 0 -0.044203028658713027 0.44246175437414448 0 -0.032168850802060771 0.42736334482942218 0 -0.050057153402165898 0.42567312361349963 0 -0.044203028658713027 0.44246175437414448 0 -0.032168850802060771 0.42736334482942218 0 -0.051006434948720293 0.40755172643713761 0 -0.032168850802060771 0.42736334482942218 0 -0.035665839611380673 0.40990454061120413 0 -0.051006434948720293 0.40755172643713761 0 -0.032168850802060771 0.42736334482942218 0 -0.051006434948720293 0.40755172643713761 0 -0.050057153402165898 0.42567312361349963 0 -0.040936155916544079 0.40284032338139569 0 -0.035665839611380673 0.40990454061120413 0 -0.051006434948720293 0.40755172643713761 0 -0.051006434948720293 0.40755172643713761 0 -0.058687525430113609 0.41928478070503938 0 -0.050057153402165898 0.42567312361349963 0 -0.07037860674125726 0.41008946054005829 0 -0.051006434948720293 0.40755172643713761 0 -0.058687525430113609 0.41928478070503938 0 -0.063307906628310998 0.43382481222946251 0 -0.050057153402165898 0.42567312361349963 0 -0.044203028658713027 0.44246175437414448 0 -0.063307906628310998 0.43382481222946251 0 -0.058687525430113609 0.41928478070503938 0 -0.050057153402165898 0.42567312361349963 0 -0.063307906628310998 0.43382481222946251 0 -0.056237206515365332 0.45756016391886689 0 -0.063307906628310998 0.43382481222946251 0 -0.056237206515365332 0.45756016391886689 0 -0.044203028658713027 0.44246175437414448 0 -0.056237206515365332 0.45756016391886689 0 -0.042152133627481818 0.45554876784326098 0 -0.044203028658713027 0.44246175437414448 0 -0.056237206515365332 0.45756016391886689 0 -0.044203028658713027 0.44246175437414448 0 -0.056237206515365332 0.45756016391886689 0 -0.052690226777929519 0.46946687897655498 0 -0.069809382383106605 0.47508386593104618 0 -0.056237206515365332 0.45756016391886689 0 -0.042152133627481818 0.45554876784326098 0 -0.052690226777929519 0.46946687897655498 0 -0.056237206515365332 0.45756016391886689 0 -0.052690226777929519 0.46946687897655498 0 -0.025997751160904751 0.46070877835630603 0 -0.052690226777929519 0.46946687897655498 0 -0.042152133627481818 0.45554876784326098 0 -0.032699126294609582 0.44573887461471262 0 -0.025997751160904751 0.46070877835630603 0 -0.042152133627481818 0.45554876784326098 0 -0.025997751160904751 0.46070877835630603 0 -0.052690226777929519 0.46946687897655498 0 -0.025997751160904751 0.46070877835630603 0 -0.043186784380489729 0.4745471358312699 0 -0.052690226777929519 0.46946687897655498 0 -0.032168850802060771 0.42736334482942218 0 -0.044203028658713027 0.44246175437414448 0 -0.032699126294609582 0.44573887461471262 0 -0.042152133627481818 0.45554876784326098 0 -0.044203028658713027 0.44246175437414448 0 -0.032699126294609582 0.44573887461471262 0 -0.021107209764115412 0.43899694971898778 0 -0.025997751160904751 0.46070877835630603 0 -0.021107209764115412 0.43899694971898778 0 -0.015987582525798801 0.44438129732783038 0 -0.025997751160904751 0.46070877835630603 0 -0.032699126294609582 0.44573887461471262 0 -0.021107209764115412 0.43899694971898778 0 -0.025997751160904751 0.46070877835630603 0 -0.021107209764115412 0.43899694971898778 0 -0.015987582525798801 0.44438129732783038 0 -0.025997751160904751 0.46070877835630603 0 -0.0012057697751756359 0.45257425120839118 0 -0.025997751160904751 0.46070877835630603 0 -0.0068168678449093151 0.46757638146000302 0 -0.0012057697751756359 0.45257425120839118 0 -0.0068168678449093151 0.46757638146000302 0 0.003537016766246162 0.47294299582239979 0 0.0032794996504289901 0.46181311440647571 0 -0.0068168678449093151 0.46757638146000302 0 -0.0012057697751756359 0.45257425120839118 0 0.0032794996504289901 0.46181311440647571 0 -0.0090473534328034469 0.43642197320796999 0 -0.015987582525798801 0.44438129732783038 0 -0.0012057697751756359 0.45257425120839118 0 -0.0090473534328034469 0.43642197320796999 0 -0.0012057697751756359 0.45257425120839118 0 0.0052292096928386721 0.43797530083799202 0 -0.015987582525798801 0.44438129732783038 0 -0.025997751160904751 0.46070877835630603 0 -0.0012057697751756359 0.45257425120839118 0 -0.0090473534328034469 0.43642197320796999 0 -0.0012057697751756359 0.45257425120839118 0 -0.0090473534328034469 0.43642197320796999 0 -0.021107209764115412 0.43899694971898778 0 -0.015987582525798801 0.44438129732783038 0 -0.012175621420050461 0.5 0 -0.0036930259881434641 0.48121213739285151 0 -0.0158212295954137 0.47797033727746302 0 -0.012175621420050461 0.5 0 -0.0036930259881434641 0.48121213739285151 0 0.010496769125121539 0.5 0 -0.0068168678449093151 0.46757638146000302 0 -0.0036930259881434641 0.48121213739285151 0 0.003537016766246162 0.47294299582239979 0 -0.0068168678449093151 0.46757638146000302 0 -0.0036930259881434641 0.48121213739285151 0 -0.0158212295954137 0.47797033727746302 0 -0.025997751160904751 0.46070877835630603 0 -0.03042288156306247 0.4803543891781541 0 -0.025997751160904751 0.46070877835630603 0 -0.03042288156306247 0.4803543891781541 0 -0.0158212295954137 0.47797033727746302 0 -0.025997751160904751 0.46070877835630603 0 -0.0068168678449093151 0.46757638146000302 0 -0.0158212295954137 0.47797033727746302 0 -0.012175621420050461 0.5 0 -0.03042288156306247 0.4803543891781541 0 -0.0158212295954137 0.47797033727746302 0 -0.012175621420050461 0.5 0 -0.03042288156306247 0.4803543891781541 0 -0.034848011965222567 0.50000000000000189 0 -0.03042288156306247 0.4803543891781541 0 -0.034848011965222567 0.50000000000000189 0 -0.047552153902896493 0.4882146319696109 0 -0.03042288156306247 0.4803543891781541 0 -0.034848011965222567 0.50000000000000189 0 -0.025997751160904751 0.46070877835630603 0 -0.03042288156306247 0.4803543891781541 0 -0.043186784380489729 0.4745471358312699 0 -0.03042288156306247 0.4803543891781541 0 -0.043186784380489729 0.4745471358312699 0 -0.047552153902896493 0.4882146319696109 0 -0.052690226777929519 0.46946687897655498 0 -0.069809382383106605 0.47508386593104618 0 -0.052690226777929519 0.46946687897655498 0 -0.057131913950100532 0.47652667375143232 0 -0.069809382383106605 0.47508386593104618 0 -0.043186784380489729 0.4745471358312699 0 -0.052087602265145999 0.47148980521003842 0 -0.052690226777929519 0.46946687897655498 0 -0.043186784380489729 0.4745471358312699 0 -0.052087602265145999 0.47148980521003842 0 -0.05089159663797025 0.47900035936305119 0 -0.052087602265145999 0.47148980521003842 0 -0.052690226777929519 0.46946687897655498 0 -0.057131913950100532 0.47652667375143232 0 -0.052087602265145999 0.47148980521003842 0 -0.052690226777929519 0.46946687897655498 0 -0.052087602265145999 0.47148980521003842 0 -0.05089159663797025 0.47900035936305119 0 -0.057131913950100532 0.47652667375143232 0 -0.043186784380489729 0.4745471358312699 0 -0.05089159663797025 0.47900035936305119 0 -0.047552153902896493 0.4882146319696109 0 -0.05089159663797025 0.47900035936305119 0 -0.047552153902896493 0.4882146319696109 0 -0.055837240648395743 0.48507052056643618 0 -0.05089159663797025 0.47900035936305119 0 -0.057131913950100532 0.47652667375143232 0 -0.055837240648395743 0.48507052056643618 0 -0.057131913950100532 0.47652667375143232 0 -0.055837240648395743 0.48507052056643618 0 -0.064801945675512049 0.48440993632771451 0 -0.034848011965222567 0.50000000000000189 0 -0.047552153902896493 0.4882146319696109 0 -0.060667811057645737 0.5 0 -0.047552153902896493 0.4882146319696109 0 -0.055837240648395743 0.48507052056643618 0 -0.060667811057645737 0.5 0 -0.055837240648395743 0.48507052056643618 0 -0.060667811057645737 0.5 0 -0.064801945675512049 0.48440993632771451 0 -0.064801945675512049 0.48440993632771451 0 -0.073109514124694797 0.49074879446152769 0 -0.080480689615552492 0.47858524151839638 0 -0.060667811057645737 0.5 0 -0.073109514124694797 0.49074879446152769 0 -0.086487610150068894 0.5 0 -0.060667811057645737 0.5 0 -0.064801945675512049 0.48440993632771451 0 -0.073109514124694797 0.49074879446152769 0 -0.073109514124694797 0.49074879446152769 0 -0.086487610150068894 0.5 0 -0.080480689615552492 0.47858524151839638 0 -0.086487610150068894 0.5 0 -0.080480689615552492 0.47858524151839638 0 -0.097282347084511778 0.48351931274560622 0 -0.091892009439824188 0.47080085639346281 0 -0.080480689615552492 0.47858524151839638 0 -0.097282347084511778 0.48351931274560622 0 -0.091892009439824188 0.47080085639346281 0 -0.080480689615552492 0.47858524151839638 0 -0.07880245006367799 0.46855860761380819 0 -0.057131913950100532 0.47652667375143232 0 -0.064801945675512049 0.48440993632771451 0 -0.080480689615552492 0.47858524151839638 0 -0.080480689615552492 0.47858524151839638 0 -0.069809382383106605 0.47508386593104618 0 -0.07880245006367799 0.46855860761380819 0 -0.057131913950100532 0.47652667375143232 0 -0.080480689615552492 0.47858524151839638 0 -0.069809382383106605 0.47508386593104618 0 -0.080480689615552492 0.47858524151839638 0 -0.069809382383106605 0.47508386593104618 0 -0.056237206515365332 0.45756016391886689 0 -0.069809382383106605 0.47508386593104618 0 -0.070435863530345574 0.4611014091045279 0 -0.056237206515365332 0.45756016391886689 0 -0.070435863530345574 0.4611014091045279 0 -0.073258815974014763 0.44790547569480171 0 -0.056237206515365332 0.45756016391886689 0 -0.069809382383106605 0.47508386593104618 0 -0.070435863530345574 0.4611014091045279 0 -0.073258815974014763 0.44790547569480171 0 -0.081279095019410316 0.45757279706924348 0 -0.069809382383106605 0.47508386593104618 0 -0.070435863530345574 0.4611014091045279 0 -0.07880245006367799 0.46855860761380819 0 -0.070435863530345574 0.4611014091045279 0 -0.07880245006367799 0.46855860761380819 0 -0.081279095019410316 0.45757279706924348 0 -0.063307906628310998 0.43382481222946251 0 -0.056237206515365332 0.45756016391886689 0 -0.073258815974014763 0.44790547569480171 0 -0.080455004977953465 0.43226162754143188 0 -0.063307906628310998 0.43382481222946251 0 -0.073258815974014763 0.44790547569480171 0 -0.080455004977953465 0.43226162754143188 0 -0.073258815974014763 0.44790547569480171 0 -0.087837819172702641 0.44511204430527768 0 -0.087837819172702641 0.44511204430527768 0 -0.081279095019410316 0.45757279706924348 0 -0.1013019871340065 0.45050783700113939 0 -0.098359403805852508 0.43636700177652582 0 -0.080455004977953465 0.43226162754143188 0 -0.087837819172702641 0.44511204430527768 0 -0.073258815974014763 0.44790547569480171 0 -0.087837819172702641 0.44511204430527768 0 -0.081279095019410316 0.45757279706924348 0 -0.091892009439824188 0.47080085639346281 0 -0.07880245006367799 0.46855860761380819 0 -0.081279095019410316 0.45757279706924348 0 -0.081279095019410316 0.45757279706924348 0 -0.10930659836665479 0.46771669089506163 0 -0.1013019871340065 0.45050783700113939 0 -0.081279095019410316 0.45757279706924348 0 -0.10930659836665479 0.46771669089506163 0 -0.091892009439824188 0.47080085639346281 0 -0.081279095019410316 0.45757279706924348 0 -0.10930659836665479 0.46771669089506163 0 -0.098359403805852508 0.43636700177652582 0 -0.1013019871340065 0.45050783700113939 0 -0.11523573852528859 0.43769027782701359 0 -0.098359403805852508 0.43636700177652582 0 -0.087837819172702641 0.44511204430527768 0 -0.1013019871340065 0.45050783700113939 0 -0.13624442315839061 0.43231421562475381 0 -0.11523573852528859 0.43769027782701359 0 -0.1227755107625234 0.45001545325990822 0 -0.1013019871340065 0.45050783700113939 0 -0.11523573852528859 0.43769027782701359 0 -0.1227755107625234 0.45001545325990822 0 -0.1294134865506549 0.46171504414127501 0 -0.10930659836665479 0.46771669089506163 0 -0.1227755107625234 0.45001545325990822 0 -0.10930659836665479 0.46771669089506163 0 -0.1013019871340065 0.45050783700113939 0 -0.1227755107625234 0.45001545325990822 0 -0.10930659836665479 0.46771669089506163 0 -0.1227755107625234 0.45001545325990822 0 -0.13762824545901681 0.47796704311223098 0 -0.10930659836665479 0.46771669089506163 0 -0.1193475938167666 0.48446108402926802 0 -0.13762824545901681 0.47796704311223098 0 -0.10930659836665479 0.46771669089506163 0 -0.1193475938167666 0.48446108402926802 0 -0.1123074092424919 0.5 0 -0.097282347084511778 0.48351931274560622 0 -0.1381272083349151 0.5 0 -0.1193475938167666 0.48446108402926802 0 -0.1123074092424919 0.5 0 -0.086487610150068894 0.5 0 -0.1123074092424919 0.5 0 -0.097282347084511778 0.48351931274560622 0 -0.10930659836665479 0.46771669089506163 0 -0.1193475938167666 0.48446108402926802 0 -0.097282347084511778 0.48351931274560622 0 -0.10930659836665479 0.46771669089506163 0 -0.097282347084511778 0.48351931274560622 0 -0.091892009439824188 0.47080085639346281 0 -0.10930659836665479 0.46771669089506163 0 -0.097282347084511778 0.48351931274560622 0 -0.1664795783883187 0.087933616683675359 0 -0.1616816085775587 0.066836450223585087 0 -0.14732188859761641 0.084102191700312703 0 -0.1664795783883187 0.087933616683675359 0 -0.1616816085775587 0.066836450223585087 0 -0.17792028218336031 0.076045587858175168 0 -0.1616816085775587 0.066836450223585087 0 -0.17792028218336031 0.076045587858175168 0 -0.1778967441180816 0.059200252415486349 0 -0.17792028218336031 0.076045587858175168 0 -0.1778967441180816 0.059200252415486349 0 -0.19497975667281039 0.075296381703145926 0 -0.1664795783883187 0.087933616683675359 0 -0.17792028218336031 0.076045587858175168 0 -0.1822385647073175 0.09153261707041517 0 -0.17792028218336031 0.076045587858175168 0 -0.1822385647073175 0.09153261707041517 0 -0.19497975667281039 0.075296381703145926 0 -0.1822385647073175 0.09153261707041517 0 -0.18657352622541151 0.1062610852075284 0 -0.16917214231507299 0.10892462840946041 0 -0.1664795783883187 0.087933616683675359 0 -0.1822385647073175 0.09153261707041517 0 -0.16917214231507299 0.10892462840946041 0 -0.18657352622541151 0.1062610852075284 0 -0.1848176702866047 0.1219066283579336 0 -0.16917214231507299 0.10892462840946041 0 -0.1848176702866047 0.1219066283579336 0 -0.16917214231507299 0.10892462840946041 0 -0.1677540350350113 0.1322782621298946 0 -0.16917214231507299 0.10892462840946041 0 -0.14876203513099809 0.1208033907365498 0 -0.1677540350350113 0.1322782621298946 0 -0.1664795783883187 0.087933616683675359 0 -0.16917214231507299 0.10892462840946041 0 -0.1485771681973829 0.10031378251288239 0 -0.1664795783883187 0.087933616683675359 0 -0.1485771681973829 0.10031378251288239 0 -0.1485771681973829 0.10031378251288239 0 -0.14876203513099809 0.1208033907365498 0 -0.13067475800644701 0.1126939483420895 0 -0.16917214231507299 0.10892462840946041 0 -0.1485771681973829 0.10031378251288239 0 -0.14876203513099809 0.1208033907365498 0 -0.14876203513099809 0.1208033907365498 0 -0.13067475800644701 0.1126939483420895 0 -0.13459882766559439 0.12897230796523529 0 -0.13067475800644701 0.1126939483420895 0 -0.13459882766559439 0.12897230796523529 0 -0.1127466942094318 0.12503701762628699 0 -0.1485771681973829 0.10031378251288239 0 -0.13067475800644701 0.1126939483420895 0 -0.13582427398330771 0.095985719679065981 0 -0.13067475800644701 0.1126939483420895 0 -0.13582427398330771 0.095985719679065981 0 -0.12143729396583169 0.099971290508659591 0 -0.1485771681973829 0.10031378251288239 0 -0.13067475800644701 0.1126939483420895 0 -0.13582427398330771 0.095985719679065981 0 -0.13111026114926039 0.082847385331385665 0 -0.12143729396583169 0.099971290508659591 0 -0.13582427398330771 0.095985719679065981 0 -0.13111026114926039 0.082847385331385665 0 -0.14732188859761641 0.084102191700312703 0 -0.1485771681973829 0.10031378251288239 0 -0.13582427398330771 0.095985719679065981 0 -0.14732188859761641 0.084102191700312703 0 -0.1664795783883187 0.087933616683675359 0 -0.1485771681973829 0.10031378251288239 0 -0.14732188859761641 0.084102191700312703 0 -0.13111026114926039 0.082847385331385665 0 -0.14732188859761641 0.084102191700312703 0 -0.14417747662490171 0.068149007789455388 0 -0.1616816085775587 0.066836450223585087 0 -0.14732188859761641 0.084102191700312703 0 -0.14417747662490171 0.068149007789455388 0 -0.13111026114926039 0.082847385331385665 0 -0.14417747662490171 0.068149007789455388 0 -0.12780311571555611 0.06156812789504388 0 -0.12780311571555611 0.06156812789504388 0 -0.14774160736025721 0.047102116524373183 0 -0.1212523547240404 0.040639067568820852 0 -0.14417747662490171 0.068149007789455388 0 -0.12780311571555611 0.06156812789504388 0 -0.14774160736025721 0.047102116524373183 0 -0.14774160736025721 0.047102116524373183 0 -0.14149261918275319 0.025188296707684028 0 -0.1212523547240404 0.040639067568820852 0 -0.14774160736025721 0.047102116524373183 0 -0.14149261918275319 0.025188296707684028 0 -0.16247717735220599 0.026627257640726921 0 -0.1616816085775587 0.066836450223585087 0 -0.14417747662490171 0.068149007789455388 0 -0.14774160736025721 0.047102116524373183 0 -0.14149261918275319 0.025188296707684028 0 -0.12243433634289071 0.021276196369224291 0 -0.1212523547240404 0.040639067568820852 0 -0.13296179499841851 0.0059486398834025503 0 -0.14149261918275319 0.025188296707684028 0 -0.12243433634289071 0.021276196369224291 0 -0.14149261918275319 0.025188296707684028 0 -0.15622160541765129 0.0041525486497314794 0 -0.16247717735220599 0.026627257640726921 0 -0.13296179499841851 0.0059486398834025503 0 -0.14149261918275319 0.025188296707684028 0 -0.15622160541765129 0.0041525486497314794 0 -0.1770288573712796 -0.0063974746012641984 0 -0.15622160541765129 0.0041525486497314794 0 -0.17773071912050931 0.01287994147793927 0 -0.15622160541765129 0.0041525486497314794 0 -0.16247717735220599 0.026627257640726921 0 -0.17773071912050931 0.01287994147793927 0 -0.17961255323068959 0.028912445190011151 0 -0.17773071912050931 0.01287994147793927 0 -0.190236140128798 0.023908378478395911 0 -0.17961255323068959 0.028912445190011151 0 -0.1910166286273384 0.04031230668716132 0 -0.190236140128798 0.023908378478395911 0 -0.16247717735220599 0.026627257640726921 0 -0.17961255323068959 0.028912445190011151 0 -0.17773071912050931 0.01287994147793927 0 -0.1770288573712796 -0.0063974746012641984 0 -0.17773071912050931 0.01287994147793927 0 -0.19555622000339959 0.0123255107151128 0 -0.1770288573712796 -0.0063974746012641984 0 -0.19555622000339959 0.0123255107151128 0 -0.1616816085775587 0.066836450223585087 0 -0.17023368277037479 0.045322378593617547 0 -0.1778967441180816 0.059200252415486349 0 -0.1616816085775587 0.066836450223585087 0 -0.14774160736025721 0.047102116524373183 0 -0.17023368277037479 0.045322378593617547 0 -0.16247717735220599 0.026627257640726921 0 -0.17961255323068959 0.028912445190011151 0 -0.17023368277037479 0.045322378593617547 0 -0.14774160736025721 0.047102116524373183 0 -0.16247717735220599 0.026627257640726921 0 -0.17023368277037479 0.045322378593617547 0 -0.17961255323068959 0.028912445190011151 0 -0.17023368277037479 0.045322378593617547 0 -0.1910166286273384 0.04031230668716132 0 -0.17023368277037479 0.045322378593617547 0 -0.1778967441180816 0.059200252415486349 0 -0.1910166286273384 0.04031230668716132 0 -0.1778967441180816 0.059200252415486349 0 -0.20235564288590041 0.056930836279947029 0 -0.1778967441180816 0.059200252415486349 0 -0.20235564288590041 0.056930836279947029 0 -0.1910166286273384 0.04031230668716132 0 -0.1910166286273384 0.04031230668716132 0 -0.21023897743172981 0.042764005860694003 0 -0.20272011818391139 0.027083112398103879 0 -0.20235564288590041 0.056930836279947029 0 -0.1910166286273384 0.04031230668716132 0 -0.21023897743172981 0.042764005860694003 0 -0.21023897743172981 0.042764005860694003 0 -0.20272011818391139 0.027083112398103879 0 -0.21408358263552271 0.031048496031486711 0 -0.21023897743172981 0.042764005860694003 0 -0.21408358263552271 0.031048496031486711 0 -0.22425062904326851 0.041322892036088493 0 -0.20235564288590041 0.056930836279947029 0 -0.21023897743172981 0.042764005860694003 0 -0.22681454165371909 0.054661420144407717 0 -0.20235564288590041 0.056930836279947029 0 -0.22681454165371909 0.054661420144407717 0 -0.20235564288590041 0.056930836279947029 0 -0.22681454165371909 0.054661420144407717 0 -0.2155027414683143 0.066890197485726055 0 -0.17773071912050931 0.01287994147793927 0 -0.19555622000339959 0.0123255107151128 0 -0.190236140128798 0.023908378478395911 0 -0.1910166286273384 0.04031230668716132 0 -0.190236140128798 0.023908378478395911 0 -0.20272011818391139 0.027083112398103879 0 -0.19555622000339959 0.0123255107151128 0 -0.190236140128798 0.023908378478395911 0 -0.20272011818391139 0.027083112398103879 0 -0.19555622000339959 0.0123255107151128 0 -0.21408358263552271 0.031048496031486711 0 -0.19555622000339959 0.0123255107151128 0 -0.20272011818391139 0.027083112398103879 0 -0.21408358263552271 0.031048496031486711 0 -0.19555622000339959 0.0123255107151128 0 -0.21408358263552271 0.031048496031486711 0 -0.21139825154011679 0.015177385489202741 0 -0.21408358263552271 0.031048496031486711 0 -0.21139825154011679 0.015177385489202741 0 -0.22721623136891009 0.018159778332764099 0 -0.20272011818391139 0.027083112398103879 0 -0.21408358263552271 0.031048496031486711 0 -0.2109484402515481 -0.0049884885989098376 0 -0.19555622000339959 0.0123255107151128 0 -0.21139825154011679 0.015177385489202741 0 -0.2109484402515481 -0.0049884885989098376 0 -0.21139825154011679 0.015177385489202741 0 -0.22721623136891009 0.018159778332764099 0 -0.2109484402515481 -0.0049884885989098376 0 -0.22721623136891009 0.018159778332764099 0 -0.22665409530462069 -0.0070961945995017114 0 -0.22721623136891009 0.018159778332764099 0 -0.24108948540814429 0.0001228137568196347 0 -0.2109484402515481 -0.0049884885989098376 0 -0.22665409530462069 -0.0070961945995017114 0 -0.22721623136891009 0.018159778332764099 0 -0.21408358263552271 0.031048496031486711 0 -0.22721623136891009 0.018159778332764099 0 -0.22878380256089781 0.036178270647960427 0 -0.22721623136891009 0.018159778332764099 0 -0.24747936783635979 0.019387135744552111 0 -0.2434840224862716 0.04130804526443832 0 -0.22721623136891009 0.018159778332764099 0 -0.2434840224862716 0.04130804526443832 0 -0.22721623136891009 0.018159778332764099 0 -0.24747936783635979 0.019387135744552111 0 -0.24108948540814429 0.0001228137568196347 0 -0.22681454165371909 0.054661420144407717 0 -0.22425062904326851 0.041322892036088493 0 -0.23492128723313871 0.045172526420353062 0 -0.22681454165371909 0.054661420144407717 0 -0.2407316523979047 0.063464573191519102 0 -0.22957810185211699 0.066214796633450354 0 -0.21023897743172981 0.042764005860694003 0 -0.22681454165371909 0.054661420144407717 0 -0.22425062904326851 0.041322892036088493 0 -0.22721623136891009 0.018159778332764099 0 -0.22878380256089781 0.036178270647960427 0 -0.2434840224862716 0.04130804526443832 0 -0.21408358263552271 0.031048496031486711 0 -0.22425062904326851 0.041322892036088493 0 -0.21408358263552271 0.031048496031486711 0 -0.22425062904326851 0.041322892036088493 0 -0.22878380256089781 0.036178270647960427 0 -0.21408358263552271 0.031048496031486711 0 -0.22878380256089781 0.036178270647960427 0 -0.22425062904326851 0.041322892036088493 0 -0.22878380256089781 0.036178270647960427 0 -0.23492128723313871 0.045172526420353062 0 -0.22878380256089781 0.036178270647960427 0 -0.23492128723313871 0.045172526420353062 0 -0.2434840224862716 0.04130804526443832 0 -0.25127344042153787 0.052392004008869092 0 -0.23492128723313871 0.045172526420353062 0 -0.2434840224862716 0.04130804526443832 0 -0.22878380256089781 0.036178270647960427 0 -0.2434840224862716 0.04130804526443832 0 -0.25127344042153787 0.052392004008869092 0 -0.2434840224862716 0.04130804526443832 0 -0.25127344042153787 0.052392004008869092 0 -0.22681454165371909 0.054661420144407717 0 -0.25127344042153787 0.052392004008869092 0 -0.22681454165371909 0.054661420144407717 0 -0.23492128723313871 0.045172526420353062 0 -0.25127344042153787 0.052392004008869092 0 -0.22681454165371909 0.054661420144407717 0 -0.2407316523979047 0.063464573191519102 0 -0.25033167758740738 0.063270345931912539 0 -0.25127344042153787 0.052392004008869092 0 -0.2407316523979047 0.063464573191519102 0 -0.24941040641799569 0.072543547962933969 0 -0.2393679778748285 0.074466428417145514 0 -0.2407316523979047 0.063464573191519102 0 -0.25033167758740738 0.063270345931912539 0 -0.24941040641799569 0.072543547962933969 0 -0.2407316523979047 0.063464573191519102 0 -0.24941040641799569 0.072543547962933969 0 -0.2393679778748285 0.074466428417145514 0 -0.24976180809408241 0.081585985454475179 0 -0.2393679778748285 0.074466428417145514 0 -0.2407316523979047 0.063464573191519102 0 -0.22957810185211699 0.066214796633450354 0 -0.24976180809408241 0.081585985454475179 0 -0.2396481207525161 0.086154176299995402 0 -0.2490249111450448 0.096245607722758475 0 -0.2393679778748285 0.074466428417145514 0 -0.24976180809408241 0.081585985454475179 0 -0.2396481207525161 0.086154176299995402 0 -0.2393679778748285 0.074466428417145514 0 -0.2396481207525161 0.086154176299995402 0 -0.22728557331318089 0.07751478202682624 0 -0.2396481207525161 0.086154176299995402 0 -0.2262765804278378 0.091664437671628934 0 -0.238884370792454 0.099642339051752862 0 -0.2396481207525161 0.086154176299995402 0 -0.2262765804278378 0.091664437671628934 0 -0.22728557331318089 0.07751478202682624 0 -0.2262765804278378 0.091664437671628934 0 -0.22728557331318089 0.07751478202682624 0 -0.21275905177513871 0.084653394097040952 0 -0.2393679778748285 0.074466428417145514 0 -0.22957810185211699 0.066214796633450354 0 -0.22728557331318089 0.07751478202682624 0 -0.22681454165371909 0.054661420144407717 0 -0.22957810185211699 0.066214796633450354 0 -0.2155027414683143 0.066890197485726055 0 -0.22957810185211699 0.066214796633450354 0 -0.22728557331318089 0.07751478202682624 0 -0.2155027414683143 0.066890197485726055 0 -0.22728557331318089 0.07751478202682624 0 -0.2155027414683143 0.066890197485726055 0 -0.21275905177513871 0.084653394097040952 0 -0.20235564288590041 0.056930836279947029 0 -0.2155027414683143 0.066890197485726055 0 -0.19497975667281039 0.075296381703145926 0 -0.2155027414683143 0.066890197485726055 0 -0.21275905177513871 0.084653394097040952 0 -0.19497975667281039 0.075296381703145926 0 -0.21275905177513871 0.084653394097040952 0 -0.19830610245893149 0.094734402560505776 0 -0.21393330423941381 0.1001261885360161 0 -0.2262765804278378 0.091664437671628934 0 -0.21275905177513871 0.084653394097040952 0 -0.21393330423941381 0.1001261885360161 0 -0.21275905177513871 0.084653394097040952 0 -0.19497975667281039 0.075296381703145926 0 -0.19830610245893149 0.094734402560505776 0 -0.1822385647073175 0.09153261707041517 0 -0.19497975667281039 0.075296381703145926 0 -0.19830610245893149 0.094734402560505776 0 -0.1778967441180816 0.059200252415486349 0 -0.20235564288590041 0.056930836279947029 0 -0.19497975667281039 0.075296381703145926 0 -0.18657352622541151 0.1062610852075284 0 -0.1848176702866047 0.1219066283579336 0 -0.20027571785948989 0.1113074291530334 0 -0.1848176702866047 0.1219066283579336 0 -0.20027571785948989 0.1113074291530334 0 -0.20226483046954469 0.12802644696184079 0 -0.1822385647073175 0.09153261707041517 0 -0.18657352622541151 0.1062610852075284 0 -0.19830610245893149 0.094734402560505776 0 -0.18657352622541151 0.1062610852075284 0 -0.20027571785948989 0.1113074291530334 0 -0.19830610245893149 0.094734402560505776 0 -0.20027571785948989 0.1113074291530334 0 -0.19830610245893149 0.094734402560505776 0 -0.21393330423941381 0.1001261885360161 0 -0.20027571785948989 0.1113074291530334 0 -0.21393330423941381 0.1001261885360161 0 -0.21548862140668959 0.1150958486959789 0 -0.21393330423941381 0.1001261885360161 0 -0.21548862140668959 0.1150958486959789 0 -0.22667412200582079 0.1051450230659053 0 -0.20027571785948989 0.1113074291530334 0 -0.21548862140668959 0.1150958486959789 0 -0.20226483046954469 0.12802644696184079 0 -0.21548862140668959 0.1150958486959789 0 -0.20226483046954469 0.12802644696184079 0 -0.21737237040742899 0.12784640014443441 0 -0.22953498972507111 0.1208105602763981 0 -0.22667412200582079 0.1051450230659053 0 -0.23606646726954081 0.1107736111715026 0 -0.21548862140668959 0.1150958486959789 0 -0.22953498972507111 0.1208105602763981 0 -0.21737237040742899 0.12784640014443441 0 -0.21548862140668959 0.1150958486959789 0 -0.22953498972507111 0.1208105602763981 0 -0.22667412200582079 0.1051450230659053 0 -0.2262765804278378 0.091664437671628934 0 -0.21393330423941381 0.1001261885360161 0 -0.22667412200582079 0.1051450230659053 0 -0.22667412200582079 0.1051450230659053 0 -0.238884370792454 0.099642339051752862 0 -0.23606646726954081 0.1107736111715026 0 -0.2262765804278378 0.091664437671628934 0 -0.22667412200582079 0.1051450230659053 0 -0.238884370792454 0.099642339051752862 0 -0.238884370792454 0.099642339051752862 0 -0.24421462225753701 0.10878683071647639 0 -0.23606646726954081 0.1107736111715026 0 -0.25478591689589342 0.1088736405992687 0 -0.24421462225753701 0.10878683071647639 0 -0.2490249111450448 0.096245607722758475 0 -0.2396481207525161 0.086154176299995402 0 -0.238884370792454 0.099642339051752862 0 -0.2490249111450448 0.096245607722758475 0 -0.238884370792454 0.099642339051752862 0 -0.24421462225753701 0.10878683071647639 0 -0.2490249111450448 0.096245607722758475 0 -0.22953498972507111 0.1208105602763981 0 -0.2410242315668209 0.1194833027469801 0 -0.2405776929585374 0.13204504285148461 0 -0.24421462225753701 0.10878683071647639 0 -0.2410242315668209 0.1194833027469801 0 -0.23606646726954081 0.1107736111715026 0 -0.22953498972507111 0.1208105602763981 0 -0.2410242315668209 0.1194833027469801 0 -0.23606646726954081 0.1107736111715026 0 -0.24421462225753701 0.10878683071647639 0 -0.2410242315668209 0.1194833027469801 0 -0.24957446628960209 0.1172886197127147 0 -0.25478591689589342 0.1088736405992687 0 -0.24421462225753701 0.10878683071647639 0 -0.24957446628960209 0.1172886197127147 0 -0.2410242315668209 0.1194833027469801 0 -0.24957446628960209 0.1172886197127147 0 -0.24824707843623489 0.12578158396356739 0 -0.24824707843623489 0.12578158396356739 0 -0.24964446852777181 0.13261493155280701 0 -0.2405776929585374 0.13204504285148461 0 -0.2410242315668209 0.1194833027469801 0 -0.24824707843623489 0.12578158396356739 0 -0.2405776929585374 0.13204504285148461 0 -0.2405776929585374 0.13204504285148461 0 -0.22751358369540389 0.136771520212459 0 -0.23734310092666031 0.14916278266904159 0 -0.25100710053238262 0.14256546618606861 0 -0.24964446852777181 0.13261493155280701 0 -0.2405776929585374 0.13204504285148461 0 -0.22953498972507111 0.1208105602763981 0 -0.22751358369540389 0.136771520212459 0 -0.21737237040742899 0.12784640014443441 0 -0.22953498972507111 0.1208105602763981 0 -0.2405776929585374 0.13204504285148461 0 -0.22751358369540389 0.136771520212459 0 -0.22751358369540389 0.136771520212459 0 -0.21737237040742899 0.12784640014443441 0 -0.21205982674043591 0.1385276245754952 0 -0.22115019706761271 0.1511477542844912 0 -0.23734310092666031 0.14916278266904159 0 -0.22654321381995601 0.16403276728423291 0 -0.22751358369540389 0.136771520212459 0 -0.22115019706761271 0.1511477542844912 0 -0.23734310092666031 0.14916278266904159 0 -0.22751358369540389 0.136771520212459 0 -0.22115019706761271 0.1511477542844912 0 -0.21205982674043591 0.1385276245754952 0 -0.25393692785613931 0.1550256105710959 0 -0.25100710053238262 0.14256546618606861 0 -0.23734310092666031 0.14916278266904159 0 -0.25393692785613931 0.1550256105710959 0 -0.23734310092666031 0.14916278266904159 0 -0.24067299055659039 0.16255131729345901 0 -0.25100710053238262 0.14256546618606861 0 -0.2405776929585374 0.13204504285148461 0 -0.23734310092666031 0.14916278266904159 0 -0.25393692785613931 0.1550256105710959 0 -0.24995263048411609 0.1704783397427152 0 -0.24067299055659039 0.16255131729345901 0 -0.24995263048411609 0.1704783397427152 0 -0.24067299055659039 0.16255131729345901 0 -0.23754377473723071 0.17528440678741339 0 -0.24067299055659039 0.16255131729345901 0 -0.23754377473723071 0.17528440678741339 0 -0.22654321381995601 0.16403276728423291 0 -0.23734310092666031 0.14916278266904159 0 -0.24067299055659039 0.16255131729345901 0 -0.22654321381995601 0.16403276728423291 0 -0.2478771691703221 0.18597643835916239 0 -0.23754377473723071 0.17528440678741339 0 -0.23669456186070459 0.1909973272892436 0 -0.24995263048411609 0.1704783397427152 0 -0.2478771691703221 0.18597643835916239 0 -0.23754377473723071 0.17528440678741339 0 -0.23754377473723071 0.17528440678741339 0 -0.223522082531695 0.1776702507556677 0 -0.23669456186070459 0.1909973272892436 0 -0.23754377473723071 0.17528440678741339 0 -0.223522082531695 0.1776702507556677 0 -0.22654321381995601 0.16403276728423291 0 -0.223522082531695 0.1776702507556677 0 -0.22654321381995601 0.16403276728423291 0 -0.2088311118841164 0.16577623519438339 0 -0.22115019706761271 0.1511477542844912 0 -0.22654321381995601 0.16403276728423291 0 -0.2088311118841164 0.16577623519438339 0 -0.223522082531695 0.1776702507556677 0 -0.20855064549566649 0.1810226193051685 0 -0.2237220308011349 0.19916854776086881 0 -0.223522082531695 0.1776702507556677 0 -0.2088311118841164 0.16577623519438339 0 -0.20855064549566649 0.1810226193051685 0 -0.1897340361666561 0.17275318921760141 0 -0.203863132296845 0.19563116207391609 0 -0.2088311118841164 0.16577623519438339 0 -0.20855064549566649 0.1810226193051685 0 -0.1897340361666561 0.17275318921760141 0 -0.20855064549566649 0.1810226193051685 0 -0.1897340361666561 0.17275318921760141 0 -0.203863132296845 0.19563116207391609 0 -0.1897340361666561 0.17275318921760141 0 -0.203863132296845 0.19563116207391609 0 -0.18695996649000801 0.19026835978734849 0 -0.2088311118841164 0.16577623519438339 0 -0.1897340361666561 0.17275318921760141 0 -0.1974222514419923 0.1495037892985922 0 -0.1848176702866047 0.1219066283579336 0 -0.20226483046954469 0.12802644696184079 0 -0.1821371307280332 0.14035958823087721 0 -0.1974222514419923 0.1495037892985922 0 -0.20226483046954469 0.12802644696184079 0 -0.1821371307280332 0.14035958823087721 0 -0.1974222514419923 0.1495037892985922 0 -0.20226483046954469 0.12802644696184079 0 -0.21205982674043591 0.1385276245754952 0 -0.20226483046954469 0.12802644696184079 0 -0.21737237040742899 0.12784640014443441 0 -0.21205982674043591 0.1385276245754952 0 -0.22115019706761271 0.1511477542844912 0 -0.2088311118841164 0.16577623519438339 0 -0.1974222514419923 0.1495037892985922 0 -0.22115019706761271 0.1511477542844912 0 -0.1974222514419923 0.1495037892985922 0 -0.21205982674043591 0.1385276245754952 0 -0.2250928350229453 0.25292163524428368 0 -0.21984875732301029 0.2470374397753618 0 -0.23212132455722281 0.24138710778654551 0 -0.21984875732301029 0.2470374397753618 0 -0.23212132455722281 0.24138710778654551 0 -0.2185019126673759 0.2400929063296087 0 -0.2250928350229453 0.25292163524428368 0 -0.21984875732301029 0.2470374397753618 0 -0.2121038094894917 0.24921620618706919 0 -0.23212132455722281 0.24138710778654551 0 -0.21753807989650309 0.2320319393903009 0 -0.2185019126673759 0.2400929063296087 0 -0.23212132455722281 0.24138710778654551 0 -0.24646631454805509 0.24550208357914341 0 -0.24581436977621191 0.2304073522679074 0 -0.26270716451023202 0.22074957303227941 0 -0.24581436977621191 0.2304073522679074 0 -0.24084024831293541 0.20983886062041651 0 -0.23212132455722281 0.24138710778654551 0 -0.24581436977621191 0.2304073522679074 0 -0.23226069855506129 0.22166975633508729 0 -0.24581436977621191 0.2304073522679074 0 -0.23226069855506129 0.22166975633508729 0 -0.24084024831293541 0.20983886062041651 0 -0.23212132455722281 0.24138710778654551 0 -0.21799222842703389 0.21850913493023069 0 -0.21753807989650309 0.2320319393903009 0 -0.23212132455722281 0.24138710778654551 0 -0.23226069855506129 0.22166975633508729 0 -0.21799222842703389 0.21850913493023069 0 -0.23212132455722281 0.24138710778654551 0 -0.21799222842703389 0.21850913493023069 0 -0.23226069855506129 0.22166975633508729 0 -0.24084024831293541 0.20983886062041651 0 -0.2237220308011349 0.19916854776086881 0 -0.23226069855506129 0.22166975633508729 0 -0.2237220308011349 0.19916854776086881 0 -0.21799222842703389 0.21850913493023069 0 -0.26049401854676302 0.20169757637690361 0 -0.24084024831293541 0.20983886062041651 0 -0.2472271737918712 0.19821686000465291 0 -0.24084024831293541 0.20983886062041651 0 -0.2472271737918712 0.19821686000465291 0 -0.23669456186070459 0.1909973272892436 0 -0.2478771691703221 0.18597643835916239 0 -0.2472271737918712 0.19821686000465291 0 -0.23669456186070459 0.1909973272892436 0 -0.223522082531695 0.1776702507556677 0 -0.23669456186070459 0.1909973272892436 0 -0.2237220308011349 0.19916854776086881 0 -0.24084024831293541 0.20983886062041651 0 -0.23669456186070459 0.1909973272892436 0 -0.2237220308011349 0.19916854776086881 0 -0.20855064549566649 0.1810226193051685 0 -0.2237220308011349 0.19916854776086881 0 -0.203863132296845 0.19563116207391609 0 -0.203863132296845 0.19563116207391609 0 -0.18642101722582649 0.20799365798932171 0 -0.18695996649000801 0.19026835978734849 0 -0.20483959797992529 0.2287328180800805 0 -0.18642101722582649 0.20799365798932171 0 -0.203863132296845 0.19563116207391609 0 -0.20256522035517929 0.21223467955831879 0 -0.18642101722582649 0.20799365798932171 0 -0.20256522035517929 0.21223467955831879 0 -0.20483959797992529 0.2287328180800805 0 -0.18642101722582649 0.20799365798932171 0 -0.203863132296845 0.19563116207391609 0 -0.21799222842703389 0.21850913493023069 0 -0.2237220308011349 0.19916854776086881 0 -0.203863132296845 0.19563116207391609 0 -0.21799222842703389 0.21850913493023069 0 -0.203863132296845 0.19563116207391609 0 -0.20256522035517929 0.21223467955831879 0 -0.21799222842703389 0.21850913493023069 0 -0.20256522035517929 0.21223467955831879 0 -0.21799222842703389 0.21850913493023069 0 -0.20483959797992529 0.2287328180800805 0 -0.21799222842703389 0.21850913493023069 0 -0.21753807989650309 0.2320319393903009 0 -0.20483959797992529 0.2287328180800805 0 -0.21753807989650309 0.2320319393903009 0 -0.20483959797992529 0.2287328180800805 0 -0.20998790927246491 0.23684360615496511 0 -0.20483959797992529 0.2287328180800805 0 -0.19390979965137981 0.2268610642449933 0 -0.18642101722582649 0.20799365798932171 0 -0.20483959797992529 0.2287328180800805 0 -0.19390979965137981 0.2268610642449933 0 -0.20998790927246491 0.23684360615496511 0 -0.19390979965137981 0.2268610642449933 0 -0.2121038094894917 0.24921620618706919 0 -0.19390979965137981 0.2268610642449933 0 -0.19648852076111289 0.24343219406896049 0 -0.2121038094894917 0.24921620618706919 0 -0.19390979965137981 0.2268610642449933 0 -0.18842402659882079 0.23619914936446909 0 -0.19648852076111289 0.24343219406896049 0 -0.18464767838559679 0.25049223878500199 0 -0.18842402659882079 0.23619914936446909 0 -0.19648852076111289 0.24343219406896049 0 -0.19390979965137981 0.2268610642449933 0 -0.20998790927246491 0.23684360615496511 0 -0.2121038094894917 0.24921620618706919 0 -0.21753807989650309 0.2320319393903009 0 -0.20998790927246491 0.23684360615496511 0 -0.2185019126673759 0.2400929063296087 0 -0.20998790927246491 0.23684360615496511 0 -0.2185019126673759 0.2400929063296087 0 -0.2130342559501141 0.24412670269773801 0 -0.20998790927246491 0.23684360615496511 0 -0.2121038094894917 0.24921620618706919 0 -0.2130342559501141 0.24412670269773801 0 -0.21984875732301029 0.2470374397753618 0 -0.2185019126673759 0.2400929063296087 0 -0.2130342559501141 0.24412670269773801 0 -0.21984875732301029 0.2470374397753618 0 -0.2121038094894917 0.24921620618706919 0 -0.2130342559501141 0.24412670269773801 0 -0.2121038094894917 0.24921620618706919 0 -0.2130342559501141 0.24412670269773801 0 -0.1539614220325887 0.2535618054154064 0 -0.16958305356179451 0.2481989936065177 0 -0.16147647970129089 0.2302064646001801 0 -0.16958305356179451 0.2481989936065177 0 -0.1780642127327082 0.23735273336032339 0 -0.16147647970129089 0.2302064646001801 0 -0.18464767838559679 0.25049223878500199 0 -0.16958305356179451 0.2481989936065177 0 -0.1780642127327082 0.23735273336032339 0 -0.18464767838559679 0.25049223878500199 0 -0.18842402659882079 0.23619914936446909 0 -0.1780642127327082 0.23735273336032339 0 -0.19390979965137981 0.2268610642449933 0 -0.18007082475319169 0.22442766321271029 0 -0.18642101722582649 0.20799365798932171 0 -0.1780642127327082 0.23735273336032339 0 -0.18007082475319169 0.22442766321271029 0 -0.16147647970129089 0.2302064646001801 0 -0.19390979965137981 0.2268610642449933 0 -0.18842402659882079 0.23619914936446909 0 -0.18007082475319169 0.22442766321271029 0 -0.18842402659882079 0.23619914936446909 0 -0.1780642127327082 0.23735273336032339 0 -0.18007082475319169 0.22442766321271029 0 -0.18007082475319169 0.22442766321271029 0 -0.16147647970129089 0.2302064646001801 0 -0.16991991860828501 0.21175266678664861 0 -0.16147647970129089 0.2302064646001801 0 -0.16991991860828501 0.21175266678664861 0 -0.15362883488938819 0.208881050232468 0 -0.18007082475319169 0.22442766321271029 0 -0.16991991860828501 0.21175266678664861 0 -0.18642101722582649 0.20799365798932171 0 -0.18642101722582649 0.20799365798932171 0 -0.18695996649000801 0.19026835978734849 0 -0.16800243647172791 0.18725449789856299 0 -0.16991991860828501 0.21175266678664861 0 -0.18642101722582649 0.20799365798932171 0 -0.16800243647172791 0.18725449789856299 0 -0.18642101722582649 0.20799365798932171 0 -0.16800243647172791 0.18725449789856299 0 -0.16991991860828501 0.21175266678664861 0 -0.15362883488938819 0.208881050232468 0 -0.16800243647172791 0.18725449789856299 0 -0.1403261028421422 0.1928834496610255 0 -0.15362883488938819 0.208881050232468 0 -0.16800243647172791 0.18725449789856299 0 -0.1403261028421422 0.1928834496610255 0 -0.12603053573215481 0.20706124654130539 0 -0.112514298263345 0.1928525597888103 0 -0.1403261028421422 0.1928834496610255 0 -0.12603053573215481 0.20706124654130539 0 -0.1403261028421422 0.1928834496610255 0 -0.1391439733203168 0.21008686042493599 0 -0.12603053573215481 0.20706124654130539 0 -0.1391439733203168 0.21008686042493599 0 -0.12603053573215481 0.20706124654130539 0 -0.1252654393686892 0.22285244179319519 0 -0.1403261028421422 0.1928834496610255 0 -0.1391439733203168 0.21008686042493599 0 -0.15362883488938819 0.208881050232468 0 -0.1391439733203168 0.21008686042493599 0 -0.15362883488938819 0.208881050232468 0 -0.13885390223096999 0.22386751320372919 0 -0.16147647970129089 0.2302064646001801 0 -0.13885390223096999 0.22386751320372919 0 -0.14356617491254811 0.23961239808686491 0 -0.16147647970129089 0.2302064646001801 0 -0.15362883488938819 0.208881050232468 0 -0.13885390223096999 0.22386751320372919 0 -0.13885390223096999 0.22386751320372919 0 -0.1252654393686892 0.22285244179319519 0 -0.121507598013374 0.2359503546527445 0 -0.1391439733203168 0.21008686042493599 0 -0.13885390223096999 0.22386751320372919 0 -0.1252654393686892 0.22285244179319519 0 -0.13885390223096999 0.22386751320372919 0 -0.14356617491254811 0.23961239808686491 0 -0.121507598013374 0.2359503546527445 0 -0.1312802274045832 0.25066166588390548 0 -0.14356617491254811 0.23961239808686491 0 -0.121507598013374 0.2359503546527445 0 -0.1312802274045832 0.25066166588390548 0 -0.121507598013374 0.2359503546527445 0 -0.1312802274045832 0.25066166588390548 0 -0.1539614220325887 0.2535618054154064 0 -0.14356617491254811 0.23961239808686491 0 -0.1539614220325887 0.2535618054154064 0 -0.16147647970129089 0.2302064646001801 0 -0.14356617491254811 0.23961239808686491 0 -0.1677540350350113 0.1322782621298946 0 -0.17260002771101191 0.1555766876158878 0 -0.15074400937062921 0.1416536939954029 0 -0.17260002771101191 0.1555766876158878 0 -0.14958385571762919 0.16651533780780439 0 -0.15074400937062921 0.1416536939954029 0 -0.1848176702866047 0.1219066283579336 0 -0.1677540350350113 0.1322782621298946 0 -0.1821371307280332 0.14035958823087721 0 -0.1974222514419923 0.1495037892985922 0 -0.1821371307280332 0.14035958823087721 0 -0.17260002771101191 0.1555766876158878 0 -0.1677540350350113 0.1322782621298946 0 -0.1821371307280332 0.14035958823087721 0 -0.17260002771101191 0.1555766876158878 0 -0.1897340361666561 0.17275318921760141 0 -0.1974222514419923 0.1495037892985922 0 -0.17260002771101191 0.1555766876158878 0 -0.1897340361666561 0.17275318921760141 0 -0.17260002771101191 0.1555766876158878 0 -0.16800243647172791 0.18725449789856299 0 -0.17260002771101191 0.1555766876158878 0 -0.16800243647172791 0.18725449789856299 0 -0.14958385571762919 0.16651533780780439 0 -0.1897340361666561 0.17275318921760141 0 -0.18695996649000801 0.19026835978734849 0 -0.16800243647172791 0.18725449789856299 0 -0.16800243647172791 0.18725449789856299 0 -0.14958385571762919 0.16651533780780439 0 -0.1403261028421422 0.1928834496610255 0 -0.16800243647172791 0.18725449789856299 0 -0.14958385571762919 0.16651533780780439 0 -0.1403261028421422 0.1928834496610255 0 -0.1237313962823423 0.17254665445463019 0 -0.112514298263345 0.1928525597888103 0 -0.1403261028421422 0.1928834496610255 0 -0.14958385571762919 0.16651533780780439 0 -0.1237313962823423 0.17254665445463019 0 -0.14958385571762919 0.16651533780780439 0 -0.1311652749635305 0.14577617771704571 0 -0.1237313962823423 0.17254665445463019 0 -0.14958385571762919 0.16651533780780439 0 -0.1311652749635305 0.14577617771704571 0 -0.14958385571762919 0.16651533780780439 0 -0.1311652749635305 0.14577617771704571 0 -0.15074400937062921 0.1416536939954029 0 -0.14876203513099809 0.1208033907365498 0 -0.1677540350350113 0.1322782621298946 0 -0.15074400937062921 0.1416536939954029 0 -0.14876203513099809 0.1208033907365498 0 -0.15074400937062921 0.1416536939954029 0 -0.13459882766559439 0.12897230796523529 0 -0.1311652749635305 0.14577617771704571 0 -0.15074400937062921 0.1416536939954029 0 -0.13459882766559439 0.12897230796523529 0 -0.1311652749635305 0.14577617771704571 0 -0.13459882766559439 0.12897230796523529 0 -0.1127466942094318 0.12503701762628699 0 -0.1311652749635305 0.14577617771704571 0 -0.1127466942094318 0.12503701762628699 0 -0.1127466942094318 0.12503701762628699 0 -0.1090973993691368 0.1343759221783373 0 -0.1158612886124573 0.14081933615663811 0 -0.1311652749635305 0.14577617771704571 0 -0.1127466942094318 0.12503701762628699 0 -0.1158612886124573 0.14081933615663811 0 -0.1090973993691368 0.1343759221783373 0 -0.1054471852062424 0.13898844818827641 0 -0.1158612886124573 0.14081933615663811 0 -0.1127466942094318 0.12503701762628699 0 -0.10213537182402641 0.1324299687903886 0 -0.1127466942094318 0.12503701762628699 0 -0.10213537182402641 0.1324299687903886 0 -0.1090973993691368 0.1343759221783373 0 -0.1127466942094318 0.12503701762628699 0 -0.10113937503303259 0.13047748543396051 0 -0.1023796639526607 0.1240336021244187 0 -0.1127466942094318 0.12503701762628699 0 -0.10213537182402641 0.1324299687903886 0 -0.10113937503303259 0.13047748543396051 0 -0.10213537182402641 0.1324299687903886 0 -0.1090973993691368 0.1343759221783373 0 -0.1054471852062424 0.13898844818827641 0 -0.10213537182402641 0.1324299687903886 0 -0.1054471852062424 0.13898844818827641 0 -0.096160251660829935 0.13982239957949921 0 -0.10213537182402641 0.1324299687903886 0 -0.096160251660829935 0.13982239957949921 0 -0.10113937503303259 0.13047748543396051 0 -0.10113937503303259 0.13047748543396051 0 -0.08737841333221516 0.1290234842381934 0 -0.095427030793117817 0.1236036844967717 0 -0.10113937503303259 0.13047748543396051 0 -0.1023796639526607 0.1240336021244187 0 -0.095427030793117817 0.1236036844967717 0 -0.1030261379676924 0.14639580806807409 0 -0.1158612886124573 0.14081933615663811 0 -0.10589900683250859 0.1592950821076701 0 -0.1030261379676924 0.14639580806807409 0 -0.10589900683250859 0.1592950821076701 0 -0.089079890656826657 0.1520902156031457 0 -0.1054471852062424 0.13898844818827641 0 -0.096160251660829935 0.13982239957949921 0 -0.1030261379676924 0.14639580806807409 0 -0.096160251660829935 0.13982239957949921 0 -0.1030261379676924 0.14639580806807409 0 -0.089079890656826657 0.1520902156031457 0 -0.1054471852062424 0.13898844818827641 0 -0.1030261379676924 0.14639580806807409 0 -0.1158612886124573 0.14081933615663811 0 -0.1311652749635305 0.14577617771704571 0 -0.1158612886124573 0.14081933615663811 0 -0.10589900683250859 0.1592950821076701 0 -0.1237313962823423 0.17254665445463019 0 -0.1028998390748985 0.17795731964542541 0 -0.10589900683250859 0.1592950821076701 0 -0.1311652749635305 0.14577617771704571 0 -0.1237313962823423 0.17254665445463019 0 -0.10589900683250859 0.1592950821076701 0 -0.1237313962823423 0.17254665445463019 0 -0.1028998390748985 0.17795731964542541 0 -0.112514298263345 0.1928525597888103 0 -0.1028998390748985 0.17795731964542541 0 -0.10589900683250859 0.1592950821076701 0 -0.079408744935615422 0.17257648613595261 0 -0.10589900683250859 0.1592950821076701 0 -0.079408744935615422 0.17257648613595261 0 -0.089079890656826657 0.1520902156031457 0 -0.079408744935615422 0.17257648613595261 0 -0.066277010018531618 0.15280851667379869 0 -0.089079890656826657 0.1520902156031457 0 -0.079408744935615422 0.17257648613595261 0 -0.09254047985270146 0.19234445559810509 0 -0.071024932235475263 0.19322268420350541 0 -0.079408744935615422 0.17257648613595261 0 -0.09254047985270146 0.19234445559810509 0 -0.1028998390748985 0.17795731964542541 0 -0.079408744935615422 0.17257648613595261 0 -0.09254047985270146 0.19234445559810509 0 -0.079408744935615422 0.17257648613595261 0 -0.064163702614885562 0.18145482274776231 0 -0.071024932235475263 0.19322268420350541 0 -0.079408744935615422 0.17257648613595261 0 -0.064163702614885562 0.18145482274776231 0 -0.060219575744610163 0.17003764626346141 0 -0.079408744935615422 0.17257648613595261 0 -0.066277010018531618 0.15280851667379869 0 -0.079408744935615422 0.17257648613595261 0 -0.066277010018531618 0.15280851667379869 0 -0.060219575744610163 0.17003764626346141 0 -0.066277010018531618 0.15280851667379869 0 -0.070556094710029757 0.13569919473943151 0 -0.083708192525782057 0.14164300105387961 0 -0.066277010018531618 0.15280851667379869 0 -0.083708192525782057 0.14164300105387961 0 -0.066277010018531618 0.15280851667379869 0 -0.070556094710029757 0.13569919473943151 0 -0.056268606933574779 0.13774228149638479 0 -0.070556094710029757 0.13569919473943151 0 -0.058826861041099632 0.124124508740449 0 -0.075545555435008571 0.12106306554187871 0 -0.070556094710029757 0.13569919473943151 0 -0.08737841333221516 0.1290234842381934 0 -0.075545555435008571 0.12106306554187871 0 -0.10113937503303259 0.13047748543396051 0 -0.083708192525782057 0.14164300105387961 0 -0.070556094710029757 0.13569919473943151 0 -0.08737841333221516 0.1290234842381934 0 -0.083708192525782057 0.14164300105387961 0 -0.10113937503303259 0.13047748543396051 0 -0.08737841333221516 0.1290234842381934 0 -0.083708192525782057 0.14164300105387961 0 -0.096160251660829935 0.13982239957949921 0 -0.10113937503303259 0.13047748543396051 0 -0.083708192525782057 0.14164300105387961 0 -0.066277010018531618 0.15280851667379869 0 -0.089079890656826657 0.1520902156031457 0 -0.083708192525782057 0.14164300105387961 0 -0.096160251660829935 0.13982239957949921 0 -0.089079890656826657 0.1520902156031457 0 -0.083708192525782057 0.14164300105387961 0 -0.089864983184404265 0.25660839634379939 0 -0.097368223851613256 0.2354874315841973 0 -0.11095354651722571 0.24912079121846531 0 -0.097368223851613256 0.2354874315841973 0 -0.11095354651722571 0.24912079121846531 0 -0.1103910842510942 0.2354494052192474 0 -0.1312802274045832 0.25066166588390548 0 -0.11095354651722571 0.24912079121846531 0 -0.121507598013374 0.2359503546527445 0 -0.11095354651722571 0.24912079121846531 0 -0.121507598013374 0.2359503546527445 0 -0.1103910842510942 0.2354494052192474 0 -0.121507598013374 0.2359503546527445 0 -0.1103910842510942 0.2354494052192474 0 -0.11173496862216541 0.22123904342158329 0 -0.121507598013374 0.2359503546527445 0 -0.11173496862216541 0.22123904342158329 0 -0.1252654393686892 0.22285244179319519 0 -0.121507598013374 0.2359503546527445 0 -0.11173496862216541 0.22123904342158329 0 -0.097368223851613256 0.2354874315841973 0 -0.1056722147697869 0.2121124250602579 0 -0.097368223851613256 0.2354874315841973 0 -0.1056722147697869 0.2121124250602579 0 -0.092167025546007517 0.22048441227480761 0 -0.097368223851613256 0.2354874315841973 0 -0.11173496862216541 0.22123904342158329 0 -0.1056722147697869 0.2121124250602579 0 -0.097368223851613256 0.2354874315841973 0 -0.11173496862216541 0.22123904342158329 0 -0.097368223851613256 0.2354874315841973 0 -0.1103910842510942 0.2354494052192474 0 -0.11173496862216541 0.22123904342158329 0 -0.1056722147697869 0.2121124250602579 0 -0.09254047985270146 0.19234445559810509 0 -0.09014056632124326 0.20890416696971759 0 -0.1056722147697869 0.2121124250602579 0 -0.09014056632124326 0.20890416696971759 0 -0.092167025546007517 0.22048441227480761 0 -0.11173496862216541 0.22123904342158329 0 -0.1056722147697869 0.2121124250602579 0 -0.12603053573215481 0.20706124654130539 0 -0.11173496862216541 0.22123904342158329 0 -0.1056722147697869 0.2121124250602579 0 -0.12603053573215481 0.20706124654130539 0 -0.1056722147697869 0.2121124250602579 0 -0.112514298263345 0.1928525597888103 0 -0.12603053573215481 0.20706124654130539 0 -0.1252654393686892 0.22285244179319519 0 -0.11173496862216541 0.22123904342158329 0 -0.12603053573215481 0.20706124654130539 0 -0.11173496862216541 0.22123904342158329 0 -0.1056722147697869 0.2121124250602579 0 -0.112514298263345 0.1928525597888103 0 -0.1028998390748985 0.17795731964542541 0 -0.112514298263345 0.1928525597888103 0 -0.09254047985270146 0.19234445559810509 0 -0.1056722147697869 0.2121124250602579 0 -0.112514298263345 0.1928525597888103 0 -0.09254047985270146 0.19234445559810509 0 -0.1056722147697869 0.2121124250602579 0 -0.09254047985270146 0.19234445559810509 0 -0.09254047985270146 0.19234445559810509 0 -0.071024932235475263 0.19322268420350541 0 -0.079935716686101083 0.20367017543580559 0 -0.09254047985270146 0.19234445559810509 0 -0.079935716686101083 0.20367017543580559 0 -0.09014056632124326 0.20890416696971759 0 -0.071024932235475263 0.19322268420350541 0 -0.065858600914113732 0.2124172435229878 0 -0.079935716686101083 0.20367017543580559 0 -0.064163702614885562 0.18145482274776231 0 -0.071024932235475263 0.19322268420350541 0 -0.055724894900784701 0.19801673919575349 0 -0.071024932235475263 0.19322268420350541 0 -0.065858600914113732 0.2124172435229878 0 -0.055724894900784701 0.19801673919575349 0 -0.065858600914113732 0.2124172435229878 0 -0.080459339658104825 0.21707964005721769 0 -0.079935716686101083 0.20367017543580559 0 -0.080459339658104825 0.21707964005721769 0 -0.079935716686101083 0.20367017543580559 0 -0.09014056632124326 0.20890416696971759 0 -0.080459339658104825 0.21707964005721769 0 -0.09014056632124326 0.20890416696971759 0 -0.092167025546007517 0.22048441227480761 0 -0.080459339658104825 0.21707964005721769 0 -0.092167025546007517 0.22048441227480761 0 -0.083232336739226531 0.2329194990656113 0 -0.080459339658104825 0.21707964005721769 0 -0.083232336739226531 0.2329194990656113 0 -0.071574192693697525 0.23023090824112619 0 -0.097368223851613256 0.2354874315841973 0 -0.092167025546007517 0.22048441227480761 0 -0.083232336739226531 0.2329194990656113 0 -0.065858600914113732 0.2124172435229878 0 -0.080459339658104825 0.21707964005721769 0 -0.071574192693697525 0.23023090824112619 0 -0.065858600914113732 0.2124172435229878 0 -0.071574192693697525 0.23023090824112619 0 -0.056197361487002967 0.2297506690832484 0 -0.071574192693697525 0.23023090824112619 0 -0.065761447612287638 0.23821247976315571 0 -0.056197361487002967 0.2297506690832484 0 -0.083232336739226531 0.2329194990656113 0 -0.071574192693697525 0.23023090824112619 0 -0.072915420794760738 0.24639139995760401 0 -0.071574192693697525 0.23023090824112619 0 -0.065761447612287638 0.23821247976315571 0 -0.072915420794760738 0.24639139995760401 0 -0.065761447612287638 0.23821247976315571 0 -0.072915420794760738 0.24639139995760401 0 -0.059665981296547051 0.24568162203931529 0 -0.064712478575736129 0.25282925044640969 0 -0.072915420794760738 0.24639139995760401 0 -0.059665981296547051 0.24568162203931529 0 -0.083232336739226531 0.2329194990656113 0 -0.072915420794760738 0.24639139995760401 0 -0.084909817891176437 0.24784320227871631 0 -0.089864983184404265 0.25660839634379939 0 -0.097368223851613256 0.2354874315841973 0 -0.084909817891176437 0.24784320227871631 0 -0.089864983184404265 0.25660839634379939 0 -0.097368223851613256 0.2354874315841973 0 -0.097368223851613256 0.2354874315841973 0 -0.084909817891176437 0.24784320227871631 0 -0.097368223851613256 0.2354874315841973 0 -0.083232336739226531 0.2329194990656113 0 -0.084909817891176437 0.24784320227871631 0 -0.045000336895098761 0.24141590799535989 0 -0.037240889066990732 0.2249407195497049 0 -0.030676298589787959 0.2380925482842414 0 -0.033074366645123962 0.25046226796462451 0 -0.045000336895098761 0.24141590799535989 0 -0.030676298589787959 0.2380925482842414 0 -0.042933441299488867 0.25132212986177549 0 -0.033074366645123962 0.25046226796462451 0 -0.045000336895098761 0.24141590799535989 0 -0.051164090418747747 0.25312880362289952 0 -0.042933441299488867 0.25132212986177549 0 -0.045000336895098761 0.24141590799535989 0 -0.065761447612287638 0.23821247976315571 0 -0.059665981296547051 0.24568162203931529 0 -0.056197361487002967 0.2297506690832484 0 -0.045000336895098761 0.24141590799535989 0 -0.059665981296547051 0.24568162203931529 0 -0.056197361487002967 0.2297506690832484 0 -0.051164090418747747 0.25312880362289952 0 -0.045000336895098761 0.24141590799535989 0 -0.059665981296547051 0.24568162203931529 0 -0.056197361487002967 0.2297506690832484 0 -0.037240889066990732 0.2249407195497049 0 -0.049875474694418803 0.21365997845401091 0 -0.045000336895098761 0.24141590799535989 0 -0.056197361487002967 0.2297506690832484 0 -0.037240889066990732 0.2249407195497049 0 -0.034355627103201843 0.20317452091835969 0 -0.049875474694418803 0.21365997845401091 0 -0.055724894900784701 0.19801673919575349 0 -0.037240889066990732 0.2249407195497049 0 -0.034355627103201843 0.20317452091835969 0 -0.049875474694418803 0.21365997845401091 0 -0.065858600914113732 0.2124172435229878 0 -0.056197361487002967 0.2297506690832484 0 -0.049875474694418803 0.21365997845401091 0 -0.065858600914113732 0.2124172435229878 0 -0.049875474694418803 0.21365997845401091 0 -0.055724894900784701 0.19801673919575349 0 -0.034355627103201843 0.20317452091835969 0 -0.050093715640789037 0.18109307546952749 0 -0.035063826529984861 0.1870300557605673 0 -0.034355627103201843 0.20317452091835969 0 -0.050093715640789037 0.18109307546952749 0 -0.034355627103201843 0.20317452091835969 0 -0.055724894900784701 0.19801673919575349 0 -0.050093715640789037 0.18109307546952749 0 -0.034355627103201843 0.20317452091835969 0 -0.035063826529984861 0.1870300557605673 0 -0.019469786797647132 0.18279080742088019 0 -0.034355627103201843 0.20317452091835969 0 -0.01323639455950436 0.19731225798906599 0 -0.019469786797647132 0.18279080742088019 0 -0.01323639455950436 0.19731225798906599 0 -0.001046458677358735 0.1737636258738017 0 0.0073074383463005476 0.2015763693650964 0 -0.01323639455950436 0.19731225798906599 0 -0.018617538565614648 0.225255966367192 0 0.0073074383463005476 0.2015763693650964 0 -0.034355627103201843 0.20317452091835969 0 -0.018617538565614648 0.225255966367192 0 -0.034355627103201843 0.20317452091835969 0 -0.01323639455950436 0.19731225798906599 0 -0.018617538565614648 0.225255966367192 0 -0.037240889066990732 0.2249407195497049 0 -0.034355627103201843 0.20317452091835969 0 -0.018617538565614648 0.225255966367192 0 -0.018617538565614648 0.225255966367192 0 -0.0028794500280274371 0.2473374118160242 0 0.015661335369959829 0.2293891128563911 0 -0.037240889066990732 0.2249407195497049 0 -0.018617538565614648 0.225255966367192 0 -0.030676298589787959 0.2380925482842414 0 -0.018617538565614648 0.225255966367192 0 -0.0028794500280274371 0.2473374118160242 0 -0.01944836177611171 0.24838787954432581 0 -0.018617538565614648 0.225255966367192 0 -0.0028794500280274371 0.2473374118160242 0 -0.018617538565614648 0.225255966367192 0 -0.01944836177611171 0.24838787954432581 0 -0.030676298589787959 0.2380925482842414 0 -0.033074366645123962 0.25046226796462451 0 -0.01944836177611171 0.24838787954432581 0 -0.030676298589787959 0.2380925482842414 0 -0.036961730286256197 0.1471515921103608 0 -0.05059518641161298 0.15137551308197089 0 -0.042873398408089361 0.1677996620473394 0 -0.036961730286256197 0.1471515921103608 0 -0.036344115716729103 0.12580555564980481 0 -0.056268606933574779 0.13774228149638479 0 -0.036344115716729103 0.12580555564980481 0 -0.056268606933574779 0.13774228149638479 0 -0.058826861041099632 0.124124508740449 0 -0.070556094710029757 0.13569919473943151 0 -0.056268606933574779 0.13774228149638479 0 -0.058826861041099632 0.124124508740449 0 -0.036961730286256197 0.1471515921103608 0 -0.056268606933574779 0.13774228149638479 0 -0.05059518641161298 0.15137551308197089 0 -0.066277010018531618 0.15280851667379869 0 -0.056268606933574779 0.13774228149638479 0 -0.066277010018531618 0.15280851667379869 0 -0.056268606933574779 0.13774228149638479 0 -0.05059518641161298 0.15137551308197089 0 -0.066277010018531618 0.15280851667379869 0 -0.060219575744610163 0.17003764626346141 0 -0.042873398408089361 0.1677996620473394 0 -0.066277010018531618 0.15280851667379869 0 -0.05059518641161298 0.15137551308197089 0 -0.042873398408089361 0.1677996620473394 0 -0.066277010018531618 0.15280851667379869 0 -0.042873398408089361 0.1677996620473394 0 -0.064163702614885562 0.18145482274776231 0 -0.055724894900784701 0.19801673919575349 0 -0.050093715640789037 0.18109307546952749 0 -0.060219575744610163 0.17003764626346141 0 -0.050093715640789037 0.18109307546952749 0 -0.042873398408089361 0.1677996620473394 0 -0.064163702614885562 0.18145482274776231 0 -0.060219575744610163 0.17003764626346141 0 -0.050093715640789037 0.18109307546952749 0 -0.035063826529984861 0.1870300557605673 0 -0.042873398408089361 0.1677996620473394 0 -0.019469786797647132 0.18279080742088019 0 -0.050093715640789037 0.18109307546952749 0 -0.035063826529984861 0.1870300557605673 0 -0.042873398408089361 0.1677996620473394 0 -0.036961730286256197 0.1471515921103608 0 -0.042873398408089361 0.1677996620473394 0 -0.020003126987626779 0.16091737905394429 0 -0.042873398408089361 0.1677996620473394 0 -0.020003126987626779 0.16091737905394429 0 -0.019469786797647132 0.18279080742088019 0 -0.042873398408089361 0.1677996620473394 0 -0.019469786797647132 0.18279080742088019 0 -0.020003126987626779 0.16091737905394429 0 -0.019469786797647132 0.18279080742088019 0 -0.001046458677358735 0.1737636258738017 0 -0.01323639455950436 0.19731225798906599 0 -0.019469786797647132 0.18279080742088019 0 -0.001046458677358735 0.1737636258738017 0 -0.020003126987626779 0.16091737905394429 0 -0.001046458677358735 0.1737636258738017 0 -0.0013507412108303789 0.15247015714670559 0 -0.0013507412108303789 0.15247015714670559 0 -0.018316646545578869 0.1415284297245781 0 -0.00185731836924047 0.13695493251495711 0 -0.020003126987626779 0.16091737905394429 0 -0.0013507412108303789 0.15247015714670559 0 -0.018316646545578869 0.1415284297245781 0 -0.036961730286256197 0.1471515921103608 0 -0.020003126987626779 0.16091737905394429 0 -0.018316646545578869 0.1415284297245781 0 -0.036961730286256197 0.1471515921103608 0 -0.036344115716729103 0.12580555564980481 0 -0.018316646545578869 0.1415284297245781 0 -0.036344115716729103 0.12580555564980481 0 -0.018316646545578869 0.1415284297245781 0 -0.010933874401311839 0.12495824086183741 0 -0.018316646545578869 0.1415284297245781 0 -0.00185731836924047 0.13695493251495711 0 -0.010933874401311839 0.12495824086183741 0 -0.00185731836924047 0.13695493251495711 0 -0.010933874401311839 0.12495824086183741 0 0.0046593032027631414 0.1215934861258583 0 -0.010933874401311839 0.12495824086183741 0 -0.0062303060205972831 0.1111993339902959 0 0.0046593032027631414 0.1215934861258583 0 -0.010933874401311839 0.12495824086183741 0 -0.0062303060205972831 0.1111993339902959 0 -0.022276551778751111 0.1141080556036467 0 -0.0062303060205972831 0.1111993339902959 0 -0.022937621312122861 0.099783046718943058 0 0.00035173356732976288 0.096266868917212797 0 -0.0062303060205972831 0.1111993339902959 0 -0.022937621312122861 0.099783046718943058 0 -0.022276551778751111 0.1141080556036467 0 -0.022937621312122861 0.099783046718943058 0 -0.022276551778751111 0.1141080556036467 0 -0.034332906596188727 0.11011619063739379 0 -0.036344115716729103 0.12580555564980481 0 -0.010933874401311839 0.12495824086183741 0 -0.022276551778751111 0.1141080556036467 0 -0.036344115716729103 0.12580555564980481 0 -0.022276551778751111 0.1141080556036467 0 -0.034332906596188727 0.11011619063739379 0 -0.0022410518547087981 0.068156360643837788 0 -0.018987175398168368 0.065824946381668151 0 -0.0085739263170159907 0.060216399942791862 0 -0.0022410518547087981 0.068156360643837788 0 -0.0067334820512719674 0.078448756345131973 0 -0.018987175398168368 0.065824946381668151 0 -0.0067334820512719674 0.078448756345131973 0 -0.019256378169934221 0.083900604452358543 0 -0.018987175398168368 0.065824946381668151 0 -0.0022410518547087981 0.068156360643837788 0 -0.0067334820512719674 0.078448756345131973 0 0.0064654615991214361 0.078095001330582489 0 -0.0067334820512719674 0.078448756345131973 0 -0.019256378169934221 0.083900604452358543 0 0.00035173356732976288 0.096266868917212797 0 -0.022937621312122861 0.099783046718943058 0 -0.019256378169934221 0.083900604452358543 0 0.00035173356732976288 0.096266868917212797 0 -0.022937621312122861 0.099783046718943058 0 -0.019256378169934221 0.083900604452358543 0 -0.039712373920159041 0.084414438159458247 0 -0.019256378169934221 0.083900604452358543 0 -0.018987175398168368 0.065824946381668151 0 -0.035795300470429559 0.067656633513763359 0 -0.039712373920159041 0.084414438159458247 0 -0.05981513411356839 0.084862456954788903 0 -0.040785394421601708 0.098292561538220205 0 -0.035795300470429559 0.067656633513763359 0 -0.039712373920159041 0.084414438159458247 0 -0.05981513411356839 0.084862456954788903 0 -0.019256378169934221 0.083900604452358543 0 -0.035795300470429559 0.067656633513763359 0 -0.039712373920159041 0.084414438159458247 0 -0.05981513411356839 0.084862456954788903 0 -0.06123497201044846 0.098718209272813467 0 -0.05981513411356839 0.084862456954788903 0 -0.06123497201044846 0.098718209272813467 0 -0.065088631264566363 0.085115943741165073 0 -0.05981513411356839 0.084862456954788903 0 -0.058556774421057778 0.072759648150182862 0 -0.065088631264566363 0.085115943741165073 0 -0.05981513411356839 0.084862456954788903 0 -0.058556774421057778 0.072759648150182862 0 -0.035795300470429559 0.067656633513763359 0 -0.05981513411356839 0.084862456954788903 0 -0.035795300470429559 0.067656633513763359 0 -0.05981513411356839 0.084862456954788903 0 -0.058556774421057778 0.072759648150182862 0 -0.035795300470429559 0.067656633513763359 0 -0.058556774421057778 0.072759648150182862 0 -0.046739152868112303 0.0596507053821939 0 -0.036344115716729103 0.12580555564980481 0 -0.034332906596188727 0.11011619063739379 0 -0.0493208497517389 0.11259173367635419 0 -0.022937621312122861 0.099783046718943058 0 -0.039712373920159041 0.084414438159458247 0 -0.040785394421601708 0.098292561538220205 0 -0.022937621312122861 0.099783046718943058 0 -0.034332906596188727 0.11011619063739379 0 -0.040785394421601708 0.098292561538220205 0 -0.034332906596188727 0.11011619063739379 0 -0.040785394421601708 0.098292561538220205 0 -0.0493208497517389 0.11259173367635419 0 -0.05981513411356839 0.084862456954788903 0 -0.040785394421601708 0.098292561538220205 0 -0.06123497201044846 0.098718209272813467 0 -0.040785394421601708 0.098292561538220205 0 -0.055675387202300572 0.1053954136037786 0 -0.0493208497517389 0.11259173367635419 0 -0.040785394421601708 0.098292561538220205 0 -0.06123497201044846 0.098718209272813467 0 -0.040785394421601708 0.098292561538220205 0 -0.06123497201044846 0.098718209272813467 0 -0.055675387202300572 0.1053954136037786 0 -0.06123497201044846 0.098718209272813467 0 -0.055675387202300572 0.1053954136037786 0 -0.067669360936345013 0.098852137861699996 0 -0.0493208497517389 0.11259173367635419 0 -0.058826861041099632 0.124124508740449 0 -0.064925943699516694 0.1118452213388401 0 -0.036344115716729103 0.12580555564980481 0 -0.0493208497517389 0.11259173367635419 0 -0.058826861041099632 0.124124508740449 0 -0.055675387202300572 0.1053954136037786 0 -0.0493208497517389 0.11259173367635419 0 -0.064925943699516694 0.1118452213388401 0 -0.058826861041099632 0.124124508740449 0 -0.064925943699516694 0.1118452213388401 0 -0.075545555435008571 0.12106306554187871 0 -0.064925943699516694 0.1118452213388401 0 -0.075545555435008571 0.12106306554187871 0 -0.078637200351906023 0.1093852981671474 0 -0.08737841333221516 0.1290234842381934 0 -0.075545555435008571 0.12106306554187871 0 -0.089057236258070133 0.11664702919847281 0 -0.075545555435008571 0.12106306554187871 0 -0.078637200351906023 0.1093852981671474 0 -0.089057236258070133 0.11664702919847281 0 -0.08737841333221516 0.1290234842381934 0 -0.089057236258070133 0.11664702919847281 0 -0.095427030793117817 0.1236036844967717 0 -0.067669360936345013 0.098852137861699996 0 -0.077875742308756102 0.086362399391570421 0 -0.094553327451088326 0.0994117141851798 0 -0.078637200351906023 0.1093852981671474 0 -0.089057236258070133 0.11664702919847281 0 -0.094553327451088326 0.0994117141851798 0 -0.078637200351906023 0.1093852981671474 0 -0.067669360936345013 0.098852137861699996 0 -0.094553327451088326 0.0994117141851798 0 -0.067669360936345013 0.098852137861699996 0 -0.094553327451088326 0.0994117141851798 0 -0.064925943699516694 0.1118452213388401 0 -0.078637200351906023 0.1093852981671474 0 -0.067669360936345013 0.098852137861699996 0 -0.055675387202300572 0.1053954136037786 0 -0.064925943699516694 0.1118452213388401 0 -0.067669360936345013 0.098852137861699996 0 -0.06123497201044846 0.098718209272813467 0 -0.067669360936345013 0.098852137861699996 0 -0.06123497201044846 0.098718209272813467 0 -0.067669360936345013 0.098852137861699996 0 -0.06639356720313086 0.092254287081646263 0 -0.06123497201044846 0.098718209272813467 0 -0.06639356720313086 0.092254287081646263 0 -0.065088631264566363 0.085115943741165073 0 -0.06639356720313086 0.092254287081646263 0 -0.065088631264566363 0.085115943741165073 0 -0.077875742308756102 0.086362399391570421 0 -0.065088631264566363 0.085115943741165073 0 -0.077875742308756102 0.086362399391570421 0 -0.06853679401401222 0.075388554019432716 0 -0.067669360936345013 0.098852137861699996 0 -0.06639356720313086 0.092254287081646263 0 -0.077875742308756102 0.086362399391570421 0 -0.077875742308756102 0.086362399391570421 0 -0.06853679401401222 0.075388554019432716 0 -0.078965832989995516 0.068955733394964663 0 -0.058556774421057778 0.072759648150182862 0 -0.065088631264566363 0.085115943741165073 0 -0.06853679401401222 0.075388554019432716 0 -0.058556774421057778 0.072759648150182862 0 -0.06699398228735208 0.063471639669900742 0 -0.06853679401401222 0.075388554019432716 0 -0.06699398228735208 0.063471639669900742 0 -0.06853679401401222 0.075388554019432716 0 -0.078965832989995516 0.068955733394964663 0 -0.077875742308756102 0.086362399391570421 0 -0.078965832989995516 0.068955733394964663 0 -0.096007785258128156 0.075546368237404238 0 -0.078965832989995516 0.068955733394964663 0 -0.096007785258128156 0.075546368237404238 0 -0.0886319303390736 0.055805642772606079 0 -0.077875742308756102 0.086362399391570421 0 -0.096007785258128156 0.075546368237404238 0 -0.094553327451088326 0.0994117141851798 0 -0.096007785258128156 0.075546368237404238 0 -0.11154602087619769 0.086018463320188768 0 -0.094553327451088326 0.0994117141851798 0 -0.096007785258128156 0.075546368237404238 0 -0.11462143655668 0.072315558338314559 0 -0.1079155578781968 0.0583556318179137 0 -0.096007785258128156 0.075546368237404238 0 -0.1079155578781968 0.0583556318179137 0 -0.0886319303390736 0.055805642772606079 0 -0.096007785258128156 0.075546368237404238 0 -0.11462143655668 0.072315558338314559 0 -0.11154602087619769 0.086018463320188768 0 -0.12780311571555611 0.06156812789504388 0 -0.11462143655668 0.072315558338314559 0 -0.1079155578781968 0.0583556318179137 0 -0.13111026114926039 0.082847385331385665 0 -0.12780311571555611 0.06156812789504388 0 -0.11462143655668 0.072315558338314559 0 -0.13111026114926039 0.082847385331385665 0 -0.11154602087619769 0.086018463320188768 0 -0.12143729396583169 0.099971290508659591 0 -0.13111026114926039 0.082847385331385665 0 -0.11462143655668 0.072315558338314559 0 -0.11154602087619769 0.086018463320188768 0 -0.13067475800644701 0.1126939483420895 0 -0.12143729396583169 0.099971290508659591 0 -0.1121425957035742 0.11077112196348921 0 -0.12143729396583169 0.099971290508659591 0 -0.1121425957035742 0.11077112196348921 0 -0.094553327451088326 0.0994117141851798 0 -0.13067475800644701 0.1126939483420895 0 -0.1127466942094318 0.12503701762628699 0 -0.13067475800644701 0.1126939483420895 0 -0.1127466942094318 0.12503701762628699 0 -0.1121425957035742 0.11077112196348921 0 -0.089057236258070133 0.11664702919847281 0 -0.1013009048850721 0.11674163915523041 0 -0.094553327451088326 0.0994117141851798 0 -0.1127466942094318 0.12503701762628699 0 -0.1023796639526607 0.1240336021244187 0 -0.1013009048850721 0.11674163915523041 0 -0.1127466942094318 0.12503701762628699 0 -0.1121425957035742 0.11077112196348921 0 -0.1013009048850721 0.11674163915523041 0 -0.089057236258070133 0.11664702919847281 0 -0.095427030793117817 0.1236036844967717 0 -0.1013009048850721 0.11674163915523041 0 -0.1023796639526607 0.1240336021244187 0 -0.095427030793117817 0.1236036844967717 0 -0.1013009048850721 0.11674163915523041 0 -0.12143729396583169 0.099971290508659591 0 -0.094553327451088326 0.0994117141851798 0 -0.11154602087619769 0.086018463320188768 0 -0.12143729396583169 0.099971290508659591 0 -0.094553327451088326 0.0994117141851798 0 -0.1121425957035742 0.11077112196348921 0 -0.1013009048850721 0.11674163915523041 0 -0.094553327451088326 0.0994117141851798 0 -0.1032872892092138 0.028011297063112121 0 -0.1108539494081503 0.008041496653659528 0 -0.089378410504706268 0.016987312430054691 0 -0.1108539494081503 0.008041496653659528 0 -0.089378410504706268 0.016987312430054691 0 -0.09306177644197873 0.00089356871771194279 0 -0.115216914923293 -0.01398412961978371 0 -0.13296179499841851 0.0059486398834025503 0 -0.1108539494081503 0.008041496653659528 0 -0.13296179499841851 0.0059486398834025503 0 -0.1108539494081503 0.008041496653659528 0 -0.12243433634289071 0.021276196369224291 0 -0.1032872892092138 0.028011297063112121 0 -0.1108539494081503 0.008041496653659528 0 -0.12243433634289071 0.021276196369224291 0 -0.1032872892092138 0.028011297063112121 0 -0.12243433634289071 0.021276196369224291 0 -0.1212523547240404 0.040639067568820852 0 -0.12780311571555611 0.06156812789504388 0 -0.1212523547240404 0.040639067568820852 0 -0.1079155578781968 0.0583556318179137 0 -0.1212523547240404 0.040639067568820852 0 -0.1079155578781968 0.0583556318179137 0 -0.098664158228307708 0.043799001872534972 0 -0.1079155578781968 0.0583556318179137 0 -0.098664158228307708 0.043799001872534972 0 -0.0886319303390736 0.055805642772606079 0 -0.1032872892092138 0.028011297063112121 0 -0.1212523547240404 0.040639067568820852 0 -0.098664158228307708 0.043799001872534972 0 -0.1032872892092138 0.028011297063112121 0 -0.098664158228307708 0.043799001872534972 0 -0.07914939891846412 0.03453193046697689 0 -0.098664158228307708 0.043799001872534972 0 -0.07914939891846412 0.03453193046697689 0 -0.0886319303390736 0.055805642772606079 0 -0.07914939891846412 0.03453193046697689 0 -0.0886319303390736 0.055805642772606079 0 -0.073035399250079569 0.053286653859819989 0 -0.078965832989995516 0.068955733394964663 0 -0.0886319303390736 0.055805642772606079 0 -0.073035399250079569 0.053286653859819989 0 -0.06699398228735208 0.063471639669900742 0 -0.073035399250079569 0.053286653859819989 0 -0.055875110761615311 0.046967608925103488 0 -0.06699398228735208 0.063471639669900742 0 -0.078965832989995516 0.068955733394964663 0 -0.073035399250079569 0.053286653859819989 0 -0.07914939891846412 0.03453193046697689 0 -0.073035399250079569 0.053286653859819989 0 -0.055875110761615311 0.046967608925103488 0 -0.07914939891846412 0.03453193046697689 0 -0.053193447102172838 0.02117556970002412 0 -0.055875110761615311 0.046967608925103488 0 -0.07914939891846412 0.03453193046697689 0 -0.072501182663271851 0.009803197509418049 0 -0.053193447102172838 0.02117556970002412 0 -0.07914939891846412 0.03453193046697689 0 -0.089378410504706268 0.016987312430054691 0 -0.072501182663271851 0.009803197509418049 0 -0.1032872892092138 0.028011297063112121 0 -0.07914939891846412 0.03453193046697689 0 -0.089378410504706268 0.016987312430054691 0 -0.089378410504706268 0.016987312430054691 0 -0.09306177644197873 0.00089356871771194279 0 -0.072501182663271851 0.009803197509418049 0 -0.055515530224721277 -0.0051438872638667667 0 -0.053193447102172838 0.02117556970002412 0 -0.038793910950651059 0.0036386104169880821 0 -0.055515530224721277 -0.0051438872638667667 0 -0.072501182663271851 0.009803197509418049 0 -0.053193447102172838 0.02117556970002412 0 -0.053193447102172838 0.02117556970002412 0 -0.036249988819079017 0.02027817932682844 0 -0.036469661084654943 0.035018133135028308 0 -0.036249988819079017 0.02027817932682844 0 -0.036469661084654943 0.035018133135028308 0 -0.025822002630184641 0.029752897110764742 0 -0.036249988819079017 0.02027817932682844 0 -0.038793910950651059 0.0036386104169880821 0 -0.02179108638921648 0.017373934726512691 0 -0.053193447102172838 0.02117556970002412 0 -0.036249988819079017 0.02027817932682844 0 -0.038793910950651059 0.0036386104169880821 0 -0.058556774421057778 0.072759648150182862 0 -0.055875110761615311 0.046967608925103488 0 -0.058556774421057778 0.072759648150182862 0 -0.055875110761615311 0.046967608925103488 0 -0.046739152868112303 0.0596507053821939 0 -0.058556774421057778 0.072759648150182862 0 -0.06699398228735208 0.063471639669900742 0 -0.055875110761615311 0.046967608925103488 0 -0.053193447102172838 0.02117556970002412 0 -0.055875110761615311 0.046967608925103488 0 -0.053193447102172838 0.02117556970002412 0 -0.055875110761615311 0.046967608925103488 0 -0.036469661084654943 0.035018133135028308 0 -0.036469661084654943 0.035018133135028308 0 -0.036729425819346559 0.051218930939725918 0 -0.02485629112304432 0.041162885299047068 0 -0.055875110761615311 0.046967608925103488 0 -0.036469661084654943 0.035018133135028308 0 -0.036729425819346559 0.051218930939725918 0 -0.035795300470429559 0.067656633513763359 0 -0.036729425819346559 0.051218930939725918 0 -0.046739152868112303 0.0596507053821939 0 -0.055875110761615311 0.046967608925103488 0 -0.036729425819346559 0.051218930939725918 0 -0.046739152868112303 0.0596507053821939 0 -0.018987175398168368 0.065824946381668151 0 -0.035795300470429559 0.067656633513763359 0 -0.01200324193781566 0.050427127717453897 0 -0.035795300470429559 0.067656633513763359 0 -0.036729425819346559 0.051218930939725918 0 -0.02074980688715574 0.055184083504505148 0 -0.035795300470429559 0.067656633513763359 0 -0.01200324193781566 0.050427127717453897 0 -0.035795300470429559 0.067656633513763359 0 -0.02074980688715574 0.055184083504505148 0 -0.01200324193781566 0.050427127717453897 0 -0.036729425819346559 0.051218930939725918 0 -0.02074980688715574 0.055184083504505148 0 -0.02485629112304432 0.041162885299047068 0 -0.02074980688715574 0.055184083504505148 0 -0.02485629112304432 0.041162885299047068 0 -0.0097429857349284436 0.034931353066407198 0 -0.02485629112304432 0.041162885299047068 0 -0.0097429857349284436 0.034931353066407198 0 -0.025822002630184641 0.029752897110764742 0 -0.036469661084654943 0.035018133135028308 0 -0.02485629112304432 0.041162885299047068 0 -0.025822002630184641 0.029752897110764742 0 -0.02074980688715574 0.055184083504505148 0 -0.0097429857349284436 0.034931353066407198 0 -0.01200324193781566 0.050427127717453897 0 -0.02074980688715574 0.055184083504505148 0 -0.0097429857349284436 0.034931353066407198 0 -0.0097429857349284436 0.034931353066407198 0 -0.01200324193781566 0.050427127717453897 0 0.011788816594798249 0.033197621921144449 0 -0.01200324193781566 0.050427127717453897 0 0.011788816594798249 0.033197621921144449 0 -0.01200324193781566 0.050427127717453897 0 -0.001064236077371141 0.056457165028207613 0 0.0064051376942792504 0.046586188833112233 0 -0.0022410518547087981 0.068156360643837788 0 -0.001064236077371141 0.056457165028207613 0 -0.0085739263170159907 0.060216399942791862 0 -0.01200324193781566 0.050427127717453897 0 -0.001064236077371141 0.056457165028207613 0 -0.0085739263170159907 0.060216399942791862 0 -0.018987175398168368 0.065824946381668151 0 -0.01200324193781566 0.050427127717453897 0 -0.0085739263170159907 0.060216399942791862 0 -0.026266818702171939 -0.0053158858329299206 0 -0.038793910950651059 0.0036386104169880821 0 -0.02179108638921648 0.017373934726512691 0 -0.026266818702171939 -0.0053158858329299206 0 -0.011908967505614459 -0.0014877564624628109 0 -0.02179108638921648 0.017373934726512691 0 -0.0097429857349284436 0.034931353066407198 0 -0.025822002630184641 0.029752897110764742 0 -0.02179108638921648 0.017373934726512691 0 -0.036249988819079017 0.02027817932682844 0 -0.025822002630184641 0.029752897110764742 0 -0.02179108638921648 0.017373934726512691 0 -0.0097429857349284436 0.034931353066407198 0 0.0012638354172988949 0.014678622628309171 0 -0.0097429857349284436 0.034931353066407198 0 -0.02179108638921648 0.017373934726512691 0 0.0012638354172988949 0.014678622628309171 0 -0.011908967505614459 -0.0014877564624628109 0 -0.02179108638921648 0.017373934726512691 0 0.0012638354172988949 0.014678622628309171 0 -0.011908967505614459 -0.0014877564624628109 0 0.0012638354172988949 0.014678622628309171 0 0.0122706565695259 -0.0055741078097889859 0 0.0012638354172988949 0.014678622628309171 0 0.0122706565695259 -0.0055741078097889859 0 0.0012638354172988949 0.014678622628309171 0 0.01451278792726993 0.01939914259950265 0 0.0122706565695259 -0.0055741078097889859 0 0.0012638354172988949 0.014678622628309171 0 0.01451278792726993 0.01939914259950265 0 0.011788816594798249 0.033197621921144449 0 -0.0097429857349284436 0.034931353066407198 0 0.0012638354172988949 0.014678622628309171 0 0.011788816594798249 0.033197621921144449 0 0.02890639255910514 0.016208074266757969 0 0.020676471304725899 0.035855538714699847 0 0.033901241799089078 0.02194150886235045 0 0.027781976157525749 0.01473580740675773 0 0.020676471304725899 0.035855538714699847 0 0.01451278792726993 0.01939914259950265 0 0.011788816594798249 0.033197621921144449 0 0.020676471304725899 0.035855538714699847 0 0.02890639255910514 0.016208074266757969 0 0.027781976157525749 0.01473580740675773 0 0.020676471304725899 0.035855538714699847 0 0.01451278792726993 0.01939914259950265 0 0.027781976157525749 0.01473580740675773 0 0.020676471304725899 0.035855538714699847 0 0.02890639255910514 0.016208074266757969 0 0.027781976157525749 0.01473580740675773 0 0.033422415920780532 0.014852156381363699 0 0.027781976157525749 0.01473580740675773 0 0.0122706565695259 -0.0055741078097889859 0 0.034304151136240253 -0.0046500892954977006 0 0.01451278792726993 0.01939914259950265 0 0.027781976157525749 0.01473580740675773 0 0.0122706565695259 -0.0055741078097889859 0 0.027781976157525749 0.01473580740675773 0 0.0122706565695259 -0.0055741078097889859 0 0.027781976157525749 0.01473580740675773 0 0.034304151136240253 -0.0046500892954977006 0 0.02890639255910514 0.016208074266757969 0 0.027781976157525749 0.01473580740675773 0 -0.0022410518547087981 0.068156360643837788 0 -0.001064236077371141 0.056457165028207613 0 0.01357096645192386 0.056975270022641189 0 -0.001064236077371141 0.056457165028207613 0 0.01357096645192386 0.056975270022641189 0 0.0064051376942792504 0.046586188833112233 0 0.01357096645192386 0.056975270022641189 0 0.0064051376942792504 0.046586188833112233 0 0.020676471304725899 0.035855538714699847 0 -0.01200324193781566 0.050427127717453897 0 0.0064051376942792504 0.046586188833112233 0 0.011788816594798249 0.033197621921144449 0 0.0064051376942792504 0.046586188833112233 0 0.011788816594798249 0.033197621921144449 0 0.020676471304725899 0.035855538714699847 0 0.020676471304725899 0.035855538714699847 0 0.034165344199427211 0.052050526916910637 0 0.035953936076907271 0.039343502500954933 0 0.01357096645192386 0.056975270022641189 0 0.020676471304725899 0.035855538714699847 0 0.01357096645192386 0.056975270022641189 0 0.020676471304725899 0.035855538714699847 0 0.034165344199427211 0.052050526916910637 0 0.01357096645192386 0.056975270022641189 0 0.034165344199427211 0.052050526916910637 0 0.026832190993199709 0.073439728100557614 0 0.034165344199427211 0.052050526916910637 0 0.058018448332621778 0.051998566383021687 0 0.04599757656974722 0.069866698912443709 0 0.020676471304725899 0.035855538714699847 0 0.035953936076907271 0.039343502500954933 0 0.040663472916660608 0.028492741754720972 0 0.034165344199427211 0.052050526916910637 0 0.035953936076907271 0.039343502500954933 0 0.048701024858034479 0.037836279225313491 0 0.035953936076907271 0.039343502500954933 0 0.048701024858034479 0.037836279225313491 0 0.040663472916660608 0.028492741754720972 0 0.048701024858034479 0.037836279225313491 0 0.062131383987576297 0.031711478250425272 0 0.058018448332621778 0.051998566383021687 0 0.048701024858034479 0.037836279225313491 0 0.062131383987576297 0.031711478250425272 0 0.051003121718104109 0.0269088935894073 0 0.034165344199427211 0.052050526916910637 0 0.048701024858034479 0.037836279225313491 0 0.058018448332621778 0.051998566383021687 0 0.027781976157525749 0.01473580740675773 0 0.035474173144296017 0.0074916157421433026 0 0.034304151136240253 -0.0046500892954977006 0 0.042446081822082142 0.01056434679855058 0 0.040398944813901522 0.0086580091691112124 0 0.043943249532487801 0.0078677277703904768 0 0.042446081822082142 0.01056434679855058 0 0.040398944813901522 0.0086580091691112124 0 0.039663704005358333 0.011498151208592759 0 0.039663704005358333 0.011498151208592759 0 0.042382815416645611 0.01389756097076373 0 0.038033548449078039 0.01559088280832052 0 0.042446081822082142 0.01056434679855058 0 0.039663704005358333 0.011498151208592759 0 0.042382815416645611 0.01389756097076373 0 0.042446081822082142 0.01056434679855058 0 0.042382815416645611 0.01389756097076373 0 0.045841695342017437 0.010900284873894691 0 0.042382815416645611 0.01389756097076373 0 0.046128491266940991 0.015424885367366451 0 0.045841695342017437 0.010900284873894691 0 0.045841695342017437 0.010900284873894691 0 0.043943249532487801 0.0078677277703904768 0 0.048555957173215293 0.0072165335890248773 0 0.042446081822082142 0.01056434679855058 0 0.045841695342017437 0.010900284873894691 0 0.043943249532487801 0.0078677277703904768 0 0.043943249532487801 0.0078677277703904768 0 0.04471362878999266 0.0041462553546406794 0 0.048555957173215293 0.0072165335890248773 0 0.043943249532487801 0.0078677277703904768 0 0.04471362878999266 0.0041462553546406794 0 0.041697148069810418 0.0055805200300870043 0 0.04471362878999266 0.0041462553546406794 0 0.045577883269561643 0.001356711203132103 0 0.048765601285633182 0.002775182978581152 0 0.04471362878999266 0.0041462553546406794 0 0.045577883269561643 0.001356711203132103 0 0.042884969485449703 0.00071947726916594989 0 0.04471362878999266 0.0041462553546406794 0 0.042884969485449703 0.00071947726916594989 0 0.04141526426905822 0.002947207726523154 0 0.045577883269561643 0.001356711203132103 0 0.042884969485449703 0.00071947726916594989 0 0.044398023908916742 -0.00047599892084176752 0 0.042884969485449703 0.00071947726916594989 0 0.04141526426905822 0.002947207726523154 0 0.039943424991382682 0.00017342641415403869 0 0.04141526426905822 0.002947207726523154 0 0.039943424991382682 0.00017342641415403869 0 0.038895406690316187 0.0037621371394685231 0 0.040398944813901522 0.0086580091691112124 0 0.043943249532487801 0.0078677277703904768 0 0.041697148069810418 0.0055805200300870043 0 0.04471362878999266 0.0041462553546406794 0 0.04141526426905822 0.002947207726523154 0 0.041697148069810418 0.0055805200300870043 0 0.041697148069810418 0.0055805200300870043 0 0.039116418179581038 0.0063730705202025102 0 0.038895406690316187 0.0037621371394685231 0 0.04141526426905822 0.002947207726523154 0 0.041697148069810418 0.0055805200300870043 0 0.038895406690316187 0.0037621371394685231 0 0.040398944813901522 0.0086580091691112124 0 0.041697148069810418 0.0055805200300870043 0 0.039116418179581038 0.0063730705202025102 0 0.035474173144296017 0.0074916157421433026 0 0.034304151136240253 -0.0046500892954977006 0 0.036760601409293207 -0.00017021607206089449 0 0.039116418179581038 0.0063730705202025102 0 0.035474173144296017 0.0074916157421433026 0 0.038895406690316187 0.0037621371394685231 0 0.040398944813901522 0.0086580091691112124 0 0.039116418179581038 0.0063730705202025102 0 0.035474173144296017 0.0074916157421433026 0 0.035474173144296017 0.0074916157421433026 0 0.038895406690316187 0.0037621371394685231 0 0.036760601409293207 -0.00017021607206089449 0 0.039943424991382682 0.00017342641415403869 0 0.038895406690316187 0.0037621371394685231 0 0.036760601409293207 -0.00017021607206089449 0 0.035474173144296017 0.0074916157421433026 0 0.036859207615438767 0.0123594211139684 0 0.033422415920780532 0.014852156381363699 0 0.040398944813901522 0.0086580091691112124 0 0.039663704005358333 0.011498151208592759 0 0.035474173144296017 0.0074916157421433026 0 0.039663704005358333 0.011498151208592759 0 0.035474173144296017 0.0074916157421433026 0 0.036859207615438767 0.0123594211139684 0 0.039663704005358333 0.011498151208592759 0 0.036859207615438767 0.0123594211139684 0 0.038033548449078039 0.01559088280832052 0 0.036859207615438767 0.0123594211139684 0 0.038033548449078039 0.01559088280832052 0 0.033422415920780532 0.014852156381363699 0 0.027781976157525749 0.01473580740675773 0 0.035474173144296017 0.0074916157421433026 0 0.033422415920780532 0.014852156381363699 0 0.038033548449078039 0.01559088280832052 0 0.033422415920780532 0.014852156381363699 0 0.033901241799089078 0.02194150886235045 0 0.033901241799089078 0.02194150886235045 0 0.040663472916660608 0.028492741754720972 0 0.04197190593715594 0.018996498312884101 0 0.038033548449078039 0.01559088280832052 0 0.033901241799089078 0.02194150886235045 0 0.04197190593715594 0.018996498312884101 0 0.02890639255910514 0.016208074266757969 0 0.033422415920780532 0.014852156381363699 0 0.033901241799089078 0.02194150886235045 0 0.020676471304725899 0.035855538714699847 0 0.033901241799089078 0.02194150886235045 0 0.040663472916660608 0.028492741754720972 0 0.048701024858034479 0.037836279225313491 0 0.040663472916660608 0.028492741754720972 0 0.051003121718104109 0.0269088935894073 0 0.040663472916660608 0.028492741754720972 0 0.048560086334725423 0.020333870033735411 0 0.051003121718104109 0.0269088935894073 0 0.040663472916660608 0.028492741754720972 0 0.04197190593715594 0.018996498312884101 0 0.048560086334725423 0.020333870033735411 0 0.042382815416645611 0.01389756097076373 0 0.038033548449078039 0.01559088280832052 0 0.04197190593715594 0.018996498312884101 0 0.046128491266940991 0.015424885367366451 0 0.04197190593715594 0.018996498312884101 0 0.048560086334725423 0.020333870033735411 0 0.042382815416645611 0.01389756097076373 0 0.046128491266940991 0.015424885367366451 0 0.04197190593715594 0.018996498312884101 0 0.046128491266940991 0.015424885367366451 0 0.048560086334725423 0.020333870033735411 0 0.051053177328672143 0.01260274135136511 0 0.048560086334725423 0.020333870033735411 0 0.051003121718104109 0.0269088935894073 0 0.055743559222005509 0.017311065172138571 0 0.048560086334725423 0.020333870033735411 0 0.055743559222005509 0.017311065172138571 0 0.051053177328672143 0.01260274135136511 0 0.062131383987576297 0.031711478250425272 0 0.051003121718104109 0.0269088935894073 0 0.062135697449689532 0.022262570088767381 0 0.062135697449689532 0.022262570088767381 0 0.055743559222005509 0.017311065172138571 0 0.062929324731183206 0.013628913015440371 0 0.051003121718104109 0.0269088935894073 0 0.062135697449689532 0.022262570088767381 0 0.055743559222005509 0.017311065172138571 0 0.055743559222005509 0.017311065172138571 0 0.056715139945376462 0.0094850993889856444 0 0.062929324731183206 0.013628913015440371 0 0.056715139945376462 0.0094850993889856444 0 0.063713407752740994 0.0067003402479781553 0 0.062929324731183206 0.013628913015440371 0 0.055743559222005509 0.017311065172138571 0 0.056715139945376462 0.0094850993889856444 0 0.051053177328672143 0.01260274135136511 0 0.056715139945376462 0.0094850993889856444 0 0.051053177328672143 0.01260274135136511 0 0.052226760942877662 0.0084892275653211391 0 0.051053177328672143 0.01260274135136511 0 0.052226760942877662 0.0084892275653211391 0 0.048555957173215293 0.0072165335890248773 0 0.045841695342017437 0.010900284873894691 0 0.051053177328672143 0.01260274135136511 0 0.048555957173215293 0.0072165335890248773 0 0.046128491266940991 0.015424885367366451 0 0.045841695342017437 0.010900284873894691 0 0.051053177328672143 0.01260274135136511 0 0.048765601285633182 0.002775182978581152 0 0.051440149982638711 0.00071573179540184361 0 0.049084708219886461 -0.0010591366939475409 0 0.045577883269561643 0.001356711203132103 0 0.048765601285633182 0.002775182978581152 0 0.049084708219886461 -0.0010591366939475409 0 0.048765601285633182 0.002775182978581152 0 0.048555957173215293 0.0072165335890248773 0 0.053047384214486709 0.0045264499505002394 0 0.04471362878999266 0.0041462553546406794 0 0.048765601285633182 0.002775182978581152 0 0.048555957173215293 0.0072165335890248773 0 0.052226760942877662 0.0084892275653211391 0 0.048555957173215293 0.0072165335890248773 0 0.053047384214486709 0.0045264499505002394 0 0.056715139945376462 0.0094850993889856444 0 0.052226760942877662 0.0084892275653211391 0 0.053047384214486709 0.0045264499505002394 0 0.048765601285633182 0.002775182978581152 0 0.053047384214486709 0.0045264499505002394 0 0.051440149982638711 0.00071573179540184361 0 0.053047384214486709 0.0045264499505002394 0 0.051440149982638711 0.00071573179540184361 0 0.054570243933502537 0.00025638892382715879 0 0.054570243933502537 0.00025638892382715879 0 0.059064100454841291 0.0019859127964279031 0 0.057621307896374631 -0.0022194826214428308 0 0.053047384214486709 0.0045264499505002394 0 0.054570243933502537 0.00025638892382715879 0 0.059064100454841291 0.0019859127964279031 0 0.056715139945376462 0.0094850993889856444 0 0.053047384214486709 0.0045264499505002394 0 0.059064100454841291 0.0019859127964279031 0 0.056715139945376462 0.0094850993889856444 0 0.059064100454841291 0.0019859127964279031 0 0.063713407752740994 0.0067003402479781553 0 0.063713407752740994 0.0067003402479781553 0 0.073284976120953346 0.0031879796578754439 0 0.066051670772587168 -0.0013996614558420869 0 0.059064100454841291 0.0019859127964279031 0 0.063713407752740994 0.0067003402479781553 0 0.066051670772587168 -0.0013996614558420869 0 0.063713407752740994 0.0067003402479781553 0 0.071567329575969521 0.011121095967741079 0 0.073284976120953346 0.0031879796578754439 0 0.063713407752740994 0.0067003402479781553 0 0.062929324731183206 0.013628913015440371 0 0.071567329575969521 0.011121095967741079 0 0.062929324731183206 0.013628913015440371 0 0.071567329575969521 0.011121095967741079 0 0.069429508155262026 0.01782341356397641 0 0.071567329575969521 0.011121095967741079 0 0.077483434711505345 0.017574431780351889 0 0.069429508155262026 0.01782341356397641 0 0.071567329575969521 0.011121095967741079 0 0.082563325984172334 0.0078114975408241846 0 0.077483434711505345 0.017574431780351889 0 0.071567329575969521 0.011121095967741079 0 0.073284976120953346 0.0031879796578754439 0 0.082563325984172334 0.0078114975408241846 0 0.073284976120953346 0.0031879796578754439 0 0.082563325984172334 0.0078114975408241846 0 0.080983079341953854 -0.0049042304712999746 0 0.082563325984172334 0.0078114975408241846 0 0.08725024036741795 0.017743440030699571 0 0.077483434711505345 0.017574431780351889 0 0.082563325984172334 0.0078114975408241846 0 0.08725024036741795 0.017743440030699571 0 0.097124770672335062 0.01102829468143763 0 0.082563325984172334 0.0078114975408241846 0 0.097124770672335062 0.01102829468143763 0 0.095293300726640384 -0.0026303323679718791 0 0.082563325984172334 0.0078114975408241846 0 0.080983079341953854 -0.0049042304712999746 0 0.095293300726640384 -0.0026303323679718791 0 0.083223810021370914 0.027991415510345102 0 0.090246243108845117 0.038077924000348408 0 0.095855860447706054 0.024311560640539048 0 0.08725024036741795 0.017743440030699571 0 0.083223810021370914 0.027991415510345102 0 0.095855860447706054 0.024311560640539048 0 0.08725024036741795 0.017743440030699571 0 0.097124770672335062 0.01102829468143763 0 0.095855860447706054 0.024311560640539048 0 0.08725024036741795 0.017743440030699571 0 0.083223810021370914 0.027991415510345102 0 0.077483434711505345 0.017574431780351889 0 0.083223810021370914 0.027991415510345102 0 0.071577286884006108 0.026191656941216421 0 0.077483434711505345 0.017574431780351889 0 0.071577286884006108 0.026191656941216421 0 0.077483434711505345 0.017574431780351889 0 0.069429508155262026 0.01782341356397641 0 0.062135697449689532 0.022262570088767381 0 0.071577286884006108 0.026191656941216421 0 0.069429508155262026 0.01782341356397641 0 0.062135697449689532 0.022262570088767381 0 0.062929324731183206 0.013628913015440371 0 0.069429508155262026 0.01782341356397641 0 0.062131383987576297 0.031711478250425272 0 0.062135697449689532 0.022262570088767381 0 0.071577286884006108 0.026191656941216421 0 0.062131383987576297 0.031711478250425272 0 0.071577286884006108 0.026191656941216421 0 0.073333255740034686 0.041299663185849232 0 0.062131383987576297 0.031711478250425272 0 0.058018448332621778 0.051998566383021687 0 0.073333255740034686 0.041299663185849232 0 0.083223810021370914 0.027991415510345102 0 0.071577286884006108 0.026191656941216421 0 0.073333255740034686 0.041299663185849232 0 0.058018448332621778 0.051998566383021687 0 0.073333255740034686 0.041299663185849232 0 0.072539126032095808 0.066094258457378929 0 0.073333255740034686 0.041299663185849232 0 0.094445483211815395 0.054453205593202832 0 0.072539126032095808 0.066094258457378929 0 0.073333255740034686 0.041299663185849232 0 0.090246243108845117 0.038077924000348408 0 0.094445483211815395 0.054453205593202832 0 0.083223810021370914 0.027991415510345102 0 0.073333255740034686 0.041299663185849232 0 0.090246243108845117 0.038077924000348408 0 0.090246243108845117 0.038077924000348408 0 0.1070602778565556 0.035755694254086007 0 0.094445483211815395 0.054453205593202832 0 0.090246243108845117 0.038077924000348408 0 0.1070602778565556 0.035755694254086007 0 0.095855860447706054 0.024311560640539048 0 0.094445483211815395 0.054453205593202832 0 0.1145025214138863 0.052650644276098509 0 0.10078485425422019 0.076986589652265902 0 0.1070602778565556 0.035755694254086007 0 0.094445483211815395 0.054453205593202832 0 0.1145025214138863 0.052650644276098509 0 0.1070602778565556 0.035755694254086007 0 0.1145025214138863 0.052650644276098509 0 0.1219569800619074 0.03737599779737627 0 0.1070602778565556 0.035755694254086007 0 0.1219569800619074 0.03737599779737627 0 0.12251008271650859 0.023139438711283121 0 0.12251008271650859 0.023139438711283121 0 0.12169987808444491 0.0072513285582684502 0 0.1089680143517609 0.017501156125842739 0 0.1070602778565556 0.035755694254086007 0 0.12251008271650859 0.023139438711283121 0 0.1089680143517609 0.017501156125842739 0 0.12169987808444491 0.0072513285582684502 0 0.1085702234887449 0.0020309669460380048 0 0.1206640635614146 -0.0053745055608071489 0 0.12169987808444491 0.0072513285582684502 0 0.1085702234887449 0.0020309669460380048 0 0.1089680143517609 0.017501156125842739 0 0.1085702234887449 0.0020309669460380048 0 0.097124770672335062 0.01102829468143763 0 0.1089680143517609 0.017501156125842739 0 0.1085702234887449 0.0020309669460380048 0 0.097124770672335062 0.01102829468143763 0 0.095293300726640384 -0.0026303323679718791 0 0.097124770672335062 0.01102829468143763 0 0.095855860447706054 0.024311560640539048 0 0.1089680143517609 0.017501156125842739 0 0.1070602778565556 0.035755694254086007 0 0.095855860447706054 0.024311560640539048 0 0.1089680143517609 0.017501156125842739 0 0.10712422529662489 0.099519973711329021 0 0.096249759850915911 0.11453754881994301 0 0.090272478882294907 0.098763330007940783 0 0.10712422529662489 0.099519973711329021 0 0.096249759850915911 0.11453754881994301 0 0.11346359633902969 0.1220533577703921 0 0.096249759850915911 0.11453754881994301 0 0.099990139697526931 0.1245068611999077 0 0.11346359633902969 0.1220533577703921 0 0.096249759850915911 0.11453754881994301 0 0.099990139697526931 0.1245068611999077 0 0.0892939365473219 0.1235022745672149 0 0.11346359633902969 0.1220533577703921 0 0.12008056923662259 0.10449181260521689 0 0.13059818477956889 0.1110944223505837 0 0.10712422529662489 0.099519973711329021 0 0.11346359633902969 0.1220533577703921 0 0.10712422529662489 0.099519973711329021 0 0.11346359633902969 0.1220533577703921 0 0.12008056923662259 0.10449181260521689 0 0.10712422529662489 0.099519973711329021 0 0.12008056923662259 0.10449181260521689 0 0.1182790366903594 0.092998163504833142 0 0.12008056923662259 0.10449181260521689 0 0.1182790366903594 0.092998163504833142 0 0.12988486795911119 0.098065313119334113 0 0.1182790366903594 0.092998163504833142 0 0.12908420556154929 0.066539794579808562 0 0.1182790366903594 0.092998163504833142 0 0.10078485425422019 0.076986589652265902 0 0.12908420556154929 0.066539794579808562 0 0.1145025214138863 0.052650644276098509 0 0.10078485425422019 0.076986589652265902 0 0.12908420556154929 0.066539794579808562 0 0.094445483211815395 0.054453205593202832 0 0.10078485425422019 0.076986589652265902 0 0.10712422529662489 0.099519973711329021 0 0.10078485425422019 0.076986589652265902 0 0.10712422529662489 0.099519973711329021 0 0.10078485425422019 0.076986589652265902 0 0.090272478882294907 0.098763330007940783 0 0.10712422529662489 0.099519973711329021 0 0.1182790366903594 0.092998163504833142 0 0.10078485425422019 0.076986589652265902 0 0.10078485425422019 0.076986589652265902 0 0.079314502594709152 0.085467058283127784 0 0.090272478882294907 0.098763330007940783 0 0.10078485425422019 0.076986589652265902 0 0.079314502594709152 0.085467058283127784 0 0.072539126032095808 0.066094258457378929 0 0.094445483211815395 0.054453205593202832 0 0.10078485425422019 0.076986589652265902 0 0.072539126032095808 0.066094258457378929 0 0.079314502594709152 0.085467058283127784 0 0.074861816554797025 0.1056237493489578 0 0.060429696562272123 0.087745224130700752 0 0.079314502594709152 0.085467058283127784 0 0.072539126032095808 0.066094258457378929 0 0.060429696562272123 0.087745224130700752 0 0.074861816554797025 0.1056237493489578 0 0.060429696562272123 0.087745224130700752 0 0.074861816554797025 0.1056237493489578 0 0.05630800653115562 0.108285199619733 0 0.060429696562272123 0.087745224130700752 0 0.079314502594709152 0.085467058283127784 0 0.074861816554797025 0.1056237493489578 0 0.090272478882294907 0.098763330007940783 0 0.096249759850915911 0.11453754881994301 0 0.074861816554797025 0.1056237493489578 0 0.090272478882294907 0.098763330007940783 0 0.074861816554797025 0.1056237493489578 0 0.0892939365473219 0.1235022745672149 0 0.070715600839139775 0.12186985645099339 0 0.074861816554797025 0.1056237493489578 0 0.0892939365473219 0.1235022745672149 0 0.096249759850915911 0.11453754881994301 0 0.074861816554797025 0.1056237493489578 0 0.0892939365473219 0.1235022745672149 0 0.096249759850915911 0.11453754881994301 0 0.0892939365473219 0.1235022745672149 0 0.074861816554797025 0.1056237493489578 0 0.070715600839139775 0.12186985645099339 0 0.05630800653115562 0.108285199619733 0 0.070715600839139775 0.12186985645099339 0 0.05630800653115562 0.108285199619733 0 0.053421290932777019 0.13169591958220131 0 0.05630800653115562 0.108285199619733 0 0.037769347821558337 0.11382894683166191 0 0.053421290932777019 0.13169591958220131 0 0.05630800653115562 0.108285199619733 0 0.060429696562272123 0.087745224130700752 0 0.041575703864712099 0.091521295279369877 0 0.05630800653115562 0.108285199619733 0 0.037769347821558337 0.11382894683166191 0 0.041575703864712099 0.091521295279369877 0 0.037769347821558337 0.11382894683166191 0 0.041575703864712099 0.091521295279369877 0 0.0221174047103396 0.095961974081122448 0 0.037769347821558337 0.11382894683166191 0 0.022465271779825258 0.12508840800373641 0 0.03578689829058166 0.13443701120474849 0 0.037769347821558337 0.11382894683166191 0 0.053421290932777019 0.13169591958220131 0 0.058018448332621778 0.051998566383021687 0 0.072539126032095808 0.066094258457378929 0 0.04599757656974722 0.069866698912443709 0 0.072539126032095808 0.066094258457378929 0 0.060429696562272123 0.087745224130700752 0 0.04599757656974722 0.069866698912443709 0 0.060429696562272123 0.087745224130700752 0 0.041575703864712099 0.091521295279369877 0 0.04599757656974722 0.069866698912443709 0 0.060429696562272123 0.087745224130700752 0 0.04599757656974722 0.069866698912443709 0 0.041575703864712099 0.091521295279369877 0 0.04599757656974722 0.069866698912443709 0 0.026832190993199709 0.073439728100557614 0 0.034165344199427211 0.052050526916910637 0 0.04599757656974722 0.069866698912443709 0 0.026832190993199709 0.073439728100557614 0 0.041575703864712099 0.091521295279369877 0 0.026832190993199709 0.073439728100557614 0 0.0221174047103396 0.095961974081122448 0 0.026832190993199709 0.073439728100557614 0 0.0064654615991214361 0.078095001330582489 0 0.0221174047103396 0.095961974081122448 0 0.0064654615991214361 0.078095001330582489 0 0.00035173356732976288 0.096266868917212797 0 -0.0067334820512719674 0.078448756345131973 0 0.0064654615991214361 0.078095001330582489 0 0.00035173356732976288 0.096266868917212797 0 0.0064654615991214361 0.078095001330582489 0 0.0221174047103396 0.095961974081122448 0 0.00035173356732976288 0.096266868917212797 0 0.0064654615991214361 0.078095001330582489 0 0.0221174047103396 0.095961974081122448 0 0.01357096645192386 0.056975270022641189 0 0.026832190993199709 0.073439728100557614 0 0.0064654615991214361 0.078095001330582489 0 0.01357096645192386 0.056975270022641189 0 0.0064654615991214361 0.078095001330582489 0 -0.0022410518547087981 0.068156360643837788 0 0.01357096645192386 0.056975270022641189 0 0.0064654615991214361 0.078095001330582489 0 -0.0022410518547087981 0.068156360643837788 0 0.0064654615991214361 0.078095001330582489 0 0.037769347821558337 0.11382894683166191 0 0.013755174598509209 0.11048630571427701 0 0.022465271779825258 0.12508840800373641 0 0.037769347821558337 0.11382894683166191 0 0.0221174047103396 0.095961974081122448 0 0.037769347821558337 0.11382894683166191 0 0.0221174047103396 0.095961974081122448 0 0.013755174598509209 0.11048630571427701 0 -0.0062303060205972831 0.1111993339902959 0 0.00035173356732976288 0.096266868917212797 0 0.013755174598509209 0.11048630571427701 0 0.0221174047103396 0.095961974081122448 0 0.00035173356732976288 0.096266868917212797 0 0.013755174598509209 0.11048630571427701 0 0.013755174598509209 0.11048630571427701 0 0.0046593032027631414 0.1215934861258583 0 0.022465271779825258 0.12508840800373641 0 -0.0062303060205972831 0.1111993339902959 0 0.013755174598509209 0.11048630571427701 0 0.0046593032027631414 0.1215934861258583 0 0.0046593032027631414 0.1215934861258583 0 0.022465271779825258 0.12508840800373641 0 0.016655367108755599 0.14422434871580581 0 -0.00185731836924047 0.13695493251495711 0 0.0046593032027631414 0.1215934861258583 0 0.016655367108755599 0.14422434871580581 0 0.022465271779825258 0.12508840800373641 0 0.016655367108755599 0.14422434871580581 0 0.03578689829058166 0.13443701120474849 0 0.016655367108755599 0.14422434871580581 0 0.03578689829058166 0.13443701120474849 0 0.038943016119023649 0.15181274176811041 0 0.016655367108755599 0.14422434871580581 0 0.023261928699867249 0.1679794655808392 0 0.038943016119023649 0.15181274176811041 0 -0.0013507412108303789 0.15247015714670559 0 -0.00185731836924047 0.13695493251495711 0 0.016655367108755599 0.14422434871580581 0 -0.0013507412108303789 0.15247015714670559 0 0.016655367108755599 0.14422434871580581 0 0.009227071364995126 0.16296790922278651 0 -0.001046458677358735 0.1737636258738017 0 -0.0013507412108303789 0.15247015714670559 0 0.009227071364995126 0.16296790922278651 0 -0.001046458677358735 0.1737636258738017 0 0.009227071364995126 0.16296790922278651 0 0.015432253548423831 0.18372818991826889 0 -0.001046458677358735 0.1737636258738017 0 0.015432253548423831 0.18372818991826889 0 0.0073074383463005476 0.2015763693650964 0 0.015432253548423831 0.18372818991826889 0 0.023261928699867249 0.1679794655808392 0 0.041691691274440362 0.184852463495283 0 0.009227071364995126 0.16296790922278651 0 0.015432253548423831 0.18372818991826889 0 0.023261928699867249 0.1679794655808392 0 0.016655367108755599 0.14422434871580581 0 0.009227071364995126 0.16296790922278651 0 0.023261928699867249 0.1679794655808392 0 0.039819774688137147 0.16796308718956121 0 0.055382462659217327 0.1672076779140122 0 0.038943016119023649 0.15181274176811041 0 0.023261928699867249 0.1679794655808392 0 0.039819774688137147 0.16796308718956121 0 0.038943016119023649 0.15181274176811041 0 0.039819774688137147 0.16796308718956121 0 0.041691691274440362 0.184852463495283 0 0.055382462659217327 0.1672076779140122 0 0.023261928699867249 0.1679794655808392 0 0.039819774688137147 0.16796308718956121 0 0.041691691274440362 0.184852463495283 0 0.055382462659217327 0.1672076779140122 0 0.054188275209430967 0.19142127751609311 0 0.069948930627538458 0.17603217624048051 0 0.041691691274440362 0.184852463495283 0 0.055382462659217327 0.1672076779140122 0 0.054188275209430967 0.19142127751609311 0 0.041691691274440362 0.184852463495283 0 0.055382462659217327 0.1672076779140122 0 0.055382462659217327 0.1672076779140122 0 0.069073234043994486 0.1495628923327417 0 0.055382462659217327 0.1672076779140122 0 0.038943016119023649 0.15181274176811041 0 0.069073234043994486 0.1495628923327417 0 0.053421290932777019 0.13169591958220131 0 0.038943016119023649 0.15181274176811041 0 0.069073234043994486 0.1495628923327417 0 0.053421290932777019 0.13169591958220131 0 0.069073234043994486 0.1495628923327417 0 0.053421290932777019 0.13169591958220131 0 0.03578689829058166 0.13443701120474849 0 0.038943016119023649 0.15181274176811041 0 0.037769347821558337 0.11382894683166191 0 0.053421290932777019 0.13169591958220131 0 0.03578689829058166 0.13443701120474849 0 0.015661335369959829 0.2293891128563911 0 0.024015232393619051 0.25720185634768572 0 0.015661335369959829 0.2293891128563911 0 0.037593928203030078 0.23128583625169091 0 0.035459897723150093 0.24485459026570069 0 0.015661335369959829 0.2293891128563911 0 0.035459897723150093 0.24485459026570069 0 0.024015232393619051 0.25720185634768572 0 -0.0028794500280274371 0.2473374118160242 0 0.015661335369959829 0.2293891128563911 0 0.024015232393619051 0.25720185634768572 0 0.015661335369959829 0.2293891128563911 0 0.040188800049195762 0.21598577096342189 0 0.037593928203030078 0.23128583625169091 0 -0.018617538565614648 0.225255966367192 0 0.015661335369959829 0.2293891128563911 0 0.0073074383463005476 0.2015763693650964 0 0.015661335369959829 0.2293891128563911 0 0.031351025962285069 0.2012543691862472 0 0.040188800049195762 0.21598577096342189 0 0.015661335369959829 0.2293891128563911 0 0.0073074383463005476 0.2015763693650964 0 0.031351025962285069 0.2012543691862472 0 0.015661335369959829 0.2293891128563911 0 0.0073074383463005476 0.2015763693650964 0 -0.001046458677358735 0.1737636258738017 0 0.0073074383463005476 0.2015763693650964 0 0.015432253548423831 0.18372818991826889 0 0.0073074383463005476 0.2015763693650964 0 0.031351025962285069 0.2012543691862472 0 0.015432253548423831 0.18372818991826889 0 0.041691691274440362 0.184852463495283 0 0.031351025962285069 0.2012543691862472 0 0.041691691274440362 0.184852463495283 0 0.031351025962285069 0.2012543691862472 0 0.054188275209430967 0.19142127751609311 0 0.031351025962285069 0.2012543691862472 0 0.054188275209430967 0.19142127751609311 0 0.056356586443939261 0.2053716307042586 0 0.054188275209430967 0.19142127751609311 0 0.056356586443939261 0.2053716307042586 0 0.06841510275986866 0.19293966026545131 0 0.056356586443939261 0.2053716307042586 0 0.040188800049195762 0.21598577096342189 0 0.057576127358997448 0.21878696392962241 0 0.056356586443939261 0.2053716307042586 0 0.057576127358997448 0.21878696392962241 0 0.072484445530397915 0.21604634154973701 0 0.031351025962285069 0.2012543691862472 0 0.056356586443939261 0.2053716307042586 0 0.040188800049195762 0.21598577096342189 0 0.037593928203030078 0.23128583625169091 0 0.049909374910837717 0.2289570589123025 0 0.044215464997249931 0.2384605323897106 0 0.040188800049195762 0.21598577096342189 0 0.037593928203030078 0.23128583625169091 0 0.049909374910837717 0.2289570589123025 0 0.040188800049195762 0.21598577096342189 0 0.057576127358997448 0.21878696392962241 0 0.049909374910837717 0.2289570589123025 0 0.057576127358997448 0.21878696392962241 0 0.049909374910837717 0.2289570589123025 0 0.064571771409344059 0.22965020674179121 0 0.049909374910837717 0.2289570589123025 0 0.052440772345314232 0.24110817674682841 0 0.064571771409344059 0.22965020674179121 0 0.052440772345314232 0.24110817674682841 0 0.045673351803917531 0.24609699977203059 0 0.044215464997249931 0.2384605323897106 0 0.049909374910837717 0.2289570589123025 0 0.052440772345314232 0.24110817674682841 0 0.044215464997249931 0.2384605323897106 0 0.053837557411990172 0.2481050044408544 0 0.064571771409344059 0.22965020674179121 0 0.052440772345314232 0.24110817674682841 0 0.053837557411990172 0.2481050044408544 0 0.064571771409344059 0.22965020674179121 0 0.052440772345314232 0.24110817674682841 0 0.064571771409344059 0.22965020674179121 0 0.052440772345314232 0.24110817674682841 0 0.053837557411990172 0.2481050044408544 0 0.045673351803917531 0.24609699977203059 0 0.045673351803917531 0.24609699977203059 0 0.044215464997249931 0.2384605323897106 0 0.035459897723150093 0.24485459026570069 0 0.037593928203030078 0.23128583625169091 0 0.044215464997249931 0.2384605323897106 0 0.035459897723150093 0.24485459026570069 0 0.088923633061702478 0.2364528338219436 0 0.085079947058005589 0.25627215186680341 0 0.103248861140551 0.25211860845286549 0 0.088923633061702478 0.2364528338219436 0 0.072144815499069495 0.2466482677422229 0 0.085079947058005589 0.25627215186680341 0 0.053837557411990172 0.2481050044408544 0 0.072144815499069495 0.2466482677422229 0 0.064571771409344059 0.22965020674179121 0 0.088923633061702478 0.2364528338219436 0 0.072144815499069495 0.2466482677422229 0 0.064571771409344059 0.22965020674179121 0 0.064571771409344059 0.22965020674179121 0 0.08499944912429104 0.21035585865924561 0 0.064571771409344059 0.22965020674179121 0 0.072484445530397915 0.21604634154973701 0 0.057576127358997448 0.21878696392962241 0 0.064571771409344059 0.22965020674179121 0 0.072484445530397915 0.21604634154973701 0 0.088923633061702478 0.2364528338219436 0 0.08499944912429104 0.21035585865924561 0 0.100538060887576 0.22158622332930319 0 0.088923633061702478 0.2364528338219436 0 0.064571771409344059 0.22965020674179121 0 0.08499944912429104 0.21035585865924561 0 0.064571771409344059 0.22965020674179121 0 0.08499944912429104 0.21035585865924561 0 0.072484445530397915 0.21604634154973701 0 0.056356586443939261 0.2053716307042586 0 0.072484445530397915 0.21604634154973701 0 0.073097550475318282 0.20306423331718859 0 0.08499944912429104 0.21035585865924561 0 0.072484445530397915 0.21604634154973701 0 0.073097550475318282 0.20306423331718859 0 0.073097550475318282 0.20306423331718859 0 0.06841510275986866 0.19293966026545131 0 0.083232168518094563 0.19060767540725071 0 0.056356586443939261 0.2053716307042586 0 0.073097550475318282 0.20306423331718859 0 0.06841510275986866 0.19293966026545131 0 0.08499944912429104 0.21035585865924561 0 0.083232168518094563 0.19060767540725071 0 0.10542712683924139 0.19106151057670359 0 0.08499944912429104 0.21035585865924561 0 0.073097550475318282 0.20306423331718859 0 0.083232168518094563 0.19060767540725071 0 0.08499944912429104 0.21035585865924561 0 0.10542712683924139 0.19106151057670359 0 0.10212407059221799 0.20778972874223961 0 0.08499944912429104 0.21035585865924561 0 0.10542712683924139 0.19106151057670359 0 0.10542712683924139 0.19106151057670359 0 0.118107340491344 0.2055362010469714 0 0.10212407059221799 0.20778972874223961 0 0.10542712683924139 0.19106151057670359 0 0.11167569966496629 0.18515960920537949 0 0.10542712683924139 0.19106151057670359 0 0.118107340491344 0.2055362010469714 0 0.11167569966496629 0.18515960920537949 0 0.118107340491344 0.2055362010469714 0 0.11167569966496629 0.18515960920537949 0 0.12557719920219659 0.20145594579606199 0 0.11167569966496629 0.18515960920537949 0 0.1339797561772873 0.1853990228988425 0 0.12557719920219659 0.20145594579606199 0 0.11167569966496629 0.18515960920537949 0 0.12557719920219659 0.20145594579606199 0 0.10542712683924139 0.19106151057670359 0 0.118107340491344 0.2055362010469714 0 0.118107340491344 0.2055362010469714 0 0.13078755414344659 0.2200108915172394 0 0.12557719920219659 0.20145594579606199 0 0.118107340491344 0.2055362010469714 0 0.11100380430239989 0.2139836212460236 0 0.10212407059221799 0.20778972874223961 0 0.118107340491344 0.2055362010469714 0 0.13078755414344659 0.2200108915172394 0 0.118107340491344 0.2055362010469714 0 0.1192888232843156 0.2171176417814287 0 0.13078755414344659 0.2200108915172394 0 0.118107340491344 0.2055362010469714 0 0.1192888232843156 0.2171176417814287 0 0.11100380430239989 0.2139836212460236 0 0.1192888232843156 0.2171176417814287 0 0.11100380430239989 0.2139836212460236 0 0.112975465183504 0.22282330760651101 0 0.08499944912429104 0.21035585865924561 0 0.10212407059221799 0.20778972874223961 0 0.100538060887576 0.22158622332930319 0 0.11100380430239989 0.2139836212460236 0 0.10212407059221799 0.20778972874223961 0 0.100538060887576 0.22158622332930319 0 0.088923633061702478 0.2364528338219436 0 0.100538060887576 0.22158622332930319 0 0.1126406387696909 0.23553825518433441 0 0.100538060887576 0.22158622332930319 0 0.112975465183504 0.22282330760651101 0 0.1126406387696909 0.23553825518433441 0 0.11100380430239989 0.2139836212460236 0 0.100538060887576 0.22158622332930319 0 0.112975465183504 0.22282330760651101 0 0.1210005625402623 0.22519045488046111 0 0.1126406387696909 0.23553825518433441 0 0.12931033132035441 0.23046217831279189 0 0.1192888232843156 0.2171176417814287 0 0.112975465183504 0.22282330760651101 0 0.1210005625402623 0.22519045488046111 0 0.1192888232843156 0.2171176417814287 0 0.1210005625402623 0.22519045488046111 0 0.13078755414344659 0.2200108915172394 0 0.112975465183504 0.22282330760651101 0 0.1210005625402623 0.22519045488046111 0 0.1126406387696909 0.23553825518433441 0 0.1126406387696909 0.23553825518433441 0 0.1221119816913266 0.2551626490999917 0 0.103248861140551 0.25211860845286549 0 0.1126406387696909 0.23553825518433441 0 0.12660129804580561 0.24230139474235751 0 0.12931033132035441 0.23046217831279189 0 0.1126406387696909 0.23553825518433441 0 0.12660129804580561 0.24230139474235751 0 0.1221119816913266 0.2551626490999917 0 0.088923633061702478 0.2364528338219436 0 0.1126406387696909 0.23553825518433441 0 0.103248861140551 0.25211860845286549 0 0.090279237071298077 0.14999227712911631 0 0.079183585295658082 0.13653258344997821 0 0.069073234043994486 0.1495628923327417 0 0.090279237071298077 0.14999227712911631 0 0.089383439970827788 0.13569531128426601 0 0.079183585295658082 0.13653258344997821 0 0.090279237071298077 0.14999227712911631 0 0.089383439970827788 0.13569531128426601 0 0.099213219791608812 0.13579029294025169 0 0.0892939365473219 0.1235022745672149 0 0.070715600839139775 0.12186985645099339 0 0.079183585295658082 0.13653258344997821 0 0.0892939365473219 0.1235022745672149 0 0.089383439970827788 0.13569531128426601 0 0.099213219791608812 0.13579029294025169 0 0.0892939365473219 0.1235022745672149 0 0.089383439970827788 0.13569531128426601 0 0.079183585295658082 0.13653258344997821 0 0.0892939365473219 0.1235022745672149 0 0.079183585295658082 0.13653258344997821 0 0.053421290932777019 0.13169591958220131 0 0.079183585295658082 0.13653258344997821 0 0.069073234043994486 0.1495628923327417 0 0.070715600839139775 0.12186985645099339 0 0.053421290932777019 0.13169591958220131 0 0.079183585295658082 0.13653258344997821 0 0.079183585295658082 0.13653258344997821 0 0.069073234043994486 0.1495628923327417 0 0.055382462659217327 0.1672076779140122 0 0.069073234043994486 0.1495628923327417 0 0.069948930627538458 0.17603217624048051 0 0.069073234043994486 0.1495628923327417 0 0.069948930627538458 0.17603217624048051 0 0.087250180441618558 0.17031220145472201 0 0.054188275209430967 0.19142127751609311 0 0.06841510275986866 0.19293966026545131 0 0.069948930627538458 0.17603217624048051 0 0.06841510275986866 0.19293966026545131 0 0.083232168518094563 0.19060767540725071 0 0.069948930627538458 0.17603217624048051 0 0.083232168518094563 0.19060767540725071 0 0.069948930627538458 0.17603217624048051 0 0.087250180441618558 0.17031220145472201 0 0.083232168518094563 0.19060767540725071 0 0.10542712683924139 0.19106151057670359 0 0.087250180441618558 0.17031220145472201 0 0.090279237071298077 0.14999227712911631 0 0.069073234043994486 0.1495628923327417 0 0.087250180441618558 0.17031220145472201 0 0.069073234043994486 0.1495628923327417 0 0.087250180441618558 0.17031220145472201 0 0.090279237071298077 0.14999227712911631 0 0.087250180441618558 0.17031220145472201 0 0.10799397955862181 0.1623316374719781 0 0.087250180441618558 0.17031220145472201 0 0.10799397955862181 0.1623316374719781 0 0.10443280898948321 0.1741493134162764 0 0.10799397955862181 0.1623316374719781 0 0.10443280898948321 0.1741493134162764 0 0.11568358803637151 0.17222144894367061 0 0.10542712683924139 0.19106151057670359 0 0.087250180441618558 0.17031220145472201 0 0.10542712683924139 0.19106151057670359 0 0.10443280898948321 0.1741493134162764 0 0.1102802556110849 0.18352376942172069 0 0.10542712683924139 0.19106151057670359 0 0.087250180441618558 0.17031220145472201 0 0.10443280898948321 0.1741493134162764 0 0.10443280898948321 0.1741493134162764 0 0.1102802556110849 0.18352376942172069 0 0.1105180880754765 0.17876353524676181 0 0.10542712683924139 0.19106151057670359 0 0.11167569966496629 0.18515960920537949 0 0.1102802556110849 0.18352376942172069 0 0.11167569966496629 0.18515960920537949 0 0.12796895852860121 0.16977030199675969 0 0.1339797561772873 0.1853990228988425 0 0.11167569966496629 0.18515960920537949 0 0.12796895852860121 0.16977030199675969 0 0.11167569966496629 0.18515960920537949 0 0.11568358803637151 0.17222144894367061 0 0.12796895852860121 0.16977030199675969 0 0.11167569966496629 0.18515960920537949 0 0.1102802556110849 0.18352376942172069 0 0.11167569966496629 0.18515960920537949 0 0.1102802556110849 0.18352376942172069 0 0.1105180880754765 0.17876353524676181 0 0.10443280898948321 0.1741493134162764 0 0.11568358803637151 0.17222144894367061 0 0.1105180880754765 0.17876353524676181 0 0.11167569966496629 0.18515960920537949 0 0.11568358803637151 0.17222144894367061 0 0.1105180880754765 0.17876353524676181 0 0.10799397955862181 0.1623316374719781 0 0.11980296738143439 0.14458674182945519 0 0.12796895852860121 0.16977030199675969 0 0.10799397955862181 0.1623316374719781 0 0.11568358803637151 0.17222144894367061 0 0.12796895852860121 0.16977030199675969 0 0.10799397955862181 0.1623316374719781 0 0.11980296738143439 0.14458674182945519 0 0.10378984087940391 0.1487632203069354 0 0.090279237071298077 0.14999227712911631 0 0.10799397955862181 0.1623316374719781 0 0.10378984087940391 0.1487632203069354 0 0.11980296738143439 0.14458674182945519 0 0.10378984087940391 0.1487632203069354 0 0.099213219791608812 0.13579029294025169 0 0.090279237071298077 0.14999227712911631 0 0.10378984087940391 0.1487632203069354 0 0.099213219791608812 0.13579029294025169 0 0.099990139697526931 0.1245068611999077 0 0.0892939365473219 0.1235022745672149 0 0.099213219791608812 0.13579029294025169 0 0.0892939365473219 0.1235022745672149 0 0.099213219791608812 0.13579029294025169 0 0.099990139697526931 0.1245068611999077 0 0.11346359633902969 0.1220533577703921 0 0.099213219791608812 0.13579029294025169 0 0.11346359633902969 0.1220533577703921 0 0.11980296738143439 0.14458674182945519 0 0.11346359633902969 0.1220533577703921 0 0.11980296738143439 0.14458674182945519 0 0.099213219791608812 0.13579029294025169 0 0.11346359633902969 0.1220533577703921 0 0.11980296738143439 0.14458674182945519 0 0.1343092628838379 0.1256369390366581 0 0.11980296738143439 0.14458674182945519 0 0.1343092628838379 0.1256369390366581 0 0.1458655826462924 0.13754260468433471 0 0.1343092628838379 0.1256369390366581 0 0.1458655826462924 0.13754260468433471 0 0.15248278972958529 0.1243477046879467 0 0.1458655826462924 0.13754260468433471 0 0.1605554762558711 0.13899168757951999 0 0.15248278972958529 0.1243477046879467 0 0.14426221739223621 0.15438099478813991 0 0.1601646727073405 0.16115881086186579 0 0.1605554762558711 0.13899168757951999 0 0.1458655826462924 0.13754260468433471 0 0.14426221739223621 0.15438099478813991 0 0.1605554762558711 0.13899168757951999 0 0.14426221739223621 0.15438099478813991 0 0.1605554762558711 0.13899168757951999 0 0.11980296738143439 0.14458674182945519 0 0.14426221739223621 0.15438099478813991 0 0.12796895852860121 0.16977030199675969 0 0.11980296738143439 0.14458674182945519 0 0.1458655826462924 0.13754260468433471 0 0.14426221739223621 0.15438099478813991 0 0.14426221739223621 0.15438099478813991 0 0.12796895852860121 0.16977030199675969 0 0.14426221739223621 0.15438099478813991 0 0.12796895852860121 0.16977030199675969 0 0.14828760854236939 0.17399430848856939 0 0.12796895852860121 0.16977030199675969 0 0.1339797561772873 0.1853990228988425 0 0.14828760854236939 0.17399430848856939 0 0.1339797561772873 0.1853990228988425 0 0.14828760854236939 0.17399430848856939 0 0.1563893149483028 0.19661494900744189 0 0.14426221739223621 0.15438099478813991 0 0.14828760854236939 0.17399430848856939 0 0.1601646727073405 0.16115881086186579 0 0.1601646727073405 0.16115881086186579 0 0.17329993115718029 0.17547761562813841 0 0.17349603651462861 0.15031181619720951 0 0.14828760854236939 0.17399430848856939 0 0.1601646727073405 0.16115881086186579 0 0.17329993115718029 0.17547761562813841 0 0.14828760854236939 0.17399430848856939 0 0.17329993115718029 0.17547761562813841 0 0.1563893149483028 0.19661494900744189 0 0.17329993115718029 0.17547761562813841 0 0.1563893149483028 0.19661494900744189 0 0.17329993115718029 0.17547761562813841 0 0.1820902406581166 0.17554195483050661 0 0.17396993395017751 0.1967436274121796 0 0.1820902406581166 0.17554195483050661 0 0.17396993395017751 0.1967436274121796 0 0.1820902406581166 0.17554195483050661 0 0.17396993395017751 0.1967436274121796 0 0.19033163536845879 0.18585953427701471 0 0.17329993115718029 0.17547761562813841 0 0.17349603651462861 0.15031181619720951 0 0.19021054736605689 0.154340282248834 0 0.17329993115718029 0.17547761562813841 0 0.19021054736605689 0.154340282248834 0 0.17329993115718029 0.17547761562813841 0 0.1820902406581166 0.17554195483050661 0 0.19021054736605689 0.154340282248834 0 0.1820902406581166 0.17554195483050661 0 0.19021054736605689 0.154340282248834 0 0.17349603651462861 0.15031181619720951 0 0.18666884074498091 0.13926280536182831 0 0.19021054736605689 0.154340282248834 0 0.17349603651462861 0.15031181619720951 0 0.18666884074498091 0.13926280536182831 0 0.17801742534052889 0.1264165215969586 0 0.17801742534052889 0.1264165215969586 0 0.1605554762558711 0.13899168757951999 0 0.15248278972958529 0.1243477046879467 0 0.17349603651462861 0.15031181619720951 0 0.17801742534052889 0.1264165215969586 0 0.1605554762558711 0.13899168757951999 0 0.17801742534052889 0.1264165215969586 0 0.15248278972958529 0.1243477046879467 0 0.1601646727073405 0.16115881086186579 0 0.17349603651462861 0.15031181619720951 0 0.1605554762558711 0.13899168757951999 0 0.15772932053429989 0.239146972575526 0 0.14961833383695999 0.26032431112397758 0 0.13748104572539949 0.24722792428689669 0 0.15772932053429989 0.239146972575526 0 0.14961833383695999 0.26032431112397758 0 0.13748104572539949 0.24722792428689669 0 0.12931033132035441 0.23046217831279189 0 0.15772932053429989 0.239146972575526 0 0.13748104572539949 0.24722792428689669 0 0.12660129804580561 0.24230139474235751 0 0.12931033132035441 0.23046217831279189 0 0.13748104572539949 0.24722792428689669 0 0.12660129804580561 0.24230139474235751 0 0.1221119816913266 0.2551626490999917 0 0.1210005625402623 0.22519045488046111 0 0.12931033132035441 0.23046217831279189 0 0.13078755414344659 0.2200108915172394 0 0.12931033132035441 0.23046217831279189 0 0.13078755414344659 0.2200108915172394 0 0.13947869873942539 0.21775228238674579 0 0.12931033132035441 0.23046217831279189 0 0.13947869873942539 0.21775228238674579 0 0.12931033132035441 0.23046217831279189 0 0.13947869873942539 0.21775228238674579 0 0.15772932053429989 0.239146972575526 0 0.13947869873942539 0.21775228238674579 0 0.15772932053429989 0.239146972575526 0 0.13947869873942539 0.21775228238674579 0 0.16584962724223831 0.2179452999938527 0 0.15772932053429989 0.239146972575526 0 0.13947869873942539 0.21775228238674579 0 0.1563893149483028 0.19661494900744189 0 0.13947869873942539 0.21775228238674579 0 0.1563893149483028 0.19661494900744189 0 0.16584962724223831 0.2179452999938527 0 0.13947869873942539 0.21775228238674579 0 0.12557719920219659 0.20145594579606199 0 0.1563893149483028 0.19661494900744189 0 0.13947869873942539 0.21775228238674579 0 0.12557719920219659 0.20145594579606199 0 0.13078755414344659 0.2200108915172394 0 0.13947869873942539 0.21775228238674579 0 0.12557719920219659 0.20145594579606199 0 0.1339797561772873 0.1853990228988425 0 0.12557719920219659 0.20145594579606199 0 0.1563893149483028 0.19661494900744189 0 0.17329993115718029 0.17547761562813841 0 0.1563893149483028 0.19661494900744189 0 0.17396993395017751 0.1967436274121796 0 0.17396993395017751 0.1967436274121796 0 0.185206726318663 0.20810068932042999 0 0.19033163536845879 0.18585953427701471 0 0.17396993395017751 0.1967436274121796 0 0.185206726318663 0.20810068932042999 0 0.16584962724223831 0.2179452999938527 0 0.17396993395017751 0.1967436274121796 0 0.16584962724223831 0.2179452999938527 0 0.1563893149483028 0.19661494900744189 0 0.17396993395017751 0.1967436274121796 0 0.16584962724223831 0.2179452999938527 0 0.16584962724223831 0.2179452999938527 0 0.15772932053429989 0.239146972575526 0 0.16584962724223831 0.2179452999938527 0 0.16934062958307541 0.23257074201987091 0 0.15772932053429989 0.239146972575526 0 0.16584962724223831 0.2179452999938527 0 0.16934062958307541 0.23257074201987091 0 0.18008181726886729 0.23034184436384519 0 0.185206726318663 0.20810068932042999 0 0.16584962724223831 0.2179452999938527 0 0.18008181726886729 0.23034184436384519 0 0.185206726318663 0.20810068932042999 0 0.18008181726886729 0.23034184436384519 0 0.19361646855619699 0.22554890094364299 0 0.185206726318663 0.20810068932042999 0 0.18008181726886729 0.23034184436384519 0 0.18008181726886729 0.23034184436384519 0 0.1871663574167011 0.23647478809403 0 0.19361646855619699 0.22554890094364299 0 0.1871663574167011 0.23647478809403 0 0.18566333894108941 0.25330303893799921 0 0.1871663574167011 0.23647478809403 0 0.17550954459995691 0.2421931063090319 0 0.18566333894108941 0.25330303893799921 0 0.16934062958307541 0.23257074201987091 0 0.18008181726886729 0.23034184436384519 0 0.17550954459995691 0.2421931063090319 0 0.18008181726886729 0.23034184436384519 0 0.1871663574167011 0.23647478809403 0 0.17550954459995691 0.2421931063090319 0 0.16934062958307541 0.23257074201987091 0 0.17550954459995691 0.2421931063090319 0 0.15772932053429989 0.239146972575526 0 0.15772932053429989 0.239146972575526 0 0.17094482049988949 0.25463913117874659 0 0.17550954459995691 0.2421931063090319 0 0.15772932053429989 0.239146972575526 0 0.17094482049988949 0.25463913117874659 0 0.2115886322074518 0.2440686120775438 0 0.20302277267128169 0.23386405549491701 0 0.21406214966336079 0.2275101732728097 0 0.2115886322074518 0.2440686120775438 0 0.21936527508003201 0.2471371668772295 0 0.21158346732840491 0.25019259991414 0 0.2115886322074518 0.2440686120775438 0 0.19697560011369089 0.24465421681374119 0 0.20302277267128169 0.23386405549491701 0 0.2115886322074518 0.2440686120775438 0 0.19697560011369089 0.24465421681374119 0 0.1972433992714368 0.25158855458142282 0 0.1871663574167011 0.23647478809403 0 0.19697560011369089 0.24465421681374119 0 0.18566333894108941 0.25330303893799921 0 0.19697560011369089 0.24465421681374119 0 0.18566333894108941 0.25330303893799921 0 0.1972433992714368 0.25158855458142282 0 0.1871663574167011 0.23647478809403 0 0.19697560011369089 0.24465421681374119 0 0.19528410731017079 0.23587648900771399 0 0.19697560011369089 0.24465421681374119 0 0.19528410731017079 0.23587648900771399 0 0.20302277267128169 0.23386405549491701 0 0.19528410731017079 0.23587648900771399 0 0.20302277267128169 0.23386405549491701 0 0.19361646855619699 0.22554890094364299 0 0.20302277267128169 0.23386405549491701 0 0.19361646855619699 0.22554890094364299 0 0.2055715607215495 0.22199088457891991 0 0.1871663574167011 0.23647478809403 0 0.19528410731017079 0.23587648900771399 0 0.19361646855619699 0.22554890094364299 0 0.19361646855619699 0.22554890094364299 0 0.2055715607215495 0.22199088457891991 0 0.20067664525499879 0.2105484536232714 0 0.2115886322074518 0.2440686120775438 0 0.21406214966336079 0.2275101732728097 0 0.22843123859138861 0.2238088736586808 0 0.2055715607215495 0.22199088457891991 0 0.21406214966336079 0.2275101732728097 0 0.21755168925327109 0.2092263706596168 0 0.20302277267128169 0.23386405549491701 0 0.2055715607215495 0.22199088457891991 0 0.21406214966336079 0.2275101732728097 0 0.21755168925327109 0.2092263706596168 0 0.20067664525499879 0.2105484536232714 0 0.20548816876455669 0.19986117929982891 0 0.2055715607215495 0.22199088457891991 0 0.21755168925327109 0.2092263706596168 0 0.20067664525499879 0.2105484536232714 0 0.185206726318663 0.20810068932042999 0 0.19361646855619699 0.22554890094364299 0 0.20067664525499879 0.2105484536232714 0 0.185206726318663 0.20810068932042999 0 0.20067664525499879 0.2105484536232714 0 0.19662525791575569 0.19856269693719009 0 0.19662525791575569 0.19856269693719009 0 0.20333983999271191 0.18865102272086021 0 0.20548816876455669 0.19986117929982891 0 0.20067664525499879 0.2105484536232714 0 0.19662525791575569 0.19856269693719009 0 0.20548816876455669 0.19986117929982891 0 0.185206726318663 0.20810068932042999 0 0.19033163536845879 0.18585953427701471 0 0.185206726318663 0.20810068932042999 0 0.19662525791575569 0.19856269693719009 0 0.19033163536845879 0.18585953427701471 0 0.19662525791575569 0.19856269693719009 0 0.20333983999271191 0.18865102272086021 0 0.19033163536845879 0.18585953427701471 0 0.21755168925327109 0.2092263706596168 0 0.20548816876455669 0.19986117929982891 0 0.21390888719840881 0.19220158209759139 0 0.20333983999271191 0.18865102272086021 0 0.20548816876455669 0.19986117929982891 0 0.21390888719840881 0.19220158209759139 0 0.21390888719840881 0.19220158209759139 0 0.22655593700578061 0.19342682080040899 0 0.2140854027063375 0.18008657843025269 0 0.21755168925327109 0.2092263706596168 0 0.22655593700578061 0.19342682080040899 0 0.24527384497532531 0.20354913523981791 0 0.21755168925327109 0.2092263706596168 0 0.21390888719840881 0.19220158209759139 0 0.22655593700578061 0.19342682080040899 0 0.24527384497532531 0.20354913523981791 0 0.24204190526368929 0.18587577523225851 0 0.26211645135926198 0.18328939682095491 0 0.22655593700578061 0.19342682080040899 0 0.24527384497532531 0.20354913523981791 0 0.24204190526368929 0.18587577523225851 0 0.24527384497532531 0.20354913523981791 0 0.22843123859138861 0.2238088736586808 0 0.2472705718667278 0.22718583865061909 0 0.24527384497532531 0.20354913523981791 0 0.22843123859138861 0.2238088736586808 0 0.21755168925327109 0.2092263706596168 0 0.24527384497532531 0.20354913523981791 0 0.22843123859138861 0.2238088736586808 0 0.2115886322074518 0.2440686120775438 0 0.22843123859138861 0.2238088736586808 0 0.21406214966336079 0.2275101732728097 0 0.21755168925327109 0.2092263706596168 0 0.22843123859138861 0.2238088736586808 0 0.22843123859138861 0.2238088736586808 0 0.2472705718667278 0.22718583865061909 0 0.2276675102135253 0.24811955921968529 0 0.2472705718667278 0.22718583865061909 0 0.2421054402074703 0.2485807057870347 0 0.2276675102135253 0.24811955921968529 0 0.2472705718667278 0.22718583865061909 0 0.2276675102135253 0.24811955921968529 0 0.2472705718667278 0.22718583865061909 0 0.2421054402074703 0.2485807057870347 0 0.25707991656272239 0.24440423681808779 0 0.22843123859138861 0.2238088736586808 0 0.2276675102135253 0.24811955921968529 0 0.21936527508003201 0.2471371668772295 0 0.2115886322074518 0.2440686120775438 0 0.22843123859138861 0.2238088736586808 0 0.21936527508003201 0.2471371668772295 0 0.2096336632062781 0.1458212055744027 0 0.20537954243666509 0.15433248080880019 0 0.20058145346804979 0.14137722419018381 0 0.2096336632062781 0.1458212055744027 0 0.20918820610758559 0.13814940384330759 0 0.20058145346804979 0.14137722419018381 0 0.2096336632062781 0.1458212055744027 0 0.20537954243666509 0.15433248080880019 0 0.21600195169310171 0.15368747906870589 0 0.2096336632062781 0.1458212055744027 0 0.21600195169310171 0.15368747906870589 0 0.2173316213003498 0.1421735565185662 0 0.2096336632062781 0.1458212055744027 0 0.2173316213003498 0.1421735565185662 0 0.20918820610758559 0.13814940384330759 0 0.2173316213003498 0.1421735565185662 0 0.21044840569540929 0.12904408055477271 0 0.20918820610758559 0.13814940384330759 0 0.21044840569540929 0.12904408055477271 0 0.21433658354942009 0.124184073650052 0 0.20891196331668679 0.1235090376777295 0 0.21044840569540929 0.12904408055477271 0 0.21433658354942009 0.124184073650052 0 0.21044840569540929 0.12904408055477271 0 0.20355206095147271 0.12848533850597069 0 0.20891196331668679 0.1235090376777295 0 0.21044840569540929 0.12904408055477271 0 0.20355206095147271 0.12848533850597069 0 0.21044840569540929 0.12904408055477271 0 0.20058145346804979 0.14137722419018381 0 0.21044840569540929 0.12904408055477271 0 0.20355206095147271 0.12848533850597069 0 0.20058145346804979 0.14137722419018381 0 0.21044840569540929 0.12904408055477271 0 0.20918820610758559 0.13814940384330759 0 0.20058145346804979 0.14137722419018381 0 0.17801742534052889 0.1264165215969586 0 0.20355206095147271 0.12848533850597069 0 0.1993763662636315 0.13040883505123951 0 0.20355206095147271 0.12848533850597069 0 0.20058145346804979 0.14137722419018381 0 0.18666884074498091 0.13926280536182831 0 0.17801742534052889 0.1264165215969586 0 0.1993763662636315 0.13040883505123951 0 0.20355206095147271 0.12848533850597069 0 0.1993763662636315 0.13040883505123951 0 0.20058145346804979 0.14137722419018381 0 0.17801742534052889 0.1264165215969586 0 0.20355206095147271 0.12848533850597069 0 0.18666884074498091 0.13926280536182831 0 0.1993763662636315 0.13040883505123951 0 0.19021054736605689 0.154340282248834 0 0.20058145346804979 0.14137722419018381 0 0.19021054736605689 0.154340282248834 0 0.19545654441825461 0.16361837923359929 0 0.20537954243666509 0.15433248080880019 0 0.20058145346804979 0.14137722419018381 0 0.19545654441825461 0.16361837923359929 0 0.1993763662636315 0.13040883505123951 0 0.20058145346804979 0.14137722419018381 0 0.19021054736605689 0.154340282248834 0 0.20058145346804979 0.14137722419018381 0 0.19545654441825461 0.16361837923359929 0 0.1993763662636315 0.13040883505123951 0 0.19021054736605689 0.154340282248834 0 0.20058145346804979 0.14137722419018381 0 0.19021054736605689 0.154340282248834 0 0.1820902406581166 0.17554195483050661 0 0.19021054736605689 0.154340282248834 0 0.19545654441825461 0.16361837923359929 0 0.19545654441825461 0.16361837923359929 0 0.20215489436803311 0.17670673294502559 0 0.20805157527436091 0.16603381606542689 0 0.20537954243666509 0.15433248080880019 0 0.19545654441825461 0.16361837923359929 0 0.20805157527436091 0.16603381606542689 0 0.19545654441825461 0.16361837923359929 0 0.19033163536845879 0.18585953427701471 0 0.19545654441825461 0.16361837923359929 0 0.19033163536845879 0.18585953427701471 0 0.20215489436803311 0.17670673294502559 0 0.1820902406581166 0.17554195483050661 0 0.19545654441825461 0.16361837923359929 0 0.19033163536845879 0.18585953427701471 0 0.20333983999271191 0.18865102272086021 0 0.19033163536845879 0.18585953427701471 0 0.20215489436803311 0.17670673294502559 0 0.20333983999271191 0.18865102272086021 0 0.21390888719840881 0.19220158209759139 0 0.2140854027063375 0.18008657843025269 0 0.20333983999271191 0.18865102272086021 0 0.20215489436803311 0.17670673294502559 0 0.2140854027063375 0.18008657843025269 0 0.20215489436803311 0.17670673294502559 0 0.2140854027063375 0.18008657843025269 0 0.20805157527436091 0.16603381606542689 0 0.20537954243666509 0.15433248080880019 0 0.21600195169310171 0.15368747906870589 0 0.20805157527436091 0.16603381606542689 0 0.2140854027063375 0.18008657843025269 0 0.20805157527436091 0.16603381606542689 0 0.21901195728773751 0.1682501718822309 0 0.21600195169310171 0.15368747906870589 0 0.20805157527436091 0.16603381606542689 0 0.21901195728773751 0.1682501718822309 0 0.21600195169310171 0.15368747906870589 0 0.22572623378765641 0.1601052838662175 0 0.21901195728773751 0.1682501718822309 0 0.22572623378765641 0.1601052838662175 0 0.21901195728773751 0.1682501718822309 0 0.22964201042375451 0.17482647568750759 0 0.22572623378765641 0.1601052838662175 0 0.22964201042375451 0.17482647568750759 0 0.23815303799476051 0.16027892766000909 0 0.22655593700578061 0.19342682080040899 0 0.22964201042375451 0.17482647568750759 0 0.24204190526368929 0.18587577523225851 0 0.22655593700578061 0.19342682080040899 0 0.2140854027063375 0.18008657843025269 0 0.22964201042375451 0.17482647568750759 0 0.2140854027063375 0.18008657843025269 0 0.21901195728773751 0.1682501718822309 0 0.22964201042375451 0.17482647568750759 0 0.22964201042375451 0.17482647568750759 0 0.24204190526368929 0.18587577523225851 0 0.24662128255432419 0.17428704761260311 0 0.24662128255432419 0.17428704761260311 0 0.2523303419621033 0.15440227316217531 0 0.22964201042375451 0.17482647568750759 0 0.24662128255432419 0.17428704761260311 0 0.23815303799476051 0.16027892766000909 0 0.24662128255432419 0.17428704761260311 0 0.23815303799476051 0.16027892766000909 0 0.2523303419621033 0.15440227316217531 0 0.23815303799476051 0.16027892766000909 0 0.24445650326616589 0.14307299743987489 0 0.23071798371766589 0.14659297369986901 0 0.23815303799476051 0.16027892766000909 0 0.24445650326616589 0.14307299743987489 0 0.2523303419621033 0.15440227316217531 0 0.22572623378765641 0.1601052838662175 0 0.23815303799476051 0.16027892766000909 0 0.23071798371766589 0.14659297369986901 0 0.21600195169310171 0.15368747906870589 0 0.2173316213003498 0.1421735565185662 0 0.23071798371766589 0.14659297369986901 0 0.21600195169310171 0.15368747906870589 0 0.22572623378765641 0.1601052838662175 0 0.23071798371766589 0.14659297369986901 0 0.21044840569540929 0.12904408055477271 0 0.2355558330827649 0.13107828504126409 0 0.2173316213003498 0.1421735565185662 0 0.21044840569540929 0.12904408055477271 0 0.2355558330827649 0.13107828504126409 0 0.2173316213003498 0.1421735565185662 0 0.23071798371766589 0.14659297369986901 0 0.2355558330827649 0.13107828504126409 0 0.21044840569540929 0.12904408055477271 0 0.2355558330827649 0.13107828504126409 0 0.21433658354942009 0.124184073650052 0 0.2355558330827649 0.13107828504126409 0 0.24091524765871231 0.1111468173940373 0 0.25803940136988229 0.1345174987117474 0 0.24445650326616589 0.14307299743987489 0 0.2355558330827649 0.13107828504126409 0 0.25803940136988229 0.1345174987117474 0 0.24445650326616589 0.14307299743987489 0 0.23071798371766589 0.14659297369986901 0 0.2355558330827649 0.13107828504126409 0 0.2355558330827649 0.13107828504126409 0 0.24091524765871231 0.1111468173940373 0 0.22702541134735599 0.1183948042537422 0 0.23388942962746059 0.096747119190211728 0 0.24640086058121119 0.085938776428289107 0 0.25342826027611698 0.10039197176467771 0 0.24091524765871231 0.1111468173940373 0 0.23388942962746059 0.096747119190211728 0 0.25342826027611698 0.10039197176467771 0 0.24091524765871231 0.1111468173940373 0 0.23388942962746059 0.096747119190211728 0 0.21808203453976119 0.10766091052675419 0 0.23388942962746059 0.096747119190211728 0 0.21808203453976119 0.10766091052675419 0 0.22112245491865751 0.088509763776345701 0 0.24091524765871231 0.1111468173940373 0 0.22702541134735599 0.1183948042537422 0 0.21808203453976119 0.10766091052675419 0 0.2355558330827649 0.13107828504126409 0 0.22702541134735599 0.1183948042537422 0 0.21433658354942009 0.124184073650052 0 0.24091524765871231 0.1111468173940373 0 0.21808203453976119 0.10766091052675419 0 0.22702541134735599 0.1183948042537422 0 0.21395149739231659 0.1154106940249264 0 0.21808203453976119 0.10766091052675419 0 0.21433658354942009 0.124184073650052 0 0.20891196331668679 0.1235090376777295 0 0.21395149739231659 0.1154106940249264 0 0.22702541134735599 0.1183948042537422 0 0.21433658354942009 0.124184073650052 0 0.21395149739231659 0.1154106940249264 0 0.20580761187138799 0.1186966657254999 0 0.21395149739231659 0.1154106940249264 0 0.1952488214208101 0.1041750036594712 0 0.20355206095147271 0.12848533850597069 0 0.20891196331668679 0.1235090376777295 0 0.20580761187138799 0.1186966657254999 0 0.20355206095147271 0.12848533850597069 0 0.20580761187138799 0.1186966657254999 0 0.20891196331668679 0.1235090376777295 0 0.20580761187138799 0.1186966657254999 0 0.21395149739231659 0.1154106940249264 0 0.21808203453976119 0.10766091052675419 0 0.2056048239527534 0.091577519547269462 0 0.22112245491865751 0.088509763776345701 0 0.21395149739231659 0.1154106940249264 0 0.21808203453976119 0.10766091052675419 0 0.1952488214208101 0.1041750036594712 0 0.21808203453976119 0.10766091052675419 0 0.1952488214208101 0.1041750036594712 0 0.2056048239527534 0.091577519547269462 0 0.21808203453976119 0.10766091052675419 0 0.1952488214208101 0.1041750036594712 0 0.1952488214208101 0.1041750036594712 0 0.2056048239527534 0.091577519547269462 0 0.184008787459121 0.089253620026350122 0 0.17801742534052889 0.1264165215969586 0 0.20355206095147271 0.12848533850597069 0 0.1930437876423827 0.1175128773667187 0 0.1952488214208101 0.1041750036594712 0 0.1930437876423827 0.1175128773667187 0 0.1825930186277139 0.1097908573456933 0 0.20355206095147271 0.12848533850597069 0 0.20580761187138799 0.1186966657254999 0 0.1930437876423827 0.1175128773667187 0 0.20580761187138799 0.1186966657254999 0 0.1952488214208101 0.1041750036594712 0 0.1930437876423827 0.1175128773667187 0 0.20082228774116079 0.076376442575105452 0 0.20235677372923089 0.062818682080573715 0 0.18640687820989599 0.066475441516618716 0 0.20082228774116079 0.076376442575105452 0 0.184008787459121 0.089253620026350122 0 0.18640687820989599 0.066475441516618716 0 0.20082228774116079 0.076376442575105452 0 0.2056048239527534 0.091577519547269462 0 0.184008787459121 0.089253620026350122 0 0.20082228774116079 0.076376442575105452 0 0.2056048239527534 0.091577519547269462 0 0.21247152319835511 0.079984608357575787 0 0.2056048239527534 0.091577519547269462 0 0.21247152319835511 0.079984608357575787 0 0.22112245491865751 0.088509763776345701 0 0.21247152319835511 0.079984608357575787 0 0.2220702463829953 0.074589176037617347 0 0.22112245491865751 0.088509763776345701 0 0.21247152319835511 0.079984608357575787 0 0.2127378029962087 0.068870139851540946 0 0.2220702463829953 0.074589176037617347 0 0.20082228774116079 0.076376442575105452 0 0.21247152319835511 0.079984608357575787 0 0.2127378029962087 0.068870139851540946 0 0.20082228774116079 0.076376442575105452 0 0.20235677372923089 0.062818682080573715 0 0.2127378029962087 0.068870139851540946 0 0.2127378029962087 0.068870139851540946 0 0.2214572506252421 0.063474008000766469 0 0.2220702463829953 0.074589176037617347 0 0.2214572506252421 0.063474008000766469 0 0.2220702463829953 0.074589176037617347 0 0.23157280071387859 0.065731698105127009 0 0.2220702463829953 0.074589176037617347 0 0.23157280071387859 0.065731698105127009 0 0.2328664337310557 0.080688243788453046 0 0.23388942962746059 0.096747119190211728 0 0.22112245491865751 0.088509763776345701 0 0.2328664337310557 0.080688243788453046 0 0.2220702463829953 0.074589176037617347 0 0.22112245491865751 0.088509763776345701 0 0.2328664337310557 0.080688243788453046 0 0.23388942962746059 0.096747119190211728 0 0.2328664337310557 0.080688243788453046 0 0.24640086058121119 0.085938776428289107 0 0.2328664337310557 0.080688243788453046 0 0.24640086058121119 0.085938776428289107 0 0.24088681061742201 0.071877660420780976 0 0.23157280071387859 0.065731698105127009 0 0.24088681061742201 0.071877660420780976 0 0.2421789250816295 0.060313810287290742 0 0.23157280071387859 0.065731698105127009 0 0.2328664337310557 0.080688243788453046 0 0.24088681061742201 0.071877660420780976 0 0.24640086058121119 0.085938776428289107 0 0.24088681061742201 0.071877660420780976 0 0.25347601198481851 0.070846851749968923 0 0.2421789250816295 0.060313810287290742 0 0.25421258692591608 0.056622967000013923 0 0.25347601198481851 0.070846851749968923 0 0.24088681061742201 0.071877660420780976 0 0.2421789250816295 0.060313810287290742 0 0.25347601198481851 0.070846851749968923 0 0.2421789250816295 0.060313810287290742 0 0.2414358262802774 0.05029233879449032 0 0.25421258692591608 0.056622967000013923 0 0.23508117249540711 0.055636814288508363 0 0.2421789250816295 0.060313810287290742 0 0.2414358262802774 0.05029233879449032 0 0.23157280071387859 0.065731698105127009 0 0.23508117249540711 0.055636814288508363 0 0.2421789250816295 0.060313810287290742 0 0.23508117249540711 0.055636814288508363 0 0.2414358262802774 0.05029233879449032 0 0.23348760542823191 0.046352129394750807 0 0.2414358262802774 0.05029233879449032 0 0.23937583930307069 0.044927301984980551 0 0.23348760542823191 0.046352129394750807 0 0.2414358262802774 0.05029233879449032 0 0.24424729673423809 0.041878356460708567 0 0.25523297909370862 0.045178265150677369 0 0.24424729673423809 0.041878356460708567 0 0.24506930095093701 0.037569968015384432 0 0.23911617233903121 0.039636021664758013 0 0.2430967106918169 0.034911472302389113 0 0.23618525097325391 0.033464735396403857 0 0.24917736808063759 0.030930597742944401 0 0.24683302380758651 0.034294417443512512 0 0.24917736808063759 0.030930597742944401 0 0.25136097441666611 0.037606820702287568 0 0.24683302380758651 0.034294417443512512 0 0.2430967106918169 0.034911472302389113 0 0.24917736808063759 0.030930597742944401 0 0.24683302380758651 0.034294417443512512 0 0.24506930095093701 0.037569968015384432 0 0.25136097441666611 0.037606820702287568 0 0.24424729673423809 0.041878356460708567 0 0.24506930095093701 0.037569968015384432 0 0.25136097441666611 0.037606820702287568 0 0.24506930095093701 0.037569968015384432 0 0.2430967106918169 0.034911472302389113 0 0.23911617233903121 0.039636021664758013 0 0.24683302380758651 0.034294417443512512 0 0.24506930095093701 0.037569968015384432 0 0.2430967106918169 0.034911472302389113 0 0.23618525097325391 0.033464735396403857 0 0.23911617233903121 0.039636021664758013 0 0.23086675722992911 0.039444394217629138 0 0.2430967106918169 0.034911472302389113 0 0.23618525097325391 0.033464735396403857 0 0.23911617233903121 0.039636021664758013 0 0.23911617233903121 0.039636021664758013 0 0.23348760542823191 0.046352129394750807 0 0.23086675722992911 0.039444394217629138 0 0.2414358262802774 0.05029233879449032 0 0.24424729673423809 0.041878356460708567 0 0.23937583930307069 0.044927301984980551 0 0.24424729673423809 0.041878356460708567 0 0.23937583930307069 0.044927301984980551 0 0.23911617233903121 0.039636021664758013 0 0.23937583930307069 0.044927301984980551 0 0.23911617233903121 0.039636021664758013 0 0.23348760542823191 0.046352129394750807 0 0.23348760542823191 0.046352129394750807 0 0.23086675722992911 0.039444394217629138 0 0.2240204860124545 0.046854391345194583 0 0.23618525097325391 0.033464735396403857 0 0.23086675722992911 0.039444394217629138 0 0.22652285428967769 0.033946709394167468 0 0.23086675722992911 0.039444394217629138 0 0.22652285428967769 0.033946709394167468 0 0.223071302080495 0.038230611892813578 0 0.22652285428967769 0.033946709394167468 0 0.223071302080495 0.038230611892813578 0 0.2173453380105409 0.032304642042789738 0 0.223071302080495 0.038230611892813578 0 0.2240204860124545 0.046854391345194583 0 0.2125374283266333 0.040901992555598773 0 0.23086675722992911 0.039444394217629138 0 0.223071302080495 0.038230611892813578 0 0.2240204860124545 0.046854391345194583 0 0.2240204860124545 0.046854391345194583 0 0.22673070497301789 0.055494094860882907 0 0.21410008896290431 0.055137345893432582 0 0.2214572506252421 0.063474008000766469 0 0.22673070497301789 0.055494094860882907 0 0.21410008896290431 0.055137345893432582 0 0.23157280071387859 0.065731698105127009 0 0.23508117249540711 0.055636814288508363 0 0.22673070497301789 0.055494094860882907 0 0.2214572506252421 0.063474008000766469 0 0.23157280071387859 0.065731698105127009 0 0.22673070497301789 0.055494094860882907 0 0.23508117249540711 0.055636814288508363 0 0.23348760542823191 0.046352129394750807 0 0.22673070497301789 0.055494094860882907 0 0.23348760542823191 0.046352129394750807 0 0.2240204860124545 0.046854391345194583 0 0.22673070497301789 0.055494094860882907 0 0.24924375414218081 0.01218264724973479 0 0.24251777179765821 0.01627777550428082 0 0.23561320151629339 -0.0026335918461790988 0 0.24924375414218081 0.01218264724973479 0 0.24251777179765821 0.01627777550428082 0 0.23618525097325391 0.033464735396403857 0 0.24917736808063759 0.030930597742944401 0 0.22514562315417 0.026289163421201051 0 0.24917736808063759 0.030930597742944401 0 0.22514562315417 0.026289163421201051 0 0.24920391902540581 0.02343240028237412 0 0.2206664651149893 0.015810534249224011 0 0.24920391902540581 0.02343240028237412 0 0.24917736808063759 0.030930597742944401 0 0.22514562315417 0.026289163421201051 0 0.24251777179765821 0.01627777550428082 0 0.24920391902540581 0.02343240028237412 0 0.2206664651149893 0.015810534249224011 0 0.24924375414218081 0.01218264724973479 0 0.24920391902540581 0.02343240028237412 0 0.24924375414218081 0.01218264724973479 0 0.24251777179765821 0.01627777550428082 0 0.24920391902540581 0.02343240028237412 0 0.24920391902540581 0.02343240028237412 0 0.24917736808063759 0.030930597742944401 0 0.2206664651149893 0.015810534249224011 0 0.22514562315417 0.026289163421201051 0 0.2173453380105409 0.032304642042789738 0 0.24920391902540581 0.02343240028237412 0 0.2206664651149893 0.015810534249224011 0 0.22514562315417 0.026289163421201051 0 0.23618525097325391 0.033464735396403857 0 0.22652285428967769 0.033946709394167468 0 0.22514562315417 0.026289163421201051 0 0.22652285428967769 0.033946709394167468 0 0.22514562315417 0.026289163421201051 0 0.2173453380105409 0.032304642042789738 0 0.24251777179765821 0.01627777550428082 0 0.2206664651149893 0.015810534249224011 0 0.23561320151629339 -0.0026335918461790988 0 0.2206664651149893 0.015810534249224011 0 0.20864284802578281 -0.0065324788891540156 0 0.23561320151629339 -0.0026335918461790988 0 0.2206664651149893 0.015810534249224011 0 0.19212901120457321 0.0081886682160713375 0 0.2206664651149893 0.015810534249224011 0 0.19212901120457321 0.0081886682160713375 0 0.20864284802578281 -0.0065324788891540156 0 0.2206664651149893 0.015810534249224011 0 0.20386030021217241 0.02905844332011662 0 0.2173453380105409 0.032304642042789738 0 0.2206664651149893 0.015810534249224011 0 0.20386030021217241 0.02905844332011662 0 0.19212901120457321 0.0081886682160713375 0 0.20386030021217241 0.02905844332011662 0 0.19212901120457321 0.0081886682160713375 0 0.1854028037201754 0.029242539763707661 0 0.21410008896290431 0.055137345893432582 0 0.2125374283266333 0.040901992555598773 0 0.19771681073598471 0.047234040566170817 0 0.20235677372923089 0.062818682080573715 0 0.21410008896290431 0.055137345893432582 0 0.19771681073598471 0.047234040566170817 0 0.20235677372923089 0.062818682080573715 0 0.2127378029962087 0.068870139851540946 0 0.21410008896290431 0.055137345893432582 0 0.2127378029962087 0.068870139851540946 0 0.2214572506252421 0.063474008000766469 0 0.21410008896290431 0.055137345893432582 0 0.2240204860124545 0.046854391345194583 0 0.21410008896290431 0.055137345893432582 0 0.2125374283266333 0.040901992555598773 0 0.20386030021217241 0.02905844332011662 0 0.2125374283266333 0.040901992555598773 0 0.19771681073598471 0.047234040566170817 0 0.223071302080495 0.038230611892813578 0 0.2125374283266333 0.040901992555598773 0 0.2173453380105409 0.032304642042789738 0 0.20386030021217241 0.02905844332011662 0 0.2125374283266333 0.040901992555598773 0 0.2173453380105409 0.032304642042789738 0 0.20386030021217241 0.02905844332011662 0 0.19771681073598471 0.047234040566170817 0 0.1854028037201754 0.029242539763707661 0 0.20235677372923089 0.062818682080573715 0 0.19771681073598471 0.047234040566170817 0 0.18640687820989599 0.066475441516618716 0 0.19771681073598471 0.047234040566170817 0 0.17825772092985129 0.050688551372655558 0 0.18640687820989599 0.066475441516618716 0 0.19771681073598471 0.047234040566170817 0 0.17825772092985129 0.050688551372655558 0 0.1854028037201754 0.029242539763707661 0 0.17825772092985129 0.050688551372655558 0 0.1697772083831442 0.036851620088621702 0 0.1854028037201754 0.029242539763707661 0 0.1697772083831442 0.036851620088621702 0 0.1564548144955405 0.053310447061785032 0 0.15681333553000709 0.03056145311779462 0 0.17825772092985129 0.050688551372655558 0 0.1697772083831442 0.036851620088621702 0 0.1564548144955405 0.053310447061785032 0 0.17825772092985129 0.050688551372655558 0 0.1564548144955405 0.053310447061785032 0 0.16977127450334309 0.071526608964501873 0 0.19212901120457321 0.0081886682160713375 0 0.16963372756194131 0.019042754814251741 0 0.163591557294157 0.00056680218291868187 0 0.19212901120457321 0.0081886682160713375 0 0.163591557294157 0.00056680218291868187 0 0.1697772083831442 0.036851620088621702 0 0.1854028037201754 0.029242539763707661 0 0.16963372756194131 0.019042754814251741 0 0.19212901120457321 0.0081886682160713375 0 0.1854028037201754 0.029242539763707661 0 0.16963372756194131 0.019042754814251741 0 0.1697772083831442 0.036851620088621702 0 0.16963372756194131 0.019042754814251741 0 0.15681333553000709 0.03056145311779462 0 0.16963372756194131 0.019042754814251741 0 0.15681333553000709 0.03056145311779462 0 0.15069454330392909 0.01362305672975905 0 0.16963372756194131 0.019042754814251741 0 0.163591557294157 0.00056680218291868187 0 0.15069454330392909 0.01362305672975905 0 0.163591557294157 0.00056680218291868187 0 0.15069454330392909 0.01362305672975905 0 0.13505410338374099 -0.0070550638502339322 0 0.15069454330392909 0.01362305672975905 0 0.13988937443273919 0.040081425654783738 0 0.15681333553000709 0.03056145311779462 0 0.15069454330392909 0.01362305672975905 0 0.13988937443273919 0.040081425654783738 0 0.15069454330392909 0.01362305672975905 0 0.1341633860335168 0.01370217472334927 0 0.13988937443273919 0.040081425654783738 0 0.12251008271650859 0.023139438711283121 0 0.1341633860335168 0.01370217472334927 0 0.13988937443273919 0.040081425654783738 0 0.12251008271650859 0.023139438711283121 0 0.12169987808444491 0.0072513285582684502 0 0.1341633860335168 0.01370217472334927 0 0.15069454330392909 0.01362305672975905 0 0.1341633860335168 0.01370217472334927 0 0.13505410338374099 -0.0070550638502339322 0 0.12169987808444491 0.0072513285582684502 0 0.1341633860335168 0.01370217472334927 0 0.13505410338374099 -0.0070550638502339322 0 0.1564548144955405 0.053310447061785032 0 0.13988937443273919 0.040081425654783738 0 0.12908420556154929 0.066539794579808562 0 0.1564548144955405 0.053310447061785032 0 0.15681333553000709 0.03056145311779462 0 0.13988937443273919 0.040081425654783738 0 0.1145025214138863 0.052650644276098509 0 0.1219569800619074 0.03737599779737627 0 0.13988937443273919 0.040081425654783738 0 0.1219569800619074 0.03737599779737627 0 0.12251008271650859 0.023139438711283121 0 0.13988937443273919 0.040081425654783738 0 0.1145025214138863 0.052650644276098509 0 0.13988937443273919 0.040081425654783738 0 0.12908420556154929 0.066539794579808562 0 0.13988937443273919 0.040081425654783738 0 0.12908420556154929 0.066539794579808562 0 0.12908420556154929 0.066539794579808562 0 0.14995697986024811 0.078671199829219246 0 0.13451253436639021 0.086643019758676151 0 0.1564548144955405 0.053310447061785032 0 0.12908420556154929 0.066539794579808562 0 0.14995697986024811 0.078671199829219246 0 0.14995697986024811 0.078671199829219246 0 0.13451253436639021 0.086643019758676151 0 0.14384814448577679 0.097643482238135459 0 0.14995697986024811 0.078671199829219246 0 0.14384814448577679 0.097643482238135459 0 0.16129406718340919 0.090406555638100877 0 0.1182790366903594 0.092998163504833142 0 0.12908420556154929 0.066539794579808562 0 0.13451253436639021 0.086643019758676151 0 0.1182790366903594 0.092998163504833142 0 0.13451253436639021 0.086643019758676151 0 0.12988486795911119 0.098065313119334113 0 0.13059818477956889 0.1110944223505837 0 0.14364245642711679 0.11419680289723599 0 0.14384814448577679 0.097643482238135459 0 0.12008056923662259 0.10449181260521689 0 0.12988486795911119 0.098065313119334113 0 0.13059818477956889 0.1110944223505837 0 0.12988486795911119 0.098065313119334113 0 0.13059818477956889 0.1110944223505837 0 0.14384814448577679 0.097643482238135459 0 0.13451253436639021 0.086643019758676151 0 0.12988486795911119 0.098065313119334113 0 0.14384814448577679 0.097643482238135459 0 0.11346359633902969 0.1220533577703921 0 0.1343092628838379 0.1256369390366581 0 0.13059818477956889 0.1110944223505837 0 0.1343092628838379 0.1256369390366581 0 0.13059818477956889 0.1110944223505837 0 0.14364245642711679 0.11419680289723599 0 0.1343092628838379 0.1256369390366581 0 0.14364245642711679 0.11419680289723599 0 0.15248278972958529 0.1243477046879467 0 0.14364245642711679 0.11419680289723599 0 0.15248278972958529 0.1243477046879467 0 0.1563322996448879 0.1082923467898696 0 0.14384814448577679 0.097643482238135459 0 0.1563322996448879 0.1082923467898696 0 0.16129406718340919 0.090406555638100877 0 0.14364245642711679 0.11419680289723599 0 0.14384814448577679 0.097643482238135459 0 0.1563322996448879 0.1082923467898696 0 0.1563322996448879 0.1082923467898696 0 0.1705083771703553 0.1025209937525394 0 0.16129406718340919 0.090406555638100877 0 0.1563322996448879 0.1082923467898696 0 0.1705083771703553 0.1025209937525394 0 0.16798678210261431 0.1142736848346015 0 0.15248278972958529 0.1243477046879467 0 0.1563322996448879 0.1082923467898696 0 0.16798678210261431 0.1142736848346015 0 0.17801742534052889 0.1264165215969586 0 0.15248278972958529 0.1243477046879467 0 0.16798678210261431 0.1142736848346015 0 0.17801742534052889 0.1264165215969586 0 0.1930437876423827 0.1175128773667187 0 0.1825930186277139 0.1097908573456933 0 0.17801742534052889 0.1264165215969586 0 0.16798678210261431 0.1142736848346015 0 0.1825930186277139 0.1097908573456933 0 0.1952488214208101 0.1041750036594712 0 0.1825930186277139 0.1097908573456933 0 0.184008787459121 0.089253620026350122 0 0.1705083771703553 0.1025209937525394 0 0.184008787459121 0.089253620026350122 0 0.16129406718340919 0.090406555638100877 0 0.1705083771703553 0.1025209937525394 0 0.1825930186277139 0.1097908573456933 0 0.184008787459121 0.089253620026350122 0 0.1705083771703553 0.1025209937525394 0 0.16798678210261431 0.1142736848346015 0 0.1825930186277139 0.1097908573456933 0 0.184008787459121 0.089253620026350122 0 0.18640687820989599 0.066475441516618716 0 0.16977127450334309 0.071526608964501873 0 0.17825772092985129 0.050688551372655558 0 0.18640687820989599 0.066475441516618716 0 0.16977127450334309 0.071526608964501873 0 0.1564548144955405 0.053310447061785032 0 0.14995697986024811 0.078671199829219246 0 0.16977127450334309 0.071526608964501873 0 0.184008787459121 0.089253620026350122 0 0.16977127450334309 0.071526608964501873 0 0.16129406718340919 0.090406555638100877 0 0.14995697986024811 0.078671199829219246 0 0.16977127450334309 0.071526608964501873 0 0.16129406718340919 0.090406555638100877 0 0.1031953483076815 0.48023696119994141 0 0.1232879693058704 0.473389639060316 0 0.09994661840422267 0.4640086682203981 0 0.1031953483076815 0.48023696119994141 0 0.09994661840422267 0.4640086682203981 0 0.090568085505315185 0.47903758809540381 0 0.1031953483076815 0.48023696119994141 0 0.10563875346611069 0.48686499323936661 0 0.11031908342195169 0.4809135936921648 0 0.1031953483076815 0.48023696119994141 0 0.11031908342195169 0.4809135936921648 0 0.1031953483076815 0.48023696119994141 0 0.093946697682764799 0.4833887894353584 0 0.1031953483076815 0.48023696119994141 0 0.093946697682764799 0.4833887894353584 0 0.090568085505315185 0.47903758809540381 0 0.1031953483076815 0.48023696119994141 0 0.090568085505315185 0.47903758809540381 0 0.1031953483076815 0.48023696119994141 0 0.093946697682764799 0.4833887894353584 0 0.10563875346611069 0.48686499323936661 0 0.093946697682764799 0.4833887894353584 0 0.10684493748162351 0.499999999999997 0 0.093946697682764799 0.4833887894353584 0 0.10684493748162351 0.499999999999997 0 0.086297675718717493 0.5 0 0.093946697682764799 0.4833887894353584 0 0.10684493748162351 0.499999999999997 0 0.10563875346611069 0.48686499323936661 0 0.10684493748162351 0.499999999999997 0 0.10563875346611069 0.48686499323936661 0 0.1130061987220547 0.48809486229380611 0 0.10563875346611069 0.48686499323936661 0 0.1130061987220547 0.48809486229380611 0 0.11031908342195169 0.4809135936921648 0 0.10684493748162351 0.499999999999997 0 0.1130061987220547 0.48809486229380611 0 0.12247105767917139 0.49036732130857652 0 0.10684493748162351 0.499999999999997 0 0.12247105767917139 0.49036732130857652 0 0.13558549972938361 0.5 0 0.1130061987220547 0.48809486229380611 0 0.12247105767917139 0.49036732130857652 0 0.1193164107041766 0.48148302344114258 0 0.1193164107041766 0.48148302344114258 0 0.11031908342195169 0.4809135936921648 0 0.1232879693058704 0.473389639060316 0 0.1031953483076815 0.48023696119994141 0 0.1232879693058704 0.473389639060316 0 0.1031953483076815 0.48023696119994141 0 0.11031908342195169 0.4809135936921648 0 0.1232879693058704 0.473389639060316 0 0.1130061987220547 0.48809486229380611 0 0.1193164107041766 0.48148302344114258 0 0.11031908342195169 0.4809135936921648 0 0.1232879693058704 0.473389639060316 0 0.09994661840422267 0.4640086682203981 0 0.12312185087955289 0.45437156075947838 0 0.1120917503819881 0.45746275463209191 0 0.13172151909199531 0.46115818626391619 0 0.1232879693058704 0.473389639060316 0 0.1120917503819881 0.45746275463209191 0 0.09994661840422267 0.4640086682203981 0 0.1120917503819881 0.45746275463209191 0 0.13172151909199531 0.46115818626391619 0 0.1232879693058704 0.473389639060316 0 0.1120917503819881 0.45746275463209191 0 0.13172151909199531 0.46115818626391619 0 0.12312185087955289 0.45437156075947838 0 0.1120917503819881 0.45746275463209191 0 0.1152379283162684 0.45295320210215517 0 0.1120917503819881 0.45746275463209191 0 0.1152379283162684 0.45295320210215517 0 0.1096021344583296 0.45240688733390788 0 0.11568429419972651 0.44781505138255417 0 0.1142314768810946 0.43234930405825012 0 0.12518469736031901 0.44246471678543681 0 0.12312185087955289 0.45437156075947838 0 0.11568429419972651 0.44781505138255417 0 0.12518469736031901 0.44246471678543681 0 0.12312185087955289 0.45437156075947838 0 0.1152379283162684 0.45295320210215517 0 0.11568429419972651 0.44781505138255417 0 0.1096021344583296 0.45240688733390788 0 0.11568429419972651 0.44781505138255417 0 0.104015706426832 0.44394390277634338 0 0.1152379283162684 0.45295320210215517 0 0.1096021344583296 0.45240688733390788 0 0.11568429419972651 0.44781505138255417 0 0.11568429419972651 0.44781505138255417 0 0.104015706426832 0.44394390277634338 0 0.1142314768810946 0.43234930405825012 0 0.1096021344583296 0.45240688733390788 0 0.104015706426832 0.44394390277634338 0 0.096047298802967501 0.45444228226910638 0 0.104015706426832 0.44394390277634338 0 0.096047298802967501 0.45444228226910638 0 0.092858291128361803 0.44253558830491779 0 0.104015706426832 0.44394390277634338 0 0.092858291128361803 0.44253558830491779 0 0.098728564394928636 0.43041207657744007 0 0.1120917503819881 0.45746275463209191 0 0.096047298802967501 0.45444228226910638 0 0.09994661840422267 0.4640086682203981 0 0.1120917503819881 0.45746275463209191 0 0.096047298802967501 0.45444228226910638 0 0.1120917503819881 0.45746275463209191 0 0.1096021344583296 0.45240688733390788 0 0.096047298802967501 0.45444228226910638 0 0.1120917503819881 0.45746275463209191 0 0.09994661840422267 0.4640086682203981 0 0.096047298802967501 0.45444228226910638 0 0.078816564138522532 0.45551642525864622 0 0.08000284722394696 0.45142180990612069 0 0.078816564138522532 0.45551642525864622 0 0.077047016468904966 0.46162425663891687 0 0.0851083145484514 0.47200613214377768 0 0.096047298802967501 0.45444228226910638 0 0.09994661840422267 0.4640086682203981 0 0.078816564138522532 0.45551642525864622 0 0.09994661840422267 0.4640086682203981 0 0.078816564138522532 0.45551642525864622 0 0.09994661840422267 0.4640086682203981 0 0.078816564138522532 0.45551642525864622 0 0.0851083145484514 0.47200613214377768 0 0.09994661840422267 0.4640086682203981 0 0.0851083145484514 0.47200613214377768 0 0.078816564138522532 0.45551642525864622 0 0.08000284722394696 0.45142180990612069 0 0.077047016468904966 0.46162425663891687 0 0.0851083145484514 0.47200613214377768 0 0.096047298802967501 0.45444228226910638 0 0.092858291128361803 0.44253558830491779 0 0.08000284722394696 0.45142180990612069 0 0.08000284722394696 0.45142180990612069 0 0.075394802978600489 0.44212701557641643 0 0.085497038793133834 0.43245786999557878 0 0.092858291128361803 0.44253558830491779 0 0.08000284722394696 0.45142180990612069 0 0.085497038793133834 0.43245786999557878 0 0.096047298802967501 0.45444228226910638 0 0.08000284722394696 0.45142180990612069 0 0.08000284722394696 0.45142180990612069 0 0.085497038793133834 0.43245786999557878 0 0.069350285230721287 0.45171189454528349 0 0.067970799088848441 0.44105222878097688 0 0.055558092119714728 0.43394939148378597 0 0.075394802978600489 0.44212701557641643 0 0.067970799088848441 0.44105222878097688 0 0.073889920267886627 0.43161375918981398 0 0.075394802978600489 0.44212701557641643 0 0.071417673811936269 0.44600177446788758 0 0.067970799088848441 0.44105222878097688 0 0.08000284722394696 0.45142180990612069 0 0.075394802978600489 0.44212701557641643 0 0.073590538685850762 0.45021465111812048 0 0.075394802978600489 0.44212701557641643 0 0.071417673811936269 0.44600177446788758 0 0.073590538685850762 0.45021465111812048 0 0.078816564138522532 0.45551642525864622 0 0.073590538685850762 0.45021465111812048 0 0.069350285230721287 0.45171189454528349 0 0.078816564138522532 0.45551642525864622 0 0.08000284722394696 0.45142180990612069 0 0.073590538685850762 0.45021465111812048 0 0.08000284722394696 0.45142180990612069 0 0.073590538685850762 0.45021465111812048 0 0.071417673811936269 0.44600177446788758 0 0.073590538685850762 0.45021465111812048 0 0.069350285230721287 0.45171189454528349 0 0.071417673811936269 0.44600177446788758 0 0.069350285230721287 0.45171189454528349 0 0.067970799088848441 0.44105222878097688 0 0.069350285230721287 0.45171189454528349 0 0.070536008776366052 0.46824523391414369 0 0.061616751290779322 0.46566116596666618 0 0.069350285230721287 0.45171189454528349 0 0.070536008776366052 0.46824523391414369 0 0.077047016468904966 0.46162425663891687 0 0.078816564138522532 0.45551642525864622 0 0.077047016468904966 0.46162425663891687 0 0.069350285230721287 0.45171189454528349 0 0.077047016468904966 0.46162425663891687 0 0.078816564138522532 0.45551642525864622 0 0.069350285230721287 0.45171189454528349 0 0.077047016468904966 0.46162425663891687 0 0.078816564138522532 0.45551642525864622 0 0.069350285230721287 0.45171189454528349 0 0.069350285230721287 0.45171189454528349 0 0.058106685204382377 0.45562432045764911 0 0.061616751290779322 0.46566116596666618 0 0.077047016468904966 0.46162425663891687 0 0.07249928501941566 0.4773213623643614 0 0.070536008776366052 0.46824523391414369 0 0.077047016468904966 0.46162425663891687 0 0.07249928501941566 0.4773213623643614 0 0.070536008776366052 0.46824523391414369 0 0.07249928501941566 0.4773213623643614 0 0.061616751290779322 0.46566116596666618 0 0.071990913906040482 0.47907607352157361 0 0.07249928501941566 0.4773213623643614 0 0.04358015139562512 0.4745745413297639 0 0.077047016468904966 0.46162425663891687 0 0.07249928501941566 0.4773213623643614 0 0.074834951312214293 0.47754321054924659 0 0.071990913906040482 0.47907607352157361 0 0.074834951312214293 0.47754321054924659 0 0.068894944836468811 0.48976222646344669 0 0.071990913906040482 0.47907607352157361 0 0.07249928501941566 0.4773213623643614 0 0.07249928501941566 0.4773213623643614 0 0.074834951312214293 0.47754321054924659 0 0.071990913906040482 0.47907607352157361 0 0.074834951312214293 0.47754321054924659 0 0.071990913906040482 0.47907607352157361 0 0.07249928501941566 0.4773213623643614 0 0.074834951312214293 0.47754321054924659 0 0.077047016468904966 0.46162425663891687 0 0.074834951312214293 0.47754321054924659 0 0.0851083145484514 0.47200613214377768 0 0.074834951312214293 0.47754321054924659 0 0.0851083145484514 0.47200613214377768 0 0.090568085505315185 0.47903758809540381 0 0.074834951312214293 0.47754321054924659 0 0.090568085505315185 0.47903758809540381 0 0.074834951312214293 0.47754321054924659 0 0.090568085505315185 0.47903758809540381 0 0.069574924937835292 0.49169439471768062 0 0.074834951312214293 0.47754321054924659 0 0.0851083145484514 0.47200613214377768 0 0.093946697682764799 0.4833887894353584 0 0.090568085505315185 0.47903758809540381 0 0.09994661840422267 0.4640086682203981 0 0.0851083145484514 0.47200613214377768 0 0.090568085505315185 0.47903758809540381 0 0.0851083145484514 0.47200613214377768 0 0.090568085505315185 0.47903758809540381 0 0.093946697682764799 0.4833887894353584 0 0.069574924937835292 0.49169439471768062 0 0.093946697682764799 0.4833887894353584 0 0.090568085505315185 0.47903758809540381 0 0.069574924937835292 0.49169439471768062 0 0.093946697682764799 0.4833887894353584 0 0.086297675718717493 0.5 0 0.069574924937835292 0.49169439471768062 0 0.086297675718717493 0.5 0 0.065750413955811493 0.5 0 0.069574924937835292 0.49169439471768062 0 0.069574924937835292 0.49169439471768062 0 0.068894944836468811 0.48976222646344669 0 0.052580036788167257 0.489538036760788 0 0.071990913906040482 0.47907607352157361 0 0.068894944836468811 0.48976222646344669 0 0.052580036788167257 0.489538036760788 0 0.071990913906040482 0.47907607352157361 0 0.068894944836468811 0.48976222646344669 0 0.074834951312214293 0.47754321054924659 0 0.069574924937835292 0.49169439471768062 0 0.068894944836468811 0.48976222646344669 0 0.069574924937835292 0.49169439471768062 0 0.052580036788167257 0.489538036760788 0 0.045203152192905487 0.50000000000000144 0 0.069574924937835292 0.49169439471768062 0 0.045203152192905487 0.50000000000000144 0 0.065750413955811493 0.5 0 0.069574924937835292 0.49169439471768062 0 0.045203152192905487 0.50000000000000144 0 0.071990913906040482 0.47907607352157361 0 0.052580036788167257 0.489538036760788 0 0.04358015139562512 0.4745745413297639 0 0.07249928501941566 0.4773213623643614 0 0.04358015139562512 0.4745745413297639 0 0.071990913906040482 0.47907607352157361 0 0.052580036788167257 0.489538036760788 0 0.07249928501941566 0.4773213623643614 0 0.04358015139562512 0.4745745413297639 0 0.061616751290779322 0.46566116596666618 0 0.04358015139562512 0.4745745413297639 0 0.038877070129264307 0.48740242196263017 0 0.026178932662970548 0.48549710975996591 0 0.052580036788167257 0.489538036760788 0 0.04358015139562512 0.4745745413297639 0 0.038877070129264307 0.48740242196263017 0 0.052580036788167257 0.489538036760788 0 0.038877070129264307 0.48740242196263017 0 0.033169159670293602 0.50000000000000155 0 0.052580036788167257 0.489538036760788 0 0.045203152192905487 0.50000000000000144 0 0.033169159670293602 0.50000000000000155 0 0.052580036788167257 0.489538036760788 0 0.033169159670293602 0.50000000000000155 0 0.038877070129264307 0.48740242196263017 0 0.033169159670293602 0.50000000000000155 0 0.026178932662970548 0.48549710975996591 0 0.033169159670293602 0.50000000000000155 0 0.026178932662970548 0.48549710975996591 0 0.010496769125121539 0.5 0 0.026178932662970548 0.48549710975996591 0 0.01025446024202022 0.4822856255575026 0 0.010496769125121539 0.5 0 0.04358015139562512 0.4745745413297639 0 0.026178932662970548 0.48549710975996591 0 0.01466101777183439 0.47182772029516651 0 0.026178932662970548 0.48549710975996591 0 0.01025446024202022 0.4822856255575026 0 0.01466101777183439 0.47182772029516651 0 0.04358015139562512 0.4745745413297639 0 0.01466101777183439 0.47182772029516651 0 0.01025446024202022 0.4822856255575026 0 0.01466101777183439 0.47182772029516651 0 0.003537016766246162 0.47294299582239979 0 0.01466101777183439 0.47182772029516651 0 0.003537016766246162 0.47294299582239979 0 0.0032794996504289901 0.46181311440647571 0 -0.0036930259881434641 0.48121213739285151 0 0.01025446024202022 0.4822856255575026 0 0.003537016766246162 0.47294299582239979 0 -0.0036930259881434641 0.48121213739285151 0 0.01025446024202022 0.4822856255575026 0 0.010496769125121539 0.5 0 -0.0012057697751756359 0.45257425120839118 0 0.018806896941951631 0.44600787080580262 0 -0.0012057697751756359 0.45257425120839118 0 0.0052292096928386721 0.43797530083799202 0 0.018806896941951631 0.44600787080580262 0 -0.0012057697751756359 0.45257425120839118 0 0.0131223816540415 0.45838488762513191 0 0.018806896941951631 0.44600787080580262 0 0.0052292096928386721 0.43797530083799202 0 0.018806896941951631 0.44600787080580262 0 0.01645134987043512 0.43045162678407878 0 -0.0012057697751756359 0.45257425120839118 0 0.0032794996504289901 0.46181311440647571 0 0.0131223816540415 0.45838488762513191 0 -0.0012057697751756359 0.45257425120839118 0 0.0032794996504289901 0.46181311440647571 0 0.01466101777183439 0.47182772029516651 0 0.0032794996504289901 0.46181311440647571 0 0.0131223816540415 0.45838488762513191 0 0.0131223816540415 0.45838488762513191 0 0.030070263681168351 0.4597014814098237 0 0.018806896941951631 0.44600787080580262 0 0.04358015139562512 0.4745745413297639 0 0.01466101777183439 0.47182772029516651 0 0.030070263681168351 0.4597014814098237 0 0.01466101777183439 0.47182772029516651 0 0.0131223816540415 0.45838488762513191 0 0.030070263681168351 0.4597014814098237 0 0.030070263681168351 0.4597014814098237 0 0.018806896941951631 0.44600787080580262 0 0.038819563659079452 0.43944149040321578 0 0.018806896941951631 0.44600787080580262 0 0.038819563659079452 0.43944149040321578 0 0.018806896941951631 0.44600787080580262 0 0.038819563659079452 0.43944149040321578 0 0.01645134987043512 0.43045162678407878 0 0.038819563659079452 0.43944149040321578 0 0.047374779851126238 0.45954752884439681 0 0.054084924444899249 0.44557669247425252 0 0.030070263681168351 0.4597014814098237 0 0.038819563659079452 0.43944149040321578 0 0.047374779851126238 0.45954752884439681 0 0.038819563659079452 0.43944149040321578 0 0.054084924444899249 0.44557669247425252 0 0.04358015139562512 0.4745745413297639 0 0.030070263681168351 0.4597014814098237 0 0.047374779851126238 0.45954752884439681 0 0.04358015139562512 0.4745745413297639 0 0.047374779851126238 0.45954752884439681 0 0.061616751290779322 0.46566116596666618 0 0.047374779851126238 0.45954752884439681 0 0.058106685204382377 0.45562432045764911 0 0.054084924444899249 0.44557669247425252 0 0.047374779851126238 0.45954752884439681 0 0.058106685204382377 0.45562432045764911 0 0.061616751290779322 0.46566116596666618 0 0.069350285230721287 0.45171189454528349 0 0.055558092119714728 0.43394939148378597 0 0.038819563659079452 0.43944149040321578 0 0.054084924444899249 0.44557669247425252 0 0.055558092119714728 0.43394939148378597 0 0.069350285230721287 0.45171189454528349 0 0.054084924444899249 0.44557669247425252 0 0.055558092119714728 0.43394939148378597 0 0.069350285230721287 0.45171189454528349 0 0.054084924444899249 0.44557669247425252 0 0.069350285230721287 0.45171189454528349 0 0.058106685204382377 0.45562432045764911 0 0.054084924444899249 0.44557669247425252 0 0.038819563659079452 0.43944149040321578 0 0.055558092119714728 0.43394939148378597 0 0.067970799088848441 0.44105222878097688 0 0.055558092119714728 0.43394939148378597 0 0.063077093108728499 0.43148232292969357 0 0.055558092119714728 0.43394939148378597 0 0.040579619419181791 0.41465911871438099 0 0.055558092119714728 0.43394939148378597 0 0.057016986587795061 0.41907182240794377 0 0.040579619419181791 0.41465911871438099 0 0.055558092119714728 0.43394939148378597 0 0.063077093108728499 0.43148232292969357 0 0.055558092119714728 0.43394939148378597 0 0.057016986587795061 0.41907182240794377 0 0.063077093108728499 0.43148232292969357 0 0.057016986587795061 0.41907182240794377 0 0.055404429734974767 0.40274510428338062 0 0.071112978067834842 0.40970887750993268 0 0.057016986587795061 0.41907182240794377 0 0.040579619419181791 0.41465911871438099 0 0.055404429734974767 0.40274510428338062 0 0.040579619419181791 0.41465911871438099 0 0.029947539908185921 0.42502911875481619 0 0.023939626684047709 0.41556423911759022 0 0.038819563659079452 0.43944149040321578 0 0.040579619419181791 0.41465911871438099 0 0.029947539908185921 0.42502911875481619 0 0.038819563659079452 0.43944149040321578 0 0.055558092119714728 0.43394939148378597 0 0.040579619419181791 0.41465911871438099 0 0.038819563659079452 0.43944149040321578 0 0.01645134987043512 0.43045162678407878 0 0.038819563659079452 0.43944149040321578 0 0.01645134987043512 0.43045162678407878 0 0.029947539908185921 0.42502911875481619 0 0.01645134987043512 0.43045162678407878 0 0.029947539908185921 0.42502911875481619 0 0.023939626684047709 0.41556423911759022 0 0.023939626684047709 0.41556423911759022 0 0.01041712445811117 0.40843629584861152 0 0.025601146718649478 0.39536884594497551 0 0.040579619419181791 0.41465911871438099 0 0.023939626684047709 0.41556423911759022 0 0.025601146718649478 0.39536884594497551 0 0.01645134987043512 0.43045162678407878 0 0.023939626684047709 0.41556423911759022 0 0.01041712445811117 0.40843629584861152 0 -0.0041407497796918259 0.4126946011504517 0 0.01041712445811117 0.40843629584861152 0 0.001140924859785797 0.42442078218371693 0 0.01645134987043512 0.43045162678407878 0 0.01041712445811117 0.40843629584861152 0 0.001140924859785797 0.42442078218371693 0 0.0052292096928386721 0.43797530083799202 0 0.01645134987043512 0.43045162678407878 0 0.001140924859785797 0.42442078218371693 0 -0.0080455913418213676 0.38100917333558221 0 0.0081970074261016289 0.37671923216857628 0 -0.0080455913418213676 0.38100917333558221 0 0.0081970074261016289 0.37671923216857628 0 0.001150257802333904 0.37218443526046402 0 0.010477588228963461 0.38933604423753149 0 0.025601146718649478 0.39536884594497551 0 0.0096776771244486415 0.37486154336154642 0 0.010477588228963461 0.38933604423753149 0 0.0081970074261016289 0.37671923216857628 0 0.0096776771244486415 0.37486154336154642 0 0.0081970074261016289 0.37671923216857628 0 0.0096776771244486415 0.37486154336154642 0 -0.0024500114761617699 0.39007727404992448 0 0.0081970074261016289 0.37671923216857628 0 -0.0024500114761617699 0.39007727404992448 0 0.010477588228963461 0.38933604423753149 0 0.0081970074261016289 0.37671923216857628 0 0.01041712445811117 0.40843629584861152 0 0.010477588228963461 0.38933604423753149 0 0.025601146718649478 0.39536884594497551 0 -0.0024500114761617699 0.39007727404992448 0 0.01041712445811117 0.40843629584861152 0 0.010477588228963461 0.38933604423753149 0 -0.0024500114761617699 0.39007727404992448 0 -0.0041407497796918259 0.4126946011504517 0 0.01041712445811117 0.40843629584861152 0 0.025601146718649478 0.39536884594497551 0 0.031501901959488023 0.38263238065207861 0 0.0096776771244486415 0.37486154336154642 0 0.025601146718649478 0.39536884594497551 0 0.0096776771244486415 0.37486154336154642 0 0.031501901959488023 0.38263238065207861 0 0.02466266828166468 0.37237037658484778 0 0.0096776771244486415 0.37486154336154642 0 0.031501901959488023 0.38263238065207861 0 0.034111267037862762 0.37326304462290028 0 0.02466266828166468 0.37237037658484778 0 0.025601146718649478 0.39536884594497551 0 0.031501901959488023 0.38263238065207861 0 0.045544568349375987 0.38248716046536679 0 0.031501901959488023 0.38263238065207861 0 0.045544568349375987 0.38248716046536679 0 0.034111267037862762 0.37326304462290028 0 0.025601146718649478 0.39536884594497551 0 0.045544568349375987 0.38248716046536679 0 0.055404429734974767 0.40274510428338062 0 0.040579619419181791 0.41465911871438099 0 0.025601146718649478 0.39536884594497551 0 0.055404429734974767 0.40274510428338062 0 0.040579619419181791 0.41465911871438099 0 0.025601146718649478 0.39536884594497551 0 0.045544568349375987 0.38248716046536679 0 0.055404429734974767 0.40274510428338062 0 0.065222309233402498 0.38971345843827448 0 0.045544568349375987 0.38248716046536679 0 0.065222309233402498 0.38971345843827448 0 0.063840994710960414 0.37286946891921408 0 0.065222309233402498 0.38971345843827448 0 0.078319864300061853 0.38377520714381569 0 0.063840994710960414 0.37286946891921408 0 0.065222309233402498 0.38971345843827448 0 0.078319864300061853 0.38377520714381569 0 0.082424604006060304 0.39828832542690878 0 0.078319864300061853 0.38377520714381569 0 0.084303701224117483 0.36864045843951998 0 0.063840994710960414 0.37286946891921408 0 0.092681254128483007 0.38578931204927752 0 0.1026933544424244 0.3750749388289078 0 0.084303701224117483 0.36864045843951998 0 0.078319864300061853 0.38377520714381569 0 0.092681254128483007 0.38578931204927752 0 0.084303701224117483 0.36864045843951998 0 0.078319864300061853 0.38377520714381569 0 0.092681254128483007 0.38578931204927752 0 0.082424604006060304 0.39828832542690878 0 0.092681254128483007 0.38578931204927752 0 0.082424604006060304 0.39828832542690878 0 0.1007109901425797 0.40007955799776979 0 0.082424604006060304 0.39828832542690878 0 0.090991230362319528 0.41349393008503671 0 0.1007109901425797 0.40007955799776979 0 0.055404429734974767 0.40274510428338062 0 0.065222309233402498 0.38971345843827448 0 0.071112978067834842 0.40970887750993268 0 0.065222309233402498 0.38971345843827448 0 0.082424604006060304 0.39828832542690878 0 0.071112978067834842 0.40970887750993268 0 0.057016986587795061 0.41907182240794377 0 0.071112978067834842 0.40970887750993268 0 0.069007843954758535 0.42228776826322878 0 0.071112978067834842 0.40970887750993268 0 0.069007843954758535 0.42228776826322878 0 0.078099802289186671 0.42191244100871822 0 0.067970799088848441 0.44105222878097688 0 0.063077093108728499 0.43148232292969357 0 0.073889920267886627 0.43161375918981398 0 0.063077093108728499 0.43148232292969357 0 0.069007843954758535 0.42228776826322878 0 0.073889920267886627 0.43161375918981398 0 0.057016986587795061 0.41907182240794377 0 0.063077093108728499 0.43148232292969357 0 0.069007843954758535 0.42228776826322878 0 0.069007843954758535 0.42228776826322878 0 0.078099802289186671 0.42191244100871822 0 0.073889920267886627 0.43161375918981398 0 0.085497038793133834 0.43245786999557878 0 0.090991230362319528 0.41349393008503671 0 0.098728564394928636 0.43041207657744007 0 0.078099802289186671 0.42191244100871822 0 0.085497038793133834 0.43245786999557878 0 0.090991230362319528 0.41349393008503671 0 0.085497038793133834 0.43245786999557878 0 0.090991230362319528 0.41349393008503671 0 0.075394802978600489 0.44212701557641643 0 0.073889920267886627 0.43161375918981398 0 0.085497038793133834 0.43245786999557878 0 0.078099802289186671 0.42191244100871822 0 0.073889920267886627 0.43161375918981398 0 0.085497038793133834 0.43245786999557878 0 0.092858291128361803 0.44253558830491779 0 0.085497038793133834 0.43245786999557878 0 0.098728564394928636 0.43041207657744007 0 0.071112978067834842 0.40970887750993268 0 0.078099802289186671 0.42191244100871822 0 0.090991230362319528 0.41349393008503671 0 0.082424604006060304 0.39828832542690878 0 0.071112978067834842 0.40970887750993268 0 0.090991230362319528 0.41349393008503671 0 0.090991230362319528 0.41349393008503671 0 0.1079213660525994 0.41626983658332711 0 0.1007109901425797 0.40007955799776979 0 0.090991230362319528 0.41349393008503671 0 0.1079213660525994 0.41626983658332711 0 0.098728564394928636 0.43041207657744007 0 0.1079213660525994 0.41626983658332711 0 0.098728564394928636 0.43041207657744007 0 0.1142314768810946 0.43234930405825012 0 0.104015706426832 0.44394390277634338 0 0.098728564394928636 0.43041207657744007 0 0.1142314768810946 0.43234930405825012 0 0.1079213660525994 0.41626983658332711 0 0.1142314768810946 0.43234930405825012 0 0.125108322632452 0.41722738291888239 0 0.1142314768810946 0.43234930405825012 0 0.125108322632452 0.41722738291888239 0 0.1267073735430653 0.43082469044774729 0 0.1142314768810946 0.43234930405825012 0 0.1267073735430653 0.43082469044774729 0 0.12518469736031901 0.44246471678543681 0 0.1079213660525994 0.41626983658332711 0 0.1173041842016815 0.40059907994408889 0 0.125108322632452 0.41722738291888239 0 0.1173041842016815 0.40059907994408889 0 0.1317337317892727 0.39937894015077352 0 0.125108322632452 0.41722738291888239 0 0.1173041842016815 0.40059907994408889 0 0.1103704233394103 0.38735819563793261 0 0.12689104246206889 0.38606268173667008 0 0.1173041842016815 0.40059907994408889 0 0.1103704233394103 0.38735819563793261 0 0.1007109901425797 0.40007955799776979 0 0.1103704233394103 0.38735819563793261 0 0.1168729182572414 0.37211592637420698 0 0.12689104246206889 0.38606268173667008 0 0.1103704233394103 0.38735819563793261 0 0.1026933544424244 0.3750749388289078 0 0.1168729182572414 0.37211592637420698 0 0.092681254128483007 0.38578931204927752 0 0.1103704233394103 0.38735819563793261 0 0.1026933544424244 0.3750749388289078 0 0.092681254128483007 0.38578931204927752 0 0.1103704233394103 0.38735819563793261 0 0.1007109901425797 0.40007955799776979 0 0.1079213660525994 0.41626983658332711 0 0.1173041842016815 0.40059907994408889 0 0.1007109901425797 0.40007955799776979 0 0.1092082577046954 0.34065798401453451 0 0.085655750127774682 0.34813922440253081 0 0.1012643341925076 0.36012757538836943 0 0.1092082577046954 0.34065798401453451 0 0.085655750127774682 0.34813922440253081 0 0.1026933544424244 0.3750749388289078 0 0.1012643341925076 0.36012757538836943 0 0.084303701224117483 0.36864045843951998 0 0.1026933544424244 0.3750749388289078 0 0.1012643341925076 0.36012757538836943 0 0.1168729182572414 0.37211592637420698 0 0.1012643341925076 0.36012757538836943 0 0.1168729182572414 0.37211592637420698 0 0.1012643341925076 0.36012757538836943 0 0.1168729182572414 0.37211592637420698 0 0.12508481468616511 0.35435445602658411 0 0.1012643341925076 0.36012757538836943 0 0.1092082577046954 0.34065798401453451 0 0.12508481468616511 0.35435445602658411 0 0.1092082577046954 0.34065798401453451 0 0.1327607652816164 0.33317674362653898 0 0.12508481468616511 0.35435445602658411 0 0.1092082577046954 0.34065798401453451 0 0.1327607652816164 0.33317674362653898 0 0.11873453295395869 0.31665512565759157 0 0.1092082577046954 0.34065798401453451 0 0.1327607652816164 0.33317674362653898 0 0.11873453295395869 0.31665512565759157 0 0.10291551022871 0.3142619401636102 0 0.1092082577046954 0.34065798401453451 0 0.10291551022871 0.3142619401636102 0 0.1092082577046954 0.34065798401453451 0 0.091744795534714513 0.32308541393693868 0 0.1092082577046954 0.34065798401453451 0 0.089759259922955137 0.33588801874776242 0 0.091744795534714513 0.32308541393693868 0 0.1092082577046954 0.34065798401453451 0 0.089759259922955137 0.33588801874776242 0 0.085655750127774682 0.34813922440253081 0 0.089759259922955137 0.33588801874776242 0 0.079591272606286748 0.32855380797597961 0 0.072773673201690231 0.33824499831668342 0 0.089759259922955137 0.33588801874776242 0 0.072773673201690231 0.33824499831668342 0 0.085655750127774682 0.34813922440253081 0 0.089759259922955137 0.33588801874776242 0 0.079591272606286748 0.32855380797597961 0 0.091744795534714513 0.32308541393693868 0 0.072773673201690231 0.33824499831668342 0 0.085655750127774682 0.34813922440253081 0 0.10291551022871 0.3142619401636102 0 0.091744795534714513 0.32308541393693868 0 0.086216171823904023 0.30580104984310369 0 0.091744795534714513 0.32308541393693868 0 0.078802618813841596 0.31886396129976979 0 0.086216171823904023 0.30580104984310369 0 0.079591272606286748 0.32855380797597961 0 0.091744795534714513 0.32308541393693868 0 0.078802618813841596 0.31886396129976979 0 0.067637487400770024 0.32653419629994318 0 0.057619264681819007 0.31794218868110302 0 0.068823366703532757 0.31034533844288359 0 0.078802618813841596 0.31886396129976979 0 0.067637487400770024 0.32653419629994318 0 0.068823366703532757 0.31034533844288359 0 0.079591272606286748 0.32855380797597961 0 0.078802618813841596 0.31886396129976979 0 0.067637487400770024 0.32653419629994318 0 0.067637487400770024 0.32653419629994318 0 0.059891596275606779 0.32835077223083459 0 0.079591272606286748 0.32855380797597961 0 0.067637487400770024 0.32653419629994318 0 0.072773673201690231 0.33824499831668342 0 0.072773673201690231 0.33824499831668342 0 0.059891596275606779 0.32835077223083459 0 0.067637487400770024 0.32653419629994318 0 0.072773673201690231 0.33824499831668342 0 0.059891596275606779 0.32835077223083459 0 0.072773673201690231 0.33824499831668342 0 0.065162889396421675 0.35464859572395963 0 0.085655750127774682 0.34813922440253081 0 0.065162889396421675 0.35464859572395963 0 0.085655750127774682 0.34813922440253081 0 0.072773673201690231 0.33824499831668342 0 0.065162889396421675 0.35464859572395963 0 0.052448007120468272 0.34421670084642481 0 0.065162889396421675 0.35464859572395963 0 0.085655750127774682 0.34813922440253081 0 0.084303701224117483 0.36864045843951998 0 0.1012643341925076 0.36012757538836943 0 0.085655750127774682 0.34813922440253081 0 0.084303701224117483 0.36864045843951998 0 0.1012643341925076 0.36012757538836943 0 0.085655750127774682 0.34813922440253081 0 0.065162889396421675 0.35464859572395963 0 0.084303701224117483 0.36864045843951998 0 0.063840994710960414 0.37286946891921408 0 0.045544568349375987 0.38248716046536679 0 0.063840994710960414 0.37286946891921408 0 0.044670028665068973 0.36115796704538922 0 0.065162889396421675 0.35464859572395963 0 0.063840994710960414 0.37286946891921408 0 0.044670028665068973 0.36115796704538922 0 0.065162889396421675 0.35464859572395963 0 0.044670028665068973 0.36115796704538922 0 0.065162889396421675 0.35464859572395963 0 0.052448007120468272 0.34421670084642481 0 0.044670028665068973 0.36115796704538922 0 0.052448007120468272 0.34421670084642481 0 0.032032740296266522 0.34991894463962708 0 0.044670028665068973 0.36115796704538922 0 0.032032740296266522 0.34991894463962708 0 0.044670028665068973 0.36115796704538922 0 0.025630634945122219 0.35901817533591712 0 0.044670028665068973 0.36115796704538922 0 0.034111267037862762 0.37326304462290028 0 0.024177167933716191 0.36766733836681881 0 0.045544568349375987 0.38248716046536679 0 0.044670028665068973 0.36115796704538922 0 0.034111267037862762 0.37326304462290028 0 0.044670028665068973 0.36115796704538922 0 0.024177167933716191 0.36766733836681881 0 0.044670028665068973 0.36115796704538922 0 0.024177167933716191 0.36766733836681881 0 0.025630634945122219 0.35901817533591712 0 0.034111267037862762 0.37326304462290028 0 0.024177167933716191 0.36766733836681881 0 0.02466266828166468 0.37237037658484778 0 0.02466266828166468 0.37237037658484778 0 0.017503357618016639 0.37098509334939178 0 0.0096776771244486415 0.37486154336154642 0 0.02466266828166468 0.37237037658484778 0 0.0096776771244486415 0.37486154336154642 0 0.024177167933716191 0.36766733836681881 0 0.017503357618016639 0.37098509334939178 0 0.018376600732135689 0.36394763525817653 0 0.024177167933716191 0.36766733836681881 0 0.02466266828166468 0.37237037658484778 0 0.017503357618016639 0.37098509334939178 0 0.024177167933716191 0.36766733836681881 0 0.018376600732135689 0.36394763525817653 0 0.025630634945122219 0.35901817533591712 0 0.032032740296266522 0.34991894463962708 0 0.01967335550647753 0.35355214388643391 0 0.020422633499904589 0.337607082013275 0 0.032032740296266522 0.34991894463962708 0 0.025630634945122219 0.35901817533591712 0 0.01967335550647753 0.35355214388643391 0 0.01967335550647753 0.35355214388643391 0 0.0096018226217892549 0.35077879839631931 0 0.020422633499904589 0.337607082013275 0 0.018376600732135689 0.36394763525817653 0 0.025630634945122219 0.35901817533591712 0 0.01967335550647753 0.35355214388643391 0 0.018376600732135689 0.36394763525817653 0 0.01967335550647753 0.35355214388643391 0 0.01086849634245614 0.36033825687399712 0 -0.002986974272574112 0.35855116346750959 0 0.0096018226217892549 0.35077879839631931 0 0.00068815211205307844 0.34223523690449309 0 0.01967335550647753 0.35355214388643391 0 0.0096018226217892549 0.35077879839631931 0 0.01086849634245614 0.36033825687399712 0 -0.002986974272574112 0.35855116346750959 0 0.0096018226217892549 0.35077879839631931 0 0.01086849634245614 0.36033825687399712 0 -0.002986974272574112 0.35855116346750959 0 0.0001016014555435055 0.36448719899905768 0 0.0096776771244486415 0.37486154336154642 0 -0.002986974272574112 0.35855116346750959 0 0.0096776771244486415 0.37486154336154642 0 -0.002986974272574112 0.35855116346750959 0 0.0096776771244486415 0.37486154336154642 0 0.01086849634245614 0.36033825687399712 0 0.0001016014555435055 0.36448719899905768 0 0.001150257802333904 0.37218443526046402 0 0.0096776771244486415 0.37486154336154642 0 0.0081970074261016289 0.37671923216857628 0 0.001150257802333904 0.37218443526046402 0 0.0096776771244486415 0.37486154336154642 0 0.017503357618016639 0.37098509334939178 0 0.018376600732135689 0.36394763525817653 0 0.0096776771244486415 0.37486154336154642 0 0.018376600732135689 0.36394763525817653 0 0.0096776771244486415 0.37486154336154642 0 0.018376600732135689 0.36394763525817653 0 0.0096776771244486415 0.37486154336154642 0 0.01086849634245614 0.36033825687399712 0 0.0084954355930501515 0.3241817940343617 0 0.01300268931665044 0.33124644083820481 0 0.01589290937740637 0.32328152151040401 0 0.0084954355930501515 0.3241817940343617 0 0.0072698207036737718 0.32856118662224493 0 0.01300268931665044 0.33124644083820481 0 0.0084954355930501515 0.3241817940343617 0 0.0115881517502126 0.31914211768259731 0 0.01589290937740637 0.32328152151040401 0 0.01278971356030092 0.31402611294281202 0 0.0115881517502126 0.31914211768259731 0 0.017339083073712059 0.31702449098039542 0 0.0115881517502126 0.31914211768259731 0 0.01589290937740637 0.32328152151040401 0 0.017339083073712059 0.31702449098039542 0 0.01278971356030092 0.31402611294281202 0 0.0115881517502126 0.31914211768259731 0 0.0030152519430094241 0.31453119646573691 0 0.0084954355930501515 0.3241817940343617 0 0.0115881517502126 0.31914211768259731 0 0.0030152519430094241 0.31453119646573691 0 0.0084954355930501515 0.3241817940343617 0 0.00063675055893517793 0.32328312616982818 0 0.0072698207036737718 0.32856118662224493 0 0.0084954355930501515 0.3241817940343617 0 0.0030152519430094241 0.31453119646573691 0 0.00063675055893517793 0.32328312616982818 0 0.00063675055893517793 0.32328312616982818 0 0.0032776194458498981 0.33073915365893419 0 0.0072698207036737718 0.32856118662224493 0 0.00068815211205307844 0.34223523690449309 0 0.020422633499904589 0.337607082013275 0 0.00068815211205307844 0.34223523690449309 0 0.0058532923350839011 0.33785858474726882 0 0.020422633499904589 0.337607082013275 0 0.0096018226217892549 0.35077879839631931 0 0.00068815211205307844 0.34223523690449309 0 0.020422633499904589 0.337607082013275 0 0.0032776194458498981 0.33073915365893419 0 0.0024371276832097252 0.33447056325982411 0 0.0032776194458498981 0.33073915365893419 0 0.0024371276832097252 0.33447056325982411 0 0.0063681098968934452 0.33257518582529538 0 0.0024371276832097252 0.33447056325982411 0 0.0063681098968934452 0.33257518582529538 0 0.0058532923350839011 0.33785858474726882 0 0.0032776194458498981 0.33073915365893419 0 0.0063681098968934452 0.33257518582529538 0 0.0072698207036737718 0.32856118662224493 0 0.0024371276832097252 0.33447056325982411 0 0.00068815211205307844 0.34223523690449309 0 0.0024371276832097252 0.33447056325982411 0 0.00068815211205307844 0.34223523690449309 0 0.0058532923350839011 0.33785858474726882 0 0.0024371276832097252 0.33447056325982411 0 0.0058532923350839011 0.33785858474726882 0 0.0058532923350839011 0.33785858474726882 0 0.01300268931665044 0.33124644083820481 0 0.020422633499904589 0.337607082013275 0 0.0063681098968934452 0.33257518582529538 0 0.0072698207036737718 0.32856118662224493 0 0.01300268931665044 0.33124644083820481 0 0.0063681098968934452 0.33257518582529538 0 0.0058532923350839011 0.33785858474726882 0 0.01300268931665044 0.33124644083820481 0 0.020422633499904589 0.337607082013275 0 0.02681238340422086 0.32787597448753319 0 0.040157114887755599 0.33297892712205462 0 0.01969561243429193 0.32869289916030903 0 0.020422633499904589 0.337607082013275 0 0.02681238340422086 0.32787597448753319 0 0.032032740296266522 0.34991894463962708 0 0.020422633499904589 0.337607082013275 0 0.040157114887755599 0.33297892712205462 0 0.01300268931665044 0.33124644083820481 0 0.01969561243429193 0.32869289916030903 0 0.020422633499904589 0.337607082013275 0 0.020422633499904589 0.337607082013275 0 0.040157114887755599 0.33297892712205462 0 0.023987544036434369 0.32175103315493631 0 0.02681238340422086 0.32787597448753319 0 0.034185455076535698 0.32450084529873768 0 0.023987544036434369 0.32175103315493631 0 0.030626768781883602 0.31643605951931192 0 0.034185455076535698 0.32450084529873768 0 0.01969561243429193 0.32869289916030903 0 0.023987544036434369 0.32175103315493631 0 0.02681238340422086 0.32787597448753319 0 0.023987544036434369 0.32175103315493631 0 0.01589290937740637 0.32328152151040401 0 0.017339083073712059 0.31702449098039542 0 0.01300268931665044 0.33124644083820481 0 0.01969561243429193 0.32869289916030903 0 0.01589290937740637 0.32328152151040401 0 0.01969561243429193 0.32869289916030903 0 0.023987544036434369 0.32175103315493631 0 0.01589290937740637 0.32328152151040401 0 0.01278971356030092 0.31402611294281202 0 0.017339083073712059 0.31702449098039542 0 0.018308116667695901 0.31171164525736089 0 0.023987544036434369 0.32175103315493631 0 0.017339083073712059 0.31702449098039542 0 0.02336059610699007 0.31444544112786321 0 0.017339083073712059 0.31702449098039542 0 0.02336059610699007 0.31444544112786321 0 0.018308116667695901 0.31171164525736089 0 0.030626768781883602 0.31643605951931192 0 0.035627790106672573 0.31153439004802108 0 0.027150398066144998 0.31087998087586538 0 0.02336059610699007 0.31444544112786321 0 0.030626768781883602 0.31643605951931192 0 0.027150398066144998 0.31087998087586538 0 0.023987544036434369 0.32175103315493631 0 0.02336059610699007 0.31444544112786321 0 0.030626768781883602 0.31643605951931192 0 0.030626768781883602 0.31643605951931192 0 0.037813237749700107 0.31908181166156852 0 0.034185455076535698 0.32450084529873768 0 0.030626768781883602 0.31643605951931192 0 0.037813237749700107 0.31908181166156852 0 0.035627790106672573 0.31153439004802108 0 0.037813237749700107 0.31908181166156852 0 0.034185455076535698 0.32450084529873768 0 0.043006724960455281 0.32478707828261699 0 0.034185455076535698 0.32450084529873768 0 0.043006724960455281 0.32478707828261699 0 0.040157114887755599 0.33297892712205462 0 0.037813237749700107 0.31908181166156852 0 0.043006724960455281 0.32478707828261699 0 0.04631240482565737 0.31792111938527717 0 0.037813237749700107 0.31908181166156852 0 0.04631240482565737 0.31792111938527717 0 0.035627790106672573 0.31153439004802108 0 0.052448007120468272 0.34421670084642481 0 0.032032740296266522 0.34991894463962708 0 0.040157114887755599 0.33297892712205462 0 0.02681238340422086 0.32787597448753319 0 0.034185455076535698 0.32450084529873768 0 0.040157114887755599 0.33297892712205462 0 0.052448007120468272 0.34421670084642481 0 0.040157114887755599 0.33297892712205462 0 0.059891596275606779 0.32835077223083459 0 0.040157114887755599 0.33297892712205462 0 0.059891596275606779 0.32835077223083459 0 0.043006724960455281 0.32478707828261699 0 0.040157114887755599 0.33297892712205462 0 0.059891596275606779 0.32835077223083459 0 0.072773673201690231 0.33824499831668342 0 0.052448007120468272 0.34421670084642481 0 0.059891596275606779 0.32835077223083459 0 0.043006724960455281 0.32478707828261699 0 0.04631240482565737 0.31792111938527717 0 0.059891596275606779 0.32835077223083459 0 0.04631240482565737 0.31792111938527717 0 0.057619264681819007 0.31794218868110302 0 0.045431468203528273 0.30655951704657608 0 0.04631240482565737 0.31792111938527717 0 0.059891596275606779 0.32835077223083459 0 0.04631240482565737 0.31792111938527717 0 0.059891596275606779 0.32835077223083459 0 0.057619264681819007 0.31794218868110302 0 0.067637487400770024 0.32653419629994318 0 0.059891596275606779 0.32835077223083459 0 0.057619264681819007 0.31794218868110302 0 0.057698322465429823 0.29917435481321197 0 0.045431468203528273 0.30655951704657608 0 0.068823366703532757 0.31034533844288359 0 0.045431468203528273 0.30655951704657608 0 0.068823366703532757 0.31034533844288359 0 0.057619264681819007 0.31794218868110302 0 0.045431468203528273 0.30655951704657608 0 0.068823366703532757 0.31034533844288359 0 0.057698322465429823 0.29917435481321197 0 0.047825804814531872 0.29645713616504299 0 0.045431468203528273 0.30655951704657608 0 0.057698322465429823 0.29917435481321197 0 0.055450831967238171 0.28575317576203918 0 0.070960140638318014 0.29675660664951808 0 0.057698322465429823 0.29917435481321197 0 0.055450831967238171 0.28575317576203918 0 0.047825804814531872 0.29645713616504299 0 0.055450831967238171 0.28575317576203918 0 0.047825804814531872 0.29645713616504299 0 0.043521835253129977 0.28922130699548793 0 0.047825804814531872 0.29645713616504299 0 0.043521835253129977 0.28922130699548793 0 0.036532894320899442 0.29887707921770551 0 0.032369129417280047 0.28501459983897959 0 0.036532894320899442 0.29887707921770551 0 0.032369129417280047 0.28501459983897959 0 0.036532894320899442 0.29887707921770551 0 0.02859672704714632 0.2915003027136891 0 0.043521835253129977 0.28922130699548793 0 0.032369129417280047 0.28501459983897959 0 0.036532894320899442 0.29887707921770551 0 0.036532894320899442 0.29887707921770551 0 0.033611361304086963 0.29853612364747029 0 0.02859672704714632 0.2915003027136891 0 0.045431468203528273 0.30655951704657608 0 0.022039569703523911 0.30277369565026763 0 0.045431468203528273 0.30655951704657608 0 0.033611361304086963 0.29853612364747029 0 0.022039569703523911 0.30277369565026763 0 0.045431468203528273 0.30655951704657608 0 0.035627790106672573 0.31153439004802108 0 0.022039569703523911 0.30277369565026763 0 0.04631240482565737 0.31792111938527717 0 0.045431468203528273 0.30655951704657608 0 0.035627790106672573 0.31153439004802108 0 0.047825804814531872 0.29645713616504299 0 0.045431468203528273 0.30655951704657608 0 0.036532894320899442 0.29887707921770551 0 0.045431468203528273 0.30655951704657608 0 0.036532894320899442 0.29887707921770551 0 0.033611361304086963 0.29853612364747029 0 0.027150398066144998 0.31087998087586538 0 0.022125933587402571 0.30929694375192429 0 0.022039569703523911 0.30277369565026763 0 0.035627790106672573 0.31153439004802108 0 0.027150398066144998 0.31087998087586538 0 0.022039569703523911 0.30277369565026763 0 0.02336059610699007 0.31444544112786321 0 0.027150398066144998 0.31087998087586538 0 0.022125933587402571 0.30929694375192429 0 0.022125933587402571 0.30929694375192429 0 0.019770987392658129 0.30667395584826329 0 0.018308116667695901 0.31171164525736089 0 0.02336059610699007 0.31444544112786321 0 0.022125933587402571 0.30929694375192429 0 0.018308116667695901 0.31171164525736089 0 0.019770987392658129 0.30667395584826329 0 0.022039569703523911 0.30277369565026763 0 0.013547661145366111 0.30772926163915038 0 0.022125933587402571 0.30929694375192429 0 0.019770987392658129 0.30667395584826329 0 0.022039569703523911 0.30277369565026763 0 0.019770987392658129 0.30667395584826329 0 0.022039569703523911 0.30277369565026763 0 0.019770987392658129 0.30667395584826329 0 0.018308116667695901 0.31171164525736089 0 0.013547661145366111 0.30772926163915038 0 0.033611361304086963 0.29853612364747029 0 0.022039569703523911 0.30277369565026763 0 0.02859672704714632 0.2915003027136891 0 0.022039569703523911 0.30277369565026763 0 0.02859672704714632 0.2915003027136891 0 0.033611361304086963 0.29853612364747029 0 0.02859672704714632 0.2915003027136891 0 0.022039569703523911 0.30277369565026763 0 0.02859672704714632 0.2915003027136891 0 0.01196676160685258 0.28937117887490887 0 0.02859672704714632 0.2915003027136891 0 0.01196676160685258 0.28937117887490887 0 0.012858638509559751 0.26941885726485643 0 0.032369129417280047 0.28501459983897959 0 0.02859672704714632 0.2915003027136891 0 0.012858638509559751 0.26941885726485643 0 0.032369129417280047 0.28501459983897959 0 0.02859672704714632 0.2915003027136891 0 -0.0018193191166929329 0.29891229501245009 0 0.01196676160685258 0.28937117887490887 0 0.00098394795991902555 0.28003402474780498 0 -0.0018193191166929329 0.29891229501245009 0 0.022039569703523911 0.30277369565026763 0 0.013547661145366111 0.30772926163915038 0 -0.0018193191166929329 0.29891229501245009 0 0.022039569703523911 0.30277369565026763 0 -0.0018193191166929329 0.29891229501245009 0 0.022039569703523911 0.30277369565026763 0 0.01196676160685258 0.28937117887490887 0 -0.0018193191166929329 0.29891229501245009 0 0.0030152519430094241 0.31453119646573691 0 0.013547661145366111 0.30772926163915038 0 0.01278971356030092 0.31402611294281202 0 0.0030152519430094241 0.31453119646573691 0 0.013547661145366111 0.30772926163915038 0 0.01278971356030092 0.31402611294281202 0 0.018308116667695901 0.31171164525736089 0 0.013547661145366111 0.30772926163915038 0 -0.0028794500280274371 0.2473374118160242 0 0.012858638509559751 0.26941885726485643 0 -0.0093065408195293787 0.26808480785676941 0 -0.0028794500280274371 0.2473374118160242 0 0.012858638509559751 0.26941885726485643 0 -0.0028794500280274371 0.2473374118160242 0 0.012858638509559751 0.26941885726485643 0 0.024015232393619051 0.25720185634768572 0 -0.0093065408195293787 0.26808480785676941 0 0.00098394795991902555 0.28003402474780498 0 0.012858638509559751 0.26941885726485643 0 0.01196676160685258 0.28937117887490887 0 0.00098394795991902555 0.28003402474780498 0 0.012858638509559751 0.26941885726485643 0 0.032369129417280047 0.28501459983897959 0 0.012858638509559751 0.26941885726485643 0 0.024015232393619051 0.25720185634768572 0 0.02859672704714632 0.2915003027136891 0 0.012858638509559751 0.26941885726485643 0 0.032369129417280047 0.28501459983897959 0 0.024015232393619051 0.25720185634768572 0 0.045673351803917531 0.24609699977203059 0 0.035459897723150093 0.24485459026570069 0 0.0431033434146363 0.2665598021399177 0 0.035459897723150093 0.24485459026570069 0 0.024015232393619051 0.25720185634768572 0 0.0431033434146363 0.2665598021399177 0 0.032369129417280047 0.28501459983897959 0 0.024015232393619051 0.25720185634768572 0 0.0431033434146363 0.2665598021399177 0 0.032369129417280047 0.28501459983897959 0 0.0431033434146363 0.2665598021399177 0 0.043521835253129977 0.28922130699548793 0 0.032369129417280047 0.28501459983897959 0 0.0431033434146363 0.2665598021399177 0 0.055450831967238171 0.28575317576203918 0 0.0431033434146363 0.2665598021399177 0 0.066374318536230201 0.2649629626761682 0 0.055450831967238171 0.28575317576203918 0 0.043521835253129977 0.28922130699548793 0 0.0431033434146363 0.2665598021399177 0 0.053837557411990172 0.2481050044408544 0 0.0431033434146363 0.2665598021399177 0 0.066374318536230201 0.2649629626761682 0 0.053837557411990172 0.2481050044408544 0 0.045673351803917531 0.24609699977203059 0 0.0431033434146363 0.2665598021399177 0 0.053837557411990172 0.2481050044408544 0 0.0431033434146363 0.2665598021399177 0 0.053837557411990172 0.2481050044408544 0 0.072144815499069495 0.2466482677422229 0 0.066374318536230201 0.2649629626761682 0 0.072144815499069495 0.2466482677422229 0 0.066374318536230201 0.2649629626761682 0 0.085079947058005589 0.25627215186680341 0 0.085079947058005589 0.25627215186680341 0 0.083184323974058783 0.27239030208228171 0 0.096603730136421567 0.26505993642533859 0 0.066374318536230201 0.2649629626761682 0 0.085079947058005589 0.25627215186680341 0 0.083184323974058783 0.27239030208228171 0 0.083184323974058783 0.27239030208228171 0 0.081154459825648895 0.2874288900731865 0 0.098525002618139776 0.28307766276963431 0 0.083184323974058783 0.27239030208228171 0 0.098525002618139776 0.28307766276963431 0 0.096603730136421567 0.26505993642533859 0 0.083184323974058783 0.27239030208228171 0 0.071424814988298821 0.28145838744863871 0 0.081154459825648895 0.2874288900731865 0 0.066374318536230201 0.2649629626761682 0 0.083184323974058783 0.27239030208228171 0 0.071424814988298821 0.28145838744863871 0 0.055450831967238171 0.28575317576203918 0 0.066374318536230201 0.2649629626761682 0 0.071424814988298821 0.28145838744863871 0 0.055450831967238171 0.28575317576203918 0 0.070960140638318014 0.29675660664951808 0 0.071424814988298821 0.28145838744863871 0 0.070960140638318014 0.29675660664951808 0 0.071424814988298821 0.28145838744863871 0 0.081154459825648895 0.2874288900731865 0 0.078802618813841596 0.31886396129976979 0 0.068823366703532757 0.31034533844288359 0 0.086216171823904023 0.30580104984310369 0 0.070960140638318014 0.29675660664951808 0 0.068823366703532757 0.31034533844288359 0 0.086216171823904023 0.30580104984310369 0 0.057698322465429823 0.29917435481321197 0 0.070960140638318014 0.29675660664951808 0 0.068823366703532757 0.31034533844288359 0 0.086216171823904023 0.30580104984310369 0 0.081154459825648895 0.2874288900731865 0 0.098525002618139776 0.28307766276963431 0 0.070960140638318014 0.29675660664951808 0 0.086216171823904023 0.30580104984310369 0 0.081154459825648895 0.2874288900731865 0 0.098525002618139776 0.28307766276963431 0 0.1072840122596951 0.30019600098923582 0 0.11690231115408869 0.28241215428809069 0 0.086216171823904023 0.30580104984310369 0 0.098525002618139776 0.28307766276963431 0 0.1072840122596951 0.30019600098923582 0 0.10291551022871 0.3142619401636102 0 0.086216171823904023 0.30580104984310369 0 0.1072840122596951 0.30019600098923582 0 0.11873453295395869 0.31665512565759157 0 0.1072840122596951 0.30019600098923582 0 0.1230088488897708 0.29902241172954369 0 0.11873453295395869 0.31665512565759157 0 0.10291551022871 0.3142619401636102 0 0.1072840122596951 0.30019600098923582 0 0.1072840122596951 0.30019600098923582 0 0.1230088488897708 0.29902241172954369 0 0.11690231115408869 0.28241215428809069 0 0.1230088488897708 0.29902241172954369 0 0.11690231115408869 0.28241215428809069 0 0.12976163582615169 0.28624376933876411 0 0.11690231115408869 0.28241215428809069 0 0.1112079308959785 0.2679242861540253 0 0.1298556986353433 0.26971470588823132 0 0.1112079308959785 0.2679242861540253 0 0.1221119816913266 0.2551626490999917 0 0.103248861140551 0.25211860845286549 0 0.1112079308959785 0.2679242861540253 0 0.1221119816913266 0.2551626490999917 0 0.1298556986353433 0.26971470588823132 0 0.085079947058005589 0.25627215186680341 0 0.096603730136421567 0.26505993642533859 0 0.103248861140551 0.25211860845286549 0 0.1112079308959785 0.2679242861540253 0 0.096603730136421567 0.26505993642533859 0 0.103248861140551 0.25211860845286549 0 0.098525002618139776 0.28307766276963431 0 0.1112079308959785 0.2679242861540253 0 0.096603730136421567 0.26505993642533859 0 0.098525002618139776 0.28307766276963431 0 0.11690231115408869 0.28241215428809069 0 0.1112079308959785 0.2679242861540253 0 0.14961833383695999 0.26032431112397758 0 0.14150734713962079 0.28150164967242952 0 0.1585087772683908 0.27716240067145731 0 0.14961833383695999 0.26032431112397758 0 0.14150734713962079 0.28150164967242952 0 0.13748104572539949 0.24722792428689669 0 0.1221119816913266 0.2551626490999917 0 0.1298556986353433 0.26971470588823132 0 0.13748104572539949 0.24722792428689669 0 0.14961833383695999 0.26032431112397758 0 0.1298556986353433 0.26971470588823132 0 0.1298556986353433 0.26971470588823132 0 0.12976163582615169 0.28624376933876411 0 0.14150734713962079 0.28150164967242952 0 0.14961833383695999 0.26032431112397758 0 0.1298556986353433 0.26971470588823132 0 0.14150734713962079 0.28150164967242952 0 0.11690231115408869 0.28241215428809069 0 0.1298556986353433 0.26971470588823132 0 0.12976163582615169 0.28624376933876411 0 0.1230088488897708 0.29902241172954369 0 0.12976163582615169 0.28624376933876411 0 0.13814869669859881 0.29645198175888338 0 0.12976163582615169 0.28624376933876411 0 0.13814869669859881 0.29645198175888338 0 0.14150734713962079 0.28150164967242952 0 0.1230088488897708 0.29902241172954369 0 0.13814869669859881 0.29645198175888338 0 0.1372298033592648 0.31261567342208629 0 0.11873453295395869 0.31665512565759157 0 0.1230088488897708 0.29902241172954369 0 0.1372298033592648 0.31261567342208629 0 0.15277404340191431 0.29956562064714581 0 0.15467304841960899 0.31156862358294868 0 0.1372298033592648 0.31261567342208629 0 0.13814869669859881 0.29645198175888338 0 0.15277404340191431 0.29956562064714581 0 0.1372298033592648 0.31261567342208629 0 0.15277404340191431 0.29956562064714581 0 0.1372298033592648 0.31261567342208629 0 0.15277404340191431 0.29956562064714581 0 0.15467304841960899 0.31156862358294868 0 0.1598453308688301 0.30630991405611863 0 0.14150734713962079 0.28150164967242952 0 0.154120494741214 0.28758514801299989 0 0.1585087772683908 0.27716240067145731 0 0.14150734713962079 0.28150164967242952 0 0.14637698341923569 0.29158695756335629 0 0.154120494741214 0.28758514801299989 0 0.13814869669859881 0.29645198175888338 0 0.15277404340191431 0.29956562064714581 0 0.14637698341923569 0.29158695756335629 0 0.13814869669859881 0.29645198175888338 0 0.14150734713962079 0.28150164967242952 0 0.14637698341923569 0.29158695756335629 0 0.15277404340191431 0.29956562064714581 0 0.14637698341923569 0.29158695756335629 0 0.154120494741214 0.28758514801299989 0 0.154120494741214 0.28758514801299989 0 0.16831828344456379 0.28651556787220522 0 0.1585087772683908 0.27716240067145731 0 0.15277404340191431 0.29956562064714581 0 0.16831828344456379 0.28651556787220522 0 0.15277404340191431 0.29956562064714581 0 0.154120494741214 0.28758514801299989 0 0.16831828344456379 0.28651556787220522 0 0.15277404340191431 0.29956562064714581 0 0.16314843303865359 0.29612350911001772 0 0.16831828344456379 0.28651556787220522 0 0.16314843303865359 0.29612350911001772 0 0.17165607443930619 0.29210293386460129 0 0.16831828344456379 0.28651556787220522 0 0.15467304841960899 0.31156862358294868 0 0.1598453308688301 0.30630991405611863 0 0.1672027916094985 0.31365640655084942 0 0.15277404340191431 0.29956562064714581 0 0.16314843303865359 0.29612350911001772 0 0.1598453308688301 0.30630991405611863 0 0.17165607443930619 0.29210293386460129 0 0.1598453308688301 0.30630991405611863 0 0.1713626755995809 0.30580208622688809 0 0.17165607443930619 0.29210293386460129 0 0.1598453308688301 0.30630991405611863 0 0.16314843303865359 0.29612350911001772 0 0.17165607443930619 0.29210293386460129 0 0.1598453308688301 0.30630991405611863 0 0.1713626755995809 0.30580208622688809 0 0.17696483007597119 0.30977083547791429 0 0.1672027916094985 0.31365640655084942 0 0.1598453308688301 0.30630991405611863 0 0.1713626755995809 0.30580208622688809 0 0.1672027916094985 0.31365640655084942 0 0.18067389758430669 0.30916633808277449 0 0.18246806481262479 0.28907829747377672 0 0.189532324264722 0.30000249564554388 0 0.18067389758430669 0.30916633808277449 0 0.18246806481262479 0.28907829747377672 0 0.17165607443930619 0.29210293386460129 0 0.1713626755995809 0.30580208622688809 0 0.18067389758430669 0.30916633808277449 0 0.1713626755995809 0.30580208622688809 0 0.17696483007597119 0.30977083547791429 0 0.18067389758430669 0.30916633808277449 0 0.17696483007597119 0.30977083547791429 0 0.18067389758430669 0.30916633808277449 0 0.1798657804354597 0.3182142628505521 0 0.17696483007597119 0.30977083547791429 0 0.18067389758430669 0.30916633808277449 0 0.17165607443930619 0.29210293386460129 0 0.18067389758430669 0.30916633808277449 0 0.18246806481262479 0.28907829747377672 0 0.17165607443930619 0.29210293386460129 0 0.16831828344456379 0.28651556787220522 0 0.1834668180097847 0.27789595367308612 0 0.17165607443930619 0.29210293386460129 0 0.17941493455560301 0.28793277118828542 0 0.1834668180097847 0.27789595367308612 0 0.17165607443930619 0.29210293386460129 0 0.1834668180097847 0.27789595367308612 0 0.17165607443930619 0.29210293386460129 0 0.17941493455560301 0.28793277118828542 0 0.18246806481262479 0.28907829747377672 0 0.18246806481262479 0.28907829747377672 0 0.18631712599939071 0.2837401822255069 0 0.1884613869071205 0.28998700035781733 0 0.18246806481262479 0.28907829747377672 0 0.18631712599939071 0.2837401822255069 0 0.1834668180097847 0.27789595367308612 0 0.18246806481262479 0.28907829747377672 0 0.1834668180097847 0.27789595367308612 0 0.17941493455560301 0.28793277118828542 0 0.18246806481262479 0.28907829747377672 0 0.1834668180097847 0.27789595367308612 0 0.17941493455560301 0.28793277118828542 0 0.18246806481262479 0.28907829747377672 0 0.18631712599939071 0.2837401822255069 0 0.1834668180097847 0.27789595367308612 0 0.19087223426802999 0.27799947739734732 0 0.1870782144705346 0.27355185478756872 0 0.1834668180097847 0.27789595367308612 0 0.19087223426802999 0.27799947739734732 0 0.1870782144705346 0.27355185478756872 0 0.1838625234872151 0.2734655150972668 0 0.1834668180097847 0.27789595367308612 0 0.1870782144705346 0.27355185478756872 0 0.1834668180097847 0.27789595367308612 0 0.1838625234872151 0.2734655150972668 0 0.1834668180097847 0.27789595367308612 0 0.1838625234872151 0.2734655150972668 0 0.18416032046547789 0.27013128978196832 0 0.17591626526657411 0.27056444403590318 0 0.18416032046547789 0.27013128978196832 0 0.18569337036388339 0.27192844102366098 0 0.1870782144705346 0.27355185478756872 0 0.18569337036388339 0.27192844102366098 0 0.1838625234872151 0.2734655150972668 0 0.18416032046547789 0.27013128978196832 0 0.18569337036388339 0.27192844102366098 0 0.1838625234872151 0.2734655150972668 0 0.18416032046547789 0.27013128978196832 0 0.1870782144705346 0.27355185478756872 0 0.1838625234872151 0.2734655150972668 0 0.18569337036388339 0.27192844102366098 0 0.1838625234872151 0.2734655150972668 0 0.18569337036388339 0.27192844102366098 0 0.1838625234872151 0.2734655150972668 0 0.17591626526657411 0.27056444403590318 0 0.1707983492600037 0.27616991416368969 0 0.16831828344456379 0.28651556787220522 0 0.1838625234872151 0.2734655150972668 0 0.1834668180097847 0.27789595367308612 0 0.16831828344456379 0.28651556787220522 0 0.1838625234872151 0.2734655150972668 0 0.1707983492600037 0.27616991416368969 0 0.16831828344456379 0.28651556787220522 0 0.1838625234872151 0.2734655150972668 0 0.14961833383695999 0.26032431112397758 0 0.16599381354269291 0.26861398322526753 0 0.1585087772683908 0.27716240067145731 0 0.16831828344456379 0.28651556787220522 0 0.1707983492600037 0.27616991416368969 0 0.1585087772683908 0.27716240067145731 0 0.1707983492600037 0.27616991416368969 0 0.16599381354269291 0.26861398322526753 0 0.1585087772683908 0.27716240067145731 0 0.17591626526657411 0.27056444403590318 0 0.1707983492600037 0.27616991416368969 0 0.16599381354269291 0.26861398322526753 0 0.17591626526657411 0.27056444403590318 0 0.16599381354269291 0.26861398322526753 0 0.17094482049988949 0.25463913117874659 0 0.15772932053429989 0.239146972575526 0 0.14961833383695999 0.26032431112397758 0 0.17094482049988949 0.25463913117874659 0 0.14961833383695999 0.26032431112397758 0 0.16599381354269291 0.26861398322526753 0 0.17094482049988949 0.25463913117874659 0 0.18416032046547789 0.27013128978196832 0 0.17094482049988949 0.25463913117874659 0 0.18566333894108941 0.25330303893799921 0 0.17550954459995691 0.2421931063090319 0 0.17094482049988949 0.25463913117874659 0 0.18566333894108941 0.25330303893799921 0 0.18416032046547789 0.27013128978196832 0 0.17591626526657411 0.27056444403590318 0 0.17094482049988949 0.25463913117874659 0 0.18416032046547789 0.27013128978196832 0 0.18566333894108941 0.25330303893799921 0 0.18416032046547789 0.27013128978196832 0 0.17094482049988949 0.25463913117874659 0 0.18416032046547789 0.27013128978196832 0 0.18566333894108941 0.25330303893799921 0 0.19474602582351519 0.26432835049640702 0 0.18566333894108941 0.25330303893799921 0 0.19474602582351519 0.26432835049640702 0 0.1972433992714368 0.25158855458142282 0 0.2115886322074518 0.2440686120775438 0 0.19474602582351519 0.26432835049640702 0 0.1972433992714368 0.25158855458142282 0 0.19087223426802999 0.27799947739734732 0 0.19519023078060049 0.27123324061751852 0 0.2080644485603228 0.26905327978875132 0 0.19087223426802999 0.27799947739734732 0 0.2080644485603228 0.26905327978875132 0 0.1884613869071205 0.28998700035781733 0 0.2080644485603228 0.26905327978875132 0 0.2110127535150137 0.28400135001518689 0 0.1884613869071205 0.28998700035781733 0 0.2080644485603228 0.26905327978875132 0 0.1884613869071205 0.28998700035781733 0 0.1870782144705346 0.27355185478756872 0 0.19087223426802999 0.27799947739734732 0 0.19519023078060049 0.27123324061751852 0 0.1870782144705346 0.27355185478756872 0 0.19087223426802999 0.27799947739734732 0 0.1870782144705346 0.27355185478756872 0 0.19474602582351519 0.26432835049640702 0 0.19519023078060049 0.27123324061751852 0 0.18416032046547789 0.27013128978196832 0 0.18569337036388339 0.27192844102366098 0 0.19474602582351519 0.26432835049640702 0 0.1870782144705346 0.27355185478756872 0 0.18569337036388339 0.27192844102366098 0 0.19474602582351519 0.26432835049640702 0 0.1870782144705346 0.27355185478756872 0 0.19474602582351519 0.26432835049640702 0 0.18569337036388339 0.27192844102366098 0 0.19474602582351519 0.26432835049640702 0 0.19474602582351519 0.26432835049640702 0 0.19519023078060049 0.27123324061751852 0 0.2080644485603228 0.26905327978875132 0 0.2080644485603228 0.26905327978875132 0 0.22165851530273739 0.26955091661094532 0 0.2110127535150137 0.28400135001518689 0 0.22165851530273739 0.26955091661094532 0 0.2214218603493262 0.27976846157642887 0 0.2110127535150137 0.28400135001518689 0 0.21936527508003201 0.2471371668772295 0 0.2080644485603228 0.26905327978875132 0 0.21158346732840491 0.25019259991414 0 0.2115886322074518 0.2440686120775438 0 0.19474602582351519 0.26432835049640702 0 0.21158346732840491 0.25019259991414 0 0.19474602582351519 0.26432835049640702 0 0.2080644485603228 0.26905327978875132 0 0.21158346732840491 0.25019259991414 0 0.19474602582351519 0.26432835049640702 0 0.21158346732840491 0.25019259991414 0 0.2276675102135253 0.24811955921968529 0 0.2080644485603228 0.26905327978875132 0 0.2115886322074518 0.2440686120775438 0 0.19474602582351519 0.26432835049640702 0 0.2276675102135253 0.24811955921968529 0 0.21936527508003201 0.2471371668772295 0 0.2080644485603228 0.26905327978875132 0 0.2276675102135253 0.24811955921968529 0 0.23346051776360369 0.26181030740094879 0 0.22165851530273739 0.26955091661094532 0 0.2276675102135253 0.24811955921968529 0 0.2080644485603228 0.26905327978875132 0 0.22165851530273739 0.26955091661094532 0 0.2214218603493262 0.27976846157642887 0 0.22832400141463299 0.27455254166467069 0 0.2274281538205877 0.28253482643991318 0 0.22165851530273739 0.26955091661094532 0 0.2214218603493262 0.27976846157642887 0 0.22832400141463299 0.27455254166467069 0 0.22832400141463299 0.27455254166467069 0 0.2348186851689085 0.2796894534060182 0 0.2274281538205877 0.28253482643991318 0 0.22832400141463299 0.27455254166467069 0 0.238559946384266 0.27131756226381099 0 0.2348186851689085 0.2796894534060182 0 0.23346051776360369 0.26181030740094879 0 0.22832400141463299 0.27455254166467069 0 0.238559946384266 0.27131756226381099 0 0.23346051776360369 0.26181030740094879 0 0.22165851530273739 0.26955091661094532 0 0.22832400141463299 0.27455254166467069 0 0.24328765074589251 0.27838022121393691 0 0.23953969753830859 0.28514456444238212 0 0.25637993889506672 0.28010054666964329 0 0.238559946384266 0.27131756226381099 0 0.2348186851689085 0.2796894534060182 0 0.24328765074589251 0.27838022121393691 0 0.2348186851689085 0.2796894534060182 0 0.24328765074589251 0.27838022121393691 0 0.23953969753830859 0.28514456444238212 0 0.24328765074589251 0.27838022121393691 0 0.2485760741131082 0.27105116205898022 0 0.25637993889506672 0.28010054666964329 0 0.238559946384266 0.27131756226381099 0 0.24328765074589251 0.27838022121393691 0 0.2485760741131082 0.27105116205898022 0 0.238559946384266 0.27131756226381099 0 0.2485760741131082 0.27105116205898022 0 0.24504868463077251 0.26138358684583268 0 0.2421054402074703 0.2485807057870347 0 0.24504868463077251 0.26138358684583268 0 0.25707991656272239 0.24440423681808779 0 0.2421054402074703 0.2485807057870347 0 0.23346051776360369 0.26181030740094879 0 0.24504868463077251 0.26138358684583268 0 0.2421054402074703 0.2485807057870347 0 0.2276675102135253 0.24811955921968529 0 0.23346051776360369 0.26181030740094879 0 0.23346051776360369 0.26181030740094879 0 0.238559946384266 0.27131756226381099 0 0.24504868463077251 0.26138358684583268 0 0.2375152423315067 0.29990243421513169 0 0.24381142030338651 0.3120941599622109 0 0.2233280684999015 0.30440886129148043 0 0.2375152423315067 0.29990243421513169 0 0.24643472746184411 0.30390485595252292 0 0.25364128886618398 0.29727423909542078 0 0.2375152423315067 0.29990243421513169 0 0.25364128886618398 0.29727423909542078 0 0.2375152423315067 0.29990243421513169 0 0.23722600002377711 0.29548874447024592 0 0.2321736612224323 0.29531482474621862 0 0.24381142030338651 0.3120941599622109 0 0.24643472746184411 0.30390485595252292 0 0.25142141051806582 0.30575776194584758 0 0.2375152423315067 0.29990243421513169 0 0.24381142030338651 0.3120941599622109 0 0.24643472746184411 0.30390485595252292 0 0.23953969753830859 0.28514456444238212 0 0.23722600002377711 0.29548874447024592 0 0.25637993889506672 0.28010054666964329 0 0.2375152423315067 0.29990243421513169 0 0.24878954573224371 0.29139866065287068 0 0.26213664328461622 0.29208166954207698 0 0.24878954573224371 0.29139866065287068 0 0.23722600002377711 0.29548874447024592 0 0.25637993889506672 0.28010054666964329 0 0.2375152423315067 0.29990243421513169 0 0.26213664328461622 0.29208166954207698 0 0.23722600002377711 0.29548874447024592 0 0.25637993889506672 0.28010054666964329 0 0.23953969753830859 0.28514456444238212 0 0.23306434014553001 0.29100521189529099 0 0.23219070291746799 0.28613491900284549 0 0.2348186851689085 0.2796894534060182 0 0.23953969753830859 0.28514456444238212 0 0.23219070291746799 0.28613491900284549 0 0.23953969753830859 0.28514456444238212 0 0.23722600002377711 0.29548874447024592 0 0.23306434014553001 0.29100521189529099 0 0.2375152423315067 0.29990243421513169 0 0.24878954573224371 0.29139866065287068 0 0.23722600002377711 0.29548874447024592 0 0.2321736612224323 0.29531482474621862 0 0.23306434014553001 0.29100521189529099 0 0.2283896826116569 0.29314863844752431 0 0.23722600002377711 0.29548874447024592 0 0.2321736612224323 0.29531482474621862 0 0.23306434014553001 0.29100521189529099 0 0.23306434014553001 0.29100521189529099 0 0.2283896826116569 0.29314863844752431 0 0.2275865876478354 0.28858566253451562 0 0.2321736612224323 0.29531482474621862 0 0.2283896826116569 0.29314863844752431 0 0.2261224495372644 0.29666384101805121 0 0.2348186851689085 0.2796894534060182 0 0.23219070291746799 0.28613491900284549 0 0.2274281538205877 0.28253482643991318 0 0.23306434014553001 0.29100521189529099 0 0.23219070291746799 0.28613491900284549 0 0.2275865876478354 0.28858566253451562 0 0.23219070291746799 0.28613491900284549 0 0.2275865876478354 0.28858566253451562 0 0.2274281538205877 0.28253482643991318 0 0.2214218603493262 0.27976846157642887 0 0.2274281538205877 0.28253482643991318 0 0.2212303857638469 0.28630491547448078 0 0.2275865876478354 0.28858566253451562 0 0.2212303857638469 0.28630491547448078 0 0.22309639815549179 0.29189699983000122 0 0.2275865876478354 0.28858566253451562 0 0.2274281538205877 0.28253482643991318 0 0.2212303857638469 0.28630491547448078 0 0.2283896826116569 0.29314863844752431 0 0.2261224495372644 0.29666384101805121 0 0.22309639815549179 0.29189699983000122 0 0.2261224495372644 0.29666384101805121 0 0.22309639815549179 0.29189699983000122 0 0.21994975492874369 0.29602533903554362 0 0.2283896826116569 0.29314863844752431 0 0.2275865876478354 0.28858566253451562 0 0.22309639815549179 0.29189699983000122 0 0.22309639815549179 0.29189699983000122 0 0.21994975492874369 0.29602533903554362 0 0.216748936981177 0.29028834878504312 0 0.2212303857638469 0.28630491547448078 0 0.22309639815549179 0.29189699983000122 0 0.216748936981177 0.29028834878504312 0 0.21994975492874369 0.29602533903554362 0 0.2191615466887612 0.30287046007499607 0 0.24381142030338651 0.3120941599622109 0 0.2233280684999015 0.30440886129148043 0 0.24381142030338651 0.3120941599622109 0 0.2233280684999015 0.30440886129148043 0 0.22891382450147371 0.31846942625544927 0 0.2375152423315067 0.29990243421513169 0 0.2191615466887612 0.30287046007499607 0 0.2233280684999015 0.30440886129148043 0 0.2375152423315067 0.29990243421513169 0 0.2261224495372644 0.29666384101805121 0 0.2191615466887612 0.30287046007499607 0 0.2261224495372644 0.29666384101805121 0 0.21994975492874369 0.29602533903554362 0 0.2191615466887612 0.30287046007499607 0 0.2375152423315067 0.29990243421513169 0 0.2191615466887612 0.30287046007499607 0 0.2191615466887612 0.30287046007499607 0 0.2233280684999015 0.30440886129148043 0 0.2191615466887612 0.30287046007499607 0 0.2233280684999015 0.30440886129148043 0 0.21868423992782551 0.30588393131342501 0 0.2191615466887612 0.30287046007499607 0 0.21868423992782551 0.30588393131342501 0 0.2375152423315067 0.29990243421513169 0 0.2233280684999015 0.30440886129148043 0 0.2375152423315067 0.29990243421513169 0 0.2321736612224323 0.29531482474621862 0 0.2261224495372644 0.29666384101805121 0 0.2233280684999015 0.30440886129148043 0 0.21868423992782551 0.30588393131342501 0 0.22891382450147371 0.31846942625544927 0 0.2233280684999015 0.30440886129148043 0 0.21868423992782551 0.30588393131342501 0 0.2191615466887612 0.30287046007499607 0 0.21198004909252791 0.29287821038227568 0 0.2007783016382779 0.29594824923201318 0 0.2191615466887612 0.30287046007499607 0 0.2007783016382779 0.29594824923201318 0 0.19987672711630869 0.30603669420185831 0 0.2191615466887612 0.30287046007499607 0 0.19987672711630869 0.30603669420185831 0 0.21868423992782551 0.30588393131342501 0 0.19927501018164179 0.31204909708198603 0 0.2191615466887612 0.30287046007499607 0 0.2007783016382779 0.29594824923201318 0 0.21868423992782551 0.30588393131342501 0 0.19927501018164179 0.31204909708198603 0 0.19987672711630869 0.30603669420185831 0 0.2191615466887612 0.30287046007499607 0 0.21868423992782551 0.30588393131342501 0 0.19987672711630869 0.30603669420185831 0 0.21994975492874369 0.29602533903554362 0 0.2191615466887612 0.30287046007499607 0 0.21198004909252791 0.29287821038227568 0 0.2110127535150137 0.28400135001518689 0 0.21198004909252791 0.29287821038227568 0 0.216748936981177 0.29028834878504312 0 0.2212303857638469 0.28630491547448078 0 0.2110127535150137 0.28400135001518689 0 0.216748936981177 0.29028834878504312 0 0.2214218603493262 0.27976846157642887 0 0.2212303857638469 0.28630491547448078 0 0.2110127535150137 0.28400135001518689 0 0.21994975492874369 0.29602533903554362 0 0.21198004909252791 0.29287821038227568 0 0.216748936981177 0.29028834878504312 0 0.2110127535150137 0.28400135001518689 0 0.21198004909252791 0.29287821038227568 0 0.2007783016382779 0.29594824923201318 0 0.2110127535150137 0.28400135001518689 0 0.2007783016382779 0.29594824923201318 0 0.1884613869071205 0.28998700035781733 0 0.18246806481262479 0.28907829747377672 0 0.2007783016382779 0.29594824923201318 0 0.18246806481262479 0.28907829747377672 0 0.2007783016382779 0.29594824923201318 0 0.1884613869071205 0.28998700035781733 0 0.18246806481262479 0.28907829747377672 0 0.2007783016382779 0.29594824923201318 0 0.189532324264722 0.30000249564554388 0 0.18631712599939071 0.2837401822255069 0 0.19087223426802999 0.27799947739734732 0 0.1884613869071205 0.28998700035781733 0 0.18067389758430669 0.30916633808277449 0 0.19927501018164179 0.31204909708198603 0 0.19987672711630869 0.30603669420185831 0 0.18067389758430669 0.30916633808277449 0 0.19987672711630869 0.30603669420185831 0 0.18067389758430669 0.30916633808277449 0 0.19987672711630869 0.30603669420185831 0 0.189532324264722 0.30000249564554388 0 0.2007783016382779 0.29594824923201318 0 0.19987672711630869 0.30603669420185831 0 0.189532324264722 0.30000249564554388 0 0.19927501018164179 0.31204909708198603 0 0.1798657804354597 0.3182142628505521 0 0.19927501018164179 0.31204909708198603 0 0.19231371221495841 0.33208525364948011 0 0.2062532537391604 0.33268549818650239 0 0.19927501018164179 0.31204909708198603 0 0.19231371221495841 0.33208525364948011 0 0.1798657804354597 0.3182142628505521 0 0.19231371221495841 0.33208525364948011 0 0.19268863020355889 0.34845898932595709 0 0.1775708068590541 0.34390948326925308 0 0.19231371221495841 0.33208525364948011 0 0.19912381254514519 0.33999909474292189 0 0.19268863020355889 0.34845898932595709 0 0.19231371221495841 0.33208525364948011 0 0.19912381254514519 0.33999909474292189 0 0.2062532537391604 0.33268549818650239 0 0.216135191584406 0.32574148203089459 0 0.21358614324098421 0.3455990327483639 0 0.2062532537391604 0.33268549818650239 0 0.216135191584406 0.32574148203089459 0 0.21358614324098421 0.3455990327483639 0 0.2062532537391604 0.33268549818650239 0 0.21358614324098421 0.3455990327483639 0 0.2066931312610738 0.3447552357028012 0 0.19912381254514519 0.33999909474292189 0 0.2062532537391604 0.33268549818650239 0 0.2066931312610738 0.3447552357028012 0 0.21868423992782551 0.30588393131342501 0 0.216135191584406 0.32574148203089459 0 0.21868423992782551 0.30588393131342501 0 0.19927501018164179 0.31204909708198603 0 0.216135191584406 0.32574148203089459 0 0.19927501018164179 0.31204909708198603 0 0.2062532537391604 0.33268549818650239 0 0.216135191584406 0.32574148203089459 0 0.21868423992782551 0.30588393131342501 0 0.216135191584406 0.32574148203089459 0 0.22891382450147371 0.31846942625544927 0 0.22891382450147371 0.31846942625544927 0 0.22857159424599269 0.33346525120738241 0 0.24366474358906451 0.32861555715077512 0 0.216135191584406 0.32574148203089459 0 0.22891382450147371 0.31846942625544927 0 0.22857159424599269 0.33346525120738241 0 0.22857159424599269 0.33346525120738241 0 0.24055806831403501 0.34890075785142888 0 0.21358614324098421 0.3455990327483639 0 0.216135191584406 0.32574148203089459 0 0.22857159424599269 0.33346525120738241 0 0.21358614324098421 0.3455990327483639 0 0.24366474358906451 0.32861555715077512 0 0.24055806831403501 0.34890075785142888 0 0.25612961372196341 0.33744338512413458 0 0.22857159424599269 0.33346525120738241 0 0.24366474358906451 0.32861555715077512 0 0.24055806831403501 0.34890075785142888 0 0.24381142030338651 0.3120941599622109 0 0.22891382450147371 0.31846942625544927 0 0.24366474358906451 0.32861555715077512 0 0.24381142030338651 0.3120941599622109 0 0.24366474358906451 0.32861555715077512 0 0.25270017776836018 0.31991462494295497 0 0.2344960115715711 0.37239890085466432 0 0.24055806831403501 0.34890075785142888 0 0.25032230139794032 0.37255488625652478 0 0.24055806831403501 0.34890075785142888 0 0.22543675602775221 0.36060913313521598 0 0.21358614324098421 0.3455990327483639 0 0.24055806831403501 0.34890075785142888 0 0.21358614324098421 0.3455990327483639 0 0.2344960115715711 0.37239890085466432 0 0.24055806831403501 0.34890075785142888 0 0.22543675602775221 0.36060913313521598 0 0.2344960115715711 0.37239890085466432 0 0.22543675602775221 0.36060913313521598 0 0.22350096898292421 0.3742031086850599 0 0.22543675602775221 0.36060913313521598 0 0.22350096898292421 0.3742031086850599 0 0.2101792370891131 0.37213945198953913 0 0.22543675602775221 0.36060913313521598 0 0.2101792370891131 0.37213945198953913 0 0.21358614324098421 0.3455990327483639 0 0.2101792370891131 0.37213945198953913 0 0.21358614324098421 0.3455990327483639 0 0.2101792370891131 0.37213945198953913 0 0.21358614324098421 0.3455990327483639 0 0.19979132325246579 0.35944237056408662 0 0.21358614324098421 0.3455990327483639 0 0.20122853181024211 0.34916360666284879 0 0.19979132325246579 0.35944237056408662 0 0.21358614324098421 0.3455990327483639 0 0.2066931312610738 0.3447552357028012 0 0.20122853181024211 0.34916360666284879 0 0.21358614324098421 0.3455990327483639 0 0.2066931312610738 0.3447552357028012 0 0.19912381254514519 0.33999909474292189 0 0.20122853181024211 0.34916360666284879 0 0.19268863020355889 0.34845898932595709 0 0.19912381254514519 0.33999909474292189 0 0.2066931312610738 0.3447552357028012 0 0.20122853181024211 0.34916360666284879 0 0.20122853181024211 0.34916360666284879 0 0.19268863020355889 0.34845898932595709 0 0.19979132325246579 0.35944237056408662 0 0.19268863020355889 0.34845898932595709 0 0.19979132325246579 0.35944237056408662 0 0.18727787305070351 0.36288469766294118 0 0.2101792370891131 0.37213945198953913 0 0.19979132325246579 0.35944237056408662 0 0.19531501511742819 0.37594190092978652 0 0.19979132325246579 0.35944237056408662 0 0.18727787305070351 0.36288469766294118 0 0.19531501511742819 0.37594190092978652 0 0.18727787305070351 0.36288469766294118 0 0.18399312023663861 0.37901680443529151 0 0.19531501511742819 0.37594190092978652 0 0.17527583328263749 0.36960470368795301 0 0.18727787305070351 0.36288469766294118 0 0.18399312023663861 0.37901680443529151 0 0.17527583328263749 0.36960470368795301 0 0.15199499566839211 0.37319371299467102 0 0.1490327780578255 0.35720932490514351 0 0.17527583328263749 0.36960470368795301 0 0.15982792352432831 0.3431053776102333 0 0.1490327780578255 0.35720932490514351 0 0.17527583328263749 0.36960470368795301 0 0.1775708068590541 0.34390948326925308 0 0.15982792352432831 0.3431053776102333 0 0.19268863020355889 0.34845898932595709 0 0.18727787305070351 0.36288469766294118 0 0.1775708068590541 0.34390948326925308 0 0.17527583328263749 0.36960470368795301 0 0.1775708068590541 0.34390948326925308 0 0.17527583328263749 0.36960470368795301 0 0.18727787305070351 0.36288469766294118 0 0.1775708068590541 0.34390948326925308 0 0.1775708068590541 0.34390948326925308 0 0.1798657804354597 0.3182142628505521 0 0.19231371221495841 0.33208525364948011 0 0.1775708068590541 0.34390948326925308 0 0.1798657804354597 0.3182142628505521 0 0.18067389758430669 0.30916633808277449 0 0.19927501018164179 0.31204909708198603 0 0.1798657804354597 0.3182142628505521 0 0.18067389758430669 0.30916633808277449 0 0.1798657804354597 0.3182142628505521 0 0.17696483007597119 0.30977083547791429 0 0.1798657804354597 0.3182142628505521 0 0.1672027916094985 0.31365640655084942 0 0.1798657804354597 0.3182142628505521 0 0.15631327285853741 0.32569550323854352 0 0.1798657804354597 0.3182142628505521 0 0.1672027916094985 0.31365640655084942 0 0.15631327285853741 0.32569550323854352 0 0.15467304841960899 0.31156862358294868 0 0.1672027916094985 0.31365640655084942 0 0.15631327285853741 0.32569550323854352 0 0.1775708068590541 0.34390948326925308 0 0.15631327285853741 0.32569550323854352 0 0.15982792352432831 0.3431053776102333 0 0.1775708068590541 0.34390948326925308 0 0.1798657804354597 0.3182142628505521 0 0.15631327285853741 0.32569550323854352 0 0.15631327285853741 0.32569550323854352 0 0.15982792352432831 0.3431053776102333 0 0.1327607652816164 0.33317674362653898 0 0.15631327285853741 0.32569550323854352 0 0.1327607652816164 0.33317674362653898 0 0.15467304841960899 0.31156862358294868 0 0.15631327285853741 0.32569550323854352 0 0.1372298033592648 0.31261567342208629 0 0.15631327285853741 0.32569550323854352 0 0.1372298033592648 0.31261567342208629 0 0.1327607652816164 0.33317674362653898 0 0.11873453295395869 0.31665512565759157 0 0.1372298033592648 0.31261567342208629 0 0.1327607652816164 0.33317674362653898 0 0.1327607652816164 0.33317674362653898 0 0.12508481468616511 0.35435445602658411 0 0.1490327780578255 0.35720932490514351 0 0.12508481468616511 0.35435445602658411 0 0.13528239407324211 0.37052356445964069 0 0.1490327780578255 0.35720932490514351 0 0.1168729182572414 0.37211592637420698 0 0.12508481468616511 0.35435445602658411 0 0.13528239407324211 0.37052356445964069 0 0.13528239407324211 0.37052356445964069 0 0.15199499566839211 0.37319371299467102 0 0.1490327780578255 0.35720932490514351 0 0.15982792352432831 0.3431053776102333 0 0.1327607652816164 0.33317674362653898 0 0.1490327780578255 0.35720932490514351 0 0.14501571790687001 0.40601656624402632 0 0.14434939174329131 0.38698898991019998 0 0.1575611830907423 0.39597145517823662 0 0.14501571790687001 0.40601656624402632 0 0.1651790785540555 0.40772531936545481 0 0.1575611830907423 0.39597145517823662 0 0.14434939174329131 0.38698898991019998 0 0.1575611830907423 0.39597145517823662 0 0.16028086754327381 0.38382647626484911 0 0.13528239407324211 0.37052356445964069 0 0.15199499566839211 0.37319371299467102 0 0.14434939174329131 0.38698898991019998 0 0.15199499566839211 0.37319371299467102 0 0.14434939174329131 0.38698898991019998 0 0.16028086754327381 0.38382647626484911 0 0.13528239407324211 0.37052356445964069 0 0.14434939174329131 0.38698898991019998 0 0.12689104246206889 0.38606268173667008 0 0.1168729182572414 0.37211592637420698 0 0.13528239407324211 0.37052356445964069 0 0.12689104246206889 0.38606268173667008 0 0.14434939174329131 0.38698898991019998 0 0.12689104246206889 0.38606268173667008 0 0.1317337317892727 0.39937894015077352 0 0.14501571790687001 0.40601656624402632 0 0.14434939174329131 0.38698898991019998 0 0.1317337317892727 0.39937894015077352 0 0.1173041842016815 0.40059907994408889 0 0.12689104246206889 0.38606268173667008 0 0.1317337317892727 0.39937894015077352 0 0.14501571790687001 0.40601656624402632 0 0.125108322632452 0.41722738291888239 0 0.1430226492769652 0.42615381102217148 0 0.14501571790687001 0.40601656624402632 0 0.1317337317892727 0.39937894015077352 0 0.125108322632452 0.41722738291888239 0 0.1267073735430653 0.43082469044774729 0 0.13613610836112461 0.43733186772332799 0 0.1430226492769652 0.42615381102217148 0 0.125108322632452 0.41722738291888239 0 0.1267073735430653 0.43082469044774729 0 0.1430226492769652 0.42615381102217148 0 0.1267073735430653 0.43082469044774729 0 0.13613610836112461 0.43733186772332799 0 0.12518469736031901 0.44246471678543681 0 0.13613610836112461 0.43733186772332799 0 0.1430226492769652 0.42615381102217148 0 0.14767810511395241 0.44326225225545213 0 0.1430226492769652 0.42615381102217148 0 0.170107393749268 0.43407965433620588 0 0.14767810511395241 0.44326225225545213 0 0.14501571790687001 0.40601656624402632 0 0.1430226492769652 0.42615381102217148 0 0.1651790785540555 0.40772531936545481 0 0.1651790785540555 0.40772531936545481 0 0.170107393749268 0.43407965433620588 0 0.1785852995393776 0.4178559757736876 0 0.1430226492769652 0.42615381102217148 0 0.170107393749268 0.43407965433620588 0 0.1430226492769652 0.42615381102217148 0 0.1651790785540555 0.40772531936545481 0 0.170107393749268 0.43407965433620588 0 0.170107393749268 0.43407965433620588 0 0.18875180948826301 0.42535586353764709 0 0.19719213822157081 0.44200549765024011 0 0.170107393749268 0.43407965433620588 0 0.1785852995393776 0.4178559757736876 0 0.18875180948826301 0.42535586353764709 0 0.1651790785540555 0.40772531936545481 0 0.1910859665821209 0.40784650765375191 0 0.1785852995393776 0.4178559757736876 0 0.1910859665821209 0.40784650765375191 0 0.18875180948826301 0.42535586353764709 0 0.1651790785540555 0.40772531936545481 0 0.1785852995393776 0.4178559757736876 0 0.1910859665821209 0.40784650765375191 0 0.17298085970622079 0.39529992410665288 0 0.18911602002620281 0.39135279578912358 0 0.1910859665821209 0.40784650765375191 0 0.1651790785540555 0.40772531936545481 0 0.17298085970622079 0.39529992410665288 0 0.1910859665821209 0.40784650765375191 0 0.1651790785540555 0.40772531936545481 0 0.17298085970622079 0.39529992410665288 0 0.1575611830907423 0.39597145517823662 0 0.17298085970622079 0.39529992410665288 0 0.1575611830907423 0.39597145517823662 0 0.16028086754327381 0.38382647626484911 0 0.17527583328263749 0.36960470368795301 0 0.15199499566839211 0.37319371299467102 0 0.16028086754327381 0.38382647626484911 0 0.17527583328263749 0.36960470368795301 0 0.17298085970622079 0.39529992410665288 0 0.16028086754327381 0.38382647626484911 0 0.17527583328263749 0.36960470368795301 0 0.17298085970622079 0.39529992410665288 0 0.17298085970622079 0.39529992410665288 0 0.18399312023663861 0.37901680443529151 0 0.18911602002620281 0.39135279578912358 0 0.17527583328263749 0.36960470368795301 0 0.17298085970622079 0.39529992410665288 0 0.18399312023663861 0.37901680443529151 0 0.19531501511742819 0.37594190092978652 0 0.2061539348638069 0.39195479843591902 0 0.18399312023663861 0.37901680443529151 0 0.19531501511742819 0.37594190092978652 0 0.18911602002620281 0.39135279578912358 0 0.19531501511742819 0.37594190092978652 0 0.18911602002620281 0.39135279578912358 0 0.2061539348638069 0.39195479843591902 0 0.18911602002620281 0.39135279578912358 0 0.2061539348638069 0.39195479843591902 0 0.1910859665821209 0.40784650765375191 0 0.2061539348638069 0.39195479843591902 0 0.2169928546101865 0.40796769594205079 0 0.2061539348638069 0.39195479843591902 0 0.2250118328585736 0.39522256204424527 0 0.2169928546101865 0.40796769594205079 0 0.2061539348638069 0.39195479843591902 0 0.2169928546101865 0.40796769594205079 0 0.1910859665821209 0.40784650765375191 0 0.2061539348638069 0.39195479843591902 0 0.21890176231244951 0.38342219973087538 0 0.2250118328585736 0.39522256204424527 0 0.2101792370891131 0.37213945198953913 0 0.19531501511742819 0.37594190092978652 0 0.2061539348638069 0.39195479843591902 0 0.2101792370891131 0.37213945198953913 0 0.2061539348638069 0.39195479843591902 0 0.21890176231244951 0.38342219973087538 0 0.22350096898292421 0.3742031086850599 0 0.2101792370891131 0.37213945198953913 0 0.21890176231244951 0.38342219973087538 0 0.22350096898292421 0.3742031086850599 0 0.23083459762192521 0.38473629728422259 0 0.21890176231244951 0.38342219973087538 0 0.2344960115715711 0.37239890085466432 0 0.22350096898292421 0.3742031086850599 0 0.23083459762192521 0.38473629728422259 0 0.23083459762192521 0.38473629728422259 0 0.21890176231244951 0.38342219973087538 0 0.2250118328585736 0.39522256204424527 0 0.2250118328585736 0.39522256204424527 0 0.24044707281929831 0.40807741103229961 0 0.2169928546101865 0.40796769594205079 0 0.23083459762192521 0.38473629728422259 0 0.2250118328585736 0.39522256204424527 0 0.23866726042284131 0.39435630008856559 0 0.2250118328585736 0.39522256204424527 0 0.23866726042284131 0.39435630008856559 0 0.24044707281929831 0.40807741103229961 0 0.23866726042284131 0.39435630008856559 0 0.24044707281929831 0.40807741103229961 0 0.25082305602154931 0.39681313212674851 0 0.23866726042284131 0.39435630008856559 0 0.2436919073221798 0.38446815433068082 0 0.25082305602154931 0.39681313212674851 0 0.2344960115715711 0.37239890085466432 0 0.2436919073221798 0.38446815433068082 0 0.25032230139794032 0.37255488625652478 0 0.2436919073221798 0.38446815433068082 0 0.25564396646738641 0.38653289803593183 0 0.25032230139794032 0.37255488625652478 0 0.2344960115715711 0.37239890085466432 0 0.23083459762192521 0.38473629728422259 0 0.2436919073221798 0.38446815433068082 0 0.23083459762192521 0.38473629728422259 0 0.23866726042284131 0.39435630008856559 0 0.2436919073221798 0.38446815433068082 0 0.24843011339429971 0.4304208809719049 0 0.2385065328847035 0.43975096708444178 0 0.26024227871645839 0.44081166974954272 0 0.24843011339429971 0.4304208809719049 0 0.22662696802648921 0.42220067065793748 0 0.2385065328847035 0.43975096708444178 0 0.24843011339429971 0.4304208809719049 0 0.2471772923768657 0.41685775461785007 0 0.22662696802648921 0.42220067065793748 0 0.2471772923768657 0.41685775461785007 0 0.22662696802648921 0.42220067065793748 0 0.2471772923768657 0.41685775461785007 0 0.24044707281929831 0.40807741103229961 0 0.22662696802648921 0.42220067065793748 0 0.24044707281929831 0.40807741103229961 0 0.22662696802648921 0.42220067065793748 0 0.2169928546101865 0.40796769594205079 0 0.24044707281929831 0.40807741103229961 0 0.2169928546101865 0.40796769594205079 0 0.22662696802648921 0.42220067065793748 0 0.2169928546101865 0.40796769594205079 0 0.21977820823008901 0.43558517648885919 0 0.22662696802648921 0.42220067065793748 0 0.2385065328847035 0.43975096708444178 0 0.22662696802648921 0.42220067065793748 0 0.2385065328847035 0.43975096708444178 0 0.21977820823008901 0.43558517648885919 0 0.2072776557341009 0.42723133339829339 0 0.19719213822157081 0.44200549765024011 0 0.21977820823008901 0.43558517648885919 0 0.22662696802648921 0.42220067065793748 0 0.2072776557341009 0.42723133339829339 0 0.22662696802648921 0.42220067065793748 0 0.2072776557341009 0.42723133339829339 0 0.22662696802648921 0.42220067065793748 0 0.2072776557341009 0.42723133339829339 0 0.2169928546101865 0.40796769594205079 0 0.2072776557341009 0.42723133339829339 0 0.2169928546101865 0.40796769594205079 0 0.1910859665821209 0.40784650765375191 0 0.2169928546101865 0.40796769594205079 0 0.1910859665821209 0.40784650765375191 0 0.2072776557341009 0.42723133339829339 0 0.1910859665821209 0.40784650765375191 0 0.18875180948826301 0.42535586353764709 0 0.2072776557341009 0.42723133339829339 0 0.18875180948826301 0.42535586353764709 0 0.19719213822157081 0.44200549765024011 0 0.19719213822157081 0.44200549765024011 0 0.20409357662219199 0.46347447067211922 0 0.18427568169085909 0.45314070563767722 0 0.20409357662219199 0.46347447067211922 0 0.18265614297154639 0.4689483951498582 0 0.18427568169085909 0.45314070563767722 0 0.20409357662219199 0.46347447067211922 0 0.22427688269387361 0.44993134096427428 0 0.21948748161084161 0.46575282494143289 0 0.21977820823008901 0.43558517648885919 0 0.19719213822157081 0.44200549765024011 0 0.22427688269387361 0.44993134096427428 0 0.19719213822157081 0.44200549765024011 0 0.20409357662219199 0.46347447067211922 0 0.22427688269387361 0.44993134096427428 0 0.19719213822157081 0.44200549765024011 0 0.22427688269387361 0.44993134096427428 0 0.21977820823008901 0.43558517648885919 0 0.22427688269387361 0.44993134096427428 0 0.2385065328847035 0.43975096708444178 0 0.22427688269387361 0.44993134096427428 0 0.2385065328847035 0.43975096708444178 0 0.23503676784827901 0.45218592975115329 0 0.22427688269387361 0.44993134096427428 0 0.21948748161084161 0.46575282494143289 0 0.23198031957437651 0.46180568445856979 0 0.23198031957437651 0.46180568445856979 0 0.24104387879964259 0.46557532312448202 0 0.22974320122043129 0.47684682362955982 0 0.21948748161084161 0.46575282494143289 0 0.23198031957437651 0.46180568445856979 0 0.22974320122043129 0.47684682362955982 0 0.22427688269387361 0.44993134096427428 0 0.23198031957437651 0.46180568445856979 0 0.23503676784827901 0.45218592975115329 0 0.24104387879964259 0.46557532312448202 0 0.24772643922032539 0.47466711752600682 0 0.25038609774291842 0.45730126351094569 0 0.23198031957437651 0.46180568445856979 0 0.24538333624016251 0.45725572649732771 0 0.23503676784827901 0.45218592975115329 0 0.23198031957437651 0.46180568445856979 0 0.24104387879964259 0.46557532312448202 0 0.24538333624016251 0.45725572649732771 0 0.24104387879964259 0.46557532312448202 0 0.24538333624016251 0.45725572649732771 0 0.25038609774291842 0.45730126351094569 0 0.24538333624016251 0.45725572649732771 0 0.25038609774291842 0.45730126351094569 0 0.2385065328847035 0.43975096708444178 0 0.25038609774291842 0.45730126351094569 0 0.2385065328847035 0.43975096708444178 0 0.26024227871645839 0.44081166974954272 0 0.25038609774291842 0.45730126351094569 0 0.24538333624016251 0.45725572649732771 0 0.2385065328847035 0.43975096708444178 0 0.25038609774291842 0.45730126351094569 0 0.24538333624016251 0.45725572649732771 0 0.2385065328847035 0.43975096708444178 0 0.23503676784827901 0.45218592975115329 0 0.23787543002877271 0.48858776422098749 0 0.24772643922032539 0.47466711752600682 0 0.25054774872042401 0.5 0 0.23787543002877271 0.48858776422098749 0 0.22180718647266379 0.5 0 0.25054774872042401 0.5 0 0.23787543002877271 0.48858776422098749 0 0.24772643922032539 0.47466711752600682 0 0.22974320122043129 0.47684682362955982 0 0.24104387879964259 0.46557532312448202 0 0.24772643922032539 0.47466711752600682 0 0.22974320122043129 0.47684682362955982 0 0.21948748161084161 0.46575282494143289 0 0.22974320122043129 0.47684682362955982 0 0.20908074412085051 0.48413556260473228 0 0.22974320122043129 0.47684682362955982 0 0.22180718647266379 0.5 0 0.20908074412085051 0.48413556260473228 0 0.23787543002877271 0.48858776422098749 0 0.22974320122043129 0.47684682362955982 0 0.22180718647266379 0.5 0 0.22180718647266379 0.5 0 0.20908074412085051 0.48413556260473228 0 0.1930666242249037 0.5 0 0.20409357662219199 0.46347447067211922 0 0.21948748161084161 0.46575282494143289 0 0.20908074412085051 0.48413556260473228 0 0.20409357662219199 0.46347447067211922 0 0.20908074412085051 0.48413556260473228 0 0.19410502858567369 0.47873572283664972 0 0.20409357662219199 0.46347447067211922 0 0.19410502858567369 0.47873572283664972 0 0.18265614297154639 0.4689483951498582 0 0.19410502858567369 0.47873572283664972 0 0.1930666242249037 0.5 0 0.1771149176736431 0.48234165310617533 0 0.20908074412085051 0.48413556260473228 0 0.19410502858567369 0.47873572283664972 0 0.1930666242249037 0.5 0 0.1930666242249037 0.5 0 0.16432606197714369 0.5 0 0.1771149176736431 0.48234165310617533 0 0.16432606197714369 0.5 0 0.1605770840419139 0.48142100180532832 0 0.1771149176736431 0.48234165310617533 0 0.16432606197714369 0.5 0 0.1605770840419139 0.48142100180532832 0 0.14810273244053301 0.48807303368852317 0 0.1605770840419139 0.48142100180532832 0 0.16725348378405791 0.46989817133820888 0 0.1771149176736431 0.48234165310617533 0 0.15672752135192369 0.47037067060940402 0 0.1605770840419139 0.48142100180532832 0 0.16725348378405791 0.46989817133820888 0 0.16725348378405791 0.46989817133820888 0 0.1771149176736431 0.48234165310617533 0 0.18265614297154639 0.4689483951498582 0 0.19410502858567369 0.47873572283664972 0 0.1771149176736431 0.48234165310617533 0 0.18265614297154639 0.4689483951498582 0 0.18265614297154639 0.4689483951498582 0 0.18427568169085909 0.45314070563767722 0 0.16904641777788271 0.4557546195776 0 0.16725348378405791 0.46989817133820888 0 0.18265614297154639 0.4689483951498582 0 0.16904641777788271 0.4557546195776 0 0.170107393749268 0.43407965433620588 0 0.19719213822157081 0.44200549765024011 0 0.170107393749268 0.43407965433620588 0 0.18427568169085909 0.45314070563767722 0 0.16904641777788271 0.4557546195776 0 0.170107393749268 0.43407965433620588 0 0.19719213822157081 0.44200549765024011 0 0.18427568169085909 0.45314070563767722 0 0.170107393749268 0.43407965433620588 0 0.15717082352779799 0.45258064002774828 0 0.14767810511395241 0.44326225225545213 0 0.170107393749268 0.43407965433620588 0 0.15717082352779799 0.45258064002774828 0 0.16904641777788271 0.4557546195776 0 0.16725348378405791 0.46989817133820888 0 0.16904641777788271 0.4557546195776 0 0.16030990684873289 0.46269154388974032 0 0.15717082352779799 0.45258064002774828 0 0.16904641777788271 0.4557546195776 0 0.16030990684873289 0.46269154388974032 0 0.15717082352779799 0.45258064002774828 0 0.16030990684873289 0.46269154388974032 0 0.1513512878020026 0.46485361789574031 0 0.15672752135192369 0.47037067060940402 0 0.16725348378405791 0.46989817133820888 0 0.16030990684873289 0.46269154388974032 0 0.15672752135192369 0.47037067060940402 0 0.16030990684873289 0.46269154388974032 0 0.1513512878020026 0.46485361789574031 0 0.1513512878020026 0.46485361789574031 0 0.1483154215322503 0.46486058614364878 0 0.13172151909199531 0.46115818626391619 0 0.1513512878020026 0.46485361789574031 0 0.13172151909199531 0.46115818626391619 0 0.1513512878020026 0.46485361789574031 0 0.14486247846012029 0.45482229791162521 0 0.13172151909199531 0.46115818626391619 0 0.15672752135192369 0.47037067060940402 0 0.1513512878020026 0.46485361789574031 0 0.14984750377078479 0.47102146171357878 0 0.1513512878020026 0.46485361789574031 0 0.1483154215322503 0.46486058614364878 0 0.14984750377078479 0.47102146171357878 0 0.15717082352779799 0.45258064002774828 0 0.1513512878020026 0.46485361789574031 0 0.14486247846012029 0.45482229791162521 0 0.15717082352779799 0.45258064002774828 0 0.14486247846012029 0.45482229791162521 0 0.14767810511395241 0.44326225225545213 0 0.14486247846012029 0.45482229791162521 0 0.14767810511395241 0.44326225225545213 0 0.13478412654451069 0.44890181361653952 0 0.13613610836112461 0.43733186772332799 0 0.14767810511395241 0.44326225225545213 0 0.13478412654451069 0.44890181361653952 0 0.12312185087955289 0.45437156075947838 0 0.13478412654451069 0.44890181361653952 0 0.12518469736031901 0.44246471678543681 0 0.13613610836112461 0.43733186772332799 0 0.13478412654451069 0.44890181361653952 0 0.12518469736031901 0.44246471678543681 0 0.1232879693058704 0.473389639060316 0 0.1483154215322503 0.46486058614364878 0 0.13172151909199531 0.46115818626391619 0 0.14486247846012029 0.45482229791162521 0 0.13478412654451069 0.44890181361653952 0 0.13172151909199531 0.46115818626391619 0 0.12312185087955289 0.45437156075947838 0 0.13478412654451069 0.44890181361653952 0 0.13172151909199531 0.46115818626391619 0 0.1193164107041766 0.48148302344114258 0 0.1232879693058704 0.473389639060316 0 0.13736980403923851 0.47904917785748607 0 0.1232879693058704 0.473389639060316 0 0.1483154215322503 0.46486058614364878 0 0.13736980403923851 0.47904917785748607 0 0.1232879693058704 0.473389639060316 0 0.1483154215322503 0.46486058614364878 0 0.1232879693058704 0.473389639060316 0 0.13736980403923851 0.47904917785748607 0 0.12247105767917139 0.49036732130857652 0 0.1193164107041766 0.48148302344114258 0 0.13736980403923851 0.47904917785748607 0 0.12247105767917139 0.49036732130857652 0 0.13736980403923851 0.47904917785748607 0 0.13558549972938361 0.5 0 0.13736980403923851 0.47904917785748607 0 0.13558549972938361 0.5 0 0.14810273244053301 0.48807303368852317 0 0.16432606197714369 0.5 0 0.13558549972938361 0.5 0 0.14810273244053301 0.48807303368852317 0 0.1605770840419139 0.48142100180532832 0 0.14810273244053301 0.48807303368852317 0 0.1499377870241822 0.47784248208965913 0 0.15672752135192369 0.47037067060940402 0 0.1605770840419139 0.48142100180532832 0 0.1499377870241822 0.47784248208965913 0 0.15672752135192369 0.47037067060940402 0 0.1499377870241822 0.47784248208965913 0 0.14984750377078479 0.47102146171357878 0 0.13736980403923851 0.47904917785748607 0 0.1499377870241822 0.47784248208965913 0 0.14984750377078479 0.47102146171357878 0 0.1483154215322503 0.46486058614364878 0 0.13736980403923851 0.47904917785748607 0 0.14984750377078479 0.47102146171357878 0 0.13736980403923851 0.47904917785748607 0 0.14810273244053301 0.48807303368852317 0 0.1499377870241822 0.47784248208965913 0 0.34838962851587779 0.47427482982791369 0 0.35607400661002631 0.5 0 0.3621071701637455 0.4779090042255203 0 0.34838962851587779 0.47427482982791369 0 0.3621071701637455 0.4779090042255203 0 0.36548787017156631 0.45834896306158168 0 0.34838962851587779 0.47427482982791369 0 0.35607400661002631 0.5 0 0.34131721828017308 0.48340545105079169 0 0.35607400661002631 0.5 0 0.3621071701637455 0.4779090042255203 0 0.37847717535751169 0.4790122240125857 0 0.3621071701637455 0.4779090042255203 0 0.36548787017156631 0.45834896306158168 0 0.37847717535751169 0.4790122240125857 0 0.36548787017156631 0.45834896306158168 0 0.36539094313265458 0.44039762298169322 0 0.38626560987210851 0.43899589033984521 0 0.36548787017156631 0.45834896306158168 0 0.36539094313265458 0.44039762298169322 0 0.35338681856140469 0.44707180339058622 0 0.35338681856140469 0.44707180339058622 0 0.34330132978596878 0.45814701284047099 0 0.3416540191542492 0.44233244957501677 0 0.36539094313265458 0.44039762298169322 0 0.35338681856140469 0.44707180339058622 0 0.35109993056258509 0.43613296849416822 0 0.35338681856140469 0.44707180339058622 0 0.3416540191542492 0.44233244957501677 0 0.35109993056258509 0.43613296849416822 0 0.36548787017156631 0.45834896306158168 0 0.35338681856140469 0.44707180339058622 0 0.34330132978596878 0.45814701284047099 0 0.34838962851587779 0.47427482982791369 0 0.36548787017156631 0.45834896306158168 0 0.34330132978596878 0.45814701284047099 0 0.34838962851587779 0.47427482982791369 0 0.36548787017156631 0.45834896306158168 0 0.36548787017156631 0.45834896306158168 0 0.34330132978596878 0.45814701284047099 0 0.34838962851587779 0.47427482982791369 0 0.34330132978596878 0.45814701284047099 0 0.33670859118162999 0.47150681676575118 0 0.34330132978596878 0.45814701284047099 0 0.3211147894003713 0.45794506261935908 0 0.33670859118162999 0.47150681676575118 0 0.34330132978596878 0.45814701284047099 0 0.3211147894003713 0.45794506261935908 0 0.3211147894003713 0.45794506261935908 0 0.33670859118162999 0.47150681676575118 0 0.34330132978596878 0.45814701284047099 0 0.3416540191542492 0.44233244957501677 0 0.32939187111423041 0.44288411194454941 0 0.34330132978596878 0.45814701284047099 0 0.32939187111423041 0.44288411194454941 0 0.3211147894003713 0.45794506261935908 0 0.3416540191542492 0.44233244957501677 0 0.32939187111423041 0.44288411194454941 0 0.3280326841218979 0.42882831107560992 0 0.31766381399879751 0.44121853087289697 0 0.3211147894003713 0.45794506261935908 0 0.30331906517599527 0.44246832127216018 0 0.32939187111423041 0.44288411194454941 0 0.31766381399879751 0.44121853087289697 0 0.3211147894003713 0.45794506261935908 0 0.32939187111423041 0.44288411194454941 0 0.31766381399879751 0.44121853087289697 0 0.31976114716451781 0.43380805023286317 0 0.3211147894003713 0.45794506261935908 0 0.31602546357681333 0.47300495123058162 0 0.30320881377664161 0.45778207570596191 0 0.3211147894003713 0.45794506261935908 0 0.31602546357681333 0.47300495123058162 0 0.33670859118162999 0.47150681676575118 0 0.31602546357681333 0.47300495123058162 0 0.32884211337698438 0.48822782675520182 0 0.3041384259342802 0.4851450764453229 0 0.31602546357681333 0.47300495123058162 0 0.33670859118162999 0.47150681676575118 0 0.32884211337698438 0.48822782675520182 0 0.35607400661002631 0.5 0 0.32884211337698438 0.48822782675520182 0 0.31170052508014717 0.5 0 0.31602546357681333 0.47300495123058162 0 0.32884211337698438 0.48822782675520182 0 0.34131721828017308 0.48340545105079169 0 0.33670859118162999 0.47150681676575118 0 0.32884211337698438 0.48822782675520182 0 0.34838962851587779 0.47427482982791369 0 0.34131721828017308 0.48340545105079169 0 0.33670859118162999 0.47150681676575118 0 0.35607400661002631 0.5 0 0.34131721828017308 0.48340545105079169 0 0.32884211337698438 0.48822782675520182 0 0.32884211337698438 0.48822782675520182 0 0.31170052508014717 0.5 0 0.3041384259342802 0.4851450764453229 0 0.31170052508014717 0.5 0 0.3041384259342802 0.4851450764453229 0 0.27928831096818418 0.49999999999999772 0 0.31602546357681333 0.47300495123058162 0 0.3041384259342802 0.4851450764453229 0 0.29726124149674699 0.47040208702475128 0 0.29726124149674699 0.47040208702475128 0 0.28613604843621998 0.47853666213343521 0 0.27679745575977999 0.45754166960845372 0 0.3041384259342802 0.4851450764453229 0 0.29726124149674699 0.47040208702475128 0 0.28613604843621998 0.47853666213343521 0 0.3041384259342802 0.4851450764453229 0 0.28613604843621998 0.47853666213343521 0 0.27928831096818418 0.49999999999999772 0 0.27928831096818418 0.49999999999999772 0 0.26483720435555153 0.47865063175547151 0 0.28613604843621998 0.47853666213343521 0 0.27928831096818418 0.49999999999999772 0 0.26483720435555153 0.47865063175547151 0 0.28613604843621998 0.47853666213343521 0 0.26483720435555153 0.47865063175547151 0 0.27679745575977999 0.45754166960845372 0 0.24772643922032539 0.47466711752600682 0 0.26483720435555153 0.47865063175547151 0 0.25038609774291842 0.45730126351094569 0 0.27928831096818418 0.49999999999999772 0 0.26483720435555153 0.47865063175547151 0 0.25054774872042401 0.5 0 0.24772643922032539 0.47466711752600682 0 0.26483720435555153 0.47865063175547151 0 0.25054774872042401 0.5 0 0.26024227871645839 0.44081166974954272 0 0.25038609774291842 0.45730126351094569 0 0.27679745575977999 0.45754166960845372 0 0.26483720435555153 0.47865063175547151 0 0.25038609774291842 0.45730126351094569 0 0.26483720435555153 0.47865063175547151 0 0.25038609774291842 0.45730126351094569 0 0.27679745575977999 0.45754166960845372 0 0.25038609774291842 0.45730126351094569 0 0.27679745575977999 0.45754166960845372 0 0.26024227871645839 0.44081166974954272 0 0.27679745575977999 0.45754166960845372 0 0.27479965397027228 0.44083840850636558 0 0.27679745575977999 0.45754166960845372 0 0.27479965397027228 0.44083840850636558 0 0.29027138739264841 0.44241574873884359 0 0.26024227871645839 0.44081166974954272 0 0.27479965397027228 0.44083840850636558 0 0.26873659938603911 0.4336260229582069 0 0.27679745575977999 0.45754166960845372 0 0.29027138739264841 0.44241574873884359 0 0.30320881377664161 0.45778207570596191 0 0.29027138739264841 0.44241574873884359 0 0.30320881377664161 0.45778207570596191 0 0.29726124149674699 0.47040208702475128 0 0.27679745575977999 0.45754166960845372 0 0.30320881377664161 0.45778207570596191 0 0.27679745575977999 0.45754166960845372 0 0.30320881377664161 0.45778207570596191 0 0.3211147894003713 0.45794506261935908 0 0.30320881377664161 0.45778207570596191 0 0.31602546357681333 0.47300495123058162 0 0.29726124149674699 0.47040208702475128 0 0.30320881377664161 0.45778207570596191 0 0.31602546357681333 0.47300495123058162 0 0.30320881377664161 0.45778207570596191 0 0.3211147894003713 0.45794506261935908 0 0.30331906517599527 0.44246832127216018 0 0.3211147894003713 0.45794506261935908 0 0.30320881377664161 0.45778207570596191 0 0.30331906517599527 0.44246832127216018 0 0.29027138739264841 0.44241574873884359 0 0.30320881377664161 0.45778207570596191 0 0.30331906517599527 0.44246832127216018 0 0.31766381399879751 0.44121853087289697 0 0.30331906517599527 0.44246832127216018 0 0.31182032683915212 0.43480073296080191 0 0.31182032683915212 0.43480073296080191 0 0.30637665334424269 0.43041747699040261 0 0.31227427250835788 0.42631646539587958 0 0.30331906517599527 0.44246832127216018 0 0.31182032683915212 0.43480073296080191 0 0.30637665334424269 0.43041747699040261 0 0.30968843038581212 0.42307283342678692 0 0.29894863390120402 0.42862838877081633 0 0.30551913637551548 0.41441145155115428 0 0.30637665334424269 0.43041747699040261 0 0.31227427250835788 0.42631646539587958 0 0.30968843038581212 0.42307283342678692 0 0.30637665334424269 0.43041747699040261 0 0.30968843038581212 0.42307283342678692 0 0.29894863390120402 0.42862838877081633 0 0.31227427250835788 0.42631646539587958 0 0.30968843038581212 0.42307283342678692 0 0.31436206145962758 0.42485960424783348 0 0.30331906517599527 0.44246832127216018 0 0.30637665334424269 0.43041747699040261 0 0.29894863390120402 0.42862838877081633 0 0.30551913637551548 0.41441145155115428 0 0.29663358898609521 0.40399952250766241 0 0.31675777388243032 0.4097970804816648 0 0.30551913637551548 0.41441145155115428 0 0.31675777388243032 0.4097970804816648 0 0.31396170531015949 0.41665084641017008 0 0.30968843038581212 0.42307283342678692 0 0.30551913637551548 0.41441145155115428 0 0.31396170531015949 0.41665084641017008 0 0.29894863390120402 0.42862838877081633 0 0.30551913637551548 0.41441145155115428 0 0.29253870231335949 0.41734566390292621 0 0.30551913637551548 0.41441145155115428 0 0.29253870231335949 0.41734566390292621 0 0.29663358898609521 0.40399952250766241 0 0.29253870231335949 0.41734566390292621 0 0.26772761672724238 0.41151483857776361 0 0.29663358898609521 0.40399952250766241 0 0.29253870231335949 0.41734566390292621 0 0.28552334095161869 0.42699157992496217 0 0.26772761672724238 0.41151483857776361 0 0.26772761672724238 0.41151483857776361 0 0.29663358898609521 0.40399952250766241 0 0.29027138739264841 0.44241574873884359 0 0.30331906517599527 0.44246832127216018 0 0.28552334095161869 0.42699157992496217 0 0.30331906517599527 0.44246832127216018 0 0.29894863390120402 0.42862838877081633 0 0.28552334095161869 0.42699157992496217 0 0.30331906517599527 0.44246832127216018 0 0.28552334095161869 0.42699157992496217 0 0.29894863390120402 0.42862838877081633 0 0.29253870231335949 0.41734566390292621 0 0.28552334095161869 0.42699157992496217 0 0.29027138739264841 0.44241574873884359 0 0.27733396100865471 0.42704942177172578 0 0.29027138739264841 0.44241574873884359 0 0.28552334095161869 0.42699157992496217 0 0.27733396100865471 0.42704942177172578 0 0.27479965397027228 0.44083840850636558 0 0.26873659938603911 0.4336260229582069 0 0.27733396100865471 0.42704942177172578 0 0.27479965397027228 0.44083840850636558 0 0.29027138739264841 0.44241574873884359 0 0.27733396100865471 0.42704942177172578 0 0.26873659938603911 0.4336260229582069 0 0.27733396100865471 0.42704942177172578 0 0.26257050384877112 0.42580459180519359 0 0.26772761672724238 0.41151483857776361 0 0.26906741145732699 0.40821129240957138 0 0.29663358898609521 0.40399952250766241 0 0.28552334095161869 0.42699157992496217 0 0.26772761672724238 0.41151483857776361 0 0.28552334095161869 0.42699157992496217 0 0.27733396100865471 0.42704942177172578 0 0.26772761672724238 0.41151483857776361 0 0.26906741145732699 0.40821129240957138 0 0.2639012910284102 0.4081871261225517 0 0.26772761672724238 0.41151483857776361 0 0.26906741145732699 0.40821129240957138 0 0.2639012910284102 0.4081871261225517 0 0.26772761672724238 0.41151483857776361 0 0.2639012910284102 0.4081871261225517 0 0.27733396100865471 0.42704942177172578 0 0.26772761672724238 0.41151483857776361 0 0.26257050384877112 0.42580459180519359 0 0.2471772923768657 0.41685775461785007 0 0.24044707281929831 0.40807741103229961 0 0.2639012910284102 0.4081871261225517 0 0.24044707281929831 0.40807741103229961 0 0.2639012910284102 0.4081871261225517 0 0.2471772923768657 0.41685775461785007 0 0.26772761672724238 0.41151483857776361 0 0.2639012910284102 0.4081871261225517 0 0.2471772923768657 0.41685775461785007 0 0.26772761672724238 0.41151483857776361 0 0.2471772923768657 0.41685775461785007 0 0.26772761672724238 0.41151483857776361 0 0.26257050384877112 0.42580459180519359 0 0.24843011339429971 0.4304208809719049 0 0.2471772923768657 0.41685775461785007 0 0.26257050384877112 0.42580459180519359 0 0.24843011339429971 0.4304208809719049 0 0.26024227871645839 0.44081166974954272 0 0.26257050384877112 0.42580459180519359 0 0.26024227871645839 0.44081166974954272 0 0.26873659938603911 0.4336260229582069 0 0.26257050384877112 0.42580459180519359 0 0.26447355538022849 0.39011524657438251 0 0.26533118443416442 0.37922214696953899 0 0.25564396646738641 0.38653289803593183 0 0.26533118443416442 0.37922214696953899 0 0.25564396646738641 0.38653289803593183 0 0.25032230139794032 0.37255488625652478 0 0.2436919073221798 0.38446815433068082 0 0.25564396646738641 0.38653289803593183 0 0.25082305602154931 0.39681313212674851 0 0.24044707281929831 0.40807741103229961 0 0.2639012910284102 0.4081871261225517 0 0.25082305602154931 0.39681313212674851 0 0.25564396646738641 0.38653289803593183 0 0.25082305602154931 0.39681313212674851 0 0.2604587975988199 0.39624292777893039 0 0.2639012910284102 0.4081871261225517 0 0.25082305602154931 0.39681313212674851 0 0.2639012910284102 0.4081871261225517 0 0.25082305602154931 0.39681313212674851 0 0.2604587975988199 0.39624292777893039 0 0.2639012910284102 0.4081871261225517 0 0.2604587975988199 0.39624292777893039 0 0.26745211909652578 0.39956623603503688 0 0.26447355538022849 0.39011524657438251 0 0.2604587975988199 0.39624292777893039 0 0.26745211909652578 0.39956623603503688 0 0.26447355538022849 0.39011524657438251 0 0.25564396646738641 0.38653289803593183 0 0.2604587975988199 0.39624292777893039 0 0.26447355538022849 0.39011524657438251 0 0.26745211909652578 0.39956623603503688 0 0.27508248349636022 0.38893986061582819 0 0.26906741145732699 0.40821129240957138 0 0.26745211909652578 0.39956623603503688 0 0.28160455932689332 0.39795068184520638 0 0.26906741145732699 0.40821129240957138 0 0.2639012910284102 0.4081871261225517 0 0.26745211909652578 0.39956623603503688 0 0.26745211909652578 0.39956623603503688 0 0.27508248349636022 0.38893986061582819 0 0.28160455932689332 0.39795068184520638 0 0.27508248349636022 0.38893986061582819 0 0.27810431770349792 0.38008174954624102 0 0.28719705428914999 0.38211949437026838 0 0.26447355538022849 0.39011524657438251 0 0.26533118443416442 0.37922214696953899 0 0.27508248349636022 0.38893986061582819 0 0.26533118443416442 0.37922214696953899 0 0.27508248349636022 0.38893986061582819 0 0.27810431770349792 0.38008174954624102 0 0.26533118443416442 0.37922214696953899 0 0.27810431770349792 0.38008174954624102 0 0.27254019520173922 0.37341925670894988 0 0.27810431770349792 0.38008174954624102 0 0.28093794648887982 0.3722492246794134 0 0.27254019520173922 0.37341925670894988 0 0.28719705428914999 0.38211949437026838 0 0.28963733013387549 0.37144658513855539 0 0.28093794648887982 0.3722492246794134 0 0.28719705428914999 0.38211949437026838 0 0.28160455932689332 0.39795068184520638 0 0.30405800183518789 0.38829273019971899 0 0.27810431770349792 0.38008174954624102 0 0.28719705428914999 0.38211949437026838 0 0.28093794648887982 0.3722492246794134 0 0.27508248349636022 0.38893986061582819 0 0.28719705428914999 0.38211949437026838 0 0.28160455932689332 0.39795068184520638 0 0.28719705428914999 0.38211949437026838 0 0.29972124458137622 0.37550813047636539 0 0.28963733013387549 0.37144658513855539 0 0.26906741145732699 0.40821129240957138 0 0.28160455932689332 0.39795068184520638 0 0.29663358898609521 0.40399952250766241 0 0.28160455932689332 0.39795068184520638 0 0.29663358898609521 0.40399952250766241 0 0.30405800183518789 0.38829273019971899 0 0.29663358898609521 0.40399952250766241 0 0.30405800183518789 0.38829273019971899 0 0.32553956124494843 0.39648420643756233 0 0.29663358898609521 0.40399952250766241 0 0.32553956124494843 0.39648420643756233 0 0.28719705428914999 0.38211949437026838 0 0.29972124458137622 0.37550813047636539 0 0.30405800183518789 0.38829273019971899 0 0.29972124458137622 0.37550813047636539 0 0.30405800183518789 0.38829273019971899 0 0.31496357018296728 0.37905743547334658 0 0.30405800183518789 0.38829273019971899 0 0.31496357018296728 0.37905743547334658 0 0.32332394111095902 0.38590625208010348 0 0.31496357018296728 0.37905743547334658 0 0.3314503847417693 0.37878143595041469 0 0.31626784915670098 0.36787240609010818 0 0.31496357018296728 0.37905743547334658 0 0.32332394111095902 0.38590625208010348 0 0.3314503847417693 0.37878143595041469 0 0.30405800183518789 0.38829273019971899 0 0.32332394111095902 0.38590625208010348 0 0.32553956124494843 0.39648420643756233 0 0.32332394111095902 0.38590625208010348 0 0.3314503847417693 0.37878143595041469 0 0.33751373325057482 0.39827791150967151 0 0.3314503847417693 0.37878143595041469 0 0.34268109255330098 0.3855466221564266 0 0.33751373325057482 0.39827791150967151 0 0.3314503847417693 0.37878143595041469 0 0.33751373325057482 0.39827791150967151 0 0.3314503847417693 0.37878143595041469 0 0.34268109255330098 0.3855466221564266 0 0.34304248713128438 0.37404776694303737 0 0.34053843780446719 0.40337282586899592 0 0.33751373325057482 0.39827791150967151 0 0.34793353204810029 0.39465126196828981 0 0.34268109255330098 0.3855466221564266 0 0.33751373325057482 0.39827791150967151 0 0.34793353204810029 0.39465126196828981 0 0.32332394111095902 0.38590625208010348 0 0.33751373325057482 0.39827791150967151 0 0.32553956124494843 0.39648420643756233 0 0.34053843780446719 0.40337282586899592 0 0.33751373325057482 0.39827791150967151 0 0.32855000506848819 0.40605756383923702 0 0.33751373325057482 0.39827791150967151 0 0.32855000506848819 0.40605756383923702 0 0.32553956124494843 0.39648420643756233 0 0.32855000506848819 0.40605756383923702 0 0.32553956124494843 0.39648420643756233 0 0.31675777388243032 0.4097970804816648 0 0.29663358898609521 0.40399952250766241 0 0.32553956124494843 0.39648420643756233 0 0.31675777388243032 0.4097970804816648 0 0.31436206145962758 0.42485960424783348 0 0.33435232670493342 0.41424566542520508 0 0.32074273647332008 0.41759150847707238 0 0.31436206145962758 0.42485960424783348 0 0.33435232670493342 0.41424566542520508 0 0.30968843038581212 0.42307283342678692 0 0.31396170531015949 0.41665084641017008 0 0.3146887334072298 0.42054369814046572 0 0.31396170531015949 0.41665084641017008 0 0.3146887334072298 0.42054369814046572 0 0.32074273647332008 0.41759150847707238 0 0.3146887334072298 0.42054369814046572 0 0.32074273647332008 0.41759150847707238 0 0.31436206145962758 0.42485960424783348 0 0.31675777388243032 0.4097970804816648 0 0.31396170531015949 0.41665084641017008 0 0.32074273647332008 0.41759150847707238 0 0.32074273647332008 0.41759150847707238 0 0.32510071053229289 0.41192295455579481 0 0.33435232670493342 0.41424566542520508 0 0.31675777388243032 0.4097970804816648 0 0.32074273647332008 0.41759150847707238 0 0.32510071053229289 0.41192295455579481 0 0.32855000506848819 0.40605756383923702 0 0.31675777388243032 0.4097970804816648 0 0.32510071053229289 0.41192295455579481 0 0.31227427250835788 0.42631646539587958 0 0.31976114716451781 0.43380805023286317 0 0.3280326841218979 0.42882831107560992 0 0.31227427250835788 0.42631646539587958 0 0.3280326841218979 0.42882831107560992 0 0.33831808567089861 0.42278355237587439 0 0.31227427250835788 0.42631646539587958 0 0.31436206145962758 0.42485960424783348 0 0.33831808567089861 0.42278355237587439 0 0.31227427250835788 0.42631646539587958 0 0.33831808567089861 0.42278355237587439 0 0.31182032683915212 0.43480073296080191 0 0.31227427250835788 0.42631646539587958 0 0.31976114716451781 0.43380805023286317 0 0.31766381399879751 0.44121853087289697 0 0.31182032683915212 0.43480073296080191 0 0.31976114716451781 0.43380805023286317 0 0.30968843038581212 0.42307283342678692 0 0.3146887334072298 0.42054369814046572 0 0.31436206145962758 0.42485960424783348 0 0.32939187111423041 0.44288411194454941 0 0.31976114716451781 0.43380805023286317 0 0.3280326841218979 0.42882831107560992 0 0.3280326841218979 0.42882831107560992 0 0.33831808567089861 0.42278355237587439 0 0.35745607209124719 0.42436372170841807 0 0.3280326841218979 0.42882831107560992 0 0.35745607209124719 0.42436372170841807 0 0.3416540191542492 0.44233244957501677 0 0.3280326841218979 0.42882831107560992 0 0.35109993056258509 0.43613296849416822 0 0.34053843780446719 0.40337282586899592 0 0.33435232670493342 0.41424566542520508 0 0.35434259195023932 0.40363172660257668 0 0.31436206145962758 0.42485960424783348 0 0.33831808567089861 0.42278355237587439 0 0.33435232670493342 0.41424566542520508 0 0.32855000506848819 0.40605756383923702 0 0.32510071053229289 0.41192295455579481 0 0.33435232670493342 0.41424566542520508 0 0.34053843780446719 0.40337282586899592 0 0.32855000506848819 0.40605756383923702 0 0.33435232670493342 0.41424566542520508 0 0.33831808567089861 0.42278355237587439 0 0.33435232670493342 0.41424566542520508 0 0.34465218049969759 0.41389452564528167 0 0.33831808567089861 0.42278355237587439 0 0.35159571767271908 0.41491715817747082 0 0.36436189883343961 0.41925063935586943 0 0.33831808567089861 0.42278355237587439 0 0.36436189883343961 0.41925063935586943 0 0.33435232670493342 0.41424566542520508 0 0.35434259195023932 0.40363172660257668 0 0.34465218049969759 0.41389452564528167 0 0.35159571767271908 0.41491715817747082 0 0.35434259195023932 0.40363172660257668 0 0.33435232670493342 0.41424566542520508 0 0.34465218049969759 0.41389452564528167 0 0.35434259195023932 0.40363172660257668 0 0.33831808567089861 0.42278355237587439 0 0.34465218049969759 0.41389452564528167 0 0.35159571767271908 0.41491715817747082 0 0.35159571767271908 0.41491715817747082 0 0.35916291107304099 0.41158721418696959 0 0.36436189883343961 0.41925063935586943 0 0.35159571767271908 0.41491715817747082 0 0.35916291107304099 0.41158721418696959 0 0.35434259195023932 0.40363172660257668 0 0.3280326841218979 0.42882831107560992 0 0.35109993056258509 0.43613296849416822 0 0.35745607209124719 0.42436372170841807 0 0.33831808567089861 0.42278355237587439 0 0.35745607209124719 0.42436372170841807 0 0.36436189883343961 0.41925063935586943 0 0.35109993056258509 0.43613296849416822 0 0.35745607209124719 0.42436372170841807 0 0.36173078160632638 0.43280512632306861 0 0.36539094313265458 0.44039762298169322 0 0.37297618063881871 0.43032619210799472 0 0.38626560987210851 0.43899589033984521 0 0.35745607209124719 0.42436372170841807 0 0.38687946006059659 0.41989913234122628 0 0.35745607209124719 0.42436372170841807 0 0.37297618063881871 0.43032619210799472 0 0.38687946006059659 0.41989913234122628 0 0.36539094313265458 0.44039762298169322 0 0.36173078160632638 0.43280512632306861 0 0.37297618063881871 0.43032619210799472 0 0.36539094313265458 0.44039762298169322 0 0.35109993056258509 0.43613296849416822 0 0.36173078160632638 0.43280512632306861 0 0.35745607209124719 0.42436372170841807 0 0.36173078160632638 0.43280512632306861 0 0.37297618063881871 0.43032619210799472 0 0.35745607209124719 0.42436372170841807 0 0.36436189883343961 0.41925063935586943 0 0.38687946006059659 0.41989913234122628 0 0.35916291107304099 0.41158721418696959 0 0.36635143583576579 0.40854933261196108 0 0.35434259195023932 0.40363172660257668 0 0.35916291107304099 0.41158721418696959 0 0.36635143583576579 0.40854933261196108 0 0.36436189883343961 0.41925063935586943 0 0.36635143583576579 0.40854933261196108 0 0.36436189883343961 0.41925063935586943 0 0.3744178602803922 0.41294804669527918 0 0.36635143583576579 0.40854933261196108 0 0.3744178602803922 0.41294804669527918 0 0.376552394456383 0.40827448847742231 0 0.37433285719554532 0.39301778777994822 0 0.35434259195023932 0.40363172660257668 0 0.35928834119040881 0.390692520113676 0 0.37433285719554532 0.39301778777994822 0 0.35434259195023932 0.40363172660257668 0 0.36635143583576579 0.40854933261196108 0 0.37433285719554532 0.39301778777994822 0 0.35434259195023932 0.40363172660257668 0 0.36635143583576579 0.40854933261196108 0 0.37433285719554532 0.39301778777994822 0 0.376552394456383 0.40827448847742231 0 0.36636739916338268 0.38018708980684562 0 0.35346532559477639 0.38197473441071972 0 0.36259708738483959 0.36383996933626389 0 0.37433285719554532 0.39301778777994822 0 0.36636739916338268 0.38018708980684562 0 0.38118905446808798 0.37728987283747489 0 0.37433285719554532 0.39301778777994822 0 0.36636739916338268 0.38018708980684562 0 0.35928834119040881 0.390692520113676 0 0.36636739916338268 0.38018708980684562 0 0.35346532559477639 0.38197473441071972 0 0.35928834119040881 0.390692520113676 0 0.35346532559477639 0.38197473441071972 0 0.34793353204810029 0.39465126196828981 0 0.35928834119040881 0.390692520113676 0 0.34268109255330098 0.3855466221564266 0 0.35346532559477639 0.38197473441071972 0 0.34304248713128438 0.37404776694303737 0 0.34268109255330098 0.3855466221564266 0 0.35346532559477639 0.38197473441071972 0 0.34793353204810029 0.39465126196828981 0 0.34053843780446719 0.40337282586899592 0 0.34793353204810029 0.39465126196828981 0 0.35434259195023932 0.40363172660257668 0 0.34793353204810029 0.39465126196828981 0 0.35434259195023932 0.40363172660257668 0 0.35928834119040881 0.390692520113676 0 0.34679116555848472 0.3524055620806863 0 0.36259708738483959 0.36383996933626389 0 0.34679116555848472 0.3524055620806863 0 0.34399206180890157 0.36156246486371119 0 0.36259708738483959 0.36383996933626389 0 0.34679116555848472 0.3524055620806863 0 0.37011115454736848 0.35223495399250432 0 0.35891251041867889 0.33814066774455248 0 0.35346532559477639 0.38197473441071972 0 0.36259708738483959 0.36383996933626389 0 0.34304248713128438 0.37404776694303737 0 0.34399206180890157 0.36156246486371119 0 0.36259708738483959 0.36383996933626389 0 0.34304248713128438 0.37404776694303737 0 0.34399206180890157 0.36156246486371119 0 0.36259708738483959 0.36383996933626389 0 0.36636739916338268 0.38018708980684562 0 0.36259708738483959 0.36383996933626389 0 0.38118905446808798 0.37728987283747489 0 0.36259708738483959 0.36383996933626389 0 0.38118905446808798 0.37728987283747489 0 0.36259708738483959 0.36383996933626389 0 0.38546378805106002 0.36663915995426533 0 0.36259708738483959 0.36383996933626389 0 0.37011115454736848 0.35223495399250432 0 0.38546378805106002 0.36663915995426533 0 0.34679116555848472 0.3524055620806863 0 0.36259708738483959 0.36383996933626389 0 0.37011115454736848 0.35223495399250432 0 0.36683919377500768 0.32451879558091762 0 0.35891251041867889 0.33814066774455248 0 0.37594421209185103 0.33764793621782763 0 0.37011115454736848 0.35223495399250432 0 0.35891251041867889 0.33814066774455248 0 0.37594421209185103 0.33764793621782763 0 0.36683919377500768 0.32451879558091762 0 0.34936252722920402 0.32259820970198971 0 0.36773981072628009 0.30422526457886739 0 0.36683919377500768 0.32451879558091762 0 0.36773981072628009 0.30422526457886739 0 0.38316815610072558 0.32262777247852259 0 0.34936252722920402 0.32259820970198971 0 0.36773981072628009 0.30422526457886739 0 0.34936252722920402 0.32259820970198971 0 0.35891251041867889 0.33814066774455248 0 0.34651286173462392 0.33852889858808499 0 0.36683919377500768 0.32451879558091762 0 0.34936252722920402 0.32259820970198971 0 0.35891251041867889 0.33814066774455248 0 0.34679116555848472 0.3524055620806863 0 0.35891251041867889 0.33814066774455248 0 0.34651286173462392 0.33852889858808499 0 0.34936252722920402 0.32259820970198971 0 0.33098524373212779 0.34097115482511148 0 0.33070390014376189 0.32671415386220692 0 0.34936252722920402 0.32259820970198971 0 0.33098524373212779 0.34097115482511148 0 0.34936252722920402 0.32259820970198971 0 0.34651286173462392 0.33852889858808499 0 0.33098524373212779 0.34097115482511148 0 0.34936252722920402 0.32259820970198971 0 0.33297757749691842 0.31585433336743879 0 0.34289138469250829 0.2998793561861135 0 0.34936252722920402 0.32259820970198971 0 0.33070390014376189 0.32671415386220692 0 0.33297757749691842 0.31585433336743879 0 0.33070390014376189 0.32671415386220692 0 0.33297757749691842 0.31585433336743879 0 0.32320987210858371 0.32002392844815908 0 0.33297757749691842 0.31585433336743879 0 0.32320987210858371 0.32002392844815908 0 0.32144453974698861 0.30725792182376888 0 0.33070390014376189 0.32671415386220692 0 0.32320987210858371 0.32002392844815908 0 0.31819761964914162 0.3317202611915393 0 0.31272572350610789 0.31857297199584139 0 0.31754792985131319 0.33407860028266251 0 0.31819761964914162 0.3317202611915393 0 0.31272572350610789 0.31857297199584139 0 0.31754792985131319 0.33407860028266251 0 0.31143107469945219 0.32950606436234642 0 0.32320987210858371 0.32002392844815908 0 0.31272572350610789 0.31857297199584139 0 0.31819761964914162 0.3317202611915393 0 0.31272572350610789 0.31857297199584139 0 0.31754792985131319 0.33407860028266251 0 0.32320987210858371 0.32002392844815908 0 0.31272572350610789 0.31857297199584139 0 0.32144453974698861 0.30725792182376888 0 0.33098524373212779 0.34097115482511148 0 0.31819761964914162 0.3317202611915393 0 0.33098524373212779 0.34097115482511148 0 0.31754792985131319 0.33407860028266251 0 0.32237013619651878 0.34958422856948351 0 0.33098524373212779 0.34097115482511148 0 0.31754792985131319 0.33407860028266251 0 0.31819761964914162 0.3317202611915393 0 0.33098524373212779 0.34097115482511148 0 0.33070390014376189 0.32671415386220692 0 0.31819761964914162 0.3317202611915393 0 0.31754792985131319 0.33407860028266251 0 0.31143107469945219 0.32950606436234642 0 0.30973717401503431 0.33659403913573638 0 0.31754792985131319 0.33407860028266251 0 0.31505885183976062 0.34132149713042181 0 0.30973717401503431 0.33659403913573638 0 0.31754792985131319 0.33407860028266251 0 0.31505885183976062 0.34132149713042181 0 0.32237013619651878 0.34958422856948351 0 0.31754792985131319 0.33407860028266251 0 0.32237013619651878 0.34958422856948351 0 0.31505885183976062 0.34132149713042181 0 0.32237013619651878 0.34958422856948351 0 0.31058016729617599 0.34502912053380502 0 0.31405467429744599 0.35789772741545711 0 0.32237013619651878 0.34958422856948351 0 0.31058016729617599 0.34502912053380502 0 0.31405467429744599 0.35789772741545711 0 0.32538703623296361 0.35928496039115809 0 0.31405467429744599 0.35789772741545711 0 0.32237013619651878 0.34958422856948351 0 0.31405467429744599 0.35789772741545711 0 0.32538703623296361 0.35928496039115809 0 0.32237013619651878 0.34958422856948351 0 0.32538703623296361 0.35928496039115809 0 0.32237013619651878 0.34958422856948351 0 0.32895521929072657 0.35002540930122072 0 0.32538703623296361 0.35928496039115809 0 0.32237013619651878 0.34958422856948351 0 0.33098524373212779 0.34097115482511148 0 0.32237013619651878 0.34958422856948351 0 0.32895521929072657 0.35002540930122072 0 0.33098524373212779 0.34097115482511148 0 0.32237013619651878 0.34958422856948351 0 0.34679116555848472 0.3524055620806863 0 0.34651286173462392 0.33852889858808499 0 0.33098524373212779 0.34097115482511148 0 0.34679116555848472 0.3524055620806863 0 0.33098524373212779 0.34097115482511148 0 0.34399206180890157 0.36156246486371119 0 0.32538703623296361 0.35928496039115809 0 0.33542840262204709 0.35256228619535013 0 0.34679116555848472 0.3524055620806863 0 0.33098524373212779 0.34097115482511148 0 0.33542840262204709 0.35256228619535013 0 0.33098524373212779 0.34097115482511148 0 0.32895521929072657 0.35002540930122072 0 0.33542840262204709 0.35256228619535013 0 0.32538703623296361 0.35928496039115809 0 0.32895521929072657 0.35002540930122072 0 0.33542840262204709 0.35256228619535013 0 0.34679116555848472 0.3524055620806863 0 0.34399206180890157 0.36156246486371119 0 0.33542840262204709 0.35256228619535013 0 0.34399206180890157 0.36156246486371119 0 0.32538703623296361 0.35928496039115809 0 0.34399206180890157 0.36156246486371119 0 0.32538703623296361 0.35928496039115809 0 0.33596799247872972 0.36841915703708039 0 0.3314503847417693 0.37878143595041469 0 0.32538703623296361 0.35928496039115809 0 0.33596799247872972 0.36841915703708039 0 0.3314503847417693 0.37878143595041469 0 0.32538703623296361 0.35928496039115809 0 0.34399206180890157 0.36156246486371119 0 0.33596799247872972 0.36841915703708039 0 0.34304248713128438 0.37404776694303737 0 0.3314503847417693 0.37878143595041469 0 0.33596799247872972 0.36841915703708039 0 0.34304248713128438 0.37404776694303737 0 0.3314503847417693 0.37878143595041469 0 0.32538703623296361 0.35928496039115809 0 0.31626784915670098 0.36787240609010818 0 0.31405467429744599 0.35789772741545711 0 0.32538703623296361 0.35928496039115809 0 0.31626784915670098 0.36787240609010818 0 0.29972124458137622 0.37550813047636539 0 0.31496357018296728 0.37905743547334658 0 0.30473274432155167 0.36728082176545268 0 0.31405467429744599 0.35789772741545711 0 0.30701868516350778 0.36493205554481928 0 0.29450191846013662 0.35550420805755861 0 0.31496357018296728 0.37905743547334658 0 0.30473274432155167 0.36728082176545268 0 0.31496357018296728 0.37905743547334658 0 0.31626784915670098 0.36787240609010818 0 0.30473274432155167 0.36728082176545268 0 0.31626784915670098 0.36787240609010818 0 0.30473274432155167 0.36728082176545268 0 0.30701868516350778 0.36493205554481928 0 0.31405467429744599 0.35789772741545711 0 0.31626784915670098 0.36787240609010818 0 0.30701868516350778 0.36493205554481928 0 0.31405467429744599 0.35789772741545711 0 0.30701868516350778 0.36493205554481928 0 0.30473274432155167 0.36728082176545268 0 0.29450191846013662 0.35550420805755861 0 0.29518476075007832 0.36680934634917622 0 0.30473274432155167 0.36728082176545268 0 0.29450191846013662 0.35550420805755861 0 0.30473274432155167 0.36728082176545268 0 0.30701868516350778 0.36493205554481928 0 0.29450191846013662 0.35550420805755861 0 0.29972124458137622 0.37550813047636539 0 0.30473274432155167 0.36728082176545268 0 0.29518476075007832 0.36680934634917622 0 0.31405467429744599 0.35789772741545711 0 0.29450191846013662 0.35550420805755861 0 0.31405467429744599 0.35789772741545711 0 0.30278382670870702 0.34805688440119747 0 0.29450191846013662 0.35550420805755861 0 0.31405467429744599 0.35789772741545711 0 0.31058016729617599 0.34502912053380502 0 0.30278382670870702 0.34805688440119747 0 0.30278382670870702 0.34805688440119747 0 0.29450191846013662 0.35550420805755861 0 0.2937099653372976 0.34287116179190269 0 0.29450191846013662 0.35550420805755861 0 0.2793559548019372 0.33806982244172079 0 0.2937099653372976 0.34287116179190269 0 0.29450191846013662 0.35550420805755861 0 0.28355341811785229 0.3639184495724655 0 0.26752999338708577 0.3522024829544933 0 0.29450191846013662 0.35550420805755861 0 0.2793559548019372 0.33806982244172079 0 0.28963733013387549 0.37144658513855539 0 0.29518476075007832 0.36680934634917622 0 0.28355341811785229 0.3639184495724655 0 0.29972124458137622 0.37550813047636539 0 0.28963733013387549 0.37144658513855539 0 0.29518476075007832 0.36680934634917622 0 0.29450191846013662 0.35550420805755861 0 0.29518476075007832 0.36680934634917622 0 0.28355341811785229 0.3639184495724655 0 0.28963733013387549 0.37144658513855539 0 0.28355341811785229 0.3639184495724655 0 0.28093794648887982 0.3722492246794134 0 0.28093794648887982 0.3722492246794134 0 0.27254019520173922 0.37341925670894988 0 0.27352855948705762 0.36529885025559578 0 0.28355341811785229 0.3639184495724655 0 0.27352855948705762 0.36529885025559578 0 0.26752999338708577 0.3522024829544933 0 0.27254019520173922 0.37341925670894988 0 0.27352855948705762 0.36529885025559578 0 0.26213368565727008 0.36535893198777969 0 0.26533118443416442 0.37922214696953899 0 0.27254019520173922 0.37341925670894988 0 0.26213368565727008 0.36535893198777969 0 0.27352855948705762 0.36529885025559578 0 0.26752999338708577 0.3522024829544933 0 0.26213368565727008 0.36535893198777969 0 0.28355341811785229 0.3639184495724655 0 0.28093794648887982 0.3722492246794134 0 0.27352855948705762 0.36529885025559578 0 0.29450191846013662 0.35550420805755861 0 0.26752999338708577 0.3522024829544933 0 0.2793559548019372 0.33806982244172079 0 0.29450191846013662 0.35550420805755861 0 0.26752999338708577 0.3522024829544933 0 0.24055806831403501 0.34890075785142888 0 0.26752999338708577 0.3522024829544933 0 0.24055806831403501 0.34890075785142888 0 0.26752999338708577 0.3522024829544933 0 0.25612961372196341 0.33744338512413458 0 0.24055806831403501 0.34890075785142888 0 0.26752999338708577 0.3522024829544933 0 0.26213368565727008 0.36535893198777969 0 0.24055806831403501 0.34890075785142888 0 0.25032230139794032 0.37255488625652478 0 0.26213368565727008 0.36535893198777969 0 0.26533118443416442 0.37922214696953899 0 0.25032230139794032 0.37255488625652478 0 0.26213368565727008 0.36535893198777969 0 0.24381142030338651 0.3120941599622109 0 0.26420999114373822 0.32063543682588269 0 0.25270017776836018 0.31991462494295497 0 0.24381142030338651 0.3120941599622109 0 0.26420999114373822 0.32063543682588269 0 0.25645095375317217 0.31086419684494349 0 0.24381142030338651 0.3120941599622109 0 0.26420999114373822 0.32063543682588269 0 0.2599469360804143 0.32226912351370191 0 0.26420999114373822 0.32063543682588269 0 0.25270017776836018 0.31991462494295497 0 0.26309276358084382 0.32767738670837498 0 0.26420999114373822 0.32063543682588269 0 0.26787794992287922 0.33274508282959281 0 0.26100468645183011 0.32442048465923029 0 0.26309276358084382 0.32767738670837498 0 0.25676905500232428 0.32709999158896169 0 0.2599469360804143 0.32226912351370191 0 0.26100468645183011 0.32442048465923029 0 0.25676905500232428 0.32709999158896169 0 0.26100468645183011 0.32442048465923029 0 0.26309276358084382 0.32767738670837498 0 0.26420999114373822 0.32063543682588269 0 0.2599469360804143 0.32226912351370191 0 0.26100468645183011 0.32442048465923029 0 0.26420999114373822 0.32063543682588269 0 0.26420999114373822 0.32063543682588269 0 0.25645095375317217 0.31086419684494349 0 0.26325425672306052 0.31216287829734279 0 0.24366474358906451 0.32861555715077512 0 0.25270017776836018 0.31991462494295497 0 0.25676905500232428 0.32709999158896169 0 0.2599469360804143 0.32226912351370191 0 0.25270017776836018 0.31991462494295497 0 0.25676905500232428 0.32709999158896169 0 0.26752999338708577 0.3522024829544933 0 0.25612961372196341 0.33744338512413458 0 0.26787794992287922 0.33274508282959281 0 0.24366474358906451 0.32861555715077512 0 0.25676905500232428 0.32709999158896169 0 0.25612961372196341 0.33744338512413458 0 0.26309276358084382 0.32767738670837498 0 0.25612961372196341 0.33744338512413458 0 0.26787794992287922 0.33274508282959281 0 0.26309276358084382 0.32767738670837498 0 0.25676905500232428 0.32709999158896169 0 0.25612961372196341 0.33744338512413458 0 0.26420999114373822 0.32063543682588269 0 0.26787794992287922 0.33274508282959281 0 0.2793559548019372 0.33806982244172079 0 0.26752999338708577 0.3522024829544933 0 0.26787794992287922 0.33274508282959281 0 0.2793559548019372 0.33806982244172079 0 0.26420999114373822 0.32063543682588269 0 0.2793559548019372 0.33806982244172079 0 0.26420999114373822 0.32063543682588269 0 0.2793559548019372 0.33806982244172079 0 0.28477812391035739 0.32746475730367008 0 0.26420999114373822 0.32063543682588269 0 0.27223352305966958 0.31505557252207761 0 0.28477812391035739 0.32746475730367008 0 0.26420999114373822 0.32063543682588269 0 0.28477812391035739 0.32746475730367008 0 0.26420999114373822 0.32063543682588269 0 0.27223352305966958 0.31505557252207761 0 0.26325425672306052 0.31216287829734279 0 0.27223352305966958 0.31505557252207761 0 0.28060480716910952 0.3140811372286943 0 0.28477812391035739 0.32746475730367008 0 0.28060480716910952 0.3140811372286943 0 0.28845926737261202 0.31743761609996463 0 0.28477812391035739 0.32746475730367008 0 0.28845926737261202 0.31743761609996463 0 0.28477812391035739 0.32746475730367008 0 0.29523183980953471 0.32622880200977722 0 0.28845926737261202 0.31743761609996463 0 0.29523183980953471 0.32622880200977722 0 0.29613542356991629 0.31412305796294832 0 0.2793559548019372 0.33806982244172079 0 0.29082965840232089 0.33472334955086702 0 0.2937099653372976 0.34287116179190269 0 0.2793559548019372 0.33806982244172079 0 0.28477812391035739 0.32746475730367008 0 0.29082965840232089 0.33472334955086702 0 0.28477812391035739 0.32746475730367008 0 0.29523183980953471 0.32622880200977722 0 0.29082965840232089 0.33472334955086702 0 0.29523183980953471 0.32622880200977722 0 0.29082965840232089 0.33472334955086702 0 0.30107846831338619 0.33800154450816972 0 0.29082965840232089 0.33472334955086702 0 0.2937099653372976 0.34287116179190269 0 0.30107846831338619 0.33800154450816972 0 0.30278382670870702 0.34805688440119747 0 0.2937099653372976 0.34287116179190269 0 0.30107846831338619 0.33800154450816972 0 0.29523183980953471 0.32622880200977722 0 0.30107846831338619 0.33800154450816972 0 0.30571347142535349 0.32877864603514551 0 0.30571347142535349 0.32877864603514551 0 0.31143107469945219 0.32950606436234642 0 0.30973717401503431 0.33659403913573638 0 0.30107846831338619 0.33800154450816972 0 0.30571347142535349 0.32877864603514551 0 0.30973717401503431 0.33659403913573638 0 0.31058016729617599 0.34502912053380502 0 0.30107846831338619 0.33800154450816972 0 0.30973717401503431 0.33659403913573638 0 0.31505885183976062 0.34132149713042181 0 0.31058016729617599 0.34502912053380502 0 0.30973717401503431 0.33659403913573638 0 0.31058016729617599 0.34502912053380502 0 0.30278382670870702 0.34805688440119747 0 0.30107846831338619 0.33800154450816972 0 0.29523183980953471 0.32622880200977722 0 0.29613542356991629 0.31412305796294832 0 0.30291901509988739 0.31999676783333519 0 0.29613542356991629 0.31412305796294832 0 0.30291901509988739 0.31999676783333519 0 0.30660499519427897 0.30981633258742169 0 0.29523183980953471 0.32622880200977722 0 0.30571347142535349 0.32877864603514551 0 0.30291901509988739 0.31999676783333519 0 0.31272572350610789 0.31857297199584139 0 0.30571347142535349 0.32877864603514551 0 0.30291901509988739 0.31999676783333519 0 0.31272572350610789 0.31857297199584139 0 0.30571347142535349 0.32877864603514551 0 0.31143107469945219 0.32950606436234642 0 0.31272572350610789 0.31857297199584139 0 0.30291901509988739 0.31999676783333519 0 0.30660499519427897 0.30981633258742169 0 0.30660499519427897 0.30981633258742169 0 0.30831833788332819 0.29519688144262979 0 0.32144453974698861 0.30725792182376888 0 0.30660499519427897 0.30981633258742169 0 0.29736532794027859 0.30272340778505991 0 0.30831833788332819 0.29519688144262979 0 0.29613542356991629 0.31412305796294832 0 0.30660499519427897 0.30981633258742169 0 0.29736532794027859 0.30272340778505991 0 0.29736532794027859 0.30272340778505991 0 0.30831833788332819 0.29519688144262979 0 0.28675804423772572 0.28426090486902239 0 0.30831833788332819 0.29519688144262979 0 0.28675804423772572 0.28426090486902239 0 0.31137944519083521 0.27644014019596791 0 0.28675804423772572 0.28426090486902239 0 0.28554614240414172 0.30529032599473332 0 0.27706271565040108 0.29640502426557019 0 0.29736532794027859 0.30272340778505991 0 0.28675804423772572 0.28426090486902239 0 0.28554614240414172 0.30529032599473332 0 0.29613542356991629 0.31412305796294832 0 0.29736532794027859 0.30272340778505991 0 0.28554614240414172 0.30529032599473332 0 0.28845926737261202 0.31743761609996463 0 0.29613542356991629 0.31412305796294832 0 0.28554614240414172 0.30529032599473332 0 0.28060480716910952 0.3140811372286943 0 0.28845926737261202 0.31743761609996463 0 0.28554614240414172 0.30529032599473332 0 0.28060480716910952 0.3140811372286943 0 0.28554614240414172 0.30529032599473332 0 0.27321042294001102 0.30645508555286999 0 0.27223352305966958 0.31505557252207761 0 0.28060480716910952 0.3140811372286943 0 0.27321042294001102 0.30645508555286999 0 0.27223352305966958 0.31505557252207761 0 0.26834863164926631 0.30987218381971848 0 0.26325425672306052 0.31216287829734279 0 0.27223352305966958 0.31505557252207761 0 0.27321042294001102 0.30645508555286999 0 0.26834863164926631 0.30987218381971848 0 0.27321042294001102 0.30645508555286999 0 0.26834863164926631 0.30987218381971848 0 0.26469632387432401 0.30581519890658371 0 0.27321042294001102 0.30645508555286999 0 0.26768880813542212 0.30012710896637668 0 0.27706271565040108 0.29640502426557019 0 0.27321042294001102 0.30645508555286999 0 0.26768880813542212 0.30012710896637668 0 0.26469632387432401 0.30581519890658371 0 0.28554614240414172 0.30529032599473332 0 0.27321042294001102 0.30645508555286999 0 0.27706271565040108 0.29640502426557019 0 0.28675804423772572 0.28426090486902239 0 0.26213664328461622 0.29208166954207698 0 0.27186287575936352 0.28003484203897661 0 0.28675804423772572 0.28426090486902239 0 0.26213664328461622 0.29208166954207698 0 0.28675804423772572 0.28426090486902239 0 0.27706271565040108 0.29640502426557019 0 0.26213664328461622 0.29208166954207698 0 0.26768880813542212 0.30012710896637668 0 0.27706271565040108 0.29640502426557019 0 0.26213664328461622 0.29208166954207698 0 0.26213664328461622 0.29208166954207698 0 0.25364128886618398 0.29727423909542078 0 0.26133793492775831 0.29987856656478218 0 0.2375152423315067 0.29990243421513169 0 0.26213664328461622 0.29208166954207698 0 0.25364128886618398 0.29727423909542078 0 0.26213664328461622 0.29208166954207698 0 0.25637993889506672 0.28010054666964329 0 0.27186287575936352 0.28003484203897661 0 0.24878954573224371 0.29139866065287068 0 0.26213664328461622 0.29208166954207698 0 0.25637993889506672 0.28010054666964329 0 0.24643472746184411 0.30390485595252292 0 0.25364128886618398 0.29727423909542078 0 0.25142141051806582 0.30575776194584758 0 0.25364128886618398 0.29727423909542078 0 0.25676866220574202 0.30465135787413999 0 0.25142141051806582 0.30575776194584758 0 0.25364128886618398 0.29727423909542078 0 0.25676866220574202 0.30465135787413999 0 0.26133793492775831 0.29987856656478218 0 0.24381142030338651 0.3120941599622109 0 0.25142141051806582 0.30575776194584758 0 0.25645095375317217 0.31086419684494349 0 0.25676866220574202 0.30465135787413999 0 0.25142141051806582 0.30575776194584758 0 0.25645095375317217 0.31086419684494349 0 0.25676866220574202 0.30465135787413999 0 0.25645095375317217 0.31086419684494349 0 0.26029254913907462 0.30837340798075252 0 0.25676866220574202 0.30465135787413999 0 0.26029254913907462 0.30837340798075252 0 0.26469632387432401 0.30581519890658371 0 0.25645095375317217 0.31086419684494349 0 0.26029254913907462 0.30837340798075252 0 0.26325425672306052 0.31216287829734279 0 0.26834863164926631 0.30987218381971848 0 0.26325425672306052 0.31216287829734279 0 0.26469632387432401 0.30581519890658371 0 0.26029254913907462 0.30837340798075252 0 0.26325425672306052 0.31216287829734279 0 0.26469632387432401 0.30581519890658371 0 0.26768880813542212 0.30012710896637668 0 0.26213664328461622 0.29208166954207698 0 0.26133793492775831 0.29987856656478218 0 0.25676866220574202 0.30465135787413999 0 0.26469632387432401 0.30581519890658371 0 0.26133793492775831 0.29987856656478218 0 0.26768880813542212 0.30012710896637668 0 0.26469632387432401 0.30581519890658371 0 0.26133793492775831 0.29987856656478218 0 0.24504868463077251 0.26138358684583268 0 0.25960414990954339 0.26407389330167691 0 0.25707991656272239 0.24440423681808779 0 0.25960414990954339 0.26407389330167691 0 0.27190787640768282 0.2498095979539795 0 0.25707991656272239 0.24440423681808779 0 0.2485760741131082 0.27105116205898022 0 0.24504868463077251 0.26138358684583268 0 0.25960414990954339 0.26407389330167691 0 0.2485760741131082 0.27105116205898022 0 0.25960414990954339 0.26407389330167691 0 0.25637993889506672 0.28010054666964329 0 0.25960414990954339 0.26407389330167691 0 0.25637993889506672 0.28010054666964329 0 0.27553387776635629 0.26471234886904071 0 0.25637993889506672 0.28010054666964329 0 0.27553387776635629 0.26471234886904071 0 0.25637993889506672 0.28010054666964329 0 0.27186287575936352 0.28003484203897661 0 0.27553387776635629 0.26471234886904071 0 0.28675804423772572 0.28426090486902239 0 0.27186287575936352 0.28003484203897661 0 0.27553387776635629 0.26471234886904071 0 0.27553387776635629 0.26471234886904071 0 0.27190787640768282 0.2498095979539795 0 0.29468781663764593 0.24932415106843811 0 0.25960414990954339 0.26407389330167691 0 0.27553387776635629 0.26471234886904071 0 0.27190787640768282 0.2498095979539795 0 0.27553387776635629 0.26471234886904071 0 0.29468781663764593 0.24932415106843811 0 0.27553387776635629 0.26471234886904071 0 0.29432078314075399 0.26710161558215523 0 0.29468781663764593 0.24932415106843811 0 0.28675804423772572 0.28426090486902239 0 0.27553387776635629 0.26471234886904071 0 0.29432078314075399 0.26710161558215523 0 0.28675804423772572 0.28426090486902239 0 0.29432078314075399 0.26710161558215523 0 0.31137944519083521 0.27644014019596791 0 0.28675804423772572 0.28426090486902239 0 0.31137944519083521 0.27644014019596791 0 0.29432078314075399 0.26710161558215523 0 0.31137944519083521 0.27644014019596791 0 0.30852925462888448 0.25868086444592581 0 0.29432078314075399 0.26710161558215523 0 0.30852925462888448 0.25868086444592581 0 0.29468781663764593 0.24932415106843811 0 0.30852925462888448 0.25868086444592581 0 0.32268915691431888 0.25166915791209221 0 0.32647696306434548 0.26746258185224392 0 0.32268915691431888 0.25166915791209221 0 0.33341985818497039 0.25529895665708568 0 0.32647696306434548 0.26746258185224392 0 0.33341985818497039 0.25529895665708568 0 0.34370829945944981 0.26266577806420011 0 0.32647696306434548 0.26746258185224392 0 0.32268915691431888 0.25166915791209221 0 0.33341985818497039 0.25529895665708568 0 0.33309550011116479 0.2449527013720692 0 0.33341985818497039 0.25529895665708568 0 0.34370829945944981 0.26266577806420011 0 0.34278494234848489 0.24961372375922861 0 0.34370829945944981 0.26266577806420011 0 0.34135003345050208 0.27890129902237393 0 0.32647696306434548 0.26746258185224392 0 0.34135003345050208 0.27890129902237393 0 0.32647696306434548 0.26746258185224392 0 0.32543054460421122 0.28799399566683692 0 0.31137944519083521 0.27644014019596791 0 0.30852925462888448 0.25868086444592581 0 0.32647696306434548 0.26746258185224392 0 0.31137944519083521 0.27644014019596791 0 0.32647696306434548 0.26746258185224392 0 0.32543054460421122 0.28799399566683692 0 0.30831833788332819 0.29519688144262979 0 0.32543054460421122 0.28799399566683692 0 0.32144453974698861 0.30725792182376888 0 0.30831833788332819 0.29519688144262979 0 0.31137944519083521 0.27644014019596791 0 0.32543054460421122 0.28799399566683692 0 0.31272572350610789 0.31857297199584139 0 0.30660499519427897 0.30981633258742169 0 0.32144453974698861 0.30725792182376888 0 0.32543054460421122 0.28799399566683692 0 0.32144453974698861 0.30725792182376888 0 0.34289138469250829 0.2998793561861135 0 0.33297757749691842 0.31585433336743879 0 0.32144453974698861 0.30725792182376888 0 0.34289138469250829 0.2998793561861135 0 0.34135003345050208 0.27890129902237393 0 0.32543054460421122 0.28799399566683692 0 0.34289138469250829 0.2998793561861135 0 0.34289138469250829 0.2998793561861135 0 0.36773981072628009 0.30422526457886739 0 0.36089581486711958 0.28172764138990991 0 0.34135003345050208 0.27890129902237393 0 0.34289138469250829 0.2998793561861135 0 0.36089581486711958 0.28172764138990991 0 0.34936252722920402 0.32259820970198971 0 0.34289138469250829 0.2998793561861135 0 0.36773981072628009 0.30422526457886739 0 0.36773981072628009 0.30422526457886739 0 0.36089581486711958 0.28172764138990991 0 0.38611709422335622 0.28585231945574507 0 0.36089581486711958 0.28172764138990991 0 0.35982328973639688 0.26183076911645248 0 0.37676467391911239 0.27108188827527008 0 0.36089581486711958 0.28172764138990991 0 0.37676467391911239 0.27108188827527008 0 0.38611709422335622 0.28585231945574507 0 0.37479197421724081 0.25970988300831438 0 0.35982328973639688 0.26183076911645248 0 0.37676467391911239 0.27108188827527008 0 0.36615677495489168 0.25294791763754748 0 0.3656525742052178 0.24792632527541669 0 0.37671128770489021 0.24988763889950741 0 0.37479197421724081 0.25970988300831438 0 0.36615677495489168 0.25294791763754748 0 0.37671128770489021 0.24988763889950741 0 0.36615677495489168 0.25294791763754748 0 0.35982328973639688 0.26183076911645248 0 0.35845142046435519 0.2481292971720023 0 0.37479197421724081 0.25970988300831438 0 0.36615677495489168 0.25294791763754748 0 0.35982328973639688 0.26183076911645248 0 0.34370829945944981 0.26266577806420011 0 0.35982328973639688 0.26183076911645248 0 0.35080130212163568 0.25340632700122723 0 0.34370829945944981 0.26266577806420011 0 0.35982328973639688 0.26183076911645248 0 0.3514443593783671 0.27128137189823409 0 0.35982328973639688 0.26183076911645248 0 0.35080130212163568 0.25340632700122723 0 0.35845142046435519 0.2481292971720023 0 0.34370829945944981 0.26266577806420011 0 0.35080130212163568 0.25340632700122723 0 0.34278494234848489 0.24961372375922861 0 0.34370829945944981 0.26266577806420011 0 0.34135003345050208 0.27890129902237393 0 0.3514443593783671 0.27128137189823409 0 0.36089581486711958 0.28172764138990991 0 0.35982328973639688 0.26183076911645248 0 0.3514443593783671 0.27128137189823409 0 0.34135003345050208 0.27890129902237393 0 0.36089581486711958 0.28172764138990991 0 0.3514443593783671 0.27128137189823409 0 0.40449437772043229 0.26747937433262281 0 0.38611709422335622 0.28585231945574507 0 0.40449437772043229 0.26747937433262281 0 0.39046999765845342 0.27180369579410818 0 0.38611709422335622 0.28585231945574507 0 0.40449437772043229 0.26747937433262281 0 0.38611709422335622 0.28585231945574507 0 0.40471959242091221 0.28372969487263822 0 0.40449437772043229 0.26747937433262281 0 0.39450384477091283 0.26280120111279481 0 0.39046999765845342 0.27180369579410818 0 0.40449437772043229 0.26747937433262281 0 0.4004048341478289 0.25871377834445641 0 0.39450384477091283 0.26280120111279481 0 0.40449437772043229 0.26747937433262281 0 0.4004048341478289 0.25871377834445641 0 0.40817297360782467 0.25266924123366369 0 0.4004048341478289 0.25871377834445641 0 0.39444814049214599 0.25190529669874417 0 0.40817297360782467 0.25266924123366369 0 0.4004048341478289 0.25871377834445641 0 0.39444814049214599 0.25190529669874417 0 0.39450384477091283 0.26280120111279481 0 0.39444814049214599 0.25190529669874417 0 0.39450384477091283 0.26280120111279481 0 0.37671128770489021 0.24988763889950741 0 0.39450384477091283 0.26280120111279481 0 0.37671128770489021 0.24988763889950741 0 0.37479197421724081 0.25970988300831438 0 0.39450384477091283 0.26280120111279481 0 0.37676467391911239 0.27108188827527008 0 0.37479197421724081 0.25970988300831438 0 0.39450384477091283 0.26280120111279481 0 0.37671128770489021 0.24988763889950741 0 0.39450384477091283 0.26280120111279481 0 0.37676467391911239 0.27108188827527008 0 0.39046999765845342 0.27180369579410818 0 0.37676467391911239 0.27108188827527008 0 0.39046999765845342 0.27180369579410818 0 0.38611709422335622 0.28585231945574507 0 0.36773981072628009 0.30422526457886739 0 0.38611709422335622 0.28585231945574507 0 0.36773981072628009 0.30422526457886739 0 0.38611709422335622 0.28585231945574507 0 0.39295798837812679 0.30762795230367379 0 0.36773981072628009 0.30422526457886739 0 0.39295798837812679 0.30762795230367379 0 0.38316815610072558 0.32262777247852259 0 0.39295798837812679 0.30762795230367379 0 0.40373930962110632 0.29670835588711791 0 0.41172018229403379 0.30871133947340201 0 0.38611709422335622 0.28585231945574507 0 0.39295798837812679 0.30762795230367379 0 0.40373930962110632 0.29670835588711791 0 0.38611709422335622 0.28585231945574507 0 0.40373930962110632 0.29670835588711791 0 0.40471959242091221 0.28372969487263822 0 0.41666971732761648 0.29191342126796022 0 0.42604554499035691 0.27579765485749919 0 0.41328589142404021 0.27677931522495591 0 0.40471959242091221 0.28372969487263822 0 0.41666971732761648 0.29191342126796022 0 0.41328589142404021 0.27677931522495591 0 0.40373930962110632 0.29670835588711791 0 0.40471959242091221 0.28372969487263822 0 0.41666971732761648 0.29191342126796022 0 0.40373930962110632 0.29670835588711791 0 0.41666971732761648 0.29191342126796022 0 0.41172018229403379 0.30871133947340201 0 0.41666971732761648 0.29191342126796022 0 0.41172018229403379 0.30871133947340201 0 0.4280759724377009 0.30677724393992623 0 0.4280759724377009 0.30677724393992623 0 0.43220307264267749 0.29072691731064199 0 0.44496169393389678 0.30427973287693888 0 0.4280759724377009 0.30677724393992623 0 0.44496169393389678 0.30427973287693888 0 0.43591587566339068 0.31933811015904079 0 0.41666971732761648 0.29191342126796022 0 0.43220307264267749 0.29072691731064199 0 0.42604554499035691 0.27579765485749919 0 0.41666971732761648 0.29191342126796022 0 0.4280759724377009 0.30677724393992623 0 0.43220307264267749 0.29072691731064199 0 0.42604554499035691 0.27579765485749919 0 0.43288204316109491 0.26213631554276889 0 0.44659232828735429 0.27478186559609591 0 0.43220307264267749 0.29072691731064199 0 0.42604554499035691 0.27579765485749919 0 0.44659232828735429 0.27478186559609591 0 0.42604554499035691 0.27579765485749919 0 0.42067771866944259 0.26571162973549622 0 0.43288204316109491 0.26213631554276889 0 0.40449437772043229 0.26747937433262281 0 0.42067771866944259 0.26571162973549622 0 0.41328589142404021 0.27677931522495591 0 0.40449437772043229 0.26747937433262281 0 0.40471959242091221 0.28372969487263822 0 0.41328589142404021 0.27677931522495591 0 0.42604554499035691 0.27579765485749919 0 0.42067771866944259 0.26571162973549622 0 0.41328589142404021 0.27677931522495591 0 0.40449437772043229 0.26747937433262281 0 0.42067771866944259 0.26571162973549622 0 0.42287166121750841 0.24910642920950041 0 0.40449437772043229 0.26747937433262281 0 0.42287166121750841 0.24910642920950041 0 0.40449437772043229 0.26747937433262281 0 0.40817297360782467 0.25266924123366369 0 0.42287166121750841 0.24910642920950041 0 0.42067771866944259 0.26571162973549622 0 0.43288204316109491 0.26213631554276889 0 0.42287166121750841 0.24910642920950041 0 0.43288204316109491 0.26213631554276889 0 0.42287166121750841 0.24910642920950041 0 0.44822296264081168 0.24528399831525291 0 0.44659232828735429 0.27478186559609591 0 0.46184031671319897 0.26111925479017611 0 0.44822296264081168 0.24528399831525291 0 0.44659232828735429 0.27478186559609591 0 0.44822296264081168 0.24528399831525291 0 0.43288204316109491 0.26213631554276889 0 0.44659232828735429 0.27478186559609591 0 0.44822296264081168 0.24528399831525291 0 0.44659232828735429 0.27478186559609591 0 0.46184031671319897 0.26111925479017611 0 0.47089198070773641 0.27727543007071559 0 0.46184031671319897 0.26111925479017611 0 0.46710251890239107 0.2460923996478282 0 0.44822296264081168 0.24528399831525291 0 0.46184031671319897 0.26111925479017611 0 0.4763917930277014 0.26216258032098788 0 0.46710251890239107 0.2460923996478282 0 0.4763917930277014 0.26216258032098788 0 0.48643802074001102 0.26089650620487798 0 0.48566745153424518 0.2451984492258496 0 0.4763917930277014 0.26216258032098788 0 0.46710251890239107 0.2460923996478282 0 0.48566745153424518 0.2451984492258496 0 0.4763917930277014 0.26216258032098788 0 0.4866309801350136 0.27138981755606367 0 0.48643802074001102 0.26089650620487798 0 0.4763917930277014 0.26216258032098788 0 0.47089198070773641 0.27727543007071559 0 0.4866309801350136 0.27138981755606367 0 0.47089198070773641 0.27727543007071559 0 0.4866309801350136 0.27138981755606367 0 0.48657671668641139 0.28872683022573858 0 0.46184031671319897 0.26111925479017611 0 0.4763917930277014 0.26216258032098788 0 0.47089198070773641 0.27727543007071559 0 0.4866309801350136 0.27138981755606367 0 0.5 0.26970012890381417 0 0.48657671668641139 0.28872683022573858 0 0.4866309801350136 0.27138981755606367 0 0.49706185826308402 0.26483517771661069 0 0.48643802074001102 0.26089650620487798 0 0.4866309801350136 0.27138981755606367 0 0.5 0.26970012890381417 0 0.49706185826308402 0.26483517771661069 0 0.5 0.26970012890381417 0 0.49706185826308402 0.26483517771661069 0 0.5 0.24027237689535891 0 0.49706185826308402 0.26483517771661069 0 0.5 0.24027237689535891 0 0.48566745153424518 0.2451984492258496 0 0.49706185826308402 0.26483517771661069 0 0.48566745153424518 0.2451984492258496 0 0.49706185826308402 0.26483517771661069 0 0.48643802074001102 0.26089650620487798 0 0.48566745153424518 0.2451984492258496 0 0.50000000000000067 0.29912788091226972 0 0.48184601419489292 0.30834956382593981 0 0.50000000000000067 0.29912788091226972 0 0.48184601419489292 0.30834956382593981 0 0.49999999999999878 0.32600928096046877 0 0.50000000000000067 0.29912788091226972 0 0.48657671668641139 0.28872683022573858 0 0.48184601419489292 0.30834956382593981 0 0.5 0.26970012890381417 0 0.50000000000000067 0.29912788091226972 0 0.48657671668641139 0.28872683022573858 0 0.47089198070773641 0.27727543007071559 0 0.48657671668641139 0.28872683022573858 0 0.46556535932592158 0.29721001758283139 0 0.48184601419489292 0.30834956382593981 0 0.46556535932592158 0.29721001758283139 0 0.46369202838978502 0.31757124673960968 0 0.48657671668641139 0.28872683022573858 0 0.48184601419489292 0.30834956382593981 0 0.46556535932592158 0.29721001758283139 0 0.46556535932592158 0.29721001758283139 0 0.44496169393389678 0.30427973287693888 0 0.46369202838978502 0.31757124673960968 0 0.44659232828735429 0.27478186559609591 0 0.47089198070773641 0.27727543007071559 0 0.46556535932592158 0.29721001758283139 0 0.44659232828735429 0.27478186559609591 0 0.44496169393389678 0.30427973287693888 0 0.44659232828735429 0.27478186559609591 0 0.46556535932592158 0.29721001758283139 0 0.44496169393389678 0.30427973287693888 0 0.43220307264267749 0.29072691731064199 0 0.44659232828735429 0.27478186559609591 0 0.44496169393389678 0.30427973287693888 0 0.44496169393389678 0.30427973287693888 0 0.44333105958043939 0.33377760015778152 0 0.43591587566339068 0.31933811015904079 0 0.44496169393389678 0.30427973287693888 0 0.44553804258467711 0.32679292965327938 0 0.44333105958043939 0.33377760015778152 0 0.44496169393389678 0.30427973287693888 0 0.44553804258467711 0.32679292965327938 0 0.46369202838978502 0.31757124673960968 0 0.44496169393389678 0.30427973287693888 0 0.44333105958043939 0.33377760015778152 0 0.44333105958043939 0.33377760015778152 0 0.43467495465385958 0.33015747709462789 0 0.43591587566339068 0.31933811015904079 0 0.43915145600750172 0.34074585403041779 0 0.44865378688689511 0.33781144593990248 0 0.44640073116452011 0.34464789406614799 0 0.43915145600750172 0.34074585403041779 0 0.44333105958043939 0.33377760015778152 0 0.44865378688689511 0.33781144593990248 0 0.43915145600750172 0.34074585403041779 0 0.44333105958043939 0.33377760015778152 0 0.43467495465385958 0.33015747709462789 0 0.44333105958043939 0.33377760015778152 0 0.44865378688689511 0.33781144593990248 0 0.45361211497051568 0.33289804741491991 0 0.44553804258467711 0.32679292965327938 0 0.44333105958043939 0.33377760015778152 0 0.45361211497051568 0.33289804741491991 0 0.44865378688689511 0.33781144593990248 0 0.45457445685786058 0.34237901330598808 0 0.44640073116452011 0.34464789406614799 0 0.44865378688689511 0.33781144593990248 0 0.45457445685786058 0.34237901330598808 0 0.45361211497051568 0.33289804741491991 0 0.46407624130802111 0.33665173893483702 0 0.46369202838978502 0.31757124673960968 0 0.47724061759298397 0.33026024406778209 0 0.45361211497051568 0.33289804741491991 0 0.46407624130802111 0.33665173893483702 0 0.46369202838978502 0.31757124673960968 0 0.45457445685786058 0.34237901330598808 0 0.46407624130802111 0.33665173893483702 0 0.46170711303372342 0.34850709510409023 0 0.45457445685786058 0.34237901330598808 0 0.45361211497051568 0.33289804741491991 0 0.46407624130802111 0.33665173893483702 0 0.46407624130802111 0.33665173893483702 0 0.47097198565292597 0.34421704260573421 0 0.46170711303372342 0.34850709510409023 0 0.44553804258467711 0.32679292965327938 0 0.46369202838978502 0.31757124673960968 0 0.44553804258467711 0.32679292965327938 0 0.45361211497051568 0.33289804741491991 0 0.46369202838978502 0.31757124673960968 0 0.48184601419489292 0.30834956382593981 0 0.46369202838978502 0.31757124673960968 0 0.47724061759298397 0.33026024406778209 0 0.48184601419489292 0.30834956382593981 0 0.46369202838978502 0.31757124673960968 0 0.47724061759298397 0.33026024406778209 0 0.48229261755431191 0.34851408157391323 0 0.47097198565292597 0.34421704260573421 0 0.46407624130802111 0.33665173893483702 0 0.47724061759298397 0.33026024406778209 0 0.47097198565292597 0.34421704260573421 0 0.47724061759298397 0.33026024406778209 0 0.49999999999999878 0.32600928096046877 0 0.48229261755431191 0.34851408157391323 0 0.49999999999999878 0.32600928096046877 0 0.48229261755431191 0.34851408157391323 0 0.49999999999999878 0.32600928096046877 0 0.5 0.35272209336305538 0 0.48229261755431191 0.34851408157391323 0 0.48184601419489292 0.30834956382593981 0 0.47724061759298397 0.33026024406778209 0 0.49999999999999878 0.32600928096046877 0 0.48672874797716248 0.36653538459412621 0 0.5 0.35272209336305538 0 0.5 0.37943490576564198 0 0.48672874797716248 0.36653538459412621 0 0.5 0.35272209336305538 0 0.48229261755431191 0.34851408157391323 0 0.48229261755431191 0.34851408157391323 0 0.46458523510862559 0.37101888218735812 0 0.4678089628420341 0.35533667517516693 0 0.48229261755431191 0.34851408157391323 0 0.47097198565292597 0.34421704260573421 0 0.4678089628420341 0.35533667517516693 0 0.48229261755431191 0.34851408157391323 0 0.47562509019581239 0.36849131839889032 0 0.46458523510862559 0.37101888218735812 0 0.48229261755431191 0.34851408157391323 0 0.46458523510862559 0.37101888218735812 0 0.48672874797716248 0.36653538459412621 0 0.48229261755431191 0.34851408157391323 0 0.47562509019581239 0.36849131839889032 0 0.48672874797716248 0.36653538459412621 0 0.47562509019581239 0.36849131839889032 0 0.4787919741458061 0.38018383204314682 0 0.47562509019581239 0.36849131839889032 0 0.46572687619315578 0.37620441159590701 0 0.4787919741458061 0.38018383204314682 0 0.47562509019581239 0.36849131839889032 0 0.46458523510862559 0.37101888218735812 0 0.46572687619315578 0.37620441159590701 0 0.46458523510862559 0.37101888218735812 0 0.46168911539056212 0.36299934372973941 0 0.46048889089564909 0.36781975699678848 0 0.46458523510862559 0.37101888218735812 0 0.46168911539056212 0.36299934372973941 0 0.4678089628420341 0.35533667517516693 0 0.46458523510862559 0.37101888218735812 0 0.45846675515298052 0.37306230631500031 0 0.46048889089564909 0.36781975699678848 0 0.46168911539056212 0.36299934372973941 0 0.45652522041395821 0.3646744207984598 0 0.46048889089564909 0.36781975699678848 0 0.45652522041395821 0.3646744207984598 0 0.44992858314573159 0.36075378154985988 0 0.45406389004972109 0.37503673180826952 0 0.46168911539056212 0.36299934372973941 0 0.45652522041395821 0.3646744207984598 0 0.45896764313334132 0.35685454013008322 0 0.45652522041395821 0.3646744207984598 0 0.45896764313334132 0.35685454013008322 0 0.44992858314573159 0.36075378154985988 0 0.45652522041395821 0.3646744207984598 0 0.45846675515298052 0.37306230631500031 0 0.45406389004972109 0.37503673180826952 0 0.45652522041395821 0.3646744207984598 0 0.45846675515298052 0.37306230631500031 0 0.46048889089564909 0.36781975699678848 0 0.47097198565292597 0.34421704260573421 0 0.46170711303372342 0.34850709510409023 0 0.4678089628420341 0.35533667517516693 0 0.46170711303372342 0.34850709510409023 0 0.4678089628420341 0.35533667517516693 0 0.45896764313334132 0.35685454013008322 0 0.46168911539056212 0.36299934372973941 0 0.4678089628420341 0.35533667517516693 0 0.45896764313334132 0.35685454013008322 0 0.46170711303372342 0.34850709510409023 0 0.45896764313334132 0.35685454013008322 0 0.45239201476586682 0.35243949973553113 0 0.45896764313334132 0.35685454013008322 0 0.45239201476586682 0.35243949973553113 0 0.44992858314573159 0.36075378154985988 0 0.45457445685786058 0.34237901330598808 0 0.46170711303372342 0.34850709510409023 0 0.45239201476586682 0.35243949973553113 0 0.45457445685786058 0.34237901330598808 0 0.44640073116452011 0.34464789406614799 0 0.45239201476586682 0.35243949973553113 0 0.44640073116452011 0.34464789406614799 0 0.45239201476586682 0.35243949973553113 0 0.44476280487608899 0.35337506701276689 0 0.44476280487608899 0.35337506701276689 0 0.44992858314573159 0.36075378154985988 0 0.4419496264438969 0.36335331300765189 0 0.45239201476586682 0.35243949973553113 0 0.44476280487608899 0.35337506701276689 0 0.44992858314573159 0.36075378154985988 0 0.44476280487608899 0.35337506701276689 0 0.4419496264438969 0.36335331300765189 0 0.43562616503435941 0.34884599067991962 0 0.44640073116452011 0.34464789406614799 0 0.44476280487608899 0.35337506701276689 0 0.43562616503435941 0.34884599067991962 0 0.43915145600750172 0.34074585403041779 0 0.44640073116452011 0.34464789406614799 0 0.43562616503435941 0.34884599067991962 0 0.43119718938350071 0.37223754119026808 0 0.45406389004972109 0.37503673180826952 0 0.4419496264438969 0.36335331300765189 0 0.43119718938350071 0.37223754119026808 0 0.45406389004972109 0.37503673180826952 0 0.44992858314573159 0.36075378154985988 0 0.4419496264438969 0.36335331300765189 0 0.45406389004972109 0.37503673180826952 0 0.4419496264438969 0.36335331300765189 0 0.43119718938350071 0.37223754119026808 0 0.42478210285431972 0.35940413573023688 0 0.43119718938350071 0.37223754119026808 0 0.40833048871728028 0.3694383505722667 0 0.42478210285431972 0.35940413573023688 0 0.40833048871728028 0.3694383505722667 0 0.40901854583344238 0.35423254157498413 0 0.43119718938350071 0.37223754119026808 0 0.42478210285431972 0.35940413573023688 0 0.40833048871728028 0.3694383505722667 0 0.42478210285431972 0.35940413573023688 0 0.40901854583344238 0.35423254157498413 0 0.42054754720423648 0.34642255562729629 0 0.40901854583344238 0.35423254157498413 0 0.42054754720423648 0.34642255562729629 0 0.40787116693801401 0.34125817851233348 0 0.42054754720423648 0.34642255562729629 0 0.43562616503435941 0.34884599067991962 0 0.42980740797493322 0.33674923110484578 0 0.4419496264438969 0.36335331300765189 0 0.42478210285431972 0.35940413573023688 0 0.43562616503435941 0.34884599067991962 0 0.42478210285431972 0.35940413573023688 0 0.42054754720423648 0.34642255562729629 0 0.43562616503435941 0.34884599067991962 0 0.43915145600750172 0.34074585403041779 0 0.43562616503435941 0.34884599067991962 0 0.42980740797493322 0.33674923110484578 0 0.43915145600750172 0.34074585403041779 0 0.42980740797493322 0.33674923110484578 0 0.43467495465385958 0.33015747709462789 0 0.42980740797493322 0.33674923110484578 0 0.42390403761401602 0.32346696955272342 0 0.41738328801193308 0.33465473995497358 0 0.42980740797493322 0.33674923110484578 0 0.43467495465385958 0.33015747709462789 0 0.42390403761401602 0.32346696955272342 0 0.42054754720423648 0.34642255562729629 0 0.42980740797493322 0.33674923110484578 0 0.41738328801193308 0.33465473995497358 0 0.4280759724377009 0.30677724393992623 0 0.43591587566339068 0.31933811015904079 0 0.42390403761401602 0.32346696955272342 0 0.43467495465385958 0.33015747709462789 0 0.43591587566339068 0.31933811015904079 0 0.42390403761401602 0.32346696955272342 0 0.41172018229403379 0.30871133947340201 0 0.4280759724377009 0.30677724393992623 0 0.42390403761401602 0.32346696955272342 0 0.42390403761401602 0.32346696955272342 0 0.41738328801193308 0.33465473995497358 0 0.40478628032846559 0.32537676497766932 0 0.41172018229403379 0.30871133947340201 0 0.42390403761401602 0.32346696955272342 0 0.40478628032846559 0.32537676497766932 0 0.41738328801193308 0.33465473995497358 0 0.40787116693801401 0.34125817851233348 0 0.40478628032846559 0.32537676497766932 0 0.42054754720423648 0.34642255562729629 0 0.41738328801193308 0.33465473995497358 0 0.40787116693801401 0.34125817851233348 0 0.39272478611108252 0.33800801816363318 0 0.40478628032846559 0.32537676497766932 0 0.38316815610072558 0.32262777247852259 0 0.40787116693801401 0.34125817851233348 0 0.39272478611108252 0.33800801816363318 0 0.40478628032846559 0.32537676497766932 0 0.40787116693801401 0.34125817851233348 0 0.39272478611108252 0.33800801816363318 0 0.3990715992870717 0.34970370205677842 0 0.39295798837812679 0.30762795230367379 0 0.41172018229403379 0.30871133947340201 0 0.40478628032846559 0.32537676497766932 0 0.39295798837812679 0.30762795230367379 0 0.40478628032846559 0.32537676497766932 0 0.38316815610072558 0.32262777247852259 0 0.36683919377500768 0.32451879558091762 0 0.38316815610072558 0.32262777247852259 0 0.37594421209185103 0.33764793621782763 0 0.39272478611108252 0.33800801816363318 0 0.37594421209185103 0.33764793621782763 0 0.38550730192036742 0.35143375473866811 0 0.39272478611108252 0.33800801816363318 0 0.38316815610072558 0.32262777247852259 0 0.37594421209185103 0.33764793621782763 0 0.37011115454736848 0.35223495399250432 0 0.37594421209185103 0.33764793621782763 0 0.38550730192036742 0.35143375473866811 0 0.38550730192036742 0.35143375473866811 0 0.38546378805106002 0.36663915995426533 0 0.39747834476184429 0.35828950177939262 0 0.37011115454736848 0.35223495399250432 0 0.38550730192036742 0.35143375473866811 0 0.38546378805106002 0.36663915995426533 0 0.36259708738483959 0.36383996933626389 0 0.38546378805106002 0.36663915995426533 0 0.38118905446808798 0.37728987283747489 0 0.38546378805106002 0.36663915995426533 0 0.39232661341931979 0.3739428080803317 0 0.38118905446808798 0.37728987283747489 0 0.40833048871728028 0.3694383505722667 0 0.38546378805106002 0.36663915995426533 0 0.39232661341931979 0.3739428080803317 0 0.40833048871728028 0.3694383505722667 0 0.38546378805106002 0.36663915995426533 0 0.40833048871728028 0.3694383505722667 0 0.38546378805106002 0.36663915995426533 0 0.39747834476184429 0.35828950177939262 0 0.40833048871728028 0.3694383505722667 0 0.40901854583344238 0.35423254157498413 0 0.39747834476184429 0.35828950177939262 0 0.40901854583344238 0.35423254157498413 0 0.3990715992870717 0.34970370205677842 0 0.39747834476184429 0.35828950177939262 0 0.40901854583344238 0.35423254157498413 0 0.40787116693801401 0.34125817851233348 0 0.3990715992870717 0.34970370205677842 0 0.39272478611108252 0.33800801816363318 0 0.38550730192036742 0.35143375473866811 0 0.3990715992870717 0.34970370205677842 0 0.38550730192036742 0.35143375473866811 0 0.3990715992870717 0.34970370205677842 0 0.39747834476184429 0.35828950177939262 0 0.39542439064338791 0.39301551684418962 0 0.40351162026661652 0.40049868857820181 0 0.38909609701102588 0.40093070247672402 0 0.40351162026661652 0.40049868857820181 0 0.38909609701102588 0.40093070247672402 0 0.39567429512664992 0.40776605655582893 0 0.39542439064338791 0.39301551684418962 0 0.40351162026661652 0.40049868857820181 0 0.40672199265217218 0.38689137983532867 0 0.39542439064338791 0.39301551684418962 0 0.39432312244085121 0.38240384895731983 0 0.40672199265217218 0.38689137983532867 0 0.40833048871728028 0.3694383505722667 0 0.39432312244085121 0.38240384895731983 0 0.40672199265217218 0.38689137983532867 0 0.40833048871728028 0.3694383505722667 0 0.39232661341931979 0.3739428080803317 0 0.39432312244085121 0.38240384895731983 0 0.37433285719554532 0.39301778777994822 0 0.39432312244085121 0.38240384895731983 0 0.38118905446808798 0.37728987283747489 0 0.37433285719554532 0.39301778777994822 0 0.39432312244085121 0.38240384895731983 0 0.37433285719554532 0.39301778777994822 0 0.39542439064338791 0.39301551684418962 0 0.39432312244085121 0.38240384895731983 0 0.39232661341931979 0.3739428080803317 0 0.39432312244085121 0.38240384895731983 0 0.38118905446808798 0.37728987283747489 0 0.37433285719554532 0.39301778777994822 0 0.39542439064338791 0.39301551684418962 0 0.38909609701102588 0.40093070247672402 0 0.38909609701102588 0.40093070247672402 0 0.38650081554219928 0.40698308234573621 0 0.39567429512664992 0.40776605655582893 0 0.38909609701102588 0.40093070247672402 0 0.38077557912095711 0.40222643788284179 0 0.38650081554219928 0.40698308234573621 0 0.38077557912095711 0.40222643788284179 0 0.376552394456383 0.40827448847742231 0 0.38650081554219928 0.40698308234573621 0 0.37433285719554532 0.39301778777994822 0 0.38909609701102588 0.40093070247672402 0 0.38077557912095711 0.40222643788284179 0 0.37433285719554532 0.39301778777994822 0 0.38077557912095711 0.40222643788284179 0 0.376552394456383 0.40827448847742231 0 0.36436189883343961 0.41925063935586943 0 0.3744178602803922 0.41294804669527918 0 0.39040571199598051 0.41571772633586418 0 0.36436189883343961 0.41925063935586943 0 0.39040571199598051 0.41571772633586418 0 0.38687946006059659 0.41989913234122628 0 0.36436189883343961 0.41925063935586943 0 0.39040571199598051 0.41571772633586418 0 0.3744178602803922 0.41294804669527918 0 0.376552394456383 0.40827448847742231 0 0.39040571199598051 0.41571772633586418 0 0.376552394456383 0.40827448847742231 0 0.39040571199598051 0.41571772633586418 0 0.38650081554219928 0.40698308234573621 0 0.37297618063881871 0.43032619210799472 0 0.38829115003604359 0.42721600810179372 0 0.38626560987210851 0.43899589033984521 0 0.37297618063881871 0.43032619210799472 0 0.38687946006059659 0.41989913234122628 0 0.38829115003604359 0.42721600810179372 0 0.4070433495726507 0.41964281761810868 0 0.38626560987210851 0.43899589033984521 0 0.4070433495726507 0.41964281761810868 0 0.40730031848771803 0.44074888095593562 0 0.38626560987210851 0.43899589033984521 0 0.38687946006059659 0.41989913234122628 0 0.38829115003604359 0.42721600810179372 0 0.4070433495726507 0.41964281761810868 0 0.38829115003604359 0.42721600810179372 0 0.4070433495726507 0.41964281761810868 0 0.38626560987210851 0.43899589033984521 0 0.38687946006059659 0.41989913234122628 0 0.4070433495726507 0.41964281761810868 0 0.41630284802994588 0.41543454297403448 0 0.38687946006059659 0.41989913234122628 0 0.40333108224274911 0.41345469712754818 0 0.41630284802994588 0.41543454297403448 0 0.38687946006059659 0.41989913234122628 0 0.41630284802994588 0.41543454297403448 0 0.38687946006059659 0.41989913234122628 0 0.39485401238359241 0.41421760502321903 0 0.40333108224274911 0.41345469712754818 0 0.39040571199598051 0.41571772633586418 0 0.39567429512664992 0.40776605655582893 0 0.39485401238359241 0.41421760502321903 0 0.39040571199598051 0.41571772633586418 0 0.38650081554219928 0.40698308234573621 0 0.39567429512664992 0.40776605655582893 0 0.39567429512664992 0.40776605655582893 0 0.39485401238359241 0.41421760502321903 0 0.40333108224274911 0.41345469712754818 0 0.39040571199598051 0.41571772633586418 0 0.38687946006059659 0.41989913234122628 0 0.39485401238359241 0.41421760502321903 0 0.40351162026661652 0.40049868857820181 0 0.40333108224274911 0.41345469712754818 0 0.40988366542612631 0.40854782531151379 0 0.40351162026661652 0.40049868857820181 0 0.39567429512664992 0.40776605655582893 0 0.40333108224274911 0.41345469712754818 0 0.40988366542612631 0.40854782531151379 0 0.41630284802994588 0.41543454297403448 0 0.41532529741733731 0.40303773223417372 0 0.40333108224274911 0.41345469712754818 0 0.40988366542612631 0.40854782531151379 0 0.41630284802994588 0.41543454297403448 0 0.4070433495726507 0.41964281761810868 0 0.41630284802994588 0.41543454297403448 0 0.41815272853921243 0.42653078971184399 0 0.41630284802994588 0.41543454297403448 0 0.41815272853921243 0.42653078971184399 0 0.42815747702692619 0.42192837744886891 0 0.41630284802994588 0.41543454297403448 0 0.42772555214039348 0.40513180454704029 0 0.41532529741733731 0.40303773223417372 0 0.41815272853921243 0.42653078971184399 0 0.43195964957882099 0.43489932956227262 0 0.40730031848771803 0.44074888095593562 0 0.4070433495726507 0.41964281761810868 0 0.41815272853921243 0.42653078971184399 0 0.40730031848771803 0.44074888095593562 0 0.42815747702692619 0.42192837744886891 0 0.43195964957882099 0.43489932956227262 0 0.44572623599929512 0.4109699536068428 0 0.41815272853921243 0.42653078971184399 0 0.42815747702692619 0.42192837744886891 0 0.43195964957882099 0.43489932956227262 0 0.41630284802994588 0.41543454297403448 0 0.42772555214039348 0.40513180454704029 0 0.44572623599929512 0.4109699536068428 0 0.41630284802994588 0.41543454297403448 0 0.44572623599929512 0.4109699536068428 0 0.41630284802994588 0.41543454297403448 0 0.42815747702692619 0.42192837744886891 0 0.44572623599929512 0.4109699536068428 0 0.43593344838135251 0.39978319848310478 0 0.42772555214039348 0.40513180454704029 0 0.44572623599929512 0.4109699536068428 0 0.43593344838135251 0.39978319848310478 0 0.42533993087403732 0.39643359543704593 0 0.43451465851503018 0.38769171795256507 0 0.43593344838135251 0.39978319848310478 0 0.42533993087403732 0.39643359543704593 0 0.42772555214039348 0.40513180454704029 0 0.42533993087403732 0.39643359543704593 0 0.42772555214039348 0.40513180454704029 0 0.41532529741733731 0.40303773223417372 0 0.42533993087403732 0.39643359543704593 0 0.41532529741733731 0.40303773223417372 0 0.41423416352315029 0.39425498205222259 0 0.42533993087403732 0.39643359543704593 0 0.41423416352315029 0.39425498205222259 0 0.42027197640558822 0.3844135141763626 0 0.40351162026661652 0.40049868857820181 0 0.41423416352315029 0.39425498205222259 0 0.40672199265217218 0.38689137983532867 0 0.40351162026661652 0.40049868857820181 0 0.41532529741733731 0.40303773223417372 0 0.41423416352315029 0.39425498205222259 0 0.40351162026661652 0.40049868857820181 0 0.40988366542612631 0.40854782531151379 0 0.41532529741733731 0.40303773223417372 0 0.40833048871728028 0.3694383505722667 0 0.40672199265217218 0.38689137983532867 0 0.42027197640558822 0.3844135141763626 0 0.43119718938350071 0.37223754119026808 0 0.40833048871728028 0.3694383505722667 0 0.42027197640558822 0.3844135141763626 0 0.41423416352315029 0.39425498205222259 0 0.40672199265217218 0.38689137983532867 0 0.42027197640558822 0.3844135141763626 0 0.43119718938350071 0.37223754119026808 0 0.42027197640558822 0.3844135141763626 0 0.43451465851503018 0.38769171795256507 0 0.42533993087403732 0.39643359543704593 0 0.42027197640558822 0.3844135141763626 0 0.43451465851503018 0.38769171795256507 0 0.43119718938350071 0.37223754119026808 0 0.43451465851503018 0.38769171795256507 0 0.44166339765279777 0.38212241843797629 0 0.43119718938350071 0.37223754119026808 0 0.44166339765279777 0.38212241843797629 0 0.45406389004972109 0.37503673180826952 0 0.44166339765279777 0.38212241843797629 0 0.44687785266293961 0.39352368280080302 0 0.45406389004972109 0.37503673180826952 0 0.43451465851503018 0.38769171795256507 0 0.44166339765279777 0.38212241843797629 0 0.44687785266293961 0.39352368280080302 0 0.45572655609622548 0.39358718260137487 0 0.44572623599929512 0.4109699536068428 0 0.44687785266293961 0.39352368280080302 0 0.45572655609622548 0.39358718260137487 0 0.44572623599929512 0.4109699536068428 0 0.43593344838135251 0.39978319848310478 0 0.44687785266293961 0.39352368280080302 0 0.44572623599929512 0.4109699536068428 0 0.43593344838135251 0.39978319848310478 0 0.43451465851503018 0.38769171795256507 0 0.44687785266293961 0.39352368280080302 0 0.4624959067194841 0.39965834135949929 0 0.46651319139786451 0.40781582260923571 0 0.44572623599929512 0.4109699536068428 0 0.45572655609622548 0.39358718260137487 0 0.4624959067194841 0.39965834135949929 0 0.44572623599929512 0.4109699536068428 0 0.45572655609622548 0.39358718260137487 0 0.4624959067194841 0.39965834135949929 0 0.4653740168621428 0.3893546649112547 0 0.4624959067194841 0.39965834135949929 0 0.4653740168621428 0.3893546649112547 0 0.47262090655156003 0.39244090692113581 0 0.4624959067194841 0.39965834135949929 0 0.47262090655156003 0.39244090692113581 0 0.46651319139786451 0.40781582260923571 0 0.45572655609622548 0.39358718260137487 0 0.46572687619315578 0.37620441159590701 0 0.46458523510862559 0.37101888218735812 0 0.45846675515298052 0.37306230631500031 0 0.44687785266293961 0.39352368280080302 0 0.45846675515298052 0.37306230631500031 0 0.44687785266293961 0.39352368280080302 0 0.45406389004972109 0.37503673180826952 0 0.46458523510862559 0.37101888218735812 0 0.44687785266293961 0.39352368280080302 0 0.46572687619315578 0.37620441159590701 0 0.44687785266293961 0.39352368280080302 0 0.45572655609622548 0.39358718260137487 0 0.46572687619315578 0.37620441159590701 0 0.45572655609622548 0.39358718260137487 0 0.4653740168621428 0.3893546649112547 0 0.46572687619315578 0.37620441159590701 0 0.46458523510862559 0.37101888218735812 0 0.44687785266293961 0.39352368280080302 0 0.4653740168621428 0.3893546649112547 0 0.46572687619315578 0.37620441159590701 0 0.47029983875028869 0.38488248207835679 0 0.46572687619315578 0.37620441159590701 0 0.4787919741458061 0.38018383204314682 0 0.47029983875028869 0.38488248207835679 0 0.4787919741458061 0.38018383204314682 0 0.47262090655156003 0.39244090692113581 0 0.48664004803894217 0.39145697653823341 0 0.4787919741458061 0.38018383204314682 0 0.47029983875028869 0.38488248207835679 0 0.47262090655156003 0.39244090692113581 0 0.4653740168621428 0.3893546649112547 0 0.47029983875028869 0.38488248207835679 0 0.47262090655156003 0.39244090692113581 0 0.47826857319620009 0.39909384942005838 0 0.48730014679643402 0.40466169161162863 0 0.46651319139786451 0.40781582260923571 0 0.48730014679643402 0.40466169161162863 0 0.46651319139786451 0.40781582260923571 0 0.47262090655156003 0.39244090692113581 0 0.47826857319620009 0.39909384942005838 0 0.46651319139786451 0.40781582260923571 0 0.47826857319620009 0.39909384942005838 0 0.48664004803894217 0.39145697653823341 0 0.48730014679643402 0.40466169161162863 0 0.47262090655156003 0.39244090692113581 0 0.47826857319620009 0.39909384942005838 0 0.48664004803894217 0.39145697653823341 0 0.48664004803894217 0.39145697653823341 0 0.5 0.40614771816822859 0 0.5 0.37943490576564198 0 0.48664004803894217 0.39145697653823341 0 0.48730014679643402 0.40466169161162863 0 0.5 0.40614771816822859 0 0.48672874797716248 0.36653538459412621 0 0.4787919741458061 0.38018383204314682 0 0.5 0.37943490576564198 0 0.4787919741458061 0.38018383204314682 0 0.48664004803894217 0.39145697653823341 0 0.5 0.37943490576564198 0 0.5 0.43286053057081519 0 0.47965976589667342 0.42222071937313083 0 0.48412680874178349 0.4437860844602432 0 0.48730014679643402 0.40466169161162863 0 0.5 0.40614771816822859 0 0.47965976589667342 0.42222071937313083 0 0.5 0.40614771816822859 0 0.5 0.43286053057081519 0 0.47965976589667342 0.42222071937313083 0 0.48730014679643402 0.40466169161162863 0 0.47965976589667342 0.42222071937313083 0 0.46651319139786451 0.40781582260923571 0 0.47965976589667342 0.42222071937313083 0 0.46195913749147649 0.44033987214894538 0 0.48412680874178349 0.4437860844602432 0 0.47965976589667342 0.42222071937313083 0 0.45716359607282608 0.42324913946008541 0 0.46195913749147649 0.44033987214894538 0 0.45716359607282608 0.42324913946008541 0 0.46651319139786451 0.40781582260923571 0 0.44572623599929512 0.4109699536068428 0 0.47965976589667342 0.42222071937313083 0 0.45716359607282608 0.42324913946008541 0 0.46651319139786451 0.40781582260923571 0 0.46651319139786451 0.40781582260923571 0 0.44572623599929512 0.4109699536068428 0 0.43195964957882099 0.43489932956227262 0 0.44572623599929512 0.4109699536068428 0 0.43195964957882099 0.43489932956227262 0 0.45716359607282608 0.42324913946008541 0 0.44572623599929512 0.4109699536068428 0 0.43195964957882099 0.43489932956227262 0 0.45716359607282608 0.42324913946008541 0 0.46195913749147649 0.44033987214894538 0 0.5 0.5 0 0.4585804491934381 0.48021625544761021 0 0.41682497645764482 0.5 0 0.43195964957882099 0.43489932956227262 0 0.44546204210556539 0.45907691800293399 0 0.46195913749147649 0.44033987214894538 0 0.44546204210556539 0.45907691800293399 0 0.47273102105278458 0.45932513048816792 0 0.44546204210556539 0.45907691800293399 0 0.47273102105278458 0.45932513048816792 0 0.4585804491934381 0.48021625544761021 0 0.44546204210556539 0.45907691800293399 0 0.46195913749147649 0.44033987214894538 0 0.47273102105278458 0.45932513048816792 0 0.46195913749147649 0.44033987214894538 0 0.48412680874178349 0.4437860844602432 0 0.47273102105278458 0.45932513048816792 0 0.47273102105278458 0.45932513048816792 0 0.50000000000000377 0.4595733429734018 0 0.4828278675615566 0.47477868222729491 0 0.47273102105278458 0.45932513048816792 0 0.50000000000000377 0.4595733429734018 0 0.48412680874178349 0.4437860844602432 0 0.47273102105278458 0.45932513048816792 0 0.50000000000000377 0.4595733429734018 0 0.5 0.43286053057081519 0 0.48412680874178349 0.4437860844602432 0 0.50000000000000377 0.4595733429734018 0 0.50000000000000377 0.4595733429734018 0 0.5 0.5 0 0.4828278675615566 0.47477868222729491 0 0.5 0.5 0 0.4828278675615566 0.47477868222729491 0 0.4585804491934381 0.48021625544761021 0 0.47273102105278458 0.45932513048816792 0 0.4828278675615566 0.47477868222729491 0 0.4585804491934381 0.48021625544761021 0 0.44546204210556539 0.45907691800293399 0 0.4585804491934381 0.48021625544761021 0 0.42957496301743081 0.47539606810911961 0 0.4585804491934381 0.48021625544761021 0 0.41682497645764482 0.5 0 0.42957496301743081 0.47539606810911961 0 0.41682497645764482 0.5 0 0.40851874210208272 0.47564481799454572 0 0.39884442104581852 0.49246093047138911 0 0.40851874210208272 0.47564481799454572 0 0.42957496301743081 0.47539606810911961 0 0.41819306315834631 0.45882870551770177 0 0.41682497645764482 0.5 0 0.40851874210208272 0.47564481799454572 0 0.42957496301743081 0.47539606810911961 0 0.44546204210556539 0.45907691800293399 0 0.41819306315834631 0.45882870551770177 0 0.44546204210556539 0.45907691800293399 0 0.42957496301743081 0.47539606810911961 0 0.41819306315834631 0.45882870551770177 0 0.43195964957882099 0.43489932956227262 0 0.44546204210556539 0.45907691800293399 0 0.41819306315834631 0.45882870551770177 0 0.43195964957882099 0.43489932956227262 0 0.41819306315834631 0.45882870551770177 0 0.43195964957882099 0.43489932956227262 0 0.40730031848771803 0.44074888095593562 0 0.41819306315834631 0.45882870551770177 0 0.40851874210208272 0.47564481799454572 0 0.41819306315834631 0.45882870551770177 0 0.41819306315834631 0.45882870551770177 0 0.39184046666495631 0.45858883428964092 0 0.40851874210208272 0.47564481799454572 0 0.41819306315834631 0.45882870551770177 0 0.39184046666495631 0.45858883428964092 0 0.40730031848771803 0.44074888095593562 0 0.39184046666495631 0.45858883428964092 0 0.38626560987210851 0.43899589033984521 0 0.40730031848771803 0.44074888095593562 0 0.41819306315834631 0.45882870551770177 0 0.39184046666495631 0.45858883428964092 0 0.36548787017156631 0.45834896306158168 0 0.39184046666495631 0.45858883428964092 0 0.38626560987210851 0.43899589033984521 0 0.36548787017156631 0.45834896306158168 0 0.38626560987210851 0.43899589033984521 0 0.36548787017156631 0.45834896306158168 0 0.39184046666495631 0.45858883428964092 0 0.36548787017156631 0.45834896306158168 0 0.39184046666495631 0.45858883428964092 0 0.37847717535751169 0.4790122240125857 0 0.37847717535751169 0.4790122240125857 0 0.39884442104581852 0.49246093047138911 0 0.39389997893724488 0.47758801366699749 0 0.39184046666495631 0.45858883428964092 0 0.37847717535751169 0.4790122240125857 0 0.39389997893724488 0.47758801366699749 0 0.35607400661002631 0.5 0 0.37847717535751169 0.4790122240125857 0 0.39884442104581852 0.49246093047138911 0 0.35607400661002631 0.5 0 0.41682497645764482 0.5 0 0.39884442104581852 0.49246093047138911 0 0.40851874210208272 0.47564481799454572 0 0.39184046666495631 0.45858883428964092 0 0.39389997893724488 0.47758801366699749 0 0.40851874210208272 0.47564481799454572 0 0.39884442104581852 0.49246093047138911 0 0.39389997893724488 0.47758801366699749 0 0.40851874210208272 0.47564481799454572 0 0.39884442104581852 0.49246093047138911 0 0.3344110807493198 0.07881406394993469 0 0.3370656852504047 0.1018135190977302 0 0.35572263913707081 0.098379007017930398 0 0.3344110807493198 0.07881406394993469 0 0.32567960872476859 0.094628178328821422 0 0.3370656852504047 0.1018135190977302 0 0.3344110807493198 0.07881406394993469 0 0.33653293204803869 0.064743258991125707 0 0.35518018118170658 0.069863407577491959 0 0.3344110807493198 0.07881406394993469 0 0.33653293204803869 0.064743258991125707 0 0.32135937256395319 0.066832024770024659 0 0.3344110807493198 0.07881406394993469 0 0.32135937256395319 0.066832024770024659 0 0.3344110807493198 0.07881406394993469 0 0.32135937256395319 0.066832024770024659 0 0.32168304742077991 0.084299340165517003 0 0.33653293204803869 0.064743258991125707 0 0.32135937256395319 0.066832024770024659 0 0.32267475490818848 0.061512046914628679 0 0.32135937256395319 0.066832024770024659 0 0.32267475490818848 0.061512046914628679 0 0.32135937256395319 0.066832024770024659 0 0.31753175180542431 0.063318101439596111 0 0.32267475490818848 0.061512046914628679 0 0.32135937256395319 0.066832024770024659 0 0.31753175180542431 0.063318101439596111 0 0.32135937256395319 0.066832024770024659 0 0.31461709592177811 0.094100721653868999 0 0.32135937256395319 0.066832024770024659 0 0.31461709592177811 0.094100721653868999 0 0.30272495917003822 0.088474554451340393 0 0.3344110807493198 0.07881406394993469 0 0.32168304742077991 0.084299340165517003 0 0.32567960872476859 0.094628178328821422 0 0.32135937256395319 0.066832024770024659 0 0.32168304742077991 0.084299340165517003 0 0.31461709592177811 0.094100721653868999 0 0.3344110807493198 0.07881406394993469 0 0.32168304742077991 0.084299340165517003 0 0.32168304742077991 0.084299340165517003 0 0.31461709592177811 0.094100721653868999 0 0.32567960872476859 0.094628178328821422 0 0.31461709592177811 0.094100721653868999 0 0.32466619027843768 0.10851068170742149 0 0.30787481927960419 0.1213694185377137 0 0.31461709592177811 0.094100721653868999 0 0.32466619027843768 0.10851068170742149 0 0.32567960872476859 0.094628178328821422 0 0.32603660620435437 0.1241421469063976 0 0.30787481927960419 0.1213694185377137 0 0.32466619027843768 0.10851068170742149 0 0.32603660620435437 0.1241421469063976 0 0.30787481927960419 0.1213694185377137 0 0.32603660620435437 0.1241421469063976 0 0.33657330741779079 0.11515782699739931 0 0.34419839312910472 0.12691487527508141 0 0.32466619027843768 0.10851068170742149 0 0.32603660620435437 0.1241421469063976 0 0.33657330741779079 0.11515782699739931 0 0.33657330741779079 0.11515782699739931 0 0.3370656852504047 0.1018135190977302 0 0.35089966222665248 0.1144079120003656 0 0.32466619027843768 0.10851068170742149 0 0.33657330741779079 0.11515782699739931 0 0.3370656852504047 0.1018135190977302 0 0.32466619027843768 0.10851068170742149 0 0.32567960872476859 0.094628178328821422 0 0.3370656852504047 0.1018135190977302 0 0.3370656852504047 0.1018135190977302 0 0.35572263913707081 0.098379007017930398 0 0.35089966222665248 0.1144079120003656 0 0.35089966222665248 0.1144079120003656 0 0.34419839312910472 0.12691487527508141 0 0.35900557088981849 0.12717927828427811 0 0.33657330741779079 0.11515782699739931 0 0.35089966222665248 0.1144079120003656 0 0.34419839312910472 0.12691487527508141 0 0.35089966222665248 0.1144079120003656 0 0.35900557088981849 0.12717927828427811 0 0.37703419752481859 0.11794395008592939 0 0.35572263913707081 0.098379007017930398 0 0.35089966222665248 0.1144079120003656 0 0.37703419752481859 0.11794395008592939 0 0.35572263913707081 0.098379007017930398 0 0.37525516449768842 0.1152880084670649 0 0.37703419752481859 0.11794395008592939 0 0.35572263913707081 0.098379007017930398 0 0.37760721142619508 0.1104803051256717 0 0.37525516449768842 0.1152880084670649 0 0.35572263913707081 0.098379007017930398 0 0.37703419752481859 0.11794395008592939 0 0.35572263913707081 0.098379007017930398 0 0.36639369630395019 0.090171856351582147 0 0.37760721142619508 0.1104803051256717 0 0.36639369630395019 0.090171856351582147 0 0.37760721142619508 0.1104803051256717 0 0.36639369630395019 0.090171856351582147 0 0.35518018118170658 0.069863407577491959 0 0.36639369630395019 0.090171856351582147 0 0.35518018118170658 0.069863407577491959 0 0.37594196819752213 0.075439085683445567 0 0.3344110807493198 0.07881406394993469 0 0.35572263913707081 0.098379007017930398 0 0.35328028050905658 0.084162509131586544 0 0.36639369630395019 0.090171856351582147 0 0.35328028050905658 0.084162509131586544 0 0.35518018118170658 0.069863407577491959 0 0.3344110807493198 0.07881406394993469 0 0.35572263913707081 0.098379007017930398 0 0.35572263913707081 0.098379007017930398 0 0.36639369630395019 0.090171856351582147 0 0.35328028050905658 0.084162509131586544 0 0.3344110807493198 0.07881406394993469 0 0.35518018118170658 0.069863407577491959 0 0.33653293204803869 0.064743258991125707 0 0.35518018118170658 0.069863407577491959 0 0.35023713714210641 0.060911214124155177 0 0.3344110807493198 0.07881406394993469 0 0.35328028050905658 0.084162509131586544 0 0.35518018118170658 0.069863407577491959 0 0.35518018118170658 0.069863407577491959 0 0.35023713714210641 0.060911214124155177 0 0.35518018118170658 0.069863407577491959 0 0.38114785940623003 0.058672370905750212 0 0.35518018118170658 0.069863407577491959 0 0.37594196819752213 0.075439085683445567 0 0.38114785940623003 0.058672370905750212 0 0.35518018118170658 0.069863407577491959 0 0.3551064303909004 0.051717150447408371 0 0.38114785940623003 0.058672370905750212 0 0.3551064303909004 0.051717150447408371 0 0.37515117282435828 0.045663310368981247 0 0.38114785940623003 0.058672370905750212 0 0.3551064303909004 0.051717150447408371 0 0.38114785940623003 0.058672370905750212 0 0.3551064303909004 0.051717150447408371 0 0.37515117282435828 0.045663310368981247 0 0.37067245804488308 0.032187508493627989 0 0.36046952601375071 0.041933878001098032 0 0.3534834092153234 0.032472333580651762 0 0.37067245804488308 0.032187508493627989 0 0.36046952601375071 0.041933878001098032 0 0.37515117282435828 0.045663310368981247 0 0.36046952601375071 0.041933878001098032 0 0.3551064303909004 0.051717150447408371 0 0.37515117282435828 0.045663310368981247 0 0.36046952601375071 0.041933878001098032 0 0.3534834092153234 0.032472333580651762 0 0.34778581574864181 0.049761939437390677 0 0.35518018118170658 0.069863407577491959 0 0.35023713714210641 0.060911214124155177 0 0.3551064303909004 0.051717150447408371 0 0.34778581574864181 0.049761939437390677 0 0.35078508826774951 0.053022266451003233 0 0.33592284271512229 0.051731923118849617 0 0.34778581574864181 0.049761939437390677 0 0.3551064303909004 0.051717150447408371 0 0.34778581574864181 0.049761939437390677 0 0.35078508826774951 0.053022266451003233 0 0.3551064303909004 0.051717150447408371 0 0.34778581574864181 0.049761939437390677 0 0.35078508826774951 0.053022266451003233 0 0.33653293204803869 0.064743258991125707 0 0.35078508826774951 0.053022266451003233 0 0.35023713714210641 0.060911214124155177 0 0.35078508826774951 0.053022266451003233 0 0.35023713714210641 0.060911214124155177 0 0.3551064303909004 0.051717150447408371 0 0.36046952601375071 0.041933878001098032 0 0.34778581574864181 0.049761939437390677 0 0.3551064303909004 0.051717150447408371 0 0.35078508826774951 0.053022266451003233 0 0.3551064303909004 0.051717150447408371 0 0.35703834181637017 0.01144248958259767 0 0.38269638314167997 0.022003569137885121 0 0.38004824580921331 -0.0028869129075803049 0 0.35703834181637017 0.01144248958259767 0 0.38269638314167997 0.022003569137885121 0 0.37067245804488308 0.032187508493627989 0 0.3534834092153234 0.032472333580651762 0 0.35703834181637017 0.01144248958259767 0 0.37067245804488308 0.032187508493627989 0 0.35703834181637017 0.01144248958259767 0 0.38269638314167997 0.022003569137885121 0 0.3534834092153234 0.032472333580651762 0 0.35703834181637017 0.01144248958259767 0 0.32860675085449959 0.02891354271058454 0 0.35703834181637017 0.01144248958259767 0 0.3313803004910606 0.00088141002731029205 0 0.35703834181637017 0.01144248958259767 0 0.3313803004910606 0.00088141002731029205 0 0.32860675085449959 0.02891354271058454 0 0.32860675085449959 0.02891354271058454 0 0.30942768596035969 0.0080651459837762646 0 0.32860675085449959 0.02891354271058454 0 0.30942768596035969 0.0080651459837762646 0 0.29970711298099312 0.023255784782297079 0 0.3313803004910606 0.00088141002731029205 0 0.32860675085449959 0.02891354271058454 0 0.30942768596035969 0.0080651459837762646 0 0.34778581574864181 0.049761939437390677 0 0.33592284271512229 0.051731923118849617 0 0.32662186179333169 0.0441094091771344 0 0.34778581574864181 0.049761939437390677 0 0.32662186179333169 0.0441094091771344 0 0.35078508826774951 0.053022266451003233 0 0.33592284271512229 0.051731923118849617 0 0.32267475490818848 0.061512046914628679 0 0.33653293204803869 0.064743258991125707 0 0.35078508826774951 0.053022266451003233 0 0.32267475490818848 0.061512046914628679 0 0.35078508826774951 0.053022266451003233 0 0.32267475490818848 0.061512046914628679 0 0.33592284271512229 0.051731923118849617 0 0.32662186179333169 0.0441094091771344 0 0.32431561655684749 0.054875689301283483 0 0.3534834092153234 0.032472333580651762 0 0.34778581574864181 0.049761939437390677 0 0.32860675085449959 0.02891354271058454 0 0.34778581574864181 0.049761939437390677 0 0.32860675085449959 0.02891354271058454 0 0.32662186179333169 0.0441094091771344 0 0.34778581574864181 0.049761939437390677 0 0.32860675085449959 0.02891354271058454 0 0.32662186179333169 0.0441094091771344 0 0.31384940322294819 0.04618838569527612 0 0.30545790783802068 0.038456878916881779 0 0.32860675085449959 0.02891354271058454 0 0.32662186179333169 0.0441094091771344 0 0.30545790783802068 0.038456878916881779 0 0.32662186179333169 0.0441094091771344 0 0.30545790783802068 0.038456878916881779 0 0.32662186179333169 0.0441094091771344 0 0.31384940322294819 0.04618838569527612 0 0.32022736642491839 0.050169213972830043 0 0.31384940322294819 0.04618838569527612 0 0.31632440803186462 0.053751952097133543 0 0.30919109587878069 0.047167509333835927 0 0.31632440803186462 0.053751952097133543 0 0.32022736642491839 0.050169213972830043 0 0.32431561655684749 0.054875689301283483 0 0.31384940322294819 0.04618838569527612 0 0.31632440803186462 0.053751952097133543 0 0.32022736642491839 0.050169213972830043 0 0.32662186179333169 0.0441094091771344 0 0.32022736642491839 0.050169213972830043 0 0.32431561655684749 0.054875689301283483 0 0.31632440803186462 0.053751952097133543 0 0.32431561655684749 0.054875689301283483 0 0.32267475490818848 0.061512046914628679 0 0.33592284271512229 0.051731923118849617 0 0.32431561655684749 0.054875689301283483 0 0.32267475490818848 0.061512046914628679 0 0.32431561655684749 0.054875689301283483 0 0.32267475490818848 0.061512046914628679 0 0.31753175180542431 0.063318101439596111 0 0.32267475490818848 0.061512046914628679 0 0.31753175180542431 0.063318101439596111 0 0.31632440803186462 0.053751952097133543 0 0.32267475490818848 0.061512046914628679 0 0.31753175180542431 0.063318101439596111 0 0.31632440803186462 0.053751952097133543 0 0.30621233150953647 0.052926378336930757 0 0.30621233150953647 0.052926378336930757 0 0.29382453926049329 0.057103913430711438 0 0.29730318444973441 0.074674858836938529 0 0.30621233150953647 0.052926378336930757 0 0.29106529045512008 0.039020731903836509 0 0.29382453926049329 0.057103913430711438 0 0.31753175180542431 0.063318101439596111 0 0.30621233150953647 0.052926378336930757 0 0.30621233150953647 0.052926378336930757 0 0.30919109587878069 0.047167509333835927 0 0.30553230819813509 0.041814857461142968 0 0.31632440803186462 0.053751952097133543 0 0.30621233150953647 0.052926378336930757 0 0.30919109587878069 0.047167509333835927 0 0.31384940322294819 0.04618838569527612 0 0.30553230819813509 0.041814857461142968 0 0.30545790783802068 0.038456878916881779 0 0.31384940322294819 0.04618838569527612 0 0.30919109587878069 0.047167509333835927 0 0.30553230819813509 0.041814857461142968 0 0.30621233150953647 0.052926378336930757 0 0.30553230819813509 0.041814857461142968 0 0.29106529045512008 0.039020731903836509 0 0.30553230819813509 0.041814857461142968 0 0.29106529045512008 0.039020731903836509 0 0.30553230819813509 0.041814857461142968 0 0.30545790783802068 0.038456878916881779 0 0.29106529045512008 0.039020731903836509 0 0.30621233150953647 0.052926378336930757 0 0.29106529045512008 0.039020731903836509 0 0.29106529045512008 0.039020731903836509 0 0.28429395388270973 0.03280434865662929 0 0.2701213292678788 0.03497566482339079 0 0.30545790783802068 0.038456878916881779 0 0.28429395388270973 0.03280434865662929 0 0.29970711298099312 0.023255784782297079 0 0.30545790783802068 0.038456878916881779 0 0.29106529045512008 0.039020731903836509 0 0.28429395388270973 0.03280434865662929 0 0.30545790783802068 0.038456878916881779 0 0.28429395388270973 0.03280434865662929 0 0.29106529045512008 0.039020731903836509 0 0.28429395388270973 0.03280434865662929 0 0.29106529045512008 0.039020731903836509 0 0.29382453926049329 0.057103913430711438 0 0.28071735062758257 0.061793684645139707 0 0.30942768596035969 0.0080651459837762646 0 0.29970711298099312 0.023255784782297079 0 0.28692422129050738 0.0091650621547095315 0 0.32860675085449959 0.02891354271058454 0 0.30545790783802068 0.038456878916881779 0 0.29970711298099312 0.023255784782297079 0 0.28429395388270973 0.03280434865662929 0 0.29970711298099312 0.023255784782297079 0 0.28337931512406739 0.021088998510574501 0 0.29970711298099312 0.023255784782297079 0 0.28337931512406739 0.021088998510574501 0 0.28692422129050738 0.0091650621547095315 0 0.30942768596035969 0.0080651459837762646 0 0.28692422129050738 0.0091650621547095315 0 0.29024862106621879 -0.012783250743031041 0 0.28692422129050738 0.0091650621547095315 0 0.2724061768743295 0.01294300263584074 0 0.26974618760420199 -0.00030030174664443492 0 0.28337931512406739 0.021088998510574501 0 0.28692422129050738 0.0091650621547095315 0 0.2724061768743295 0.01294300263584074 0 0.2724061768743295 0.01294300263584074 0 0.26120369264718968 0.014358136548294379 0 0.26974618760420199 -0.00030030174664443492 0 0.28429395388270973 0.03280434865662929 0 0.26674893645405751 0.028118374469502869 0 0.28429395388270973 0.03280434865662929 0 0.27283146449998469 0.02228128187238777 0 0.26674893645405751 0.028118374469502869 0 0.2724061768743295 0.01294300263584074 0 0.27283146449998469 0.02228128187238777 0 0.26493942106846979 0.020546159193790551 0 0.2724061768743295 0.01294300263584074 0 0.26493942106846979 0.020546159193790551 0 0.26120369264718968 0.014358136548294379 0 0.28337931512406739 0.021088998510574501 0 0.2724061768743295 0.01294300263584074 0 0.27283146449998469 0.02228128187238777 0 0.28429395388270973 0.03280434865662929 0 0.28337931512406739 0.021088998510574501 0 0.27283146449998469 0.02228128187238777 0 0.28429395388270973 0.03280434865662929 0 0.27283146449998469 0.02228128187238777 0 0.27283146449998469 0.02228128187238777 0 0.26674893645405751 0.028118374469502869 0 0.26493942106846979 0.020546159193790551 0 0.24920391902540581 0.02343240028237412 0 0.26674893645405751 0.028118374469502869 0 0.26493942106846979 0.020546159193790551 0 0.24920391902540581 0.02343240028237412 0 0.24917736808063759 0.030930597742944401 0 0.26674893645405751 0.028118374469502869 0 0.24920391902540581 0.02343240028237412 0 0.26493942106846979 0.020546159193790551 0 0.26120369264718968 0.014358136548294379 0 0.24920391902540581 0.02343240028237412 0 0.26674893645405751 0.028118374469502869 0 0.24924375414218081 0.01218264724973479 0 0.24920391902540581 0.02343240028237412 0 0.26120369264718968 0.014358136548294379 0 0.24924375414218081 0.01218264724973479 0 0.26120369264718968 0.014358136548294379 0 0.26974618760420199 -0.00030030174664443492 0 0.24924375414218081 0.01218264724973479 0 0.26010579277704338 -0.0094947121626498474 0 0.26974618760420199 -0.00030030174664443492 0 0.24924375414218081 0.01218264724973479 0 0.26974618760420199 -0.00030030174664443492 0 0.29106529045512008 0.039020731903836509 0 0.2696899186064925 0.050093671284131891 0 0.28071735062758257 0.061793684645139707 0 0.2696899186064925 0.050093671284131891 0 0.28071735062758257 0.061793684645139707 0 0.26596887341206082 0.064641276231060626 0 0.29106529045512008 0.039020731903836509 0 0.2696899186064925 0.050093671284131891 0 0.2701213292678788 0.03497566482339079 0 0.28429395388270973 0.03280434865662929 0 0.26674893645405751 0.028118374469502869 0 0.2701213292678788 0.03497566482339079 0 0.29106529045512008 0.039020731903836509 0 0.2701213292678788 0.03497566482339079 0 0.2696899186064925 0.050093671284131891 0 0.2701213292678788 0.03497566482339079 0 0.25523297909370862 0.045178265150677369 0 0.2701213292678788 0.03497566482339079 0 0.25136097441666611 0.037606820702287568 0 0.25523297909370862 0.045178265150677369 0 0.24917736808063759 0.030930597742944401 0 0.26674893645405751 0.028118374469502869 0 0.2701213292678788 0.03497566482339079 0 0.24917736808063759 0.030930597742944401 0 0.2701213292678788 0.03497566482339079 0 0.25136097441666611 0.037606820702287568 0 0.24917736808063759 0.030930597742944401 0 0.2701213292678788 0.03497566482339079 0 0.24424729673423809 0.041878356460708567 0 0.25136097441666611 0.037606820702287568 0 0.25523297909370862 0.045178265150677369 0 0.2414358262802774 0.05029233879449032 0 0.25523297909370862 0.045178265150677369 0 0.25421258692591608 0.056622967000013923 0 0.2696899186064925 0.050093671284131891 0 0.25523297909370862 0.045178265150677369 0 0.25421258692591608 0.056622967000013923 0 0.2696899186064925 0.050093671284131891 0 0.25421258692591608 0.056622967000013923 0 0.26596887341206082 0.064641276231060626 0 0.25347601198481851 0.070846851749968923 0 0.27160814565400287 0.087257275898576486 0 0.26596887341206082 0.064641276231060626 0 0.25421258692591608 0.056622967000013923 0 0.25347601198481851 0.070846851749968923 0 0.26596887341206082 0.064641276231060626 0 0.24640086058121119 0.085938776428289107 0 0.25347601198481851 0.070846851749968923 0 0.27160814565400287 0.087257275898576486 0 0.24640086058121119 0.085938776428289107 0 0.27160814565400287 0.087257275898576486 0 0.25342826027611698 0.10039197176467771 0 0.28071735062758257 0.061793684645139707 0 0.27160814565400287 0.087257275898576486 0 0.26596887341206082 0.064641276231060626 0 0.29382453926049329 0.057103913430711438 0 0.28071735062758257 0.061793684645139707 0 0.29730318444973441 0.074674858836938529 0 0.28071735062758257 0.061793684645139707 0 0.27160814565400287 0.087257275898576486 0 0.29730318444973441 0.074674858836938529 0 0.27160814565400287 0.087257275898576486 0 0.29730318444973441 0.074674858836938529 0 0.29249765027508179 0.094921693302381191 0 0.30272495917003822 0.088474554451340393 0 0.29730318444973441 0.074674858836938529 0 0.29249765027508179 0.094921693302381191 0 0.31753175180542431 0.063318101439596111 0 0.30621233150953647 0.052926378336930757 0 0.29730318444973441 0.074674858836938529 0 0.32135937256395319 0.066832024770024659 0 0.31753175180542431 0.063318101439596111 0 0.29730318444973441 0.074674858836938529 0 0.32135937256395319 0.066832024770024659 0 0.30272495917003822 0.088474554451340393 0 0.29730318444973441 0.074674858836938529 0 0.30787481927960419 0.1213694185377137 0 0.30194382983159079 0.1041812673136983 0 0.2858116400286338 0.1180010713995171 0 0.31461709592177811 0.094100721653868999 0 0.30787481927960419 0.1213694185377137 0 0.30194382983159079 0.1041812673136983 0 0.31461709592177811 0.094100721653868999 0 0.30272495917003822 0.088474554451340393 0 0.30194382983159079 0.1041812673136983 0 0.30272495917003822 0.088474554451340393 0 0.30194382983159079 0.1041812673136983 0 0.29249765027508179 0.094921693302381191 0 0.31461709592177811 0.094100721653868999 0 0.30787481927960419 0.1213694185377137 0 0.27160814565400287 0.087257275898576486 0 0.29249765027508179 0.094921693302381191 0 0.2858116400286338 0.1180010713995171 0 0.30194382983159079 0.1041812673136983 0 0.29249765027508179 0.094921693302381191 0 0.2858116400286338 0.1180010713995171 0 0.30787481927960419 0.1213694185377137 0 0.2858116400286338 0.1180010713995171 0 0.30787481927960419 0.1213694185377137 0 0.2858116400286338 0.1180010713995171 0 0.29460895879027349 0.1299804511357375 0 0.2858116400286338 0.1180010713995171 0 0.26374846077766351 0.1146327242613201 0 0.270708550717562 0.12802896135811051 0 0.2858116400286338 0.1180010713995171 0 0.26374846077766351 0.1146327242613201 0 0.27160814565400287 0.087257275898576486 0 0.2858116400286338 0.1180010713995171 0 0.26374846077766351 0.1146327242613201 0 0.27160814565400287 0.087257275898576486 0 0.26374846077766351 0.1146327242613201 0 0.24091524765871231 0.1111468173940373 0 0.25342826027611698 0.10039197176467771 0 0.26374846077766351 0.1146327242613201 0 0.27160814565400287 0.087257275898576486 0 0.25342826027611698 0.10039197176467771 0 0.26374846077766351 0.1146327242613201 0 0.24091524765871231 0.1111468173940373 0 0.26374846077766351 0.1146327242613201 0 0.26374846077766351 0.1146327242613201 0 0.25803940136988229 0.1345174987117474 0 0.24091524765871231 0.1111468173940373 0 0.26374846077766351 0.1146327242613201 0 0.25803940136988229 0.1345174987117474 0 0.26374846077766351 0.1146327242613201 0 0.25803940136988229 0.1345174987117474 0 0.270708550717562 0.12802896135811051 0 0.270708550717562 0.12802896135811051 0 0.28113804293990352 0.13652868711880009 0 0.26950194373642089 0.14684962388972331 0 0.2858116400286338 0.1180010713995171 0 0.270708550717562 0.12802896135811051 0 0.28113804293990352 0.13652868711880009 0 0.25803940136988229 0.1345174987117474 0 0.270708550717562 0.12802896135811051 0 0.26950194373642089 0.14684962388972331 0 0.26950194373642089 0.14684962388972331 0 0.27716370424970599 0.16072385036378789 0 0.28402811698442998 0.14949121384156741 0 0.28113804293990352 0.13652868711880009 0 0.26950194373642089 0.14684962388972331 0 0.28402811698442998 0.14949121384156741 0 0.24445650326616589 0.14307299743987489 0 0.25803940136988229 0.1345174987117474 0 0.2523303419621033 0.15440227316217531 0 0.25803940136988229 0.1345174987117474 0 0.26950194373642089 0.14684962388972331 0 0.2523303419621033 0.15440227316217531 0 0.25803940136988229 0.1345174987117474 0 0.2523303419621033 0.15440227316217531 0 0.26950194373642089 0.14684962388972331 0 0.2523303419621033 0.15440227316217531 0 0.26349114018876729 0.16587673114178089 0 0.24662128255432419 0.17428704761260311 0 0.2523303419621033 0.15440227316217531 0 0.26349114018876729 0.16587673114178089 0 0.24662128255432419 0.17428704761260311 0 0.26349114018876729 0.16587673114178089 0 0.26211645135926198 0.18328939682095491 0 0.24204190526368929 0.18587577523225851 0 0.24662128255432419 0.17428704761260311 0 0.26211645135926198 0.18328939682095491 0 0.26349114018876729 0.16587673114178089 0 0.26211645135926198 0.18328939682095491 0 0.2750948451611 0.17436921757156151 0 0.26211645135926198 0.18328939682095491 0 0.2750948451611 0.17436921757156151 0 0.27414548551799889 0.18611786125198121 0 0.2750948451611 0.17436921757156151 0 0.28279566960433788 0.16825989210004069 0 0.28306774625895931 0.1759622552978935 0 0.2750948451611 0.17436921757156151 0 0.27980151561833883 0.1808641238890161 0 0.28306774625895931 0.1759622552978935 0 0.27414548551799889 0.18611786125198121 0 0.27980151561833883 0.1808641238890161 0 0.2864766951731329 0.18531839751248669 0 0.2750948451611 0.17436921757156151 0 0.27414548551799889 0.18611786125198121 0 0.27980151561833883 0.1808641238890161 0 0.26950194373642089 0.14684962388972331 0 0.26349114018876729 0.16587673114178089 0 0.27716370424970599 0.16072385036378789 0 0.26349114018876729 0.16587673114178089 0 0.2750948451611 0.17436921757156151 0 0.27716370424970599 0.16072385036378789 0 0.2750948451611 0.17436921757156151 0 0.27716370424970599 0.16072385036378789 0 0.28279566960433788 0.16825989210004069 0 0.27716370424970599 0.16072385036378789 0 0.28764427110142521 0.16032802721346351 0 0.28402811698442998 0.14949121384156741 0 0.27716370424970599 0.16072385036378789 0 0.28764427110142521 0.16032802721346351 0 0.28279566960433788 0.16825989210004069 0 0.28279566960433788 0.16825989210004069 0 0.2910077812504992 0.16991611005349691 0 0.28306774625895931 0.1759622552978935 0 0.28764427110142521 0.16032802721346351 0 0.28279566960433788 0.16825989210004069 0 0.2910077812504992 0.16991611005349691 0 0.28764427110142521 0.16032802721346351 0 0.2964224355662865 0.1614145228840724 0 0.29460412343159748 0.15302545253323371 0 0.28764427110142521 0.16032802721346351 0 0.2910077812504992 0.16991611005349691 0 0.2964224355662865 0.1614145228840724 0 0.2910077812504992 0.16991611005349691 0 0.2864766951731329 0.18531839751248669 0 0.30607975682633543 0.16438467694342049 0 0.2864766951731329 0.18531839751248669 0 0.30607975682633543 0.16438467694342049 0 0.27980151561833883 0.1808641238890161 0 0.2864766951731329 0.18531839751248669 0 0.28306774625895931 0.1759622552978935 0 0.2910077812504992 0.16991611005349691 0 0.2864766951731329 0.18531839751248669 0 0.28306774625895931 0.1759622552978935 0 0.2864766951731329 0.18531839751248669 0 0.29521047208231149 0.185464621003256 0 0.2927427070680016 0.18894454421152701 0 0.2864766951731329 0.18531839751248669 0 0.29521047208231149 0.185464621003256 0 0.2996793452733611 0.17929486382109339 0 0.2864766951731329 0.18531839751248669 0 0.2996793452733611 0.17929486382109339 0 0.30607975682633543 0.16438467694342049 0 0.2996793452733611 0.17929486382109339 0 0.30924805831506708 0.18634277216010181 0 0.30194314081475049 0.18830067846791679 0 0.29521047208231149 0.185464621003256 0 0.2996793452733611 0.17929486382109339 0 0.30194314081475049 0.18830067846791679 0 0.2996793452733611 0.17929486382109339 0 0.3068905012091524 0.17788267646856681 0 0.30683757875269457 0.16980840111442921 0 0.30683757875269457 0.16980840111442921 0 0.31573991843594912 0.16841517320324181 0 0.3134359625181003 0.17826601499438999 0 0.3068905012091524 0.17788267646856681 0 0.30683757875269457 0.16980840111442921 0 0.3134359625181003 0.17826601499438999 0 0.2996793452733611 0.17929486382109339 0 0.3068905012091524 0.17788267646856681 0 0.30924805831506708 0.18634277216010181 0 0.3068905012091524 0.17788267646856681 0 0.30924805831506708 0.18634277216010181 0 0.3134359625181003 0.17826601499438999 0 0.2964224355662865 0.1614145228840724 0 0.30276018953560813 0.15707201523403419 0 0.30607975682633543 0.16438467694342049 0 0.2964224355662865 0.1614145228840724 0 0.30276018953560813 0.15707201523403419 0 0.29460412343159748 0.15302545253323371 0 0.2996793452733611 0.17929486382109339 0 0.30607975682633543 0.16438467694342049 0 0.30683757875269457 0.16980840111442921 0 0.2910077812504992 0.16991611005349691 0 0.2964224355662865 0.1614145228840724 0 0.30607975682633543 0.16438467694342049 0 0.30683757875269457 0.16980840111442921 0 0.31573991843594912 0.16841517320324181 0 0.30607975682633543 0.16438467694342049 0 0.30683757875269457 0.16980840111442921 0 0.31573991843594912 0.16841517320324181 0 0.30607975682633543 0.16438467694342049 0 0.30967214114923131 0.1587808146803327 0 0.31573991843594912 0.16841517320324181 0 0.30276018953560813 0.15707201523403419 0 0.30607975682633543 0.16438467694342049 0 0.30967214114923131 0.1587808146803327 0 0.30967214114923131 0.1587808146803327 0 0.30715499079396441 0.14705335644650391 0 0.31568439448109842 0.1525723022140808 0 0.30276018953560813 0.15707201523403419 0 0.30967214114923131 0.1587808146803327 0 0.30715499079396441 0.14705335644650391 0 0.30276018953560813 0.15707201523403419 0 0.30715499079396441 0.14705335644650391 0 0.29460412343159748 0.15302545253323371 0 0.30715499079396441 0.14705335644650391 0 0.30405732288040332 0.1368090330313928 0 0.29424891042194501 0.14162988930706491 0 0.30715499079396441 0.14705335644650391 0 0.29460412343159748 0.15302545253323371 0 0.29424891042194501 0.14162988930706491 0 0.30715499079396441 0.14705335644650391 0 0.30405732288040332 0.1368090330313928 0 0.31669617416661872 0.1341385021369858 0 0.30787481927960419 0.1213694185377137 0 0.30405732288040332 0.1368090330313928 0 0.30787481927960419 0.1213694185377137 0 0.30405732288040332 0.1368090330313928 0 0.31669617416661872 0.1341385021369858 0 0.30787481927960419 0.1213694185377137 0 0.30405732288040332 0.1368090330313928 0 0.29460895879027349 0.1299804511357375 0 0.30405732288040332 0.1368090330313928 0 0.29460895879027349 0.1299804511357375 0 0.29424891042194501 0.14162988930706491 0 0.28113804293990352 0.13652868711880009 0 0.29460895879027349 0.1299804511357375 0 0.29424891042194501 0.14162988930706491 0 0.2858116400286338 0.1180010713995171 0 0.28113804293990352 0.13652868711880009 0 0.29460895879027349 0.1299804511357375 0 0.28113804293990352 0.13652868711880009 0 0.28402811698442998 0.14949121384156741 0 0.29424891042194501 0.14162988930706491 0 0.28764427110142521 0.16032802721346351 0 0.28402811698442998 0.14949121384156741 0 0.29460412343159748 0.15302545253323371 0 0.28402811698442998 0.14949121384156741 0 0.29460412343159748 0.15302545253323371 0 0.29424891042194501 0.14162988930706491 0 0.27190787640768282 0.2498095979539795 0 0.25707991656272239 0.24440423681808779 0 0.27317861146112471 0.23354414327421841 0 0.27190787640768282 0.2498095979539795 0 0.27317861146112471 0.23354414327421841 0 0.29468781663764593 0.24932415106843811 0 0.25707991656272239 0.24440423681808779 0 0.26437616055670549 0.22584372188590321 0 0.27317861146112471 0.23354414327421841 0 0.2472705718667278 0.22718583865061909 0 0.26437616055670549 0.22584372188590321 0 0.26687363351993032 0.20625211808155289 0 0.2472705718667278 0.22718583865061909 0 0.25707991656272239 0.24440423681808779 0 0.26437616055670549 0.22584372188590321 0 0.26437616055670549 0.22584372188590321 0 0.27317861146112471 0.23354414327421841 0 0.27747806937302222 0.21783227260503801 0 0.27317861146112471 0.23354414327421841 0 0.27747806937302222 0.21783227260503801 0 0.29303028207592041 0.22797800895215539 0 0.26437616055670549 0.22584372188590321 0 0.26687363351993032 0.20625211808155289 0 0.27747806937302222 0.21783227260503801 0 0.26687363351993032 0.20625211808155289 0 0.27747806937302222 0.21783227260503801 0 0.28224774024546723 0.19985300097140521 0 0.2472705718667278 0.22718583865061909 0 0.26687363351993032 0.20625211808155289 0 0.24527384497532531 0.20354913523981791 0 0.2472705718667278 0.22718583865061909 0 0.26687363351993032 0.20625211808155289 0 0.24527384497532531 0.20354913523981791 0 0.26211645135926198 0.18328939682095491 0 0.26687363351993032 0.20625211808155289 0 0.24527384497532531 0.20354913523981791 0 0.26211645135926198 0.18328939682095491 0 0.2864766951731329 0.18531839751248669 0 0.26687363351993032 0.20625211808155289 0 0.28224774024546723 0.19985300097140521 0 0.2864766951731329 0.18531839751248669 0 0.26687363351993032 0.20625211808155289 0 0.27414548551799889 0.18611786125198121 0 0.2864766951731329 0.18531839751248669 0 0.26687363351993032 0.20625211808155289 0 0.26211645135926198 0.18328939682095491 0 0.27414548551799889 0.18611786125198121 0 0.26687363351993032 0.20625211808155289 0 0.2864766951731329 0.18531839751248669 0 0.28832826178617771 0.19383998097309951 0 0.28224774024546723 0.19985300097140521 0 0.28832826178617771 0.19383998097309951 0 0.28224774024546723 0.19985300097140521 0 0.29532795744401391 0.20241764030979109 0 0.29521047208231149 0.185464621003256 0 0.2927427070680016 0.18894454421152701 0 0.30194314081475049 0.18830067846791679 0 0.2864766951731329 0.18531839751248669 0 0.28832826178617771 0.19383998097309951 0 0.2927427070680016 0.18894454421152701 0 0.28832826178617771 0.19383998097309951 0 0.29532795744401391 0.20241764030979109 0 0.2927427070680016 0.18894454421152701 0 0.30924805831506708 0.18634277216010181 0 0.31189043857763638 0.20284167103683209 0 0.30194314081475049 0.18830067846791679 0 0.29532795744401391 0.20241764030979109 0 0.2927427070680016 0.18894454421152701 0 0.31189043857763638 0.20284167103683209 0 0.2927427070680016 0.18894454421152701 0 0.31189043857763638 0.20284167103683209 0 0.2927427070680016 0.18894454421152701 0 0.31189043857763638 0.20284167103683209 0 0.30194314081475049 0.18830067846791679 0 0.29532795744401391 0.20241764030979109 0 0.30906160950285139 0.2186275621867424 0 0.29153424947327172 0.2138899275791846 0 0.29532795744401391 0.20241764030979109 0 0.31189043857763638 0.20284167103683209 0 0.30906160950285139 0.2186275621867424 0 0.27747806937302222 0.21783227260503801 0 0.28224774024546723 0.19985300097140521 0 0.29153424947327172 0.2138899275791846 0 0.28224774024546723 0.19985300097140521 0 0.29532795744401391 0.20241764030979109 0 0.29153424947327172 0.2138899275791846 0 0.27747806937302222 0.21783227260503801 0 0.29153424947327172 0.2138899275791846 0 0.29303028207592041 0.22797800895215539 0 0.30906160950285139 0.2186275621867424 0 0.29303028207592041 0.22797800895215539 0 0.3138417555089355 0.23393595326783551 0 0.30906160950285139 0.2186275621867424 0 0.29153424947327172 0.2138899275791846 0 0.29303028207592041 0.22797800895215539 0 0.29468781663764593 0.24932415106843811 0 0.3138417555089355 0.23393595326783551 0 0.29303028207592041 0.22797800895215539 0 0.29468781663764593 0.24932415106843811 0 0.3138417555089355 0.23393595326783551 0 0.30852925462888448 0.25868086444592581 0 0.29468781663764593 0.24932415106843811 0 0.3138417555089355 0.23393595326783551 0 0.27317861146112471 0.23354414327421841 0 0.29303028207592041 0.22797800895215539 0 0.29468781663764593 0.24932415106843811 0 0.34341470138310998 0.23915669558068009 0 0.33329399969745149 0.23355784165868279 0 0.3501859015969061 0.23063592468744229 0 0.33341985818497039 0.25529895665708568 0 0.34278494234848489 0.24961372375922861 0 0.33309550011116479 0.2449527013720692 0 0.34278494234848489 0.24961372375922861 0 0.34341470138310998 0.23915669558068009 0 0.33309550011116479 0.2449527013720692 0 0.34341470138310998 0.23915669558068009 0 0.33309550011116479 0.2449527013720692 0 0.33329399969745149 0.23355784165868279 0 0.33309550011116479 0.2449527013720692 0 0.32507598657016928 0.23879681649117729 0 0.33329399969745149 0.23355784165868279 0 0.30852925462888448 0.25868086444592581 0 0.32268915691431888 0.25166915791209221 0 0.3138417555089355 0.23393595326783551 0 0.32268915691431888 0.25166915791209221 0 0.33309550011116479 0.2449527013720692 0 0.32507598657016928 0.23879681649117729 0 0.32268915691431888 0.25166915791209221 0 0.32507598657016928 0.23879681649117729 0 0.3138417555089355 0.23393595326783551 0 0.32245952061897581 0.22986842824520681 0 0.33329399969745149 0.23355784165868279 0 0.32509889264575059 0.2185808425372627 0 0.32507598657016928 0.23879681649117729 0 0.32245952061897581 0.22986842824520681 0 0.3138417555089355 0.23393595326783551 0 0.30906160950285139 0.2186275621867424 0 0.31746606415054529 0.22456590357021761 0 0.32509889264575059 0.2185808425372627 0 0.32507598657016928 0.23879681649117729 0 0.32245952061897581 0.22986842824520681 0 0.33329399969745149 0.23355784165868279 0 0.32245952061897581 0.22986842824520681 0 0.3138417555089355 0.23393595326783551 0 0.31746606415054529 0.22456590357021761 0 0.30906160950285139 0.2186275621867424 0 0.3138417555089355 0.23393595326783551 0 0.31746606415054529 0.22456590357021761 0 0.32245952061897581 0.22986842824520681 0 0.31746606415054529 0.22456590357021761 0 0.32509889264575059 0.2185808425372627 0 0.33103817008727121 0.21673879786213721 0 0.3501859015969061 0.23063592468744229 0 0.33103817008727121 0.21673879786213721 0 0.32509889264575059 0.2185808425372627 0 0.3501859015969061 0.23063592468744229 0 0.32509889264575059 0.2185808425372627 0 0.3501859015969061 0.23063592468744229 0 0.33103817008727121 0.21673879786213721 0 0.34323626834759369 0.2120736136176625 0 0.3501859015969061 0.23063592468744229 0 0.33329399969745149 0.23355784165868279 0 0.32509889264575059 0.2185808425372627 0 0.3501859015969061 0.23063592468744229 0 0.33103817008727121 0.21673879786213721 0 0.34323626834759369 0.2120736136176625 0 0.32584829320140202 0.2037498893580808 0 0.31189043857763638 0.20284167103683209 0 0.33103817008727121 0.21673879786213721 0 0.32584829320140202 0.2037498893580808 0 0.31189043857763638 0.20284167103683209 0 0.33103817008727121 0.21673879786213721 0 0.31189043857763638 0.20284167103683209 0 0.30906160950285139 0.2186275621867424 0 0.32509889264575059 0.2185808425372627 0 0.31189043857763638 0.20284167103683209 0 0.33103817008727121 0.21673879786213721 0 0.32509889264575059 0.2185808425372627 0 0.31189043857763638 0.20284167103683209 0 0.32584829320140202 0.2037498893580808 0 0.32948809339177138 0.19024439341045221 0 0.30924805831506708 0.18634277216010181 0 0.31189043857763638 0.20284167103683209 0 0.32948809339177138 0.19024439341045221 0 0.34323626834759369 0.2120736136176625 0 0.32948809339177138 0.19024439341045221 0 0.34323626834759369 0.2120736136176625 0 0.32584829320140202 0.2037498893580808 0 0.32948809339177138 0.19024439341045221 0 0.34323626834759369 0.2120736136176625 0 0.32948809339177138 0.19024439341045221 0 0.34681430704898081 0.19517182431416411 0 0.32948809339177138 0.19024439341045221 0 0.34681430704898081 0.19517182431416411 0 0.3529840382012947 0.17903468515889129 0 0.34681430704898081 0.19517182431416411 0 0.3611497056187466 0.1947571951910502 0 0.3529840382012947 0.17903468515889129 0 0.34681430704898081 0.19517182431416411 0 0.3611497056187466 0.1947571951910502 0 0.35488262632623602 0.20500268303824629 0 0.3611497056187466 0.1947571951910502 0 0.37447281708369201 0.1988706686609889 0 0.37072654673294819 0.1824564013573258 0 0.3611497056187466 0.1947571951910502 0 0.37447281708369201 0.1988706686609889 0 0.36541447024260099 0.20835791930193229 0 0.3611497056187466 0.1947571951910502 0 0.36541447024260099 0.20835791930193229 0 0.35488262632623602 0.20500268303824629 0 0.36541447024260099 0.20835791930193229 0 0.35790729253534243 0.2145308225199184 0 0.35488262632623602 0.20500268303824629 0 0.37447281708369201 0.1988706686609889 0 0.36541447024260099 0.20835791930193229 0 0.37820159339456888 0.21210403689290769 0 0.36541447024260099 0.20835791930193229 0 0.3690028438711479 0.2183822744109333 0 0.37820159339456888 0.21210403689290769 0 0.36541447024260099 0.20835791930193229 0 0.3690028438711479 0.2183822744109333 0 0.35790729253534243 0.2145308225199184 0 0.34323626834759369 0.2120736136176625 0 0.34681430704898081 0.19517182431416411 0 0.35488262632623602 0.20500268303824629 0 0.34323626834759369 0.2120736136176625 0 0.35790729253534243 0.2145308225199184 0 0.36054612255829999 0.22377401141774361 0 0.34323626834759369 0.2120736136176625 0 0.35790729253534243 0.2145308225199184 0 0.35488262632623602 0.20500268303824629 0 0.34323626834759369 0.2120736136176625 0 0.3501859015969061 0.23063592468744229 0 0.35698444330341489 0.2339028338248734 0 0.34323626834759369 0.2120736136176625 0 0.35698444330341489 0.2339028338248734 0 0.34323626834759369 0.2120736136176625 0 0.35698444330341489 0.2339028338248734 0 0.36054612255829999 0.22377401141774361 0 0.3501859015969061 0.23063592468744229 0 0.35698444330341489 0.2339028338248734 0 0.35891873063886792 0.23697407668621939 0 0.3501859015969061 0.23063592468744229 0 0.35891873063886792 0.23697407668621939 0 0.3501859015969061 0.23063592468744229 0 0.35698444330341489 0.2339028338248734 0 0.3690028438711479 0.2183822744109333 0 0.36054612255829999 0.22377401141774361 0 0.37111483545234181 0.22848741455658159 0 0.3690028438711479 0.2183822744109333 0 0.35790729253534243 0.2145308225199184 0 0.36054612255829999 0.22377401141774361 0 0.3690028438711479 0.2183822744109333 0 0.37111483545234181 0.22848741455658159 0 0.38090127595643719 0.22312787948758481 0 0.37111483545234181 0.22848741455658159 0 0.37312552184007258 0.23439690856132531 0 0.38046304044700169 0.2334370615356722 0 0.37111483545234181 0.22848741455658159 0 0.36740374334097309 0.2331397555769997 0 0.37312552184007258 0.23439690856132531 0 0.36054612255829999 0.22377401141774361 0 0.37111483545234181 0.22848741455658159 0 0.36740374334097309 0.2331397555769997 0 0.35698444330341489 0.2339028338248734 0 0.36054612255829999 0.22377401141774361 0 0.36740374334097309 0.2331397555769997 0 0.35698444330341489 0.2339028338248734 0 0.37571629189778022 0.24290406526180941 0 0.35891873063886792 0.23697407668621939 0 0.37671128770489021 0.24988763889950741 0 0.36129081369673399 0.24074044739260961 0 0.35891873063886792 0.23697407668621939 0 0.37671128770489021 0.24988763889950741 0 0.35698444330341489 0.2339028338248734 0 0.35891873063886792 0.23697407668621939 0 0.37571629189778022 0.24290406526180941 0 0.35698444330341489 0.2339028338248734 0 0.36740374334097309 0.2331397555769997 0 0.37571629189778022 0.24290406526180941 0 0.35891873063886792 0.23697407668621939 0 0.37671128770489021 0.24988763889950741 0 0.37571629189778022 0.24290406526180941 0 0.36129081369673399 0.24074044739260961 0 0.35891873063886792 0.23697407668621939 0 0.36740374334097309 0.2331397555769997 0 0.37312552184007258 0.23439690856132531 0 0.37571629189778022 0.24290406526180941 0 0.36129081369673399 0.24074044739260961 0 0.3656525742052178 0.24792632527541669 0 0.37671128770489021 0.24988763889950741 0 0.36615677495489168 0.25294791763754748 0 0.3656525742052178 0.24792632527541669 0 0.35845142046435519 0.2481292971720023 0 0.36129081369673399 0.24074044739260961 0 0.3656525742052178 0.24792632527541669 0 0.35845142046435519 0.2481292971720023 0 0.35845142046435519 0.2481292971720023 0 0.35621516235778888 0.24179007057475471 0 0.3505719851215513 0.24456682483287739 0 0.35080130212163568 0.25340632700122723 0 0.35845142046435519 0.2481292971720023 0 0.3505719851215513 0.24456682483287739 0 0.36129081369673399 0.24074044739260961 0 0.35845142046435519 0.2481292971720023 0 0.35621516235778888 0.24179007057475471 0 0.36129081369673399 0.24074044739260961 0 0.35621516235778888 0.24179007057475471 0 0.35891873063886792 0.23697407668621939 0 0.3501859015969061 0.23063592468744229 0 0.35891873063886792 0.23697407668621939 0 0.35184286186743557 0.238539706790065 0 0.35621516235778888 0.24179007057475471 0 0.35891873063886792 0.23697407668621939 0 0.35184286186743557 0.238539706790065 0 0.35698444330341489 0.2339028338248734 0 0.35891873063886792 0.23697407668621939 0 0.35621516235778888 0.24179007057475471 0 0.35184286186743557 0.238539706790065 0 0.3505719851215513 0.24456682483287739 0 0.34341470138310998 0.23915669558068009 0 0.3501859015969061 0.23063592468744229 0 0.35184286186743557 0.238539706790065 0 0.34341470138310998 0.23915669558068009 0 0.35184286186743557 0.238539706790065 0 0.3505719851215513 0.24456682483287739 0 0.34278494234848489 0.24961372375922861 0 0.34341470138310998 0.23915669558068009 0 0.3505719851215513 0.24456682483287739 0 0.35080130212163568 0.25340632700122723 0 0.34278494234848489 0.24961372375922861 0 0.3505719851215513 0.24456682483287739 0 0.3400650412170626 0.14649925062294189 0 0.33215607356764543 0.13534323186327249 0 0.32269664171840512 0.14374913015308241 0 0.3400650412170626 0.14649925062294189 0 0.32296277282039898 0.1571382351283849 0 0.33781222363217439 0.1649608283054084 0 0.3400650412170626 0.14649925062294189 0 0.32269664171840512 0.14374913015308241 0 0.32296277282039898 0.1571382351283849 0 0.32603660620435437 0.1241421469063976 0 0.34419839312910472 0.12691487527508141 0 0.32603660620435437 0.1241421469063976 0 0.33215607356764543 0.13534323186327249 0 0.34419839312910472 0.12691487527508141 0 0.3400650412170626 0.14649925062294189 0 0.33215607356764543 0.13534323186327249 0 0.34419839312910472 0.12691487527508141 0 0.32603660620435437 0.1241421469063976 0 0.30787481927960419 0.1213694185377137 0 0.31669617416661872 0.1341385021369858 0 0.33215607356764543 0.13534323186327249 0 0.31669617416661872 0.1341385021369858 0 0.32269664171840512 0.14374913015308241 0 0.32603660620435437 0.1241421469063976 0 0.33215607356764543 0.13534323186327249 0 0.31669617416661872 0.1341385021369858 0 0.30715499079396441 0.14705335644650391 0 0.32269664171840512 0.14374913015308241 0 0.31568439448109842 0.1525723022140808 0 0.30715499079396441 0.14705335644650391 0 0.31669617416661872 0.1341385021369858 0 0.32269664171840512 0.14374913015308241 0 0.32269664171840512 0.14374913015308241 0 0.31568439448109842 0.1525723022140808 0 0.32296277282039898 0.1571382351283849 0 0.31573991843594912 0.16841517320324181 0 0.32296277282039898 0.1571382351283849 0 0.33781222363217439 0.1649608283054084 0 0.31573991843594912 0.16841517320324181 0 0.33781222363217439 0.1649608283054084 0 0.30967214114923131 0.1587808146803327 0 0.31601480672166937 0.15922663130650999 0 0.31573991843594912 0.16841517320324181 0 0.31601480672166937 0.15922663130650999 0 0.31573991843594912 0.16841517320324181 0 0.32296277282039898 0.1571382351283849 0 0.30967214114923131 0.1587808146803327 0 0.31573991843594912 0.16841517320324181 0 0.30967214114923131 0.1587808146803327 0 0.31568439448109842 0.1525723022140808 0 0.31601480672166937 0.15922663130650999 0 0.31568439448109842 0.1525723022140808 0 0.31601480672166937 0.15922663130650999 0 0.32296277282039898 0.1571382351283849 0 0.32948809339177138 0.19024439341045221 0 0.31573991843594912 0.16841517320324181 0 0.30924805831506708 0.18634277216010181 0 0.32948809339177138 0.19024439341045221 0 0.3134359625181003 0.17826601499438999 0 0.32948809339177138 0.19024439341045221 0 0.31573991843594912 0.16841517320324181 0 0.3134359625181003 0.17826601499438999 0 0.32948809339177138 0.19024439341045221 0 0.31573991843594912 0.16841517320324181 0 0.33234821657136038 0.17570538754118939 0 0.33234821657136038 0.17570538754118939 0 0.33781222363217439 0.1649608283054084 0 0.3529840382012947 0.17903468515889129 0 0.32948809339177138 0.19024439341045221 0 0.33234821657136038 0.17570538754118939 0 0.3529840382012947 0.17903468515889129 0 0.31573991843594912 0.16841517320324181 0 0.33234821657136038 0.17570538754118939 0 0.33781222363217439 0.1649608283054084 0 0.3529840382012947 0.17903468515889129 0 0.35988452882839989 0.1615064834075764 0 0.33781222363217439 0.1649608283054084 0 0.3529840382012947 0.17903468515889129 0 0.35988452882839989 0.1615064834075764 0 0.33781222363217439 0.1649608283054084 0 0.35988452882839989 0.1615064834075764 0 0.3400650412170626 0.14649925062294189 0 0.33781222363217439 0.1649608283054084 0 0.35988452882839989 0.1615064834075764 0 0.3611497056187466 0.1947571951910502 0 0.3529840382012947 0.17903468515889129 0 0.37072654673294819 0.1824564013573258 0 0.3529840382012947 0.17903468515889129 0 0.37072654673294819 0.1824564013573258 0 0.35988452882839989 0.1615064834075764 0 0.35988452882839989 0.1615064834075764 0 0.37682063441554242 0.15885596052815609 0 0.37828564343636861 0.17049711546114121 0 0.35988452882839989 0.1615064834075764 0 0.37682063441554242 0.15885596052815609 0 0.37072654673294819 0.1824564013573258 0 0.35988452882839989 0.1615064834075764 0 0.37828564343636861 0.17049711546114121 0 0.35988452882839989 0.1615064834075764 0 0.35432257944819912 0.14036502086732619 0 0.36845936317660938 0.13972521674675301 0 0.35988452882839989 0.1615064834075764 0 0.36845936317660938 0.13972521674675301 0 0.37601866683817381 0.14799277190544829 0 0.35988452882839989 0.1615064834075764 0 0.36845936317660938 0.13972521674675301 0 0.35988452882839989 0.1615064834075764 0 0.37601866683817381 0.14799277190544829 0 0.37682063441554242 0.15885596052815609 0 0.36845936317660938 0.13972521674675301 0 0.38002826378497712 0.13468628068508889 0 0.37601866683817381 0.14799277190544829 0 0.3400650412170626 0.14649925062294189 0 0.35988452882839989 0.1615064834075764 0 0.35432257944819912 0.14036502086732619 0 0.3400650412170626 0.14649925062294189 0 0.34419839312910472 0.12691487527508141 0 0.35432257944819912 0.14036502086732619 0 0.34419839312910472 0.12691487527508141 0 0.35432257944819912 0.14036502086732619 0 0.35900557088981849 0.12717927828427811 0 0.36845936317660938 0.13972521674675301 0 0.37703419752481859 0.11794395008592939 0 0.35900557088981849 0.12717927828427811 0 0.36845936317660938 0.13972521674675301 0 0.37703419752481859 0.11794395008592939 0 0.35432257944819912 0.14036502086732619 0 0.35900557088981849 0.12717927828427811 0 0.36845936317660938 0.13972521674675301 0 0.38002826378497712 0.13468628068508889 0 0.38655398813174269 0.12668353439294941 0 0.37703419752481859 0.11794395008592939 0 0.36845936317660938 0.13972521674675301 0 0.38002826378497712 0.13468628068508889 0 0.37703419752481859 0.11794395008592939 0 0.38620455634480511 0.13436144364641781 0 0.39036676537822501 0.13803177650962159 0 0.38584695919500822 0.1426925051808122 0 0.38620455634480511 0.13436144364641781 0 0.39036676537822501 0.13803177650962159 0 0.38822680523407238 0.12971312146361699 0 0.38002826378497712 0.13468628068508889 0 0.38620455634480511 0.13436144364641781 0 0.38584695919500822 0.1426925051808122 0 0.38002826378497712 0.13468628068508889 0 0.38620455634480511 0.13436144364641781 0 0.38655398813174269 0.12668353439294941 0 0.38620455634480511 0.13436144364641781 0 0.38655398813174269 0.12668353439294941 0 0.38822680523407238 0.12971312146361699 0 0.38655398813174269 0.12668353439294941 0 0.38822680523407238 0.12971312146361699 0 0.38655398813174269 0.12668353439294941 0 0.38822680523407238 0.12971312146361699 0 0.39997302720349442 0.13900279939878701 0 0.38655398813174269 0.12668353439294941 0 0.39997302720349442 0.13900279939878701 0 0.3992976659921943 0.1238598412511633 0 0.38655398813174269 0.12668353439294941 0 0.39997302720349442 0.13900279939878701 0 0.39036676537822501 0.13803177650962159 0 0.39997302720349442 0.13900279939878701 0 0.39355743468088678 0.1435088697603645 0 0.39036676537822501 0.13803177650962159 0 0.38822680523407238 0.12971312146361699 0 0.39997302720349442 0.13900279939878701 0 0.39997302720349442 0.13900279939878701 0 0.41459953355033502 0.1236319525613281 0 0.3992976659921943 0.1238598412511633 0 0.39950236892543872 0.14855719130326331 0 0.40454688748480078 0.1542308239288489 0 0.4133920662752455 0.15132206440462509 0 0.39950236892543872 0.14855719130326331 0 0.40454688748480078 0.1542308239288489 0 0.39764768929586108 0.15320522933389669 0 0.40454688748480078 0.1542308239288489 0 0.39764768929586108 0.15320522933389669 0 0.39832724533775199 0.1580507158559632 0 0.39997302720349442 0.13900279939878701 0 0.39950236892543872 0.14855719130326331 0 0.4133920662752455 0.15132206440462509 0 0.39950236892543872 0.14855719130326331 0 0.39355743468088678 0.1435088697603645 0 0.39209805270226789 0.14926007640933819 0 0.39997302720349442 0.13900279939878701 0 0.39950236892543872 0.14855719130326331 0 0.39355743468088678 0.1435088697603645 0 0.39950236892543872 0.14855719130326331 0 0.39209805270226789 0.14926007640933819 0 0.39764768929586108 0.15320522933389669 0 0.39764768929586108 0.15320522933389669 0 0.39375674000268501 0.15620543764873709 0 0.39832724533775199 0.1580507158559632 0 0.39209805270226789 0.14926007640933819 0 0.39764768929586108 0.15320522933389669 0 0.39375674000268501 0.15620543764873709 0 0.39375674000268501 0.15620543764873709 0 0.38507225162850622 0.1504901848843031 0 0.37682063441554242 0.15885596052815609 0 0.39209805270226789 0.14926007640933819 0 0.39375674000268501 0.15620543764873709 0 0.38507225162850622 0.1504901848843031 0 0.39036676537822501 0.13803177650962159 0 0.39355743468088678 0.1435088697603645 0 0.38584695919500822 0.1426925051808122 0 0.39209805270226789 0.14926007640933819 0 0.38507225162850622 0.1504901848843031 0 0.38584695919500822 0.1426925051808122 0 0.39355743468088678 0.1435088697603645 0 0.39209805270226789 0.14926007640933819 0 0.38584695919500822 0.1426925051808122 0 0.38507225162850622 0.1504901848843031 0 0.38584695919500822 0.1426925051808122 0 0.37601866683817381 0.14799277190544829 0 0.38002826378497712 0.13468628068508889 0 0.38584695919500822 0.1426925051808122 0 0.37601866683817381 0.14799277190544829 0 0.38507225162850622 0.1504901848843031 0 0.37601866683817381 0.14799277190544829 0 0.37682063441554242 0.15885596052815609 0 0.39375674000268501 0.15620543764873709 0 0.37682063441554242 0.15885596052815609 0 0.39375674000268501 0.15620543764873709 0 0.37682063441554242 0.15885596052815609 0 0.39147127392334857 0.16516867616089781 0 0.37682063441554242 0.15885596052815609 0 0.37828564343636861 0.17049711546114121 0 0.39147127392334857 0.16516867616089781 0 0.37828564343636861 0.17049711546114121 0 0.38854146517207833 0.17515965752940951 0 0.39147127392334857 0.16516867616089781 0 0.37072654673294819 0.1824564013573258 0 0.38226941154589422 0.1798355137834815 0 0.38449107600533511 0.1908641985064993 0 0.37072654673294819 0.1824564013573258 0 0.37828564343636861 0.17049711546114121 0 0.38226941154589422 0.1798355137834815 0 0.38226941154589422 0.1798355137834815 0 0.38854146517207833 0.17515965752940951 0 0.39233452659116541 0.18375544348405989 0 0.37828564343636861 0.17049711546114121 0 0.38226941154589422 0.1798355137834815 0 0.38854146517207833 0.17515965752940951 0 0.38226941154589422 0.1798355137834815 0 0.39233452659116541 0.18375544348405989 0 0.38449107600533511 0.1908641985064993 0 0.39233452659116541 0.18375544348405989 0 0.39477368736023782 0.1730322081041685 0 0.4031939257768446 0.18302654749051231 0 0.38854146517207833 0.17515965752940951 0 0.39233452659116541 0.18375544348405989 0 0.39477368736023782 0.1730322081041685 0 0.4031939257768446 0.18302654749051231 0 0.39832724533775199 0.1580507158559632 0 0.4051752279762571 0.17114739829924941 0 0.4031939257768446 0.18302654749051231 0 0.39832724533775199 0.1580507158559632 0 0.39477368736023782 0.1730322081041685 0 0.4031939257768446 0.18302654749051231 0 0.39832724533775199 0.1580507158559632 0 0.39375674000268501 0.15620543764873709 0 0.39832724533775199 0.1580507158559632 0 0.39147127392334857 0.16516867616089781 0 0.39477368736023782 0.1730322081041685 0 0.39832724533775199 0.1580507158559632 0 0.39147127392334857 0.16516867616089781 0 0.38854146517207833 0.17515965752940951 0 0.39477368736023782 0.1730322081041685 0 0.39147127392334857 0.16516867616089781 0 0.4051752279762571 0.17114739829924941 0 0.40457154668894912 0.1609298535201763 0 0.40782821045700729 0.1669858319015646 0 0.39832724533775199 0.1580507158559632 0 0.4051752279762571 0.17114739829924941 0 0.40457154668894912 0.1609298535201763 0 0.40454688748480078 0.1542308239288489 0 0.39832724533775199 0.1580507158559632 0 0.40457154668894912 0.1609298535201763 0 0.42046943085514238 0.16886478697263929 0 0.41217277326263102 0.17928336868637021 0 0.4133920662752455 0.15132206440462509 0 0.40457154668894912 0.1609298535201763 0 0.40782821045700729 0.1669858319015646 0 0.4133920662752455 0.15132206440462509 0 0.41217277326263102 0.17928336868637021 0 0.4133920662752455 0.15132206440462509 0 0.42046943085514238 0.16886478697263929 0 0.4133920662752455 0.15132206440462509 0 0.41820471773315487 0.1557402890162157 0 0.40782821045700729 0.1669858319015646 0 0.41217277326263102 0.17928336868637021 0 0.4133920662752455 0.15132206440462509 0 0.4031939257768446 0.18302654749051231 0 0.41217277326263102 0.17928336868637021 0 0.41482061069616438 0.19037574064345381 0 0.4051752279762571 0.17114739829924941 0 0.40782821045700729 0.1669858319015646 0 0.41217277326263102 0.17928336868637021 0 0.4031939257768446 0.18302654749051231 0 0.4051752279762571 0.17114739829924941 0 0.41217277326263102 0.17928336868637021 0 0.42046943085514238 0.16886478697263929 0 0.41217277326263102 0.17928336868637021 0 0.42078704835203862 0.1775821023707107 0 0.41217277326263102 0.17928336868637021 0 0.42078704835203862 0.1775821023707107 0 0.42134051861483229 0.18430110502963029 0 0.41217277326263102 0.17928336868637021 0 0.42134051861483229 0.18430110502963029 0 0.41482061069616438 0.19037574064345381 0 0.42134051861483229 0.18430110502963029 0 0.43064954185255538 0.1787236411957642 0 0.42848535847169628 0.195661729075471 0 0.42078704835203862 0.1775821023707107 0 0.42134051861483229 0.18430110502963029 0 0.43064954185255538 0.1787236411957642 0 0.42046943085514238 0.16886478697263929 0 0.42078704835203862 0.1775821023707107 0 0.43064954185255538 0.1787236411957642 0 0.43064954185255538 0.1787236411957642 0 0.44043088775549799 0.18192700866746389 0 0.44076874684864692 0.17474914775532871 0 0.43064954185255538 0.1787236411957642 0 0.43711518148331852 0.189051984209122 0 0.44043088775549799 0.18192700866746389 0 0.43064954185255538 0.1787236411957642 0 0.43297278980773379 0.1595770888539309 0 0.44076874684864692 0.17474914775532871 0 0.42046943085514238 0.16886478697263929 0 0.43064954185255538 0.1787236411957642 0 0.43297278980773379 0.1595770888539309 0 0.42046943085514238 0.16886478697263929 0 0.43297278980773379 0.1595770888539309 0 0.41820471773315487 0.1557402890162157 0 0.43297278980773379 0.1595770888539309 0 0.42687267362948678 0.14706679406065151 0 0.4408547642829419 0.14954061823723999 0 0.43297278980773379 0.1595770888539309 0 0.42687267362948678 0.14706679406065151 0 0.41365424601306422 0.1453096561075089 0 0.43297278980773379 0.1595770888539309 0 0.41365424601306422 0.1453096561075089 0 0.42687267362948678 0.14706679406065151 0 0.41738360032164418 0.13917282440709669 0 0.4384580968571804 0.12278464696091849 0 0.41738360032164418 0.13917282440709669 0 0.4384580968571804 0.12278464696091849 0 0.41459953355033502 0.1236319525613281 0 0.42687267362948678 0.14706679406065151 0 0.4408547642829419 0.14954061823723999 0 0.4384580968571804 0.12278464696091849 0 0.41738360032164418 0.13917282440709669 0 0.4384580968571804 0.12278464696091849 0 0.41365424601306422 0.1453096561075089 0 0.41459953355033502 0.1236319525613281 0 0.39997302720349442 0.13900279939878701 0 0.41365424601306422 0.1453096561075089 0 0.41459953355033502 0.1236319525613281 0 0.41738360032164418 0.13917282440709669 0 0.41365424601306422 0.1453096561075089 0 0.41459953355033502 0.1236319525613281 0 0.39997302720349442 0.13900279939878701 0 0.41365424601306422 0.1453096561075089 0 0.4133920662752455 0.15132206440462509 0 0.43297278980773379 0.1595770888539309 0 0.41365424601306422 0.1453096561075089 0 0.41820471773315487 0.1557402890162157 0 0.39997302720349442 0.13900279939878701 0 0.4133920662752455 0.15132206440462509 0 0.41365424601306422 0.1453096561075089 0 0.4133920662752455 0.15132206440462509 0 0.40454688748480078 0.1542308239288489 0 0.40457154668894912 0.1609298535201763 0 0.4133920662752455 0.15132206440462509 0 0.41365424601306422 0.1453096561075089 0 0.4133920662752455 0.15132206440462509 0 0.41820471773315487 0.1557402890162157 0 0.4133920662752455 0.15132206440462509 0 0.41820471773315487 0.1557402890162157 0 0.42687267362948678 0.14706679406065151 0 0.41738360032164418 0.13917282440709669 0 0.41365424601306422 0.1453096561075089 0 0.39967010680651333 0.24186212484987291 0 0.39296158831776717 0.23098850539332219 0 0.4129272866550297 0.23297821075961059 0 0.39444814049214599 0.25190529669874417 0 0.40817297360782467 0.25266924123366369 0 0.39967010680651333 0.24186212484987291 0 0.39967010680651333 0.24186212484987291 0 0.38905184870836562 0.23986817408102171 0 0.39296158831776717 0.23098850539332219 0 0.39444814049214599 0.25190529669874417 0 0.39967010680651333 0.24186212484987291 0 0.38905184870836562 0.23986817408102171 0 0.39444814049214599 0.25190529669874417 0 0.37671128770489021 0.24988763889950741 0 0.37571629189778022 0.24290406526180941 0 0.39444814049214599 0.25190529669874417 0 0.37571629189778022 0.24290406526180941 0 0.39444814049214599 0.25190529669874417 0 0.37571629189778022 0.24290406526180941 0 0.38905184870836562 0.23986817408102171 0 0.37571629189778022 0.24290406526180941 0 0.38905184870836562 0.23986817408102171 0 0.38046304044700169 0.2334370615356722 0 0.37312552184007258 0.23439690856132531 0 0.37571629189778022 0.24290406526180941 0 0.38046304044700169 0.2334370615356722 0 0.38905184870836562 0.23986817408102171 0 0.38046304044700169 0.2334370615356722 0 0.39296158831776717 0.23098850539332219 0 0.38046304044700169 0.2334370615356722 0 0.38090127595643719 0.22312787948758481 0 0.39296158831776717 0.23098850539332219 0 0.37111483545234181 0.22848741455658159 0 0.38046304044700169 0.2334370615356722 0 0.38090127595643719 0.22312787948758481 0 0.38090127595643719 0.22312787948758481 0 0.39296158831776717 0.23098850539332219 0 0.39366375425579608 0.2153679841360919 0 0.39366375425579608 0.2153679841360919 0 0.40806060621593709 0.20800237912506131 0 0.4129272866550297 0.23297821075961059 0 0.39296158831776717 0.23098850539332219 0 0.39366375425579608 0.2153679841360919 0 0.4129272866550297 0.23297821075961059 0 0.39366375425579608 0.2153679841360919 0 0.3948248125755095 0.19751355797599141 0 0.40806060621593709 0.20800237912506131 0 0.39366375425579608 0.2153679841360919 0 0.38513081066298033 0.20294408923449589 0 0.3948248125755095 0.19751355797599141 0 0.38090127595643719 0.22312787948758481 0 0.39366375425579608 0.2153679841360919 0 0.37820159339456888 0.21210403689290769 0 0.3690028438711479 0.2183822744109333 0 0.38090127595643719 0.22312787948758481 0 0.37820159339456888 0.21210403689290769 0 0.37447281708369201 0.1988706686609889 0 0.37820159339456888 0.21210403689290769 0 0.38513081066298033 0.20294408923449589 0 0.39366375425579608 0.2153679841360919 0 0.37820159339456888 0.21210403689290769 0 0.38513081066298033 0.20294408923449589 0 0.37447281708369201 0.1988706686609889 0 0.37072654673294819 0.1824564013573258 0 0.38449107600533511 0.1908641985064993 0 0.38513081066298033 0.20294408923449589 0 0.38449107600533511 0.1908641985064993 0 0.3948248125755095 0.19751355797599141 0 0.37447281708369201 0.1988706686609889 0 0.38513081066298033 0.20294408923449589 0 0.38449107600533511 0.1908641985064993 0 0.39233452659116541 0.18375544348405989 0 0.38449107600533511 0.1908641985064993 0 0.3948248125755095 0.19751355797599141 0 0.39233452659116541 0.18375544348405989 0 0.4031939257768446 0.18302654749051231 0 0.3948248125755095 0.19751355797599141 0 0.4031939257768446 0.18302654749051231 0 0.40806060621593709 0.20800237912506131 0 0.4031939257768446 0.18302654749051231 0 0.3948248125755095 0.19751355797599141 0 0.40806060621593709 0.20800237912506131 0 0.4031939257768446 0.18302654749051231 0 0.41482061069616438 0.19037574064345381 0 0.40806060621593709 0.20800237912506131 0 0.41482061069616438 0.19037574064345381 0 0.42848535847169628 0.195661729075471 0 0.40806060621593709 0.20800237912506131 0 0.42134051861483229 0.18430110502963029 0 0.41482061069616438 0.19037574064345381 0 0.42848535847169628 0.195661729075471 0 0.43064954185255538 0.1787236411957642 0 0.43711518148331852 0.189051984209122 0 0.42848535847169628 0.195661729075471 0 0.42848535847169628 0.195661729075471 0 0.4326538661265481 0.21379360582811049 0 0.44081343219618863 0.19780585273145929 0 0.43711518148331852 0.189051984209122 0 0.42848535847169628 0.195661729075471 0 0.44081343219618863 0.19780585273145929 0 0.42848535847169628 0.195661729075471 0 0.4326538661265481 0.21379360582811049 0 0.40806060621593709 0.20800237912506131 0 0.4326538661265481 0.21379360582811049 0 0.40806060621593709 0.20800237912506131 0 0.42683842993883009 0.22870556885935961 0 0.40806060621593709 0.20800237912506131 0 0.4129272866550297 0.23297821075961059 0 0.42683842993883009 0.22870556885935961 0 0.40806060621593709 0.20800237912506131 0 0.4129272866550297 0.23297821075961059 0 0.4326538661265481 0.21379360582811049 0 0.42683842993883009 0.22870556885935961 0 0.44124894471458448 0.23073348408637809 0 0.42287166121750841 0.24910642920950041 0 0.44124894471458448 0.23073348408637809 0 0.42287166121750841 0.24910642920950041 0 0.44822296264081168 0.24528399831525291 0 0.44124894471458448 0.23073348408637809 0 0.42683842993883009 0.22870556885935961 0 0.42287166121750841 0.24910642920950041 0 0.44124894471458448 0.23073348408637809 0 0.4129272866550297 0.23297821075961059 0 0.42683842993883009 0.22870556885935961 0 0.42287166121750841 0.24910642920950041 0 0.40817297360782467 0.25266924123366369 0 0.4129272866550297 0.23297821075961059 0 0.42287166121750841 0.24910642920950041 0 0.40817297360782467 0.25266924123366369 0 0.39967010680651333 0.24186212484987291 0 0.4129272866550297 0.23297821075961059 0 0.46710251890239107 0.2460923996478282 0 0.44822296264081168 0.24528399831525291 0 0.46046615228388921 0.22772984839538149 0 0.44822296264081168 0.24528399831525291 0 0.44985359699426919 0.21578613103441011 0 0.4326538661265481 0.21379360582811049 0 0.44124894471458448 0.23073348408637809 0 0.44985359699426919 0.21578613103441011 0 0.44822296264081168 0.24528399831525291 0 0.44124894471458448 0.23073348408637809 0 0.44985359699426919 0.21578613103441011 0 0.44822296264081168 0.24528399831525291 0 0.46046615228388921 0.22772984839538149 0 0.44985359699426919 0.21578613103441011 0 0.46710251890239107 0.2460923996478282 0 0.46046615228388921 0.22772984839538149 0 0.47427304480540627 0.22556172073508859 0 0.46046615228388921 0.22772984839538149 0 0.46287863807656759 0.2059249922443277 0 0.47427304480540627 0.22556172073508859 0 0.46287863807656759 0.2059249922443277 0 0.47427304480540627 0.22556172073508859 0 0.46046615228388921 0.22772984839538149 0 0.46287863807656759 0.2059249922443277 0 0.44985359699426919 0.21578613103441011 0 0.4326538661265481 0.21379360582811049 0 0.44985359699426919 0.21578613103441011 0 0.44081343219618863 0.19780585273145929 0 0.44985359699426919 0.21578613103441011 0 0.44081343219618863 0.19780585273145929 0 0.45148423134772769 0.18628826375356741 0 0.44985359699426919 0.21578613103441011 0 0.45148423134772769 0.18628826375356741 0 0.43711518148331852 0.189051984209122 0 0.44081343219618863 0.19780585273145929 0 0.44363526852442597 0.1871859954101284 0 0.44081343219618863 0.19780585273145929 0 0.44363526852442597 0.1871859954101284 0 0.45148423134772769 0.18628826375356741 0 0.46287863807656759 0.2059249922443277 0 0.44985359699426919 0.21578613103441011 0 0.45148423134772769 0.18628826375356741 0 0.46287863807656759 0.2059249922443277 0 0.46154789637017929 0.19357294525638069 0 0.45148423134772769 0.18628826375356741 0 0.46287863807656759 0.2059249922443277 0 0.45148423134772769 0.18628826375356741 0 0.46287863807656759 0.2059249922443277 0 0.46154789637017929 0.19357294525638069 0 0.47329525655149929 0.18953023984392561 0 0.46287863807656759 0.2059249922443277 0 0.47329525655149929 0.18953023984392561 0 0.47815442766613891 0.2086352068523489 0 0.47329525655149929 0.18953023984392561 0 0.49441810827424743 0.20522114414825041 0 0.47815442766613891 0.2086352068523489 0 0.47329525655149929 0.18953023984392561 0 0.49441810827424743 0.20522114414825041 0 0.47329525655149929 0.18953023984392561 0 0.48751312219743731 0.18837672975162251 0 0.49441810827424743 0.20522114414825041 0 0.49441810827424743 0.20522114414825041 0 0.5 0.2108446248869035 0 0.5 0.18141687287844799 0 0.48751312219743731 0.18837672975162251 0 0.49441810827424743 0.20522114414825041 0 0.5 0.18141687287844799 0 0.5 0.2108446248869035 0 0.48713563569858409 0.21627134263349901 0 0.48941522640764712 0.2276297028753399 0 0.49441810827424743 0.20522114414825041 0 0.48713563569858409 0.21627134263349901 0 0.47815442766613891 0.2086352068523489 0 0.49441810827424743 0.20522114414825041 0 0.5 0.2108446248869035 0 0.48713563569858409 0.21627134263349901 0 0.48713563569858409 0.21627134263349901 0 0.47815442766613891 0.2086352068523489 0 0.47427304480540627 0.22556172073508859 0 0.46287863807656759 0.2059249922443277 0 0.47815442766613891 0.2086352068523489 0 0.47427304480540627 0.22556172073508859 0 0.47427304480540627 0.22556172073508859 0 0.48941522640764712 0.2276297028753399 0 0.48566745153424518 0.2451984492258496 0 0.48713563569858409 0.21627134263349901 0 0.47427304480540627 0.22556172073508859 0 0.48941522640764712 0.2276297028753399 0 0.5 0.2108446248869035 0 0.48941522640764712 0.2276297028753399 0 0.5 0.24027237689535891 0 0.48941522640764712 0.2276297028753399 0 0.5 0.24027237689535891 0 0.48566745153424518 0.2451984492258496 0 0.47427304480540627 0.22556172073508859 0 0.48566745153424518 0.2451984492258496 0 0.46710251890239107 0.2460923996478282 0 0.47427304480540627 0.22556172073508859 0 0.48566745153424518 0.2451984492258496 0 0.45379785629155761 0.14443522577109771 0 0.46507694866255661 0.1579445204380644 0 0.47626932037909109 0.13957791316552709 0 0.45379785629155761 0.14443522577109771 0 0.46202300483457831 0.1258490485845109 0 0.47626932037909109 0.13957791316552709 0 0.45379785629155761 0.14443522577109771 0 0.4408547642829419 0.14954061823723999 0 0.4384580968571804 0.12278464696091849 0 0.45379785629155761 0.14443522577109771 0 0.46202300483457831 0.1258490485845109 0 0.4384580968571804 0.12278464696091849 0 0.45379785629155761 0.14443522577109771 0 0.4408547642829419 0.14954061823723999 0 0.45217240482875048 0.17383933553960171 0 0.45379785629155761 0.14443522577109771 0 0.45217240482875048 0.17383933553960171 0 0.43297278980773379 0.1595770888539309 0 0.45217240482875048 0.17383933553960171 0 0.43297278980773379 0.1595770888539309 0 0.4408547642829419 0.14954061823723999 0 0.45217240482875048 0.17383933553960171 0 0.43297278980773379 0.1595770888539309 0 0.44076874684864692 0.17474914775532871 0 0.45217240482875048 0.17383933553960171 0 0.44363526852442597 0.1871859954101284 0 0.44043088775549799 0.18192700866746389 0 0.44833260983939732 0.18085686768902959 0 0.43711518148331852 0.189051984209122 0 0.44363526852442597 0.1871859954101284 0 0.44043088775549799 0.18192700866746389 0 0.44043088775549799 0.18192700866746389 0 0.44076874684864692 0.17474914775532871 0 0.44833260983939732 0.18085686768902959 0 0.44076874684864692 0.17474914775532871 0 0.45217240482875048 0.17383933553960171 0 0.44833260983939732 0.18085686768902959 0 0.44363526852442597 0.1871859954101284 0 0.44833260983939732 0.18085686768902959 0 0.45148423134772769 0.18628826375356741 0 0.45217240482875048 0.17383933553960171 0 0.45148423134772769 0.18628826375356741 0 0.45217240482875048 0.17383933553960171 0 0.44833260983939732 0.18085686768902959 0 0.45148423134772769 0.18628826375356741 0 0.44833260983939732 0.18085686768902959 0 0.45148423134772769 0.18628826375356741 0 0.47329525655149929 0.18953023984392561 0 0.45217240482875048 0.17383933553960171 0 0.47005653934637259 0.17168378276415119 0 0.46154789637017929 0.19357294525638069 0 0.47329525655149929 0.18953023984392561 0 0.45217240482875048 0.17383933553960171 0 0.47329525655149929 0.18953023984392561 0 0.45217240482875048 0.17383933553960171 0 0.46154789637017929 0.19357294525638069 0 0.45217240482875048 0.17383933553960171 0 0.45148423134772769 0.18628826375356741 0 0.45217240482875048 0.17383933553960171 0 0.46507694866255661 0.1579445204380644 0 0.47005653934637259 0.17168378276415119 0 0.45379785629155761 0.14443522577109771 0 0.45217240482875048 0.17383933553960171 0 0.46507694866255661 0.1579445204380644 0 0.46507694866255661 0.1579445204380644 0 0.47005653934637259 0.17168378276415119 0 0.47739896272505372 0.1597661558632987 0 0.47005653934637259 0.17168378276415119 0 0.47739896272505372 0.1597661558632987 0 0.48471064680339382 0.1737938169952398 0 0.47329525655149929 0.18953023984392561 0 0.48751312219743731 0.18837672975162251 0 0.48471064680339382 0.1737938169952398 0 0.47329525655149929 0.18953023984392561 0 0.47005653934637259 0.17168378276415119 0 0.48471064680339382 0.1737938169952398 0 0.48751312219743731 0.18837672975162251 0 0.48471064680339382 0.1737938169952398 0 0.5 0.18141687287844799 0 0.47739896272505372 0.1597661558632987 0 0.48471064680339382 0.1737938169952398 0 0.5 0.15198912086999261 0 0.48471064680339382 0.1737938169952398 0 0.5 0.18141687287844799 0 0.5 0.15198912086999261 0 0.47739896272505372 0.1597661558632987 0 0.5 0.15198912086999261 0 0.47626932037909109 0.13957791316552709 0 0.46507694866255661 0.1579445204380644 0 0.47739896272505372 0.1597661558632987 0 0.47626932037909109 0.13957791316552709 0 0.46202300483457831 0.1258490485845109 0 0.47626932037909109 0.13957791316552709 0 0.48012659283781189 0.1124939463486031 0 0.5 0.15198912086999261 0 0.47626932037909109 0.13957791316552709 0 0.5 0.1225613688615371 0 0.5 0.1225613688615371 0 0.4901834206915161 0.104549306032946 0 0.48012659283781189 0.1124939463486031 0 0.47626932037909109 0.13957791316552709 0 0.5 0.1225613688615371 0 0.48012659283781189 0.1124939463486031 0 0.4901834206915161 0.104549306032946 0 0.5 0.093133616853081413 0 0.48060708992825252 0.09000829206856252 0 0.5 0.1225613688615371 0 0.4901834206915161 0.104549306032946 0 0.5 0.093133616853081413 0 0.48012659283781189 0.1124939463486031 0 0.48060708992825252 0.09000829206856252 0 0.45953259339271652 0.10639646951474049 0 0.48060708992825252 0.09000829206856252 0 0.45953259339271652 0.10639646951474049 0 0.4901834206915161 0.104549306032946 0 0.48012659283781189 0.1124939463486031 0 0.48060708992825252 0.09000829206856252 0 0.48060708992825252 0.09000829206856252 0 0.46893648670227089 0.088859286421372863 0 0.45953259339271652 0.10639646951474049 0 0.5 0.063705864844625815 0 0.48645447600447128 0.072879073726840507 0 0.47590972770138468 0.06124074800906279 0 0.5 0.063705864844625815 0 0.48645447600447128 0.072879073726840507 0 0.5 0.093133616853081413 0 0.48645447600447128 0.072879073726840507 0 0.5 0.093133616853081413 0 0.4804315999440657 0.085189360544179402 0 0.5 0.093133616853081413 0 0.48060708992825252 0.09000829206856252 0 0.4804315999440657 0.085189360544179402 0 0.4804315999440657 0.085189360544179402 0 0.45929255599621488 0.079543483321031741 0 0.4804315999440657 0.085189360544179402 0 0.47186398694252629 0.073618580219809354 0 0.45929255599621488 0.079543483321031741 0 0.46893648670227089 0.088859286421372863 0 0.4804315999440657 0.085189360544179402 0 0.45929255599621488 0.079543483321031741 0 0.48060708992825252 0.09000829206856252 0 0.46893648670227089 0.088859286421372863 0 0.4804315999440657 0.085189360544179402 0 0.48645447600447128 0.072879073726840507 0 0.4804315999440657 0.085189360544179402 0 0.47186398694252629 0.073618580219809354 0 0.48645447600447128 0.072879073726840507 0 0.47186398694252629 0.073618580219809354 0 0.47590972770138468 0.06124074800906279 0 0.47186398694252629 0.073618580219809354 0 0.45555341288805867 0.064289121505317029 0 0.45929255599621488 0.079543483321031741 0 0.47186398694252629 0.073618580219809354 0 0.45555341288805867 0.064289121505317029 0 0.47590972770138468 0.06124074800906279 0 0.46893648670227089 0.088859286421372863 0 0.45929255599621488 0.079543483321031741 0 0.45953259339271652 0.10639646951474049 0 0.45929255599621488 0.079543483321031741 0 0.43815351204836422 0.073897606097884067 0 0.43955212628931412 0.098137459857842849 0 0.45555341288805867 0.064289121505317029 0 0.45929255599621488 0.079543483321031741 0 0.43815351204836422 0.073897606097884067 0 0.45555341288805867 0.064289121505317029 0 0.43815351204836422 0.073897606097884067 0 0.43780228868054499 0.060579604431765667 0 0.45929255599621488 0.079543483321031741 0 0.43815351204836422 0.073897606097884067 0 0.46202300483457831 0.1258490485845109 0 0.45953259339271652 0.10639646951474049 0 0.4384580968571804 0.12278464696091849 0 0.46202300483457831 0.1258490485845109 0 0.48012659283781189 0.1124939463486031 0 0.45953259339271652 0.10639646951474049 0 0.45953259339271652 0.10639646951474049 0 0.43955212628931412 0.098137459857842849 0 0.4384580968571804 0.12278464696091849 0 0.45929255599621488 0.079543483321031741 0 0.45953259339271652 0.10639646951474049 0 0.43955212628931412 0.098137459857842849 0 0.45953259339271652 0.10639646951474049 0 0.4384580968571804 0.12278464696091849 0 0.4384580968571804 0.12278464696091849 0 0.42710418938056349 0.1101239750245301 0 0.41459953355033502 0.1236319525613281 0 0.43955212628931412 0.098137459857842849 0 0.4384580968571804 0.12278464696091849 0 0.42710418938056349 0.1101239750245301 0 0.42710418938056349 0.1101239750245301 0 0.41459953355033502 0.1236319525613281 0 0.41580700082542482 0.095941840718031121 0 0.41459953355033502 0.1236319525613281 0 0.41580700082542482 0.095941840718031121 0 0.41459953355033502 0.1236319525613281 0 0.41580700082542482 0.095941840718031121 0 0.40037625645895908 0.1078537796896914 0 0.43955212628931412 0.098137459857842849 0 0.42710418938056349 0.1101239750245301 0 0.41580700082542482 0.095941840718031121 0 0.43815351204836422 0.073897606097884067 0 0.43955212628931412 0.098137459857842849 0 0.41580700082542482 0.095941840718031121 0 0.43815351204836422 0.073897606097884067 0 0.41580700082542482 0.095941840718031121 0 0.41701446810051412 0.068251728874734102 0 0.43815351204836422 0.073897606097884067 0 0.41701446810051412 0.068251728874734102 0 0.43815351204836422 0.073897606097884067 0 0.41701446810051412 0.068251728874734102 0 0.43780228868054499 0.060579604431765667 0 0.41701446810051412 0.068251728874734102 0 0.40473004269932822 0.081381656432177929 0 0.40043305716544902 0.063823117507216032 0 0.41701446810051412 0.068251728874734102 0 0.40043305716544902 0.063823117507216032 0 0.41580700082542482 0.095941840718031121 0 0.41701446810051412 0.068251728874734102 0 0.41580700082542482 0.095941840718031121 0 0.41701446810051412 0.068251728874734102 0 0.40473004269932822 0.081381656432177929 0 0.41580700082542482 0.095941840718031121 0 0.40108775204199038 0.093599702960918921 0 0.40473004269932822 0.081381656432177929 0 0.40108775204199038 0.093599702960918921 0 0.40473004269932822 0.081381656432177929 0 0.38902013429582177 0.087151711316443822 0 0.40108775204199038 0.093599702960918921 0 0.38902013429582177 0.087151711316443822 0 0.39365679074300591 0.096902614354692843 0 0.40473004269932822 0.081381656432177929 0 0.40043305716544902 0.063823117507216032 0 0.38902013429582177 0.087151711316443822 0 0.40043305716544902 0.063823117507216032 0 0.38902013429582177 0.087151711316443822 0 0.40043305716544902 0.063823117507216032 0 0.37594196819752213 0.075439085683445567 0 0.38114785940623003 0.058672370905750212 0 0.40043305716544902 0.063823117507216032 0 0.37594196819752213 0.075439085683445567 0 0.38902013429582177 0.087151711316443822 0 0.36639369630395019 0.090171856351582147 0 0.37594196819752213 0.075439085683445567 0 0.38902013429582177 0.087151711316443822 0 0.36639369630395019 0.090171856351582147 0 0.3872664309004254 0.090736370096706306 0 0.38902013429582177 0.087151711316443822 0 0.3872664309004254 0.090736370096706306 0 0.38902013429582177 0.087151711316443822 0 0.39365679074300591 0.096902614354692843 0 0.3872664309004254 0.090736370096706306 0 0.38902013429582177 0.087151711316443822 0 0.3872664309004254 0.090736370096706306 0 0.3789880029507372 0.11298101374720319 0 0.3872664309004254 0.090736370096706306 0 0.37760721142619508 0.1104803051256717 0 0.36639369630395019 0.090171856351582147 0 0.3872664309004254 0.090736370096706306 0 0.37760721142619508 0.1104803051256717 0 0.3872664309004254 0.090736370096706306 0 0.39013187968885932 0.10497508385646299 0 0.3789880029507372 0.11298101374720319 0 0.3872664309004254 0.090736370096706306 0 0.37760721142619508 0.1104803051256717 0 0.3789880029507372 0.11298101374720319 0 0.3872664309004254 0.090736370096706306 0 0.39013187968885932 0.10497508385646299 0 0.39365679074300591 0.096902614354692843 0 0.37760721142619508 0.1104803051256717 0 0.37525516449768842 0.1152880084670649 0 0.3789880029507372 0.11298101374720319 0 0.37760721142619508 0.1104803051256717 0 0.37525516449768842 0.1152880084670649 0 0.37760721142619508 0.1104803051256717 0 0.3789880029507372 0.11298101374720319 0 0.37525516449768842 0.1152880084670649 0 0.3789880029507372 0.11298101374720319 0 0.37703419752481859 0.11794395008592939 0 0.3789880029507372 0.11298101374720319 0 0.37703419752481859 0.11794395008592939 0 0.38655398813174269 0.12668353439294941 0 0.37703419752481859 0.11794395008592939 0 0.38655398813174269 0.12668353439294941 0 0.3789880029507372 0.11298101374720319 0 0.37703419752481859 0.11794395008592939 0 0.38655398813174269 0.12668353439294941 0 0.3789880029507372 0.11298101374720319 0 0.38655398813174269 0.12668353439294941 0 0.3789880029507372 0.11298101374720319 0 0.39027315995051881 0.1156898782136119 0 0.39013187968885932 0.10497508385646299 0 0.3789880029507372 0.11298101374720319 0 0.39027315995051881 0.1156898782136119 0 0.39013187968885932 0.10497508385646299 0 0.39027315995051881 0.1156898782136119 0 0.40037625645895908 0.1078537796896914 0 0.41459953355033502 0.1236319525613281 0 0.3992976659921943 0.1238598412511633 0 0.40037625645895908 0.1078537796896914 0 0.39027315995051881 0.1156898782136119 0 0.3992976659921943 0.1238598412511633 0 0.40037625645895908 0.1078537796896914 0 0.38655398813174269 0.12668353439294941 0 0.39027315995051881 0.1156898782136119 0 0.3992976659921943 0.1238598412511633 0 0.41580700082542482 0.095941840718031121 0 0.40108775204199038 0.093599702960918921 0 0.40037625645895908 0.1078537796896914 0 0.40108775204199038 0.093599702960918921 0 0.40037625645895908 0.1078537796896914 0 0.39365679074300591 0.096902614354692843 0 0.39013187968885932 0.10497508385646299 0 0.40037625645895908 0.1078537796896914 0 0.39365679074300591 0.096902614354692843 0 0.40148557155351261 0.022095453024862981 0 0.38269638314167997 0.022003569137885121 0 0.40835442446698977 0.032564648693172583 0 0.40148557155351261 0.022095453024862981 0 0.4016342334918126 0.01089679475427502 0 0.38269638314167997 0.022003569137885121 0 0.38269638314167997 0.022003569137885121 0 0.40835442446698977 0.032564648693172583 0 0.40148557155351261 0.022095453024862981 0 0.4016342334918126 0.01089679475427502 0 0.41325724511356821 0.022916799514119211 0 0.4016342334918126 0.01089679475427502 0 0.41426609782592833 -0.0053004990416876899 0 0.39893425355353762 -0.0051137820231725237 0 0.4016342334918126 0.01089679475427502 0 0.39893425355353762 -0.0051137820231725237 0 0.38004824580921331 -0.0028869129075803049 0 0.4016342334918126 0.01089679475427502 0 0.38269638314167997 0.022003569137885121 0 0.38004824580921331 -0.0028869129075803049 0 0.37515117282435828 0.045663310368981247 0 0.39519591525781611 0.039609470290554137 0 0.37067245804488308 0.032187508493627989 0 0.37515117282435828 0.045663310368981247 0 0.39519591525781611 0.039609470290554137 0 0.37067245804488308 0.032187508493627989 0 0.38269638314167997 0.022003569137885121 0 0.39519591525781611 0.039609470290554137 0 0.37515117282435828 0.045663310368981247 0 0.38114785940623003 0.058672370905750212 0 0.39519591525781611 0.039609470290554137 0 0.40043305716544902 0.063823117507216032 0 0.38114785940623003 0.058672370905750212 0 0.38114785940623003 0.058672370905750212 0 0.39519591525781611 0.039609470290554137 0 0.40877846593531802 0.046764678263540332 0 0.38114785940623003 0.058672370905750212 0 0.40877846593531802 0.046764678263540332 0 0.40043305716544902 0.063823117507216032 0 0.38114785940623003 0.058672370905750212 0 0.40877846593531802 0.046764678263540332 0 0.40043305716544902 0.063823117507216032 0 0.40877846593531802 0.046764678263540332 0 0.39519591525781611 0.039609470290554137 0 0.41524065769127377 0.033555630212126687 0 0.38269638314167997 0.022003569137885121 0 0.39519591525781611 0.039609470290554137 0 0.40835442446698977 0.032564648693172583 0 0.39519591525781611 0.039609470290554137 0 0.40877846593531802 0.046764678263540332 0 0.41524065769127377 0.033555630212126687 0 0.39519591525781611 0.039609470290554137 0 0.40835442446698977 0.032564648693172583 0 0.41524065769127377 0.033555630212126687 0 0.40877846593531802 0.046764678263540332 0 0.41524065769127377 0.033555630212126687 0 0.40877846593531802 0.046764678263540332 0 0.41812712800777441 0.042735776673647398 0 0.41524065769127377 0.033555630212126687 0 0.40877846593531802 0.046764678263540332 0 0.41812712800777441 0.042735776673647398 0 0.41812712800777441 0.042735776673647398 0 0.42498671291891688 0.039779568358457397 0 0.41812712800777441 0.042735776673647398 0 0.41857130570281031 0.032549720034616397 0 0.41812712800777441 0.042735776673647398 0 0.41857130570281031 0.032549720034616397 0 0.42291412105453008 0.035852023887073557 0 0.41812712800777441 0.042735776673647398 0 0.41857130570281031 0.032549720034616397 0 0.41524065769127377 0.033555630212126687 0 0.42156125706535502 0.031646705817737007 0 0.41857130570281031 0.032549720034616397 0 0.42291412105453008 0.035852023887073557 0 0.42156125706535502 0.031646705817737007 0 0.41857130570281031 0.032549720034616397 0 0.42156125706535502 0.031646705817737007 0 0.41857130570281031 0.032549720034616397 0 0.41866693115854198 0.03035679968065438 0 0.41857130570281031 0.032549720034616397 0 0.41866693115854198 0.03035679968065438 0 0.41857130570281031 0.032549720034616397 0 0.41524065769127377 0.033555630212126687 0 0.41866693115854198 0.03035679968065438 0 0.41857130570281031 0.032549720034616397 0 0.41524065769127377 0.033555630212126687 0 0.41701446810051412 0.068251728874734102 0 0.41812712800777441 0.042735776673647398 0 0.41108827980226381 0.055393825329784221 0 0.41701446810051412 0.068251728874734102 0 0.40043305716544902 0.063823117507216032 0 0.41108827980226381 0.055393825329784221 0 0.41701446810051412 0.068251728874734102 0 0.41812712800777441 0.042735776673647398 0 0.42712010951012919 0.05416649475536027 0 0.41701446810051412 0.068251728874734102 0 0.41812712800777441 0.042735776673647398 0 0.40043305716544902 0.063823117507216032 0 0.40877846593531802 0.046764678263540332 0 0.41108827980226381 0.055393825329784221 0 0.40877846593531802 0.046764678263540332 0 0.41812712800777441 0.042735776673647398 0 0.41108827980226381 0.055393825329784221 0 0.41701446810051412 0.068251728874734102 0 0.42712010951012919 0.05416649475536027 0 0.43780228868054499 0.060579604431765667 0 0.41812712800777441 0.042735776673647398 0 0.42712010951012919 0.05416649475536027 0 0.42797019365046918 0.045253629832301627 0 0.42712010951012919 0.05416649475536027 0 0.43581149968714988 0.047534374238026769 0 0.43780228868054499 0.060579604431765667 0 0.42712010951012919 0.05416649475536027 0 0.43581149968714988 0.047534374238026769 0 0.42797019365046918 0.045253629832301627 0 0.42696985456317432 0.034271745268714328 0 0.42498671291891688 0.039779568358457397 0 0.43182380261127579 0.039475463154731882 0 0.42696985456317432 0.034271745268714328 0 0.43325446998727468 0.030537333279844911 0 0.42574324180454443 0.02964088193441335 0 0.42156125706535502 0.031646705817737007 0 0.42696985456317432 0.034271745268714328 0 0.42291412105453008 0.035852023887073557 0 0.42156125706535502 0.031646705817737007 0 0.42696985456317432 0.034271745268714328 0 0.42574324180454443 0.02964088193441335 0 0.42696985456317432 0.034271745268714328 0 0.42291412105453008 0.035852023887073557 0 0.42498671291891688 0.039779568358457397 0 0.41812712800777441 0.042735776673647398 0 0.42291412105453008 0.035852023887073557 0 0.42498671291891688 0.039779568358457397 0 0.41812712800777441 0.042735776673647398 0 0.42498671291891688 0.039779568358457397 0 0.42797019365046918 0.045253629832301627 0 0.42498671291891688 0.039779568358457397 0 0.42797019365046918 0.045253629832301627 0 0.43182380261127579 0.039475463154731882 0 0.43581149968714988 0.047534374238026769 0 0.43182380261127579 0.039475463154731882 0 0.44095922710212021 0.038187891960404043 0 0.43581149968714988 0.047534374238026769 0 0.42797019365046918 0.045253629832301627 0 0.43182380261127579 0.039475463154731882 0 0.43182380261127579 0.039475463154731882 0 0.43325446998727468 0.030537333279844911 0 0.44095922710212021 0.038187891960404043 0 0.42696985456317432 0.034271745268714328 0 0.43182380261127579 0.039475463154731882 0 0.43325446998727468 0.030537333279844911 0 0.43521661187673699 0.024106327886083578 0 0.43325446998727468 0.030537333279844911 0 0.42735680443955781 0.025292463666513981 0 0.43521661187673699 0.024106327886083578 0 0.43325446998727468 0.030537333279844911 0 0.44392188826657192 0.026507316160577981 0 0.43521661187673699 0.024106327886083578 0 0.43634167221921433 0.015735149845459939 0 0.42735680443955781 0.025292463666513981 0 0.43634167221921433 0.015735149845459939 0 0.42287385568876312 0.017952985947986871 0 0.42735680443955781 0.025292463666513981 0 0.42735680443955781 0.025292463666513981 0 0.42574324180454443 0.02964088193441335 0 0.41866693115854198 0.03035679968065438 0 0.42287385568876312 0.017952985947986871 0 0.42735680443955781 0.025292463666513981 0 0.41866693115854198 0.03035679968065438 0 0.43325446998727468 0.030537333279844911 0 0.42735680443955781 0.025292463666513981 0 0.42574324180454443 0.02964088193441335 0 0.42156125706535502 0.031646705817737007 0 0.42574324180454443 0.02964088193441335 0 0.41866693115854198 0.03035679968065438 0 0.41524065769127377 0.033555630212126687 0 0.42287385568876312 0.017952985947986871 0 0.41325724511356821 0.022916799514119211 0 0.41524065769127377 0.033555630212126687 0 0.42287385568876312 0.017952985947986871 0 0.41866693115854198 0.03035679968065438 0 0.41524065769127377 0.033555630212126687 0 0.42287385568876312 0.017952985947986871 0 0.42287385568876312 0.017952985947986871 0 0.41325724511356821 0.022916799514119211 0 0.41704523701408941 0.0077764941694328186 0 0.40148557155351261 0.022095453024862981 0 0.40835442446698977 0.032564648693172583 0 0.41325724511356821 0.022916799514119211 0 0.40835442446698977 0.032564648693172583 0 0.41524065769127377 0.033555630212126687 0 0.41325724511356821 0.022916799514119211 0 0.41704523701408941 0.0077764941694328186 0 0.43050705368625303 0.0023503416838472832 0 0.41426609782592833 -0.0053004990416876899 0 0.4016342334918126 0.01089679475427502 0 0.41704523701408941 0.0077764941694328186 0 0.41426609782592833 -0.0053004990416876899 0 0.4016342334918126 0.01089679475427502 0 0.41325724511356821 0.022916799514119211 0 0.41704523701408941 0.0077764941694328186 0 0.42287385568876312 0.017952985947986871 0 0.43050705368625303 0.0023503416838472832 0 0.42287385568876312 0.017952985947986871 0 0.41704523701408941 0.0077764941694328186 0 0.43050705368625303 0.0023503416838472832 0 0.43634167221921433 0.015735149845459939 0 0.42287385568876312 0.017952985947986871 0 0.43050705368625303 0.0023503416838472832 0 0.43634167221921433 0.015735149845459939 0 0.43050705368625303 0.0023503416838472832 0 0.44299186482868141 0.0069540733956870481 0 0.44299186482868141 0.0069540733956870481 0 0.44816536205612972 8.6233335223146021e-05 0 0.44038506499612179 -0.0033992501075293421 0 0.43050705368625303 0.0023503416838472832 0 0.44299186482868141 0.0069540733956870481 0 0.44038506499612179 -0.0033992501075293421 0 0.44816536205612972 8.6233335223146021e-05 0 0.45392185071049801 0.0063186616824661276 0 0.45560131063927722 -0.0035741020272531021 0 0.44299186482868141 0.0069540733956870481 0 0.44816536205612972 8.6233335223146021e-05 0 0.45392185071049801 0.0063186616824661276 0 0.44299186482868141 0.0069540733956870481 0 0.44965218553236969 0.01613996466707272 0 0.45392185071049801 0.0063186616824661276 0 0.43634167221921433 0.015735149845459939 0 0.44299186482868141 0.0069540733956870481 0 0.44965218553236969 0.01613996466707272 0 0.43521661187673699 0.024106327886083578 0 0.43634167221921433 0.015735149845459939 0 0.44392188826657192 0.026507316160577981 0 0.43634167221921433 0.015735149845459939 0 0.44392188826657192 0.026507316160577981 0 0.44965218553236969 0.01613996466707272 0 0.44392188826657192 0.026507316160577981 0 0.4576233954179505 0.024579635051121981 0 0.45354082576173488 0.036547892589870047 0 0.44392188826657192 0.026507316160577981 0 0.44965218553236969 0.01613996466707272 0 0.4576233954179505 0.024579635051121981 0 0.44965218553236969 0.01613996466707272 0 0.4576233954179505 0.024579635051121981 0 0.46163199338367739 0.012705193699190331 0 0.4576233954179505 0.024579635051121981 0 0.46851698604001141 0.033418542750634397 0 0.46886839916526718 0.019443550967321688 0 0.4576233954179505 0.024579635051121981 0 0.46163199338367739 0.012705193699190331 0 0.46886839916526718 0.019443550967321688 0 0.46163199338367739 0.012705193699190331 0 0.47438726583262758 0.0071668536989817804 0 0.46886839916526718 0.019443550967321688 0 0.46163199338367739 0.012705193699190331 0 0.46275999177157562 0.00191864049906137 0 0.47438726583262758 0.0071668536989817804 0 0.46275999177157562 0.00191864049906137 0 0.45392185071049801 0.0063186616824661276 0 0.45560131063927722 -0.0035741020272531021 0 0.46163199338367739 0.012705193699190331 0 0.46275999177157562 0.00191864049906137 0 0.45392185071049801 0.0063186616824661276 0 0.44965218553236969 0.01613996466707272 0 0.46163199338367739 0.012705193699190331 0 0.45392185071049801 0.0063186616824661276 0 0.45555341288805867 0.064289121505317029 0 0.43780228868054499 0.060579604431765667 0 0.44759656485156951 0.048834214592500223 0 0.43581149968714988 0.047534374238026769 0 0.43780228868054499 0.060579604431765667 0 0.44759656485156951 0.048834214592500223 0 0.44759656485156951 0.048834214592500223 0 0.44095922710212021 0.038187891960404043 0 0.45354082576173488 0.036547892589870047 0 0.43581149968714988 0.047534374238026769 0 0.44759656485156951 0.048834214592500223 0 0.44095922710212021 0.038187891960404043 0 0.43325446998727468 0.030537333279844911 0 0.44392188826657192 0.026507316160577981 0 0.44095922710212021 0.038187891960404043 0 0.44392188826657192 0.026507316160577981 0 0.44095922710212021 0.038187891960404043 0 0.45354082576173488 0.036547892589870047 0 0.45354082576173488 0.036547892589870047 0 0.46851698604001141 0.033418542750634397 0 0.46215360202555589 0.050411282360627613 0 0.4576233954179505 0.024579635051121981 0 0.45354082576173488 0.036547892589870047 0 0.46851698604001141 0.033418542750634397 0 0.44759656485156951 0.048834214592500223 0 0.45354082576173488 0.036547892589870047 0 0.46215360202555589 0.050411282360627613 0 0.45555341288805867 0.064289121505317029 0 0.46215360202555589 0.050411282360627613 0 0.47590972770138468 0.06124074800906279 0 0.45555341288805867 0.064289121505317029 0 0.44759656485156951 0.048834214592500223 0 0.46215360202555589 0.050411282360627613 0 0.46215360202555589 0.050411282360627613 0 0.47590972770138468 0.06124074800906279 0 0.4826661547360438 0.044316323326058088 0 0.46851698604001141 0.033418542750634397 0 0.4826661547360438 0.044316323326058088 0 0.48218235515206909 0.019347529636679978 0 0.46851698604001141 0.033418542750634397 0 0.46215360202555589 0.050411282360627613 0 0.4826661547360438 0.044316323326058088 0 0.4826661547360438 0.044316323326058088 0 0.5 0.034278112836170098 0 0.48218235515206909 0.019347529636679978 0 0.5 0.063705864844625815 0 0.47590972770138468 0.06124074800906279 0 0.4826661547360438 0.044316323326058088 0 0.5 0.063705864844625815 0 0.4826661547360438 0.044316323326058088 0 0.5 0.034278112836170098 0 0.47438726583262758 0.0071668536989817804 0 0.48218235515206909 0.019347529636679978 0 0.48494504499584401 -0.0018124303072876639 0 0.47438726583262758 0.0071668536989817804 0 0.48494504499584401 -0.0018124303072876639 0 0.47113903221859899 -0.00085953651968297606 0 0.46275999177157562 0.00191864049906137 0 0.47438726583262758 0.0071668536989817804 0 0.47113903221859899 -0.00085953651968297606 0 0.47438726583262758 0.0071668536989817804 0 0.46886839916526718 0.019443550967321688 0 0.48218235515206909 0.019347529636679978 0 0.46851698604001141 0.033418542750634397 0 0.46886839916526718 0.019443550967321688 0 0.48218235515206909 0.019347529636679978 0 0.5 0.034278112836170098 0 0.48218235515206909 0.019347529636679978 0 0.5 0.004850360827714395 0 0.48218235515206909 0.019347529636679978 0 0.5 0.004850360827714395 0 0.48494504499584401 -0.0018124303072876639 0 0.5 0.004850360827714395 0 0.48806756950314928 -0.013896549633874459 0 0.48494504499584401 -0.0018124303072876639 0 0.5 0.004850360827714395 0 0.48806756950314928 -0.013896549633874459 0 0.5 -0.0245773911807412 0 0.48494504499584401 -0.0018124303072876639 0 0.4762461463829647 -0.017207034124199719 0 0.45943939936578237 -0.016479965300192481 0 0.48494504499584401 -0.0018124303072876639 0 0.47113903221859899 -0.00085953651968297606 0 0.46310865951158448 -0.0097640718315934079 0 0.48494504499584401 -0.0018124303072876639 0 0.46310865951158448 -0.0097640718315934079 0 0.45943939936578237 -0.016479965300192481 0 0.48494504499584401 -0.0018124303072876639 0 0.45943939936578237 -0.016479965300192481 0 0.48806756950314928 -0.013896549633874459 0 0.48494504499584401 -0.0018124303072876639 0 0.4762461463829647 -0.017207034124199719 0 0.48806756950314928 -0.013896549633874459 0 0.4762461463829647 -0.017207034124199719 0 0.47914665613693802 -0.030736253384858098 0 0.47914665613693802 -0.030736253384858098 0 0.46313284567567792 -0.031300553292528538 0 0.46787274853406691 -0.02330392087087722 0 0.4762461463829647 -0.017207034124199719 0 0.47914665613693802 -0.030736253384858098 0 0.46787274853406691 -0.02330392087087722 0 0.48806756950314928 -0.013896549633874459 0 0.47914665613693802 -0.030736253384858098 0 0.5 -0.0245773911807412 0 0.47914665613693802 -0.030736253384858098 0 0.5 -0.054005143189196907 0 0.47658046430788897 -0.04944643941424675 0 0.47914665613693802 -0.030736253384858098 0 0.5 -0.0245773911807412 0 0.5 -0.054005143189196907 0 0.5 -0.054005143189196907 0 0.47658046430788897 -0.04944643941424675 0 0.47509800040795219 -0.068825853231290798 0 0.47658046430788897 -0.04944643941424675 0 0.46504984557415741 -0.057328335422421162 0 0.47509800040795219 -0.068825853231290798 0 0.47914665613693802 -0.030736253384858098 0 0.47658046430788897 -0.04944643941424675 0 0.46313284567567792 -0.031300553292528538 0 0.47658046430788897 -0.04944643941424675 0 0.46313284567567792 -0.031300553292528538 0 0.45878196416565142 -0.044846624172946867 0 0.46313284567567792 -0.031300553292528538 0 0.44919286238250439 -0.038250799034403572 0 0.4533429689854665 -0.028142313467433351 0 0.46313284567567792 -0.031300553292528538 0 0.45878196416565142 -0.044846624172946867 0 0.44919286238250439 -0.038250799034403572 0 0.47658046430788897 -0.04944643941424675 0 0.45878196416565142 -0.044846624172946867 0 0.46504984557415741 -0.057328335422421162 0 0.45878196416565142 -0.044846624172946867 0 0.46504984557415741 -0.057328335422421162 0 0.44893372258786379 -0.051715677976796173 0 0.46504984557415741 -0.057328335422421162 0 0.44893372258786379 -0.051715677976796173 0 0.45220942989939328 -0.065329846535180716 0 0.44893372258786379 -0.051715677976796173 0 0.45220942989939328 -0.065329846535180716 0 0.43364153259470589 -0.058001785026094418 0 0.44893372258786379 -0.051715677976796173 0 0.43704565265487427 -0.045292962297040593 0 0.43364153259470589 -0.058001785026094418 0 0.44919286238250439 -0.038250799034403572 0 0.4533429689854665 -0.028142313467433351 0 0.43393375373572091 -0.031147500293097291 0 0.45878196416565142 -0.044846624172946867 0 0.44893372258786379 -0.051715677976796173 0 0.44919286238250439 -0.038250799034403572 0 0.44893372258786379 -0.051715677976796173 0 0.44919286238250439 -0.038250799034403572 0 0.43704565265487427 -0.045292962297040593 0 0.44919286238250439 -0.038250799034403572 0 0.43393375373572091 -0.031147500293097291 0 0.43704565265487427 -0.045292962297040593 0 0.4533429689854665 -0.028142313467433351 0 0.45943939936578237 -0.016479965300192481 0 0.43393375373572091 -0.031147500293097291 0 0.45684471781690139 -0.01416063066149004 0 0.45943939936578237 -0.016479965300192481 0 0.43393375373572091 -0.031147500293097291 0 0.45943939936578237 -0.016479965300192481 0 0.43393375373572091 -0.031147500293097291 0 0.45684471781690139 -0.01416063066149004 0 0.42831657745204882 -0.018662570779593581 0 0.45684471781690139 -0.01416063066149004 0 0.42831657745204882 -0.018662570779593581 0 0.43393375373572091 -0.031147500293097291 0 0.4417606028482543 -0.01212479764662971 0 0.44038506499612179 -0.0033992501075293421 0 0.44983169963966191 -0.0081782791449018597 0 0.4417606028482543 -0.01212479764662971 0 0.44038506499612179 -0.0033992501075293421 0 0.4316133602267142 -0.0080790492607380852 0 0.4417606028482543 -0.01212479764662971 0 0.45684471781690139 -0.01416063066149004 0 0.42831657745204882 -0.018662570779593581 0 0.44816536205612972 8.6233335223146021e-05 0 0.44038506499612179 -0.0033992501075293421 0 0.44983169963966191 -0.0081782791449018597 0 0.44816536205612972 8.6233335223146021e-05 0 0.44983169963966191 -0.0081782791449018597 0 0.45560131063927722 -0.0035741020272531021 0 0.4417606028482543 -0.01212479764662971 0 0.44983169963966191 -0.0081782791449018597 0 0.45684471781690139 -0.01416063066149004 0 0.44983169963966191 -0.0081782791449018597 0 0.45684471781690139 -0.01416063066149004 0 0.45704158844607051 -0.0093873607381714276 0 0.45704158844607051 -0.0093873607381714276 0 0.45910859128508458 -0.01244800713286184 0 0.46310865951158448 -0.0097640718315934079 0 0.45684471781690139 -0.01416063066149004 0 0.45704158844607051 -0.0093873607381714276 0 0.45910859128508458 -0.01244800713286184 0 0.45684471781690139 -0.01416063066149004 0 0.45910859128508458 -0.01244800713286184 0 0.45943939936578237 -0.016479965300192481 0 0.45910859128508458 -0.01244800713286184 0 0.46310865951158448 -0.0097640718315934079 0 0.45943939936578237 -0.016479965300192481 0 0.46275999177157562 0.00191864049906137 0 0.45560131063927722 -0.0035741020272531021 0 0.46310865951158448 -0.0097640718315934079 0 0.44983169963966191 -0.0081782791449018597 0 0.45704158844607051 -0.0093873607381714276 0 0.45560131063927722 -0.0035741020272531021 0 0.45704158844607051 -0.0093873607381714276 0 0.45560131063927722 -0.0035741020272531021 0 0.46310865951158448 -0.0097640718315934079 0 0.46275999177157562 0.00191864049906137 0 0.47113903221859899 -0.00085953651968297606 0 0.46310865951158448 -0.0097640718315934079 0 0.4762461463829647 -0.017207034124199719 0 0.46787274853406691 -0.02330392087087722 0 0.45943939936578237 -0.016479965300192481 0 0.46787274853406691 -0.02330392087087722 0 0.46094699064024841 -0.0248066882327579 0 0.45943939936578237 -0.016479965300192481 0 0.46313284567567792 -0.031300553292528538 0 0.46787274853406691 -0.02330392087087722 0 0.46094699064024841 -0.0248066882327579 0 0.46313284567567792 -0.031300553292528538 0 0.46094699064024841 -0.0248066882327579 0 0.4533429689854665 -0.028142313467433351 0 0.46094699064024841 -0.0248066882327579 0 0.4533429689854665 -0.028142313467433351 0 0.45943939936578237 -0.016479965300192481 0 0.47261504033763302 -0.1087337160622332 0 0.45980496495355633 -0.1284767728883684 0 0.48346214595958159 -0.1260974568606231 0 0.49999999999999661 -0.11286064720610819 0 0.47261504033763302 -0.1087337160622332 0 0.48346214595958159 -0.1260974568606231 0 0.49999999999999661 -0.11286064720610819 0 0.47261504033763302 -0.1087337160622332 0 0.49999999999999661 -0.11286064720610819 0 0.47845098442960959 -0.088555307361378233 0 0.5 -0.083432895197652568 0 0.49999999999999661 -0.11286064720610819 0 0.47261504033763302 -0.1087337160622332 0 0.47845098442960959 -0.088555307361378233 0 0.47261504033763302 -0.1087337160622332 0 0.47845098442960959 -0.088555307361378233 0 0.46223293014382011 -0.096642674317846053 0 0.47845098442960959 -0.088555307361378233 0 0.5 -0.083432895197652568 0 0.47509800040795219 -0.068825853231290798 0 0.5 -0.054005143189196907 0 0.5 -0.083432895197652568 0 0.47509800040795219 -0.068825853231290798 0 0.47509800040795219 -0.068825853231290798 0 0.45220942989939328 -0.065329846535180716 0 0.4526356151327689 -0.0846748889294133 0 0.46504984557415741 -0.057328335422421162 0 0.47509800040795219 -0.068825853231290798 0 0.45220942989939328 -0.065329846535180716 0 0.45220942989939328 -0.065329846535180716 0 0.43886409299228851 -0.070914323886447778 0 0.4526356151327689 -0.0846748889294133 0 0.45220942989939328 -0.065329846535180716 0 0.43886409299228851 -0.070914323886447778 0 0.43364153259470589 -0.058001785026094418 0 0.4526356151327689 -0.0846748889294133 0 0.44128085259518679 -0.093093822563226514 0 0.435488465535048 -0.08342420761362665 0 0.43886409299228851 -0.070914323886447778 0 0.4526356151327689 -0.0846748889294133 0 0.435488465535048 -0.08342420761362665 0 0.47845098442960959 -0.088555307361378233 0 0.47509800040795219 -0.068825853231290798 0 0.4526356151327689 -0.0846748889294133 0 0.47845098442960959 -0.088555307361378233 0 0.4526356151327689 -0.0846748889294133 0 0.46223293014382011 -0.096642674317846053 0 0.4526356151327689 -0.0846748889294133 0 0.46223293014382011 -0.096642674317846053 0 0.44523008067526892 -0.1046067849183594 0 0.47261504033763302 -0.1087337160622332 0 0.46223293014382011 -0.096642674317846053 0 0.44523008067526892 -0.1046067849183594 0 0.47261504033763302 -0.1087337160622332 0 0.44523008067526892 -0.1046067849183594 0 0.45793493824399301 -0.113223787459097 0 0.47261504033763302 -0.1087337160622332 0 0.44523008067526892 -0.1046067849183594 0 0.4526356151327689 -0.0846748889294133 0 0.44523008067526892 -0.1046067849183594 0 0.4526356151327689 -0.0846748889294133 0 0.44128085259518679 -0.093093822563226514 0 0.44523008067526892 -0.1046067849183594 0 0.44128085259518679 -0.093093822563226514 0 0.44025841766752061 -0.099878364944812642 0 0.44523008067526892 -0.1046067849183594 0 0.44128085259518679 -0.093093822563226514 0 0.44025841766752061 -0.099878364944812642 0 0.43498703521160759 -0.093213089030802151 0 0.44523008067526892 -0.1046067849183594 0 0.4426857910698585 -0.11145470603355161 0 0.43411405531069958 -0.1029315927019457 0 0.44025841766752061 -0.099878364944812642 0 0.44523008067526892 -0.1046067849183594 0 0.43411405531069958 -0.1029315927019457 0 0.44523008067526892 -0.1046067849183594 0 0.43411405531069958 -0.1029315927019457 0 0.4426857910698585 -0.11145470603355161 0 0.43411405531069958 -0.1029315927019457 0 0.44523008067526892 -0.1046067849183594 0 0.4426857910698585 -0.11145470603355161 0 0.44523008067526892 -0.1046067849183594 0 0.4426857910698585 -0.11145470603355161 0 0.45793493824399301 -0.113223787459097 0 0.4426857910698585 -0.11145470603355161 0 0.45980496495355633 -0.1284767728883684 0 0.44734082874004122 -0.129959896439788 0 0.4426857910698585 -0.11145470603355161 0 0.43486792283317199 -0.13249639282107631 0 0.44734082874004122 -0.129959896439788 0 0.4426857910698585 -0.11145470603355161 0 0.45980496495355633 -0.1284767728883684 0 0.4426857910698585 -0.11145470603355161 0 0.43486792283317199 -0.13249639282107631 0 0.47261504033763302 -0.1087337160622332 0 0.45793493824399301 -0.113223787459097 0 0.45980496495355633 -0.1284767728883684 0 0.4426857910698585 -0.11145470603355161 0 0.45793493824399301 -0.113223787459097 0 0.45980496495355633 -0.1284767728883684 0 0.41282459532414723 -0.1182526735583805 0 0.42878551679754828 -0.1177318485792843 0 0.42136950622391078 -0.13034940820212931 0 0.41282459532414723 -0.1182526735583805 0 0.42623093028202458 -0.10965654480484729 0 0.41998156495642552 -0.1060363290293396 0 0.4426857910698585 -0.11145470603355161 0 0.42878551679754828 -0.1177318485792843 0 0.43486792283317199 -0.13249639282107631 0 0.41282459532414723 -0.1182526735583805 0 0.42878551679754828 -0.1177318485792843 0 0.42623093028202458 -0.10965654480484729 0 0.4426857910698585 -0.11145470603355161 0 0.42878551679754828 -0.1177318485792843 0 0.43317107494065021 -0.1080693889703222 0 0.42878551679754828 -0.1177318485792843 0 0.42623093028202458 -0.10965654480484729 0 0.43317107494065021 -0.1080693889703222 0 0.43411405531069958 -0.1029315927019457 0 0.42883897921097858 -0.087250969931559341 0 0.43498703521160759 -0.093213089030802151 0 0.42623093028202458 -0.10965654480484729 0 0.43411405531069958 -0.1029315927019457 0 0.41998156495642552 -0.1060363290293396 0 0.4426857910698585 -0.11145470603355161 0 0.43317107494065021 -0.1080693889703222 0 0.43411405531069958 -0.1029315927019457 0 0.42623093028202458 -0.10965654480484729 0 0.43317107494065021 -0.1080693889703222 0 0.43411405531069958 -0.1029315927019457 0 0.44025841766752061 -0.099878364944812642 0 0.43411405531069958 -0.1029315927019457 0 0.43498703521160759 -0.093213089030802151 0 0.43411405531069958 -0.1029315927019457 0 0.41998156495642552 -0.1060363290293396 0 0.41151652628869811 -0.094687126047479364 0 0.41282459532414723 -0.1182526735583805 0 0.41998156495642552 -0.1060363290293396 0 0.41151652628869811 -0.094687126047479364 0 0.41282459532414723 -0.1182526735583805 0 0.41151652628869811 -0.094687126047479364 0 0.4015445002281755 -0.1052725304457056 0 0.41282459532414723 -0.1182526735583805 0 0.41151652628869811 -0.094687126047479364 0 0.41151652628869811 -0.094687126047479364 0 0.410208457253249 -0.071121578536578217 0 0.39940120225915449 -0.081239884130975576 0 0.41151652628869811 -0.094687126047479364 0 0.410208457253249 -0.071121578536578217 0 0.41151652628869811 -0.094687126047479364 0 0.41429465754535488 -0.083224618751224763 0 0.410208457253249 -0.071121578536578217 0 0.43411405531069958 -0.1029315927019457 0 0.41151652628869811 -0.094687126047479364 0 0.41429465754535488 -0.083224618751224763 0 0.43411405531069958 -0.1029315927019457 0 0.41429465754535488 -0.083224618751224763 0 0.43411405531069958 -0.1029315927019457 0 0.41429465754535488 -0.083224618751224763 0 0.42883897921097858 -0.087250969931559341 0 0.44128085259518679 -0.093093822563226514 0 0.43498703521160759 -0.093213089030802151 0 0.435488465535048 -0.08342420761362665 0 0.42883897921097858 -0.087250969931559341 0 0.43498703521160759 -0.093213089030802151 0 0.435488465535048 -0.08342420761362665 0 0.42883897921097858 -0.087250969931559341 0 0.435488465535048 -0.08342420761362665 0 0.42531068245218329 -0.073461341560197332 0 0.41429465754535488 -0.083224618751224763 0 0.42883897921097858 -0.087250969931559341 0 0.42531068245218329 -0.073461341560197332 0 0.43886409299228851 -0.070914323886447778 0 0.435488465535048 -0.08342420761362665 0 0.42531068245218329 -0.073461341560197332 0 0.43886409299228851 -0.070914323886447778 0 0.42531068245218329 -0.073461341560197332 0 0.43364153259470589 -0.058001785026094418 0 0.42531068245218329 -0.073461341560197332 0 0.43364153259470589 -0.058001785026094418 0 0.42088418629505381 -0.060805419777010462 0 0.42531068245218329 -0.073461341560197332 0 0.410208457253249 -0.071121578536578217 0 0.42088418629505381 -0.060805419777010462 0 0.41429465754535488 -0.083224618751224763 0 0.42531068245218329 -0.073461341560197332 0 0.410208457253249 -0.071121578536578217 0 0.410208457253249 -0.071121578536578217 0 0.40161657380641008 -0.06145591279584342 0 0.40467541934390039 -0.055475052802685401 0 0.410208457253249 -0.071121578536578217 0 0.39965206425879868 -0.068955232587388476 0 0.40161657380641008 -0.06145591279584342 0 0.410208457253249 -0.071121578536578217 0 0.39965206425879868 -0.068955232587388476 0 0.39940120225915449 -0.081239884130975576 0 0.39965206425879868 -0.068955232587388476 0 0.38771672477029029 -0.070245811552951148 0 0.39940120225915449 -0.081239884130975576 0 0.39965206425879868 -0.068955232587388476 0 0.40161657380641008 -0.06145591279584342 0 0.3930020052869394 -0.059394739168174587 0 0.39965206425879868 -0.068955232587388476 0 0.38771672477029029 -0.070245811552951148 0 0.3930020052869394 -0.059394739168174587 0 0.38771672477029029 -0.070245811552951148 0 0.38231845371855422 -0.05550700707105885 0 0.36759562395766071 -0.067892731800677661 0 0.38771672477029029 -0.070245811552951148 0 0.36759562395766071 -0.067892731800677661 0 0.37191937548940451 -0.083376030081658309 0 0.38771672477029029 -0.070245811552951148 0 0.38416134509704508 -0.090304831799239926 0 0.37191937548940451 -0.083376030081658309 0 0.38771672477029029 -0.070245811552951148 0 0.38416134509704508 -0.090304831799239926 0 0.39940120225915449 -0.081239884130975576 0 0.38416134509704508 -0.090304831799239926 0 0.39940120225915449 -0.081239884130975576 0 0.39803095740753869 -0.094643518747046532 0 0.41151652628869811 -0.094687126047479364 0 0.39940120225915449 -0.081239884130975576 0 0.39803095740753869 -0.094643518747046532 0 0.41151652628869811 -0.094687126047479364 0 0.4015445002281755 -0.1052725304457056 0 0.39803095740753869 -0.094643518747046532 0 0.4015445002281755 -0.1052725304457056 0 0.38918215562268482 -0.10267270705414699 0 0.39412249895228618 -0.11649531811084859 0 0.4015445002281755 -0.1052725304457056 0 0.39803095740753869 -0.094643518747046532 0 0.38918215562268482 -0.10267270705414699 0 0.38416134509704508 -0.090304831799239926 0 0.39803095740753869 -0.094643518747046532 0 0.38918215562268482 -0.10267270705414699 0 0.38416134509704508 -0.090304831799239926 0 0.38918215562268482 -0.10267270705414699 0 0.37284485229092379 -0.1076109494702602 0 0.38918215562268482 -0.10267270705414699 0 0.38286545207415162 -0.11265670874226 0 0.37284485229092379 -0.1076109494702602 0 0.38918215562268482 -0.10267270705414699 0 0.38286545207415162 -0.11265670874226 0 0.39412249895228618 -0.11649531811084859 0 0.38286545207415162 -0.11265670874226 0 0.37001781658910299 -0.1196985277156337 0 0.37284485229092379 -0.1076109494702602 0 0.38286545207415162 -0.11265670874226 0 0.38087854083845341 -0.124187762088129 0 0.37001781658910299 -0.1196985277156337 0 0.38286545207415162 -0.11265670874226 0 0.38087854083845341 -0.124187762088129 0 0.39412249895228618 -0.11649531811084859 0 0.41282459532414723 -0.1182526735583805 0 0.4015445002281755 -0.1052725304457056 0 0.39412249895228618 -0.11649531811084859 0 0.38087854083845341 -0.124187762088129 0 0.39412249895228618 -0.11649531811084859 0 0.39825185075687791 -0.13055214771997639 0 0.41282459532414723 -0.1182526735583805 0 0.39412249895228618 -0.11649531811084859 0 0.39825185075687791 -0.13055214771997639 0 0.42831657745204882 -0.018662570779593581 0 0.39978843708719619 -0.023164510897697121 0 0.42831657745204882 -0.018662570779593581 0 0.41702248266262609 -0.031250065839635299 0 0.39978843708719619 -0.023164510897697121 0 0.41426609782592833 -0.0053004990416876899 0 0.42831657745204882 -0.018662570779593581 0 0.39978843708719619 -0.023164510897697121 0 0.41702248266262609 -0.031250065839635299 0 0.40654651169497008 -0.036166460816765042 0 0.39978843708719619 -0.023164510897697121 0 0.43050705368625303 0.0023503416838472832 0 0.41426609782592833 -0.0053004990416876899 0 0.4316133602267142 -0.0080790492607380852 0 0.41426609782592833 -0.0053004990416876899 0 0.4316133602267142 -0.0080790492607380852 0 0.42831657745204882 -0.018662570779593581 0 0.43050705368625303 0.0023503416838472832 0 0.44038506499612179 -0.0033992501075293421 0 0.4316133602267142 -0.0080790492607380852 0 0.4417606028482543 -0.01212479764662971 0 0.4316133602267142 -0.0080790492607380852 0 0.42831657745204882 -0.018662570779593581 0 0.42831657745204882 -0.018662570779593581 0 0.43393375373572091 -0.031147500293097291 0 0.41702248266262609 -0.031250065839635299 0 0.43393375373572091 -0.031147500293097291 0 0.4277615199763698 -0.043840939660795969 0 0.41609329889326729 -0.044670253719692139 0 0.43704565265487427 -0.045292962297040593 0 0.4277615199763698 -0.043840939660795969 0 0.42996053029165737 -0.049085590100068938 0 0.43393375373572091 -0.031147500293097291 0 0.43704565265487427 -0.045292962297040593 0 0.4277615199763698 -0.043840939660795969 0 0.43704565265487427 -0.045292962297040593 0 0.43364153259470589 -0.058001785026094418 0 0.42996053029165737 -0.049085590100068938 0 0.43364153259470589 -0.058001785026094418 0 0.42996053029165737 -0.049085590100068938 0 0.42168745713459788 -0.050491046292558357 0 0.4277615199763698 -0.043840939660795969 0 0.42996053029165737 -0.049085590100068938 0 0.42168745713459788 -0.050491046292558357 0 0.43364153259470589 -0.058001785026094418 0 0.42088418629505381 -0.060805419777010462 0 0.42168745713459788 -0.050491046292558357 0 0.410208457253249 -0.071121578536578217 0 0.40890038821779989 -0.047556031025676987 0 0.410208457253249 -0.071121578536578217 0 0.40890038821779989 -0.047556031025676987 0 0.41392590426383008 -0.052712426413040608 0 0.410208457253249 -0.071121578536578217 0 0.42088418629505381 -0.060805419777010462 0 0.41392590426383008 -0.052712426413040608 0 0.410208457253249 -0.071121578536578217 0 0.40890038821779989 -0.047556031025676987 0 0.40467541934390039 -0.055475052802685401 0 0.42088418629505381 -0.060805419777010462 0 0.42168745713459788 -0.050491046292558357 0 0.41392590426383008 -0.052712426413040608 0 0.41595168775856972 -0.048779610744958929 0 0.41245266831878991 -0.048330706461922668 0 0.41392590426383008 -0.052712426413040608 0 0.42168745713459788 -0.050491046292558357 0 0.41595168775856972 -0.048779610744958929 0 0.41609329889326729 -0.044670253719692139 0 0.42168745713459788 -0.050491046292558357 0 0.41595168775856972 -0.048779610744958929 0 0.41392590426383008 -0.052712426413040608 0 0.40890038821779989 -0.047556031025676987 0 0.40467541934390039 -0.055475052802685401 0 0.40533481195694482 -0.048949494623858919 0 0.41245266831878991 -0.048330706461922668 0 0.40890038821779989 -0.047556031025676987 0 0.41392590426383008 -0.052712426413040608 0 0.41595168775856972 -0.048779610744958929 0 0.41245266831878991 -0.048330706461922668 0 0.41243320809781009 -0.046045398993336643 0 0.41245266831878991 -0.048330706461922668 0 0.41055359318501478 -0.046936792941734598 0 0.41243320809781009 -0.046045398993336643 0 0.41245266831878991 -0.048330706461922668 0 0.41055359318501478 -0.046936792941734598 0 0.40890038821779989 -0.047556031025676987 0 0.40890038821779989 -0.047556031025676987 0 0.40670564264993941 -0.047155962200257251 0 0.40533481195694482 -0.048949494623858919 0 0.43393375373572091 -0.031147500293097291 0 0.41609329889326729 -0.044670253719692139 0 0.40842810810565933 -0.045815035286002122 0 0.43393375373572091 -0.031147500293097291 0 0.40842810810565933 -0.045815035286002122 0 0.43393375373572091 -0.031147500293097291 0 0.41702248266262609 -0.031250065839635299 0 0.40842810810565933 -0.045815035286002122 0 0.4277615199763698 -0.043840939660795969 0 0.42168745713459788 -0.050491046292558357 0 0.41609329889326729 -0.044670253719692139 0 0.41595168775856972 -0.048779610744958929 0 0.41609329889326729 -0.044670253719692139 0 0.41243320809781009 -0.046045398993336643 0 0.41055359318501478 -0.046936792941734598 0 0.41243320809781009 -0.046045398993336643 0 0.40842810810565933 -0.045815035286002122 0 0.41609329889326729 -0.044670253719692139 0 0.41243320809781009 -0.046045398993336643 0 0.40842810810565933 -0.045815035286002122 0 0.41055359318501478 -0.046936792941734598 0 0.40890038821779989 -0.047556031025676987 0 0.40842810810565933 -0.045815035286002122 0 0.40890038821779989 -0.047556031025676987 0 0.40670564264993941 -0.047155962200257251 0 0.40842810810565933 -0.045815035286002122 0 0.40670564264993941 -0.047155962200257251 0 0.40842810810565933 -0.045815035286002122 0 0.40464206912160461 -0.045938529563297692 0 0.41702248266262609 -0.031250065839635299 0 0.40842810810565933 -0.045815035286002122 0 0.40654651169497008 -0.036166460816765042 0 0.40654651169497008 -0.036166460816765042 0 0.40301104359298567 -0.041998001172575412 0 0.39831964441294349 -0.037527842435324643 0 0.40654651169497008 -0.036166460816765042 0 0.39831964441294349 -0.037527842435324643 0 0.39978843708719619 -0.023164510897697121 0 0.39831964441294349 -0.037527842435324643 0 0.38473920074584922 -0.039210774910751839 0 0.39978843708719619 -0.023164510897697121 0 0.40842810810565933 -0.045815035286002122 0 0.40654651169497008 -0.036166460816765042 0 0.40301104359298567 -0.041998001172575412 0 0.40301104359298567 -0.041998001172575412 0 0.39831964441294349 -0.037527842435324643 0 0.39480055854150931 -0.047664865003854827 0 0.40301104359298567 -0.041998001172575412 0 0.40187627138956572 -0.048526908386181108 0 0.39480055854150931 -0.047664865003854827 0 0.40842810810565933 -0.045815035286002122 0 0.40301104359298567 -0.041998001172575412 0 0.40464206912160461 -0.045938529563297692 0 0.40301104359298567 -0.041998001172575412 0 0.40464206912160461 -0.045938529563297692 0 0.40187627138956572 -0.048526908386181108 0 0.39831964441294349 -0.037527842435324643 0 0.39480055854150931 -0.047664865003854827 0 0.38473920074584922 -0.039210774910751839 0 0.40161657380641008 -0.06145591279584342 0 0.40467541934390039 -0.055475052802685401 0 0.3993813955926378 -0.05450973689816184 0 0.40467541934390039 -0.055475052802685401 0 0.3993813955926378 -0.05450973689816184 0 0.40187627138956572 -0.048526908386181108 0 0.40467541934390039 -0.055475052802685401 0 0.40533481195694482 -0.048949494623858919 0 0.40187627138956572 -0.048526908386181108 0 0.40670564264993941 -0.047155962200257251 0 0.40464206912160461 -0.045938529563297692 0 0.40533481195694482 -0.048949494623858919 0 0.40464206912160461 -0.045938529563297692 0 0.40533481195694482 -0.048949494623858919 0 0.40187627138956572 -0.048526908386181108 0 0.3993813955926378 -0.05450973689816184 0 0.40187627138956572 -0.048526908386181108 0 0.39480055854150931 -0.047664865003854827 0 0.3993813955926378 -0.05450973689816184 0 0.39480055854150931 -0.047664865003854827 0 0.3930020052869394 -0.059394739168174587 0 0.40161657380641008 -0.06145591279584342 0 0.3993813955926378 -0.05450973689816184 0 0.3930020052869394 -0.059394739168174587 0 0.39480055854150931 -0.047664865003854827 0 0.38231845371855422 -0.05550700707105885 0 0.38473920074584922 -0.039210774910751839 0 0.38231845371855422 -0.05550700707105885 0 0.38473920074584922 -0.039210774910751839 0 0.3635053007253724 -0.047454516549181272 0 0.38771672477029029 -0.070245811552951148 0 0.3930020052869394 -0.059394739168174587 0 0.38231845371855422 -0.05550700707105885 0 0.39480055854150931 -0.047664865003854827 0 0.3930020052869394 -0.059394739168174587 0 0.38231845371855422 -0.05550700707105885 0 0.38473920074584922 -0.039210774910751839 0 0.39978843708719619 -0.023164510897697121 0 0.37126029672234362 -0.027666451015800671 0 0.39978843708719619 -0.023164510897697121 0 0.37126029672234362 -0.027666451015800671 0 0.39978843708719619 -0.023164510897697121 0 0.38004824580921331 -0.0028869129075803049 0 0.37126029672234362 -0.027666451015800671 0 0.39978843708719619 -0.023164510897697121 0 0.39893425355353762 -0.0051137820231725237 0 0.38004824580921331 -0.0028869129075803049 0 0.41426609782592833 -0.0053004990416876899 0 0.39978843708719619 -0.023164510897697121 0 0.39893425355353762 -0.0051137820231725237 0 0.35703834181637017 0.01144248958259767 0 0.38004824580921331 -0.0028869129075803049 0 0.35250975552703762 -0.012334663797653279 0 0.38004824580921331 -0.0028869129075803049 0 0.37126029672234362 -0.027666451015800671 0 0.35250975552703762 -0.012334663797653279 0 0.37126029672234362 -0.027666451015800671 0 0.35250975552703762 -0.012334663797653279 0 0.3427321563574911 -0.032168391133904212 0 0.37126029672234362 -0.027666451015800671 0 0.3427321563574911 -0.032168391133904212 0 0.35703834181637017 0.01144248958259767 0 0.3313803004910606 0.00088141002731029205 0 0.35250975552703762 -0.012334663797653279 0 0.3313803004910606 0.00088141002731029205 0 0.33387490679194742 -0.018770821537064001 0 0.31983916069721402 -0.01756133944343553 0 0.3313803004910606 0.00088141002731029205 0 0.35250975552703762 -0.012334663797653279 0 0.33387490679194742 -0.018770821537064001 0 0.33387490679194742 -0.018770821537064001 0 0.3229131608869335 -0.032671123337637262 0 0.3427321563574911 -0.032168391133904212 0 0.35250975552703762 -0.012334663797653279 0 0.33387490679194742 -0.018770821537064001 0 0.3427321563574911 -0.032168391133904212 0 0.31983916069721402 -0.01756133944343553 0 0.3229131608869335 -0.032671123337637262 0 0.30658089097657798 -0.022727187040331151 0 0.3229131608869335 -0.032671123337637262 0 0.30658089097657798 -0.022727187040331151 0 0.31024221046599409 -0.031304029368407392 0 0.33387490679194742 -0.018770821537064001 0 0.31983916069721402 -0.01756133944343553 0 0.3229131608869335 -0.032671123337637262 0 0.3229131608869335 -0.032671123337637262 0 0.30658089097657798 -0.022727187040331151 0 0.3313803004910606 0.00088141002731029205 0 0.30942768596035969 0.0080651459837762646 0 0.30572225916575102 -0.0096796695279770875 0 0.3313803004910606 0.00088141002731029205 0 0.30572225916575102 -0.0096796695279770875 0 0.3313803004910606 0.00088141002731029205 0 0.31983916069721402 -0.01756133944343553 0 0.30572225916575102 -0.0096796695279770875 0 0.31781803219706939 -0.050909700542606573 0 0.33446933861452921 -0.051012628627060887 0 0.33103993927204262 -0.067455949230195711 0 0.31781803219706939 -0.050909700542606573 0 0.32730588579043202 -0.04269026288889486 0 0.33446933861452921 -0.051012628627060887 0 0.31781803219706939 -0.050909700542606573 0 0.33103993927204262 -0.067455949230195711 0 0.30739998991578282 -0.066093278928345392 0 0.31420401599263842 -0.036670331252007769 0 0.3229131608869335 -0.032671123337637262 0 0.3427321563574911 -0.032168391133904212 0 0.31781803219706939 -0.050909700542606573 0 0.31420401599263842 -0.036670331252007769 0 0.32730588579043202 -0.04269026288889486 0 0.31420401599263842 -0.036670331252007769 0 0.32730588579043202 -0.04269026288889486 0 0.3427321563574911 -0.032168391133904212 0 0.31420401599263842 -0.036670331252007769 0 0.3229131608869335 -0.032671123337637262 0 0.31024221046599409 -0.031304029368407392 0 0.31420401599263842 -0.036670331252007769 0 0.3427321563574911 -0.032168391133904212 0 0.32730588579043202 -0.04269026288889486 0 0.3427321563574911 -0.032168391133904212 0 0.33446933861452921 -0.051012628627060887 0 0.3427321563574911 -0.032168391133904212 0 0.33446933861452921 -0.051012628627060887 0 0.34720700592797898 -0.04800488704894882 0 0.33446933861452921 -0.051012628627060887 0 0.3496229337030719 -0.062310307825590022 0 0.33103993927204262 -0.067455949230195711 0 0.3496229337030719 -0.062310307825590022 0 0.34720700592797898 -0.04800488704894882 0 0.3635053007253724 -0.047454516549181272 0 0.33446933861452921 -0.051012628627060887 0 0.3496229337030719 -0.062310307825590022 0 0.34720700592797898 -0.04800488704894882 0 0.37126029672234362 -0.027666451015800671 0 0.3427321563574911 -0.032168391133904212 0 0.3635053007253724 -0.047454516549181272 0 0.3427321563574911 -0.032168391133904212 0 0.34720700592797898 -0.04800488704894882 0 0.3635053007253724 -0.047454516549181272 0 0.38473920074584922 -0.039210774910751839 0 0.37126029672234362 -0.027666451015800671 0 0.3635053007253724 -0.047454516549181272 0 0.38231845371855422 -0.05550700707105885 0 0.3635053007253724 -0.047454516549181272 0 0.36759562395766071 -0.067892731800677661 0 0.3496229337030719 -0.062310307825590022 0 0.3635053007253724 -0.047454516549181272 0 0.36759562395766071 -0.067892731800677661 0 0.37191937548940451 -0.083376030081658309 0 0.34992328486210073 -0.08582523008845036 0 0.36491171726418098 -0.095967172004788895 0 0.38416134509704508 -0.090304831799239926 0 0.37191937548940451 -0.083376030081658309 0 0.36491171726418098 -0.095967172004788895 0 0.36759562395766071 -0.067892731800677661 0 0.37191937548940451 -0.083376030081658309 0 0.34992328486210073 -0.08582523008845036 0 0.3496229337030719 -0.062310307825590022 0 0.36759562395766071 -0.067892731800677661 0 0.34992328486210073 -0.08582523008845036 0 0.37001781658910299 -0.1196985277156337 0 0.37284485229092379 -0.1076109494702602 0 0.35510600836586242 -0.1097999872766936 0 0.37001781658910299 -0.1196985277156337 0 0.35510600836586242 -0.1097999872766936 0 0.35912921923195762 -0.12444259222593911 0 0.38416134509704508 -0.090304831799239926 0 0.36491171726418098 -0.095967172004788895 0 0.37284485229092379 -0.1076109494702602 0 0.36491171726418098 -0.095967172004788895 0 0.37284485229092379 -0.1076109494702602 0 0.35510600836586242 -0.1097999872766936 0 0.34992328486210073 -0.08582523008845036 0 0.35510600836586242 -0.1097999872766936 0 0.33506782891287928 -0.1058502281547762 0 0.34992328486210073 -0.08582523008845036 0 0.36491171726418098 -0.095967172004788895 0 0.35510600836586242 -0.1097999872766936 0 0.35510600836586242 -0.1097999872766936 0 0.34243346160057592 -0.1237296628284698 0 0.33506782891287928 -0.1058502281547762 0 0.35510600836586242 -0.1097999872766936 0 0.35912921923195762 -0.12444259222593911 0 0.34243346160057592 -0.1237296628284698 0 0.34243346160057592 -0.1237296628284698 0 0.33506782891287928 -0.1058502281547762 0 0.32283255050196619 -0.1263048316539207 0 0.31620326780428482 -0.10444427429064899 0 0.32700605633970209 -0.088584549369121079 0 0.29708710807028538 -0.08889980189720928 0 0.33506782891287928 -0.1058502281547762 0 0.31620326780428482 -0.10444427429064899 0 0.32700605633970209 -0.088584549369121079 0 0.33506782891287928 -0.1058502281547762 0 0.31620326780428482 -0.10444427429064899 0 0.32283255050196619 -0.1263048316539207 0 0.31620326780428482 -0.10444427429064899 0 0.29902279519659108 -0.1125819603782178 0 0.32283255050196619 -0.1263048316539207 0 0.3496229337030719 -0.062310307825590022 0 0.34992328486210073 -0.08582523008845036 0 0.33103993927204262 -0.067455949230195711 0 0.34992328486210073 -0.08582523008845036 0 0.33506782891287928 -0.1058502281547762 0 0.32700605633970209 -0.088584549369121079 0 0.34992328486210073 -0.08582523008845036 0 0.33103993927204262 -0.067455949230195711 0 0.32700605633970209 -0.088584549369121079 0 0.32700605633970209 -0.088584549369121079 0 0.30739998991578282 -0.066093278928345392 0 0.33103993927204262 -0.067455949230195711 0 0.32700605633970209 -0.088584549369121079 0 0.30739998991578282 -0.066093278928345392 0 0.32700605633970209 -0.088584549369121079 0 0.30739998991578282 -0.066093278928345392 0 0.29708710807028538 -0.08889980189720928 0 0.29708710807028538 -0.08889980189720928 0 0.28169361708016433 -0.1035695596960859 0 0.27107402700204342 -0.085488293785975805 0 0.29708710807028538 -0.08889980189720928 0 0.27943397524695451 -0.064545151136772866 0 0.27107402700204342 -0.085488293785975805 0 0.30739998991578282 -0.066093278928345392 0 0.29708710807028538 -0.08889980189720928 0 0.27943397524695451 -0.064545151136772866 0 0.29902279519659108 -0.1125819603782178 0 0.30070296141837072 -0.12923664205863339 0 0.32283255050196619 -0.1263048316539207 0 0.31620326780428482 -0.10444427429064899 0 0.29708710807028538 -0.08889980189720928 0 0.29902279519659108 -0.1125819603782178 0 0.29708710807028538 -0.08889980189720928 0 0.29902279519659108 -0.1125819603782178 0 0.28169361708016433 -0.1035695596960859 0 0.29902279519659108 -0.1125819603782178 0 0.28169361708016433 -0.1035695596960859 0 0.27682270856738761 -0.1232888814359593 0 0.29902279519659108 -0.1125819603782178 0 0.27682270856738761 -0.1232888814359593 0 0.30070296141837072 -0.12923664205863339 0 0.28169361708016433 -0.1035695596960859 0 0.27682270856738761 -0.1232888814359593 0 0.26271407875713298 -0.10643143643517911 0 0.27682270856738761 -0.1232888814359593 0 0.26271407875713298 -0.10643143643517911 0 0.25849072858486971 -0.1170116724036338 0 0.27682270856738761 -0.1232888814359593 0 0.25849072858486971 -0.1170116724036338 0 0.26832550367893793 -0.13091520818086119 0 0.27682270856738761 -0.1232888814359593 0 0.26271407875713298 -0.10643143643517911 0 0.26271407875713298 -0.10643143643517911 0 0.27107402700204342 -0.085488293785975805 0 0.28169361708016433 -0.1035695596960859 0 0.26271407875713298 -0.10643143643517911 0 0.27107402700204342 -0.085488293785975805 0 0.25014461766983942 -0.1056157606165187 0 0.26271407875713298 -0.10643143643517911 0 0.24409979373027321 -0.08419048956157503 0 0.26271407875713298 -0.10643143643517911 0 0.24409979373027321 -0.08419048956157503 0 0.26271407875713298 -0.10643143643517911 0 0.25849072858486971 -0.1170116724036338 0 0.25014461766983942 -0.1056157606165187 0 0.26271407875713298 -0.10643143643517911 0 0.25849072858486971 -0.1170116724036338 0 0.25014461766983942 -0.1056157606165187 0 0.25849072858486971 -0.1170116724036338 0 0.2462752805337094 -0.1164302520937919 0 0.25849072858486971 -0.1170116724036338 0 0.25176187605930839 -0.1237749620808777 0 0.2462752805337094 -0.1164302520937919 0 0.25849072858486971 -0.1170116724036338 0 0.25176187605930839 -0.1237749620808777 0 0.25897312315171861 -0.1276760618184595 0 0.27943397524695451 -0.064545151136772866 0 0.27107402700204342 -0.085488293785975805 0 0.26317258075180422 -0.064657564702826548 0 0.27943397524695451 -0.064545151136772866 0 0.27107402700204342 -0.085488293785975805 0 0.26271407875713298 -0.10643143643517911 0 0.27107402700204342 -0.085488293785975805 0 0.25788891384778417 -0.078562395337112748 0 0.26271407875713298 -0.10643143643517911 0 0.25788891384778417 -0.078562395337112748 0 0.24409979373027321 -0.08419048956157503 0 0.25788891384778417 -0.078562395337112748 0 0.26317258075180422 -0.064657564702826548 0 0.24193210565152751 -0.065305200451343373 0 0.27107402700204342 -0.085488293785975805 0 0.25788891384778417 -0.078562395337112748 0 0.26317258075180422 -0.064657564702826548 0 0.26047413934767799 -0.045149281653793019 0 0.249462220344529 -0.049513941626465573 0 0.24193210565152751 -0.065305200451343373 0 0.26317258075180422 -0.064657564702826548 0 0.26047413934767799 -0.045149281653793019 0 0.24193210565152751 -0.065305200451343373 0 0.26047413934767799 -0.045149281653793019 0 0.24193210565152751 -0.065305200451343373 0 0.26047413934767799 -0.045149281653793019 0 0.24945292373939221 -0.046888506575663548 0 0.249462220344529 -0.049513941626465573 0 0.27943397524695451 -0.064545151136772866 0 0.26317258075180422 -0.064657564702826548 0 0.27531009889321711 -0.051825255470214951 0 0.27943397524695451 -0.064545151136772866 0 0.27531009889321711 -0.051825255470214951 0 0.28779392349186422 -0.04360200848756933 0 0.26317258075180422 -0.064657564702826548 0 0.27531009889321711 -0.051825255470214951 0 0.26047413934767799 -0.045149281653793019 0 0.27531009889321711 -0.051825255470214951 0 0.26047413934767799 -0.045149281653793019 0 0.28567587562778612 -0.041172271370113478 0 0.26047413934767799 -0.045149281653793019 0 0.28567587562778612 -0.041172271370113478 0 0.26047413934767799 -0.045149281653793019 0 0.27519414274329002 -0.029148059889041941 0 0.28567587562778612 -0.041172271370113478 0 0.26047413934767799 -0.045149281653793019 0 0.27519414274329002 -0.029148059889041941 0 0.26269328683150289 -0.032419444928623288 0 0.26047413934767799 -0.045149281653793019 0 0.27519414274329002 -0.029148059889041941 0 0.27519414274329002 -0.029148059889041941 0 0.28567587562778612 -0.041172271370113478 0 0.26269328683150289 -0.032419444928623288 0 0.25784798866327252 -0.025327478933740748 0 0.24945292373939221 -0.046888506575663548 0 0.26269328683150289 -0.032419444928623288 0 0.26047413934767799 -0.045149281653793019 0 0.24945292373939221 -0.046888506575663548 0 0.26047413934767799 -0.045149281653793019 0 0.24945292373939221 -0.046888506575663548 0 0.25784798866327252 -0.025327478933740748 0 0.24945292373939221 -0.046888506575663548 0 0.24934833894078609 -0.017352929662964419 0 0.25784798866327252 -0.025327478933740748 0 0.26010579277704338 -0.0094947121626498474 0 0.2676396010276379 -0.020481801338802629 0 0.25784798866327252 -0.025327478933740748 0 0.26010579277704338 -0.0094947121626498474 0 0.24934833894078609 -0.017352929662964419 0 0.26269328683150289 -0.032419444928623288 0 0.25784798866327252 -0.025327478933740748 0 0.2676396010276379 -0.020481801338802629 0 0.24924375414218081 0.01218264724973479 0 0.26010579277704338 -0.0094947121626498474 0 0.24934833894078609 -0.017352929662964419 0 0.26010579277704338 -0.0094947121626498474 0 0.26974618760420199 -0.00030030174664443492 0 0.2676396010276379 -0.020481801338802629 0 0.26974618760420199 -0.00030030174664443492 0 0.2676396010276379 -0.020481801338802629 0 0.29024862106621879 -0.012783250743031041 0 0.26974618760420199 -0.00030030174664443492 0 0.29024862106621879 -0.012783250743031041 0 0.2676396010276379 -0.020481801338802629 0 0.27519414274329002 -0.029148059889041941 0 0.29024862106621879 -0.012783250743031041 0 0.2676396010276379 -0.020481801338802629 0 0.27519414274329002 -0.029148059889041941 0 0.26269328683150289 -0.032419444928623288 0 0.2676396010276379 -0.020481801338802629 0 0.27519414274329002 -0.029148059889041941 0 0.29090676930867171 -0.026031733996952432 0 0.29024862106621879 -0.012783250743031041 0 0.30658089097657798 -0.022727187040331151 0 0.27519414274329002 -0.029148059889041941 0 0.29024862106621879 -0.012783250743031041 0 0.27519414274329002 -0.029148059889041941 0 0.29090676930867171 -0.026031733996952432 0 0.29024862106621879 -0.012783250743031041 0 0.27519414274329002 -0.029148059889041941 0 0.29090676930867171 -0.026031733996952432 0 0.28919230489230668 -0.033217477073101492 0 0.29090676930867171 -0.026031733996952432 0 0.30046245425324641 -0.033839495589077548 0 0.28919230489230668 -0.033217477073101492 0 0.28692422129050738 0.0091650621547095315 0 0.26974618760420199 -0.00030030174664443492 0 0.29024862106621879 -0.012783250743031041 0 0.30942768596035969 0.0080651459837762646 0 0.29024862106621879 -0.012783250743031041 0 0.29024862106621879 -0.012783250743031041 0 0.30572225916575102 -0.0096796695279770875 0 0.30658089097657798 -0.022727187040331151 0 0.30942768596035969 0.0080651459837762646 0 0.29024862106621879 -0.012783250743031041 0 0.30572225916575102 -0.0096796695279770875 0 0.29090676930867171 -0.026031733996952432 0 0.30658089097657798 -0.022727187040331151 0 0.30046245425324641 -0.033839495589077548 0 0.29024862106621879 -0.012783250743031041 0 0.30658089097657798 -0.022727187040331151 0 0.31983916069721402 -0.01756133944343553 0 0.30572225916575102 -0.0096796695279770875 0 0.30658089097657798 -0.022727187040331151 0 0.30658089097657798 -0.022727187040331151 0 0.31024221046599409 -0.031304029368407392 0 0.30046245425324641 -0.033839495589077548 0 0.31420401599263842 -0.036670331252007769 0 0.31024221046599409 -0.031304029368407392 0 0.30046245425324641 -0.033839495589077548 0 0.31420401599263842 -0.036670331252007769 0 0.30046245425324641 -0.033839495589077548 0 0.28567587562778612 -0.041172271370113478 0 0.31420401599263842 -0.036670331252007769 0 0.30303407321983089 -0.047672710453262823 0 0.28860548478163028 -0.041568904530202608 0 0.31420401599263842 -0.036670331252007769 0 0.28567587562778612 -0.041172271370113478 0 0.31781803219706939 -0.050909700542606573 0 0.31420401599263842 -0.036670331252007769 0 0.30303407321983089 -0.047672710453262823 0 0.30739998991578282 -0.066093278928345392 0 0.28779392349186422 -0.04360200848756933 0 0.30739998991578282 -0.066093278928345392 0 0.30303407321983089 -0.047672710453262823 0 0.28779392349186422 -0.04360200848756933 0 0.31781803219706939 -0.050909700542606573 0 0.30739998991578282 -0.066093278928345392 0 0.30303407321983089 -0.047672710453262823 0 0.27943397524695451 -0.064545151136772866 0 0.28779392349186422 -0.04360200848756933 0 0.30739998991578282 -0.066093278928345392 0 0.27943397524695451 -0.064545151136772866 0 0.28779392349186422 -0.04360200848756933 0 0.31420401599263842 -0.036670331252007769 0 0.28860548478163028 -0.041568904530202608 0 0.28567587562778612 -0.041172271370113478 0 0.27531009889321711 -0.051825255470214951 0 0.28779392349186422 -0.04360200848756933 0 0.28567587562778612 -0.041172271370113478 0 0.28779392349186422 -0.04360200848756933 0 0.28860548478163028 -0.041568904530202608 0 0.28779392349186422 -0.04360200848756933 0 0.28860548478163028 -0.041568904530202608 0 0.28567587562778612 -0.041172271370113478 0 0.28779392349186422 -0.04360200848756933 0 0.28567587562778612 -0.041172271370113478 0 0.27519414274329002 -0.029148059889041941 0 0.28567587562778612 -0.041172271370113478 0 0.28919230489230668 -0.033217477073101492 0 0.30046245425324641 -0.033839495589077548 0 0.28567587562778612 -0.041172271370113478 0 0.28919230489230668 -0.033217477073101492 0 0.30303407321983089 -0.047672710453262823 0 0.28779392349186422 -0.04360200848756933 0 0.28860548478163028 -0.041568904530202608 0 0.28290953480762221 -0.2051828886799956 0 0.29992766187092951 -0.2106866390911879 0 0.28083523331761101 -0.21269972576943191 0 0.29992766187092951 -0.2106866390911879 0 0.30283587745714308 -0.2166639343261256 0 0.27860703304225409 -0.22274632491321431 0 0.29992766187092951 -0.2106866390911879 0 0.27860703304225409 -0.22274632491321431 0 0.28083523331761101 -0.21269972576943191 0 0.28290953480762221 -0.2051828886799956 0 0.28566119425708708 -0.19792131935882201 0 0.29992766187092951 -0.2106866390911879 0 0.29992766187092951 -0.2106866390911879 0 0.27860703304225409 -0.22274632491321431 0 0.28290953480762221 -0.2051828886799956 0 0.28566119425708708 -0.19792131935882201 0 0.27531845594637688 -0.1973181983445538 0 0.28566119425708708 -0.19792131935882201 0 0.28914215964982692 -0.18851904899290511 0 0.29992766187092951 -0.2106866390911879 0 0.28914215964982692 -0.18851904899290511 0 0.29992766187092951 -0.2106866390911879 0 0.28914215964982692 -0.18851904899290511 0 0.28100815901068088 -0.18789982168546701 0 0.28566119425708708 -0.19792131935882201 0 0.28914215964982692 -0.18851904899290511 0 0.28100815901068088 -0.18789982168546701 0 0.28914215964982692 -0.18851904899290511 0 0.30427811815484318 -0.18967132316232069 0 0.30375826169666981 -0.20851991920784971 0 0.31941407665985921 -0.1908235973317399 0 0.28914215964982692 -0.18851904899290511 0 0.30427811815484318 -0.18967132316232069 0 0.30375826169666981 -0.20851991920784971 0 0.30427811815484318 -0.18967132316232069 0 0.30375826169666981 -0.20851991920784971 0 0.31941407665985921 -0.1908235973317399 0 0.28914215964982692 -0.18851904899290511 0 0.30375826169666981 -0.20851991920784971 0 0.29992766187092951 -0.2106866390911879 0 0.30427811815484318 -0.18967132316232069 0 0.31941407665985921 -0.1908235973317399 0 0.30375826169666981 -0.20851991920784971 0 0.31397832197813952 -0.21413814654667979 0 0.31655881118879658 -0.20127948523824629 0 0.30375826169666981 -0.20851991920784971 0 0.31655881118879658 -0.20127948523824629 0 0.30375826169666981 -0.20851991920784971 0 0.29992766187092951 -0.2106866390911879 0 0.29992766187092951 -0.2106866390911879 0 0.30283587745714308 -0.2166639343261256 0 0.30375826169666981 -0.20851991920784971 0 0.29992766187092951 -0.2106866390911879 0 0.31397832197813952 -0.21413814654667979 0 0.29992766187092951 -0.2106866390911879 0 0.30283587745714308 -0.2166639343261256 0 0.31397832197813952 -0.21413814654667979 0 0.30978869405476811 -0.22558233672527031 0 0.30819810831357242 -0.24106028415953401 0 0.29367370006732579 -0.23146522284893251 0 0.30283587745714308 -0.2166639343261256 0 0.30978869405476811 -0.22558233672527031 0 0.29367370006732579 -0.23146522284893251 0 0.30283587745714308 -0.2166639343261256 0 0.30978869405476811 -0.22558233672527031 0 0.31397832197813952 -0.21413814654667979 0 0.30819810831357242 -0.24106028415953401 0 0.28613875416948542 -0.25753647257398821 0 0.30819810831357242 -0.24106028415953401 0 0.29367370006732579 -0.23146522284893251 0 0.28613875416948542 -0.25753647257398821 0 0.29367370006732579 -0.23146522284893251 0 0.27517653528561892 -0.24063479640347971 0 0.28613875416948542 -0.25753647257398821 0 0.30283587745714308 -0.2166639343261256 0 0.29367370006732579 -0.23146522284893251 0 0.27860703304225409 -0.22274632491321431 0 0.29367370006732579 -0.23146522284893251 0 0.27860703304225409 -0.22274632491321431 0 0.27517653528561892 -0.24063479640347971 0 0.27860703304225409 -0.22274632491321431 0 0.27517653528561892 -0.24063479640347971 0 0.26558390309263102 -0.23011265809569001 0 0.27860703304225409 -0.22274632491321431 0 0.26558390309263102 -0.23011265809569001 0 0.26736532852397732 -0.2139252029523733 0 0.27860703304225409 -0.22274632491321431 0 0.26558390309263102 -0.23011265809569001 0 0.27517653528561892 -0.24063479640347971 0 0.25728640421358012 -0.23480601073524321 0 0.26558390309263102 -0.23011265809569001 0 0.25728640421358012 -0.23480601073524321 0 0.26021268495159 -0.25369246622202929 0 0.2359657753849061 -0.24686569655727211 0 0.27517653528561892 -0.24063479640347971 0 0.25728640421358012 -0.23480601073524321 0 0.26021268495159 -0.25369246622202929 0 0.26558390309263102 -0.23011265809569001 0 0.24577709228845779 -0.20894014118177259 0 0.25728640421358012 -0.23480601073524321 0 0.26558390309263102 -0.23011265809569001 0 0.24577709228845779 -0.20894014118177259 0 0.25728640421358012 -0.23480601073524321 0 0.26558390309263102 -0.23011265809569001 0 0.26558390309263102 -0.23011265809569001 0 0.26736532852397732 -0.2139252029523733 0 0.24577709228845779 -0.20894014118177259 0 0.26736532852397732 -0.2139252029523733 0 0.26311871650952168 -0.19916322550797991 0 0.24577709228845779 -0.20894014118177259 0 0.26736532852397732 -0.2139252029523733 0 0.27396774000191182 -0.20586983724924779 0 0.26311871650952168 -0.19916322550797991 0 0.28290953480762221 -0.2051828886799956 0 0.27396774000191182 -0.20586983724924779 0 0.28083523331761101 -0.21269972576943191 0 0.26736532852397732 -0.2139252029523733 0 0.27396774000191182 -0.20586983724924779 0 0.28083523331761101 -0.21269972576943191 0 0.27860703304225409 -0.22274632491321431 0 0.26736532852397732 -0.2139252029523733 0 0.28083523331761101 -0.21269972576943191 0 0.28566119425708708 -0.19792131935882201 0 0.28100815901068088 -0.18789982168546701 0 0.27531845594637688 -0.1973181983445538 0 0.28100815901068088 -0.18789982168546701 0 0.27531845594637688 -0.1973181983445538 0 0.27117931588479272 -0.1879895719080211 0 0.28290953480762221 -0.2051828886799956 0 0.27396774000191182 -0.20586983724924779 0 0.27531845594637688 -0.1973181983445538 0 0.27396774000191182 -0.20586983724924779 0 0.27531845594637688 -0.1973181983445538 0 0.26311871650952168 -0.19916322550797991 0 0.27531845594637688 -0.1973181983445538 0 0.27117931588479272 -0.1879895719080211 0 0.26311871650952168 -0.19916322550797991 0 0.26311871650952168 -0.19916322550797991 0 0.2473321467029129 -0.19438791307811501 0 0.24577709228845779 -0.20894014118177259 0 0.27117931588479272 -0.1879895719080211 0 0.26311871650952168 -0.19916322550797991 0 0.25422100649276402 -0.18125372490620401 0 0.26311871650952168 -0.19916322550797991 0 0.25422100649276402 -0.18125372490620401 0 0.2473321467029129 -0.19438791307811501 0 0.25422100649276402 -0.18125372490620401 0 0.26378411895645859 -0.16522760264032429 0 0.24978916718025401 -0.16190726118607571 0 0.26378411895645859 -0.16522760264032429 0 0.25907899387967959 -0.15208666501255391 0 0.24978916718025401 -0.16190726118607571 0 0.26378411895645859 -0.16522760264032429 0 0.27360118576497527 -0.1565774730008874 0 0.25907899387967959 -0.15208666501255391 0 0.27360118576497527 -0.1565774730008874 0 0.28223024146461928 -0.17431288909590109 0 0.26378411895645859 -0.16522760264032429 0 0.27360118576497527 -0.1565774730008874 0 0.28223024146461928 -0.17431288909590109 0 0.25422100649276402 -0.18125372490620401 0 0.26378411895645859 -0.16522760264032429 0 0.28223024146461928 -0.17431288909590109 0 0.25422100649276402 -0.18125372490620401 0 0.28223024146461928 -0.17431288909590109 0 0.27117931588479272 -0.1879895719080211 0 0.25422100649276402 -0.18125372490620401 0 0.28223024146461928 -0.17431288909590109 0 0.28100815901068088 -0.18789982168546701 0 0.27117931588479272 -0.1879895719080211 0 0.28223024146461928 -0.17431288909590109 0 0.25849072858486971 -0.1170116724036338 0 0.25897312315171861 -0.1276760618184595 0 0.26832550367893793 -0.13091520818086119 0 0.26257764950351631 -0.13239377212167891 0 0.25897312315171861 -0.1276760618184595 0 0.26832550367893793 -0.13091520818086119 0 0.26257764950351631 -0.13239377212167891 0 0.25897312315171861 -0.1276760618184595 0 0.25866409629821568 -0.13342480178366811 0 0.25176187605930839 -0.1237749620808777 0 0.25897312315171861 -0.1276760618184595 0 0.25277327120285892 -0.13174155060927689 0 0.25897312315171861 -0.1276760618184595 0 0.25277327120285892 -0.13174155060927689 0 0.25866409629821568 -0.13342480178366811 0 0.25277327120285892 -0.13174155060927689 0 0.25348559013088362 -0.13826493822524219 0 0.25866409629821568 -0.13342480178366811 0 0.25277327120285892 -0.13174155060927689 0 0.25348559013088362 -0.13826493822524219 0 0.24630144909439439 -0.1366621448626984 0 0.25348559013088362 -0.13826493822524219 0 0.26497213006532949 -0.13884205690587459 0 0.26257764950351631 -0.13239377212167891 0 0.26497213006532949 -0.13884205690587459 0 0.26832550367893793 -0.13091520818086119 0 0.25348559013088362 -0.13826493822524219 0 0.25866409629821568 -0.13342480178366811 0 0.26497213006532949 -0.13884205690587459 0 0.26257764950351631 -0.13239377212167891 0 0.25866409629821568 -0.13342480178366811 0 0.26497213006532949 -0.13884205690587459 0 0.25348559013088362 -0.13826493822524219 0 0.26497213006532949 -0.13884205690587459 0 0.25907899387967959 -0.15208666501255391 0 0.25348559013088362 -0.13826493822524219 0 0.25907899387967959 -0.15208666501255391 0 0.24784948648729269 -0.1473367807090844 0 0.25907899387967959 -0.15208666501255391 0 0.24784948648729269 -0.1473367807090844 0 0.24978916718025401 -0.16190726118607571 0 0.26497213006532949 -0.13884205690587459 0 0.29093133837764112 -0.14014632643674019 0 0.28437812676419721 -0.15058931198625269 0 0.27360118576497527 -0.1565774730008874 0 0.26497213006532949 -0.13884205690587459 0 0.25907899387967959 -0.15208666501255391 0 0.27360118576497527 -0.1565774730008874 0 0.26497213006532949 -0.13884205690587459 0 0.27360118576497527 -0.1565774730008874 0 0.26497213006532949 -0.13884205690587459 0 0.28437812676419721 -0.15058931198625269 0 0.27682270856738761 -0.1232888814359593 0 0.26832550367893793 -0.13091520818086119 0 0.29093133837764112 -0.14014632643674019 0 0.26497213006532949 -0.13884205690587459 0 0.26832550367893793 -0.13091520818086119 0 0.29093133837764112 -0.14014632643674019 0 0.26497213006532949 -0.13884205690587459 0 0.29093133837764112 -0.14014632643674019 0 0.27682270856738761 -0.1232888814359593 0 0.29093133837764112 -0.14014632643674019 0 0.30070296141837072 -0.12923664205863339 0 0.27682270856738761 -0.1232888814359593 0 0.29093133837764112 -0.14014632643674019 0 0.27360118576497527 -0.1565774730008874 0 0.28437812676419721 -0.15058931198625269 0 0.29097024614107292 -0.16107974026599359 0 0.29093133837764112 -0.14014632643674019 0 0.29581216321336451 -0.14597809304577461 0 0.28437812676419721 -0.15058931198625269 0 0.29093133837764112 -0.14014632643674019 0 0.29581216321336451 -0.14597809304577461 0 0.28437812676419721 -0.15058931198625269 0 0.29329752080994231 -0.15348642567965559 0 0.29097024614107292 -0.16107974026599359 0 0.29581216321336451 -0.14597809304577461 0 0.28437812676419721 -0.15058931198625269 0 0.29329752080994231 -0.15348642567965559 0 0.29093133837764112 -0.14014632643674019 0 0.29581216321336451 -0.14597809304577461 0 0.31168280305014812 -0.1411889430977529 0 0.29581216321336451 -0.14597809304577461 0 0.30917958967982528 -0.15069988544090029 0 0.31168280305014812 -0.1411889430977529 0 0.29093133837764112 -0.14014632643674019 0 0.31168280305014812 -0.1411889430977529 0 0.29581216321336451 -0.14597809304577461 0 0.30917958967982528 -0.15069988544090029 0 0.30202954712113472 -0.15629855742060161 0 0.29581216321336451 -0.14597809304577461 0 0.29329752080994231 -0.15348642567965559 0 0.30202954712113472 -0.15629855742060161 0 0.30917958967982528 -0.15069988544090029 0 0.30202954712113472 -0.15629855742060161 0 0.31364406075975559 -0.15950338510816189 0 0.31168280305014812 -0.1411889430977529 0 0.30070296141837072 -0.12923664205863339 0 0.32283255050196619 -0.1263048316539207 0 0.29093133837764112 -0.14014632643674019 0 0.31168280305014812 -0.1411889430977529 0 0.30070296141837072 -0.12923664205863339 0 0.28914215964982692 -0.18851904899290511 0 0.28223024146461928 -0.17431288909590109 0 0.30487799773071528 -0.16870065592093261 0 0.28914215964982692 -0.18851904899290511 0 0.28100815901068088 -0.18789982168546701 0 0.28223024146461928 -0.17431288909590109 0 0.28914215964982692 -0.18851904899290511 0 0.28223024146461928 -0.17431288909590109 0 0.27360118576497527 -0.1565774730008874 0 0.28223024146461928 -0.17431288909590109 0 0.29097024614107292 -0.16107974026599359 0 0.28223024146461928 -0.17431288909590109 0 0.30487799773071528 -0.16870065592093261 0 0.28223024146461928 -0.17431288909590109 0 0.29097024614107292 -0.16107974026599359 0 0.30487799773071528 -0.16870065592093261 0 0.29329752080994231 -0.15348642567965559 0 0.29097024614107292 -0.16107974026599359 0 0.30202954712113472 -0.15629855742060161 0 0.29097024614107292 -0.16107974026599359 0 0.30202954712113472 -0.15629855742060161 0 0.30487799773071528 -0.16870065592093261 0 0.30202954712113472 -0.15629855742060161 0 0.30487799773071528 -0.16870065592093261 0 0.31364406075975559 -0.15950338510816189 0 0.30427811815484318 -0.18967132316232069 0 0.30487799773071528 -0.16870065592093261 0 0.3200111854544026 -0.17594443895079889 0 0.28914215964982692 -0.18851904899290511 0 0.30427811815484318 -0.18967132316232069 0 0.30487799773071528 -0.16870065592093261 0 0.30427811815484318 -0.18967132316232069 0 0.3200111854544026 -0.17594443895079889 0 0.31941407665985921 -0.1908235973317399 0 0.33479379346138421 -0.17414989345136669 0 0.31941407665985921 -0.1908235973317399 0 0.3200111854544026 -0.17594443895079889 0 0.33479379346138421 -0.17414989345136669 0 0.31941407665985921 -0.1908235973317399 0 0.30487799773071528 -0.16870065592093261 0 0.3200111854544026 -0.17594443895079889 0 0.3275257539968105 -0.1630884227459605 0 0.30487799773071528 -0.16870065592093261 0 0.31364406075975559 -0.15950338510816189 0 0.3275257539968105 -0.1630884227459605 0 0.30487799773071528 -0.16870065592093261 0 0.3275257539968105 -0.1630884227459605 0 0.31364406075975559 -0.15950338510816189 0 0.3275257539968105 -0.1630884227459605 0 0.33433223639602372 -0.15586243711320791 0 0.31364406075975559 -0.15950338510816189 0 0.33433223639602372 -0.15586243711320791 0 0.3200111854544026 -0.17594443895079889 0 0.3275257539968105 -0.1630884227459605 0 0.33479379346138421 -0.17414989345136669 0 0.3275257539968105 -0.1630884227459605 0 0.33479379346138421 -0.17414989345136669 0 0.35017351026290627 -0.15747618957099069 0 0.3275257539968105 -0.1630884227459605 0 0.35017351026290627 -0.15747618957099069 0 0.33479379346138421 -0.17414989345136669 0 0.35017351026290627 -0.15747618957099069 0 0.3275257539968105 -0.1630884227459605 0 0.33433223639602372 -0.15586243711320791 0 0.35017351026290627 -0.15747618957099069 0 0.33479379346138421 -0.17414989345136669 0 0.34470782739642991 -0.1731298427481206 0 0.34887430100835948 -0.16707688767799561 0 0.33479379346138421 -0.17414989345136669 0 0.34470782739642991 -0.1731298427481206 0 0.3331899605066645 -0.19187233138530621 0 0.33479379346138421 -0.17414989345136669 0 0.3331899605066645 -0.19187233138530621 0 0.31941407665985921 -0.1908235973317399 0 0.31168280305014812 -0.1411889430977529 0 0.32283255050196619 -0.1263048316539207 0 0.33243426772265522 -0.14223155975876589 0 0.31168280305014812 -0.1411889430977529 0 0.33243426772265522 -0.14223155975876589 0 0.31168280305014812 -0.1411889430977529 0 0.32272937425472381 -0.15053044853221051 0 0.33243426772265522 -0.14223155975876589 0 0.31364406075975559 -0.15950338510816189 0 0.32272937425472381 -0.15053044853221051 0 0.33433223639602372 -0.15586243711320791 0 0.30917958967982528 -0.15069988544090029 0 0.31168280305014812 -0.1411889430977529 0 0.32272937425472381 -0.15053044853221051 0 0.30917958967982528 -0.15069988544090029 0 0.31364406075975559 -0.15950338510816189 0 0.32272937425472381 -0.15053044853221051 0 0.32272937425472381 -0.15053044853221051 0 0.33433223639602372 -0.15586243711320791 0 0.33243426772265522 -0.14223155975876589 0 0.33433223639602372 -0.15586243711320791 0 0.33243426772265522 -0.14223155975876589 0 0.34404686332428469 -0.14650411665960519 0 0.33243426772265522 -0.14223155975876589 0 0.34212907852848051 -0.13600463667247001 0 0.34404686332428469 -0.14650411665960519 0 0.32283255050196619 -0.1263048316539207 0 0.33243426772265522 -0.14223155975876589 0 0.33466435558301949 -0.13199297951212841 0 0.34243346160057592 -0.1237296628284698 0 0.32283255050196619 -0.1263048316539207 0 0.33466435558301949 -0.13199297951212841 0 0.33243426772265522 -0.14223155975876589 0 0.34212907852848051 -0.13600463667247001 0 0.33466435558301949 -0.13199297951212841 0 0.34243346160057592 -0.1237296628284698 0 0.34212907852848051 -0.13600463667247001 0 0.33466435558301949 -0.13199297951212841 0 0.35912921923195762 -0.12444259222593911 0 0.34243346160057592 -0.1237296628284698 0 0.35194598719300768 -0.13046895819920681 0 0.35912921923195762 -0.12444259222593911 0 0.35194598719300768 -0.13046895819920681 0 0.3542813546880606 -0.13954981542923769 0 0.34243346160057592 -0.1237296628284698 0 0.34212907852848051 -0.13600463667247001 0 0.35194598719300768 -0.13046895819920681 0 0.34212907852848051 -0.13600463667247001 0 0.35194598719300768 -0.13046895819920681 0 0.34798199576084021 -0.14128727611733979 0 0.35194598719300768 -0.13046895819920681 0 0.3542813546880606 -0.13954981542923769 0 0.34798199576084021 -0.14128727611733979 0 0.33433223639602372 -0.15586243711320791 0 0.35502041203229179 -0.15222148911825351 0 0.35017351026290627 -0.15747618957099069 0 0.33433223639602372 -0.15586243711320791 0 0.34404686332428469 -0.14650411665960519 0 0.35502041203229179 -0.15222148911825351 0 0.33433223639602372 -0.15586243711320791 0 0.35502041203229179 -0.15222148911825351 0 0.3542813546880606 -0.13954981542923769 0 0.35889032887211691 -0.14802597314994431 0 0.3542813546880606 -0.13954981542923769 0 0.35889032887211691 -0.14802597314994431 0 0.35204419093551892 -0.14551773409487601 0 0.35204419093551892 -0.14551773409487601 0 0.34404686332428469 -0.14650411665960519 0 0.35502041203229179 -0.15222148911825351 0 0.34212907852848051 -0.13600463667247001 0 0.34798199576084021 -0.14128727611733979 0 0.34404686332428469 -0.14650411665960519 0 0.3542813546880606 -0.13954981542923769 0 0.35204419093551892 -0.14551773409487601 0 0.34798199576084021 -0.14128727611733979 0 0.35204419093551892 -0.14551773409487601 0 0.34798199576084021 -0.14128727611733979 0 0.34404686332428469 -0.14650411665960519 0 0.35502041203229179 -0.15222148911825351 0 0.3582143733091982 -0.15548362139718791 0 0.35017351026290627 -0.15747618957099069 0 0.35502041203229179 -0.15222148911825351 0 0.35017351026290627 -0.15747618957099069 0 0.35889032887211691 -0.14802597314994431 0 0.35204419093551892 -0.14551773409487601 0 0.35502041203229179 -0.15222148911825351 0 0.35889032887211691 -0.14802597314994431 0 0.35502041203229179 -0.15222148911825351 0 0.36063442852163391 -0.151233468596777 0 0.35502041203229179 -0.15222148911825351 0 0.36063442852163391 -0.151233468596777 0 0.35889032887211691 -0.14802597314994431 0 0.35502041203229179 -0.15222148911825351 0 0.35502041203229179 -0.15222148911825351 0 0.3582143733091982 -0.15548362139718791 0 0.36063442852163391 -0.151233468596777 0 0.36063442852163391 -0.151233468596777 0 0.38738354644061551 -0.1465258448330303 0 0.37609422236765672 -0.1576521855633547 0 0.36063442852163391 -0.151233468596777 0 0.38738354644061551 -0.1465258448330303 0 0.36063442852163391 -0.151233468596777 0 0.36988443485528411 -0.13610686761903559 0 0.38738354644061551 -0.1465258448330303 0 0.35889032887211691 -0.14802597314994431 0 0.36063442852163391 -0.151233468596777 0 0.35889032887211691 -0.14802597314994431 0 0.36063442852163391 -0.151233468596777 0 0.36988443485528411 -0.13610686761903559 0 0.3542813546880606 -0.13954981542923769 0 0.35889032887211691 -0.14802597314994431 0 0.36988443485528411 -0.13610686761903559 0 0.35889032887211691 -0.14802597314994431 0 0.36988443485528411 -0.13610686761903559 0 0.38087854083845341 -0.124187762088129 0 0.37001781658910299 -0.1196985277156337 0 0.36988443485528411 -0.13610686761903559 0 0.37001781658910299 -0.1196985277156337 0 0.35912921923195762 -0.12444259222593911 0 0.36988443485528411 -0.13610686761903559 0 0.35912921923195762 -0.12444259222593911 0 0.3542813546880606 -0.13954981542923769 0 0.36988443485528411 -0.13610686761903559 0 0.35510943109362908 -0.17947391993187059 0 0.3331899605066645 -0.19187233138530621 0 0.35510943109362908 -0.17947391993187059 0 0.34470782739642991 -0.1731298427481206 0 0.3331899605066645 -0.19187233138530621 0 0.35510943109362908 -0.17947391993187059 0 0.35164302507253931 -0.17211668545389031 0 0.35692805453760179 -0.16751321740653949 0 0.35510943109362908 -0.17947391993187059 0 0.34470782739642991 -0.1731298427481206 0 0.35510943109362908 -0.17947391993187059 0 0.35164302507253931 -0.17211668545389031 0 0.34470782739642991 -0.1731298427481206 0 0.33479379346138421 -0.17414989345136669 0 0.34887430100835948 -0.16707688767799561 0 0.35017351026290627 -0.15747618957099069 0 0.35164302507253931 -0.17211668545389031 0 0.34470782739642991 -0.1731298427481206 0 0.34887430100835948 -0.16707688767799561 0 0.34887430100835948 -0.16707688767799561 0 0.35017351026290627 -0.15747618957099069 0 0.3535475597795168 -0.16188747901317879 0 0.3582143733091982 -0.15548362139718791 0 0.35017351026290627 -0.15747618957099069 0 0.3582143733091982 -0.15548362139718791 0 0.3535475597795168 -0.16188747901317879 0 0.35692805453760179 -0.16751321740653949 0 0.3582143733091982 -0.15548362139718791 0 0.35017351026290627 -0.15747618957099069 0 0.3535475597795168 -0.16188747901317879 0 0.35164302507253931 -0.17211668545389031 0 0.34887430100835948 -0.16707688767799561 0 0.35692805453760179 -0.16751321740653949 0 0.34887430100835948 -0.16707688767799561 0 0.3535475597795168 -0.16188747901317879 0 0.35692805453760179 -0.16751321740653949 0 0.36063442852163391 -0.151233468596777 0 0.37107873687895038 -0.17044112769509151 0 0.37609422236765672 -0.1576521855633547 0 0.3582143733091982 -0.15548362139718791 0 0.35692805453760179 -0.16751321740653949 0 0.37107873687895038 -0.17044112769509151 0 0.36063442852163391 -0.151233468596777 0 0.37107873687895038 -0.17044112769509151 0 0.3582143733091982 -0.15548362139718791 0 0.36063442852163391 -0.151233468596777 0 0.37107873687895038 -0.17044112769509151 0 0.35510943109362908 -0.17947391993187059 0 0.37107873687895038 -0.17044112769509151 0 0.36828617792380358 -0.1875105940212628 0 0.37107873687895038 -0.17044112769509151 0 0.36828617792380358 -0.1875105940212628 0 0.38146292475397919 -0.19554726811065329 0 0.35510943109362908 -0.17947391993187059 0 0.35692805453760179 -0.16751321740653949 0 0.37107873687895038 -0.17044112769509151 0 0.35510943109362908 -0.17947391993187059 0 0.37107873687895038 -0.17044112769509151 0 0.35510943109362908 -0.17947391993187059 0 0.36828617792380358 -0.1875105940212628 0 0.35510943109362908 -0.17947391993187059 0 0.36828617792380358 -0.1875105940212628 0 0.35732644263032193 -0.193709799747979 0 0.35732644263032193 -0.193709799747979 0 0.38146292475397919 -0.19554726811065329 0 0.36828617792380358 -0.1875105940212628 0 0.38146292475397919 -0.19554726811065329 0 0.36828617792380358 -0.1875105940212628 0 0.35732644263032193 -0.193709799747979 0 0.38146292475397919 -0.19554726811065329 0 0.36691937182044621 -0.20207117739486549 0 0.35732644263032193 -0.193709799747979 0 0.38146292475397919 -0.19554726811065329 0 0.36691937182044621 -0.20207117739486549 0 0.3741819503777612 -0.20812184240509851 0 0.38146292475397919 -0.19554726811065329 0 0.36691937182044621 -0.20207117739486549 0 0.35732644263032193 -0.193709799747979 0 0.35905420901211221 -0.20101605012282051 0 0.36691937182044621 -0.20207117739486549 0 0.3619705221450521 -0.20466464747852939 0 0.35905420901211221 -0.20101605012282051 0 0.37125951387741568 -0.21663476918842911 0 0.36788399724133403 -0.21146472381548101 0 0.3741819503777612 -0.20812184240509851 0 0.37125951387741568 -0.21663476918842911 0 0.36788399724133403 -0.21146472381548101 0 0.36695638564413002 -0.21552020619467521 0 0.36788399724133403 -0.21146472381548101 0 0.3741819503777612 -0.20812184240509851 0 0.36614458571974762 -0.2072227303302355 0 0.36691937182044621 -0.20207117739486549 0 0.3741819503777612 -0.20812184240509851 0 0.36614458571974762 -0.2072227303302355 0 0.3619705221450521 -0.20466464747852939 0 0.36199934630687458 -0.2076735691691276 0 0.36614458571974762 -0.2072227303302355 0 0.36691937182044621 -0.20207117739486549 0 0.3619705221450521 -0.20466464747852939 0 0.36614458571974762 -0.2072227303302355 0 0.3619705221450521 -0.20466464747852939 0 0.35939127899991619 -0.20711681511487101 0 0.35759977824210643 -0.20481019637751791 0 0.3619705221450521 -0.20466464747852939 0 0.35759977824210643 -0.20481019637751791 0 0.35905420901211221 -0.20101605012282051 0 0.3619705221450521 -0.20466464747852939 0 0.36199934630687458 -0.2076735691691276 0 0.35939127899991619 -0.20711681511487101 0 0.36199934630687458 -0.2076735691691276 0 0.35939127899991619 -0.20711681511487101 0 0.36000362378914708 -0.20980129011567211 0 0.36000362378914708 -0.20980129011567211 0 0.36361459193988849 -0.21014152740092029 0 0.36176909915793048 -0.212134599760778 0 0.36199934630687458 -0.2076735691691276 0 0.36000362378914708 -0.20980129011567211 0 0.36361459193988849 -0.21014152740092029 0 0.36199934630687458 -0.2076735691691276 0 0.36361459193988849 -0.21014152740092029 0 0.36614458571974762 -0.2072227303302355 0 0.36788399724133403 -0.21146472381548101 0 0.36361459193988849 -0.21014152740092029 0 0.36614458571974762 -0.2072227303302355 0 0.37125951387741568 -0.21663476918842911 0 0.36244360758129918 -0.2165189384514902 0 0.36695638564413002 -0.21552020619467521 0 0.36788399724133403 -0.21146472381548101 0 0.36361459193988849 -0.21014152740092029 0 0.36472355443827009 -0.21300039403078661 0 0.36788399724133403 -0.21146472381548101 0 0.36472355443827009 -0.21300039403078661 0 0.36695638564413002 -0.21552020619467521 0 0.36472355443827009 -0.21300039403078661 0 0.36415871050964671 -0.21514445608549271 0 0.36695638564413002 -0.21552020619467521 0 0.36361459193988849 -0.21014152740092029 0 0.36472355443827009 -0.21300039403078661 0 0.36176909915793048 -0.212134599760778 0 0.36472355443827009 -0.21300039403078661 0 0.36176909915793048 -0.212134599760778 0 0.36244360758129918 -0.2165189384514902 0 0.36176909915793048 -0.212134599760778 0 0.36244360758129918 -0.2165189384514902 0 0.35845182294636491 -0.21183293303493311 0 0.36000362378914708 -0.20980129011567211 0 0.36176909915793048 -0.212134599760778 0 0.35845182294636491 -0.21183293303493311 0 0.36244360758129918 -0.2165189384514902 0 0.36415871050964671 -0.21514445608549271 0 0.36695638564413002 -0.21552020619467521 0 0.36472355443827009 -0.21300039403078661 0 0.36244360758129918 -0.2165189384514902 0 0.36415871050964671 -0.21514445608549271 0 0.36244360758129918 -0.2165189384514902 0 0.35231681660174707 -0.2081079073306264 0 0.34786655431206842 -0.2275815085649445 0 0.36244360758129918 -0.2165189384514902 0 0.35231681660174707 -0.2081079073306264 0 0.36244360758129918 -0.2165189384514902 0 0.35845182294636491 -0.21183293303493311 0 0.35231681660174707 -0.2081079073306264 0 0.35231681660174707 -0.2081079073306264 0 0.35671260067183291 -0.20744883828773331 0 0.35417366216930291 -0.20672102459472261 0 0.35231681660174707 -0.2081079073306264 0 0.35417366216930291 -0.20672102459472261 0 0.35845182294636491 -0.21183293303493311 0 0.35776406835735541 -0.20910345494325491 0 0.35671260067183291 -0.20744883828773331 0 0.35845182294636491 -0.21183293303493311 0 0.35231681660174707 -0.2081079073306264 0 0.35671260067183291 -0.20744883828773331 0 0.36000362378914708 -0.20980129011567211 0 0.35845182294636491 -0.21183293303493311 0 0.35776406835735541 -0.20910345494325491 0 0.35939127899991619 -0.20711681511487101 0 0.35776406835735541 -0.20910345494325491 0 0.35671260067183291 -0.20744883828773331 0 0.35939127899991619 -0.20711681511487101 0 0.36000362378914708 -0.20980129011567211 0 0.35776406835735541 -0.20910345494325491 0 0.35671260067183291 -0.20744883828773331 0 0.35759977824210643 -0.20481019637751791 0 0.35417366216930291 -0.20672102459472261 0 0.35939127899991619 -0.20711681511487101 0 0.35671260067183291 -0.20744883828773331 0 0.35759977824210643 -0.20481019637751791 0 0.35759977824210643 -0.20481019637751791 0 0.35417366216930291 -0.20672102459472261 0 0.35508472753477749 -0.20293093646028021 0 0.35417366216930291 -0.20672102459472261 0 0.35508472753477749 -0.20293093646028021 0 0.35045732976403382 -0.20242657562756999 0 0.35231681660174707 -0.2081079073306264 0 0.35417366216930291 -0.20672102459472261 0 0.35045732976403382 -0.20242657562756999 0 0.35732644263032193 -0.193709799747979 0 0.3331899605066645 -0.19187233138530621 0 0.35732644263032193 -0.193709799747979 0 0.34935389001330391 -0.19869305714922461 0 0.33876575883263049 -0.19685277538934151 0 0.35510943109362908 -0.17947391993187059 0 0.35732644263032193 -0.193709799747979 0 0.3331899605066645 -0.19187233138530621 0 0.35732644263032193 -0.193709799747979 0 0.35413865848633241 -0.19968083557876989 0 0.34935389001330391 -0.19869305714922461 0 0.35732644263032193 -0.193709799747979 0 0.35905420901211221 -0.20101605012282051 0 0.35413865848633241 -0.19968083557876989 0 0.35759977824210643 -0.20481019637751791 0 0.35905420901211221 -0.20101605012282051 0 0.35508472753477749 -0.20293093646028021 0 0.35905420901211221 -0.20101605012282051 0 0.35413865848633241 -0.19968083557876989 0 0.35508472753477749 -0.20293093646028021 0 0.35413865848633241 -0.19968083557876989 0 0.35508472753477749 -0.20293093646028021 0 0.35045732976403382 -0.20242657562756999 0 0.35231681660174707 -0.2081079073306264 0 0.35045732976403382 -0.20242657562756999 0 0.33876575883263049 -0.19685277538934151 0 0.35231681660174707 -0.2081079073306264 0 0.33876575883263049 -0.19685277538934151 0 0.34935389001330391 -0.19869305714922461 0 0.35045732976403382 -0.20242657562756999 0 0.33876575883263049 -0.19685277538934151 0 0.35413865848633241 -0.19968083557876989 0 0.34935389001330391 -0.19869305714922461 0 0.35045732976403382 -0.20242657562756999 0 0.35732644263032193 -0.193709799747979 0 0.3331899605066645 -0.19187233138530621 0 0.33876575883263049 -0.19685277538934151 0 0.32841292692175628 -0.20283178611387351 0 0.33876575883263049 -0.19685277538934151 0 0.33743824120344829 -0.20809414114473029 0 0.3331899605066645 -0.19187233138530621 0 0.32841292692175628 -0.20283178611387351 0 0.33876575883263049 -0.19685277538934151 0 0.35231681660174707 -0.2081079073306264 0 0.33743824120344829 -0.20809414114473029 0 0.33025746245765941 -0.22458409574507979 0 0.32841292692175628 -0.20283178611387351 0 0.33743824120344829 -0.20809414114473029 0 0.33025746245765941 -0.22458409574507979 0 0.35231681660174707 -0.2081079073306264 0 0.33025746245765941 -0.22458409574507979 0 0.35231681660174707 -0.2081079073306264 0 0.33876575883263049 -0.19685277538934151 0 0.33743824120344829 -0.20809414114473029 0 0.32841292692175628 -0.20283178611387351 0 0.31397832197813952 -0.21413814654667979 0 0.33025746245765941 -0.22458409574507979 0 0.32841292692175628 -0.20283178611387351 0 0.31397832197813952 -0.21413814654667979 0 0.31655881118879658 -0.20127948523824629 0 0.3331899605066645 -0.19187233138530621 0 0.31655881118879658 -0.20127948523824629 0 0.3331899605066645 -0.19187233138530621 0 0.32841292692175628 -0.20283178611387351 0 0.31655881118879658 -0.20127948523824629 0 0.3331899605066645 -0.19187233138530621 0 0.31655881118879658 -0.20127948523824629 0 0.31941407665985921 -0.1908235973317399 0 0.30375826169666981 -0.20851991920784971 0 0.31655881118879658 -0.20127948523824629 0 0.31941407665985921 -0.1908235973317399 0 0.3331899605066645 -0.19187233138530621 0 0.31941407665985921 -0.1908235973317399 0 0.30819810831357242 -0.24106028415953401 0 0.33025746245765941 -0.22458409574507979 0 0.3351638155597263 -0.25225363975510923 0 0.30819810831357242 -0.24106028415953401 0 0.33025746245765941 -0.22458409574507979 0 0.30978869405476811 -0.22558233672527031 0 0.31397832197813952 -0.21413814654667979 0 0.33025746245765941 -0.22458409574507979 0 0.30978869405476811 -0.22558233672527031 0 0.30819810831357242 -0.24106028415953401 0 0.33025746245765941 -0.22458409574507979 0 0.35231681660174707 -0.2081079073306264 0 0.33025746245765941 -0.22458409574507979 0 0.34786655431206842 -0.2275815085649445 0 0.33025746245765941 -0.22458409574507979 0 0.34786655431206842 -0.2275815085649445 0 0.3351638155597263 -0.25225363975510923 0 0.34786655431206842 -0.2275815085649445 0 0.36050810751045298 -0.24456064994487159 0 0.3351638155597263 -0.25225363975510923 0 0.36244360758129918 -0.2165189384514902 0 0.34786655431206842 -0.2275815085649445 0 0.36050810751045298 -0.24456064994487159 0 0.36244360758129918 -0.2165189384514902 0 0.38250668642347602 -0.23318277409919591 0 0.37125951387741568 -0.21663476918842911 0 0.36244360758129918 -0.2165189384514902 0 0.38250668642347602 -0.23318277409919591 0 0.36244360758129918 -0.2165189384514902 0 0.36050810751045298 -0.24456064994487159 0 0.36244360758129918 -0.2165189384514902 0 0.36050810751045298 -0.24456064994487159 0 0.38250668642347602 -0.23318277409919591 0 0.36050810751045298 -0.24456064994487159 0 0.38250668642347602 -0.23318277409919591 0 0.38102784705546822 -0.26328283175542633 0 0.40256976526565352 -0.2498466097469009 0 0.38250668642347602 -0.23318277409919591 0 0.38102784705546822 -0.26328283175542633 0 0.40256976526565352 -0.2498466097469009 0 0.38250668642347602 -0.23318277409919591 0 0.40256976526565352 -0.2498466097469009 0 0.39829105358646327 -0.2324089304759594 0 0.38250668642347602 -0.23318277409919591 0 0.40256976526565352 -0.2498466097469009 0 0.39829105358646327 -0.2324089304759594 0 0.40770832490896719 -0.23565669762810121 0 0.39829105358646327 -0.2324089304759594 0 0.39808094484594542 -0.22009967738436151 0 0.40845377222999729 -0.22406931611211389 0 0.39829105358646327 -0.2324089304759594 0 0.40770832490896719 -0.23565669762810121 0 0.40845377222999729 -0.22406931611211389 0 0.39829105358646327 -0.2324089304759594 0 0.39808094484594542 -0.22009967738436151 0 0.38961409177072448 -0.22395408305857689 0 0.39808094484594542 -0.22009967738436151 0 0.38961409177072448 -0.22395408305857689 0 0.38771114712348248 -0.21368037111784591 0 0.39829105358646327 -0.2324089304759594 0 0.38961409177072448 -0.22395408305857689 0 0.38250668642347602 -0.23318277409919591 0 0.37125951387741568 -0.21663476918842911 0 0.38250668642347602 -0.23318277409919591 0 0.38206786425535189 -0.21734173164795881 0 0.38961409177072448 -0.22395408305857689 0 0.38250668642347602 -0.23318277409919591 0 0.38206786425535189 -0.21734173164795881 0 0.37125951387741568 -0.21663476918842911 0 0.3741819503777612 -0.20812184240509851 0 0.38206786425535189 -0.21734173164795881 0 0.3741819503777612 -0.20812184240509851 0 0.38206786425535189 -0.21734173164795881 0 0.38273471414903348 -0.20694887674770171 0 0.3741819503777612 -0.20812184240509851 0 0.38273471414903348 -0.20694887674770171 0 0.38146292475397919 -0.19554726811065329 0 0.38273471414903348 -0.20694887674770171 0 0.38771114712348248 -0.21368037111784591 0 0.38635173928690641 -0.19852902146684859 0 0.38206786425535189 -0.21734173164795881 0 0.38273471414903348 -0.20694887674770171 0 0.38771114712348248 -0.21368037111784591 0 0.38961409177072448 -0.22395408305857689 0 0.38206786425535189 -0.21734173164795881 0 0.38771114712348248 -0.21368037111784591 0 0.38909321908174271 -0.1961281491335512 0 0.38635173928690641 -0.19852902146684859 0 0.39498539047849429 -0.19682113384208541 0 0.38273471414903348 -0.20694887674770171 0 0.38146292475397919 -0.19554726811065329 0 0.38635173928690641 -0.19852902146684859 0 0.38909321908174271 -0.1961281491335512 0 0.38487148708422508 -0.19580675602657829 0 0.38635173928690641 -0.19852902146684859 0 0.38909321908174271 -0.1961281491335512 0 0.38487148708422508 -0.19580675602657829 0 0.38146292475397919 -0.19554726811065329 0 0.38635173928690641 -0.19852902146684859 0 0.38487148708422508 -0.19580675602657829 0 0.38635173928690641 -0.19852902146684859 0 0.38146292475397919 -0.19554726811065329 0 0.38487148708422508 -0.19580675602657829 0 0.38635173928690641 -0.19852902146684859 0 0.38146292475397919 -0.19554726811065329 0 0.38487148708422508 -0.19580675602657829 0 0.38909321908174271 -0.1961281491335512 0 0.39444438500833279 -0.18952052640579559 0 0.38788501593538649 -0.18411032010186101 0 0.38909321908174271 -0.1961281491335512 0 0.38487148708422508 -0.19580675602657829 0 0.38788501593538649 -0.18411032010186101 0 0.38635173928690641 -0.19852902146684859 0 0.39498539047849429 -0.19682113384208541 0 0.40235803575756002 -0.20829147571832049 0 0.39498539047849429 -0.19682113384208541 0 0.40267957325792958 -0.19163649648591069 0 0.40235803575756002 -0.20829147571832049 0 0.39444438500833279 -0.18952052640579559 0 0.39498539047849429 -0.19682113384208541 0 0.40267957325792958 -0.19163649648591069 0 0.38909321908174271 -0.1961281491335512 0 0.39444438500833279 -0.18952052640579559 0 0.39498539047849429 -0.19682113384208541 0 0.38635173928690641 -0.19852902146684859 0 0.40235803575756002 -0.20829147571832049 0 0.40235803575756002 -0.20829147571832049 0 0.39745897484537268 -0.21055159891657119 0 0.40845377222999729 -0.22406931611211389 0 0.39808094484594542 -0.22009967738436151 0 0.38635173928690641 -0.19852902146684859 0 0.39808094484594542 -0.22009967738436151 0 0.38771114712348248 -0.21368037111784591 0 0.38635173928690641 -0.19852902146684859 0 0.38635173928690641 -0.19852902146684859 0 0.40235803575756002 -0.20829147571832049 0 0.39745897484537268 -0.21055159891657119 0 0.39808094484594542 -0.22009967738436151 0 0.38635173928690641 -0.19852902146684859 0 0.39745897484537268 -0.21055159891657119 0 0.39808094484594542 -0.22009967738436151 0 0.39745897484537268 -0.21055159891657119 0 0.40845377222999729 -0.22406931611211389 0 0.39745897484537268 -0.21055159891657119 0 0.40845377222999729 -0.22406931611211389 0 0.40235803575756002 -0.20829147571832049 0 0.4183643322282139 -0.218053929969792 0 0.40845377222999729 -0.22406931611211389 0 0.40235803575756002 -0.20829147571832049 0 0.4183643322282139 -0.218053929969792 0 0.41695377627200819 -0.19264202700295521 0 0.4183643322282139 -0.218053929969792 0 0.41695377627200819 -0.19264202700295521 0 0.40235803575756002 -0.20829147571832049 0 0.4183643322282139 -0.218053929969792 0 0.40267957325792958 -0.19163649648591069 0 0.40235803575756002 -0.20829147571832049 0 0.41695377627200819 -0.19264202700295521 0 0.41695377627200819 -0.19264202700295521 0 0.43704203958206522 -0.18929505334170851 0 0.43279487732576177 -0.2057177680927412 0 0.4183643322282139 -0.218053929969792 0 0.43279487732576177 -0.2057177680927412 0 0.43607517374462013 -0.21853931032809351 0 0.4183643322282139 -0.218053929969792 0 0.41695377627200819 -0.19264202700295521 0 0.43279487732576177 -0.2057177680927412 0 0.4183643322282139 -0.218053929969792 0 0.43607517374462013 -0.21853931032809351 0 0.43930040029095663 -0.2308231178355141 0 0.4183643322282139 -0.218053929969792 0 0.43930040029095663 -0.2308231178355141 0 0.4183643322282139 -0.218053929969792 0 0.41944856961462201 -0.2375870333076566 0 0.43930040029095663 -0.2308231178355141 0 0.41944856961462201 -0.2375870333076566 0 0.435558855691697 -0.25739406417061123 0 0.41944856961462201 -0.2375870333076566 0 0.4447729432568156 -0.24569528213603811 0 0.435558855691697 -0.25739406417061123 0 0.41944856961462201 -0.2375870333076566 0 0.4447729432568156 -0.24569528213603811 0 0.43930040029095663 -0.2308231178355141 0 0.40256976526565352 -0.2498466097469009 0 0.41944856961462201 -0.2375870333076566 0 0.42079356725079659 -0.2618178688663006 0 0.41944856961462201 -0.2375870333076566 0 0.42079356725079659 -0.2618178688663006 0 0.40256976526565352 -0.2498466097469009 0 0.41944856961462201 -0.2375870333076566 0 0.40770832490896719 -0.23565669762810121 0 0.4183643322282139 -0.218053929969792 0 0.41944856961462201 -0.2375870333076566 0 0.40845377222999729 -0.22406931611211389 0 0.4183643322282139 -0.218053929969792 0 0.41944856961462201 -0.2375870333076566 0 0.41944856961462201 -0.2375870333076566 0 0.40845377222999729 -0.22406931611211389 0 0.41944856961462201 -0.2375870333076566 0 0.40770832490896719 -0.23565669762810121 0 0.40845377222999729 -0.22406931611211389 0 0.39825185075687791 -0.13055214771997639 0 0.38738354644061551 -0.1465258448330303 0 0.41413266435959678 -0.1418182210692816 0 0.38087854083845341 -0.124187762088129 0 0.39825185075687791 -0.13055214771997639 0 0.38738354644061551 -0.1465258448330303 0 0.38087854083845341 -0.124187762088129 0 0.36988443485528411 -0.13610686761903559 0 0.38738354644061551 -0.1465258448330303 0 0.38087854083845341 -0.124187762088129 0 0.36988443485528411 -0.13610686761903559 0 0.38738354644061551 -0.1465258448330303 0 0.3852801776294264 -0.16240830112852039 0 0.37609422236765672 -0.1576521855633547 0 0.38738354644061551 -0.1465258448330303 0 0.39948161837990392 -0.154375474561952 0 0.41413266435959678 -0.1418182210692816 0 0.38738354644061551 -0.1465258448330303 0 0.41413266435959678 -0.1418182210692816 0 0.38738354644061551 -0.1465258448330303 0 0.39948161837990392 -0.154375474561952 0 0.3852801776294264 -0.16240830112852039 0 0.39673279226299157 -0.16608571366729361 0 0.39830994034517547 -0.17801040858381609 0 0.41554322031580232 -0.1672301240361185 0 0.39948161837990392 -0.154375474561952 0 0.39673279226299157 -0.16608571366729361 0 0.41554322031580232 -0.1672301240361185 0 0.39948161837990392 -0.154375474561952 0 0.3852801776294264 -0.16240830112852039 0 0.39948161837990392 -0.154375474561952 0 0.39673279226299157 -0.16608571366729361 0 0.3852801776294264 -0.16240830112852039 0 0.37107873687895038 -0.17044112769509151 0 0.3852801776294264 -0.16240830112852039 0 0.38785733261038602 -0.17221117423531651 0 0.37107873687895038 -0.17044112769509151 0 0.3852801776294264 -0.16240830112852039 0 0.37609422236765672 -0.1576521855633547 0 0.37107873687895038 -0.17044112769509151 0 0.3852801776294264 -0.16240830112852039 0 0.39673279226299157 -0.16608571366729361 0 0.3852801776294264 -0.16240830112852039 0 0.38785733261038602 -0.17221117423531651 0 0.37107873687895038 -0.17044112769509151 0 0.38487148708422508 -0.19580675602657829 0 0.37107873687895038 -0.17044112769509151 0 0.38785733261038602 -0.17221117423531651 0 0.38788501593538649 -0.18411032010186101 0 0.37107873687895038 -0.17044112769509151 0 0.38146292475397919 -0.19554726811065329 0 0.38487148708422508 -0.19580675602657829 0 0.37107873687895038 -0.17044112769509151 0 0.38487148708422508 -0.19580675602657829 0 0.38788501593538649 -0.18411032010186101 0 0.40267957325792958 -0.19163649648591069 0 0.41695377627200819 -0.19264202700295521 0 0.39830994034517547 -0.17801040858381609 0 0.39444438500833279 -0.18952052640579559 0 0.38788501593538649 -0.18411032010186101 0 0.39830994034517547 -0.17801040858381609 0 0.38785733261038602 -0.17221117423531651 0 0.38788501593538649 -0.18411032010186101 0 0.39830994034517547 -0.17801040858381609 0 0.39673279226299157 -0.16608571366729361 0 0.38785733261038602 -0.17221117423531651 0 0.39830994034517547 -0.17801040858381609 0 0.39444438500833279 -0.18952052640579559 0 0.40267957325792958 -0.19163649648591069 0 0.39830994034517547 -0.17801040858381609 0 0.41695377627200819 -0.19264202700295521 0 0.41554322031580232 -0.1672301240361185 0 0.41695377627200819 -0.19264202700295521 0 0.39830994034517547 -0.17801040858381609 0 0.41554322031580232 -0.1672301240361185 0 0.41695377627200819 -0.19264202700295521 0 0.41923218635979831 -0.1745797663961253 0 0.41554322031580232 -0.1672301240361185 0 0.41695377627200819 -0.19264202700295521 0 0.43704203958206522 -0.18929505334170851 0 0.43003699926510741 -0.1788382532975738 0 0.43704203958206522 -0.18929505334170851 0 0.43003699926510741 -0.1788382532975738 0 0.44481554871242912 -0.17082437160293121 0 0.41695377627200819 -0.19264202700295521 0 0.41923218635979831 -0.1745797663961253 0 0.43003699926510741 -0.1788382532975738 0 0.43003699926510741 -0.1788382532975738 0 0.43214144539923621 -0.1668500481441488 0 0.44481554871242912 -0.17082437160293121 0 0.41923218635979831 -0.1745797663961253 0 0.43003699926510741 -0.1788382532975738 0 0.43214144539923621 -0.1668500481441488 0 0.41923218635979831 -0.1745797663961253 0 0.43214144539923621 -0.1668500481441488 0 0.42705005459648521 -0.1535380796086008 0 0.41923218635979831 -0.1745797663961253 0 0.42705005459648521 -0.1535380796086008 0 0.43214144539923621 -0.1668500481441488 0 0.42705005459648521 -0.1535380796086008 0 0.43923015431336088 -0.1567927231723916 0 0.41923218635979831 -0.1745797663961253 0 0.41554322031580232 -0.1672301240361185 0 0.42705005459648521 -0.1535380796086008 0 0.41554322031580232 -0.1672301240361185 0 0.41413266435959678 -0.1418182210692816 0 0.42705005459648521 -0.1535380796086008 0 0.39948161837990392 -0.154375474561952 0 0.41554322031580232 -0.1672301240361185 0 0.41413266435959678 -0.1418182210692816 0 0.41554322031580232 -0.1672301240361185 0 0.41413266435959678 -0.1418182210692816 0 0.41413266435959678 -0.1418182210692816 0 0.41623683180508958 -0.14144790498262369 0 0.42705005459648521 -0.1535380796086008 0 0.41413266435959678 -0.1418182210692816 0 0.41623683180508958 -0.14144790498262369 0 0.41623683180508958 -0.14144790498262369 0 0.42705005459648521 -0.1535380796086008 0 0.43486792283317199 -0.13249639282107631 0 0.42705005459648521 -0.1535380796086008 0 0.43486792283317199 -0.13249639282107631 0 0.43923015431336088 -0.1567927231723916 0 0.42705005459648521 -0.1535380796086008 0 0.43486792283317199 -0.13249639282107631 0 0.41623683180508958 -0.14144790498262369 0 0.43486792283317199 -0.13249639282107631 0 0.42136950622391078 -0.13034940820212931 0 0.42878551679754828 -0.1177318485792843 0 0.43486792283317199 -0.13249639282107631 0 0.42136950622391078 -0.13034940820212931 0 0.41282459532414723 -0.1182526735583805 0 0.41413266435959678 -0.1418182210692816 0 0.41282459532414723 -0.1182526735583805 0 0.41413266435959678 -0.1418182210692816 0 0.42136950622391078 -0.13034940820212931 0 0.41282459532414723 -0.1182526735583805 0 0.39825185075687791 -0.13055214771997639 0 0.41413266435959678 -0.1418182210692816 0 0.41413266435959678 -0.1418182210692816 0 0.41623683180508958 -0.14144790498262369 0 0.42136950622391078 -0.13034940820212931 0 0.45980496495355633 -0.1284767728883684 0 0.45200463610357811 -0.14741171401615549 0 0.47692413883725421 -0.145498839743185 0 0.45980496495355633 -0.1284767728883684 0 0.47692413883725421 -0.145498839743185 0 0.43486792283317199 -0.13249639282107631 0 0.44734082874004122 -0.129959896439788 0 0.45200463610357811 -0.14741171401615549 0 0.45980496495355633 -0.1284767728883684 0 0.44734082874004122 -0.129959896439788 0 0.45200463610357811 -0.14741171401615549 0 0.43486792283317199 -0.13249639282107631 0 0.45200463610357811 -0.14741171401615549 0 0.43923015431336088 -0.1567927231723916 0 0.45200463610357811 -0.14741171401615549 0 0.4638561312800894 -0.16886452194443161 0 0.47692413883725421 -0.145498839743185 0 0.45200463610357811 -0.14741171401615549 0 0.4638561312800894 -0.16886452194443161 0 0.44481554871242912 -0.17082437160293121 0 0.45200463610357811 -0.14741171401615549 0 0.43923015431336088 -0.1567927231723916 0 0.44481554871242912 -0.17082437160293121 0 0.43214144539923621 -0.1668500481441488 0 0.43923015431336088 -0.1567927231723916 0 0.44481554871242912 -0.17082437160293121 0 0.43704203958206522 -0.18929505334170851 0 0.44481554871242912 -0.17082437160293121 0 0.45371051824628539 -0.18718750716105281 0 0.4638561312800894 -0.16886452194443161 0 0.44481554871242912 -0.17082437160293121 0 0.45371051824628539 -0.18718750716105281 0 0.4638561312800894 -0.16886452194443161 0 0.45371051824628539 -0.18718750716105281 0 0.47032925359483818 -0.18748778576867611 0 0.4638561312800894 -0.16886452194443161 0 0.48286360883579432 -0.1756546004911041 0 0.47032925359483818 -0.18748778576867611 0 0.48286360883579432 -0.1756546004911041 0 0.5 -0.16347208568963681 0 0.5 -0.1887778049314012 0 0.48286360883579432 -0.1756546004911041 0 0.5 -0.16347208568963681 0 0.47692413883725421 -0.145498839743185 0 0.4638561312800894 -0.16886452194443161 0 0.48286360883579432 -0.1756546004911041 0 0.47692413883725421 -0.145498839743185 0 0.5 -0.16347208568963681 0 0.47692413883725421 -0.145498839743185 0 0.5 -0.13816636644787239 0 0.47692413883725421 -0.145498839743185 0 0.5 -0.13816636644787239 0 0.48346214595958159 -0.1260974568606231 0 0.49999999999999661 -0.11286064720610819 0 0.5 -0.13816636644787239 0 0.48346214595958159 -0.1260974568606231 0 0.45980496495355633 -0.1284767728883684 0 0.47692413883725421 -0.145498839743185 0 0.48346214595958159 -0.1260974568606231 0 0.45802438751333607 -0.22265639783362609 0 0.47239893650413589 -0.2172390185249094 0 0.47332897442072802 -0.2339116105146814 0 0.45802438751333607 -0.22265639783362609 0 0.46127645925697641 -0.23488815980518291 0 0.44845761535298823 -0.23162934683298869 0 0.45802438751333607 -0.22265639783362609 0 0.46127645925697641 -0.23488815980518291 0 0.47332897442072802 -0.2339116105146814 0 0.46127645925697641 -0.23488815980518291 0 0.44845761535298823 -0.23162934683298869 0 0.46529485974085311 -0.25135528403943519 0 0.44845761535298823 -0.23162934683298869 0 0.46529485974085311 -0.25135528403943519 0 0.46127645925697641 -0.23488815980518291 0 0.47332897442072802 -0.2339116105146814 0 0.46529485974085311 -0.25135528403943519 0 0.4447729432568156 -0.24569528213603811 0 0.44845761535298823 -0.23162934683298869 0 0.46529485974085311 -0.25135528403943519 0 0.4447729432568156 -0.24569528213603811 0 0.43930040029095663 -0.2308231178355141 0 0.44845761535298823 -0.23162934683298869 0 0.43930040029095663 -0.2308231178355141 0 0.44845761535298823 -0.23162934683298869 0 0.44546122736839361 -0.22344201564130939 0 0.45802438751333607 -0.22265639783362609 0 0.44546122736839361 -0.22344201564130939 0 0.44544855994006688 -0.2135619053763245 0 0.45802438751333607 -0.22265639783362609 0 0.44845761535298823 -0.23162934683298869 0 0.44546122736839361 -0.22344201564130939 0 0.43607517374462013 -0.21853931032809351 0 0.43930040029095663 -0.2308231178355141 0 0.44546122736839361 -0.22344201564130939 0 0.43279487732576177 -0.2057177680927412 0 0.43607517374462013 -0.21853931032809351 0 0.44544855994006688 -0.2135619053763245 0 0.43607517374462013 -0.21853931032809351 0 0.44546122736839361 -0.22344201564130939 0 0.44544855994006688 -0.2135619053763245 0 0.43279487732576177 -0.2057177680927412 0 0.44544855994006688 -0.2135619053763245 0 0.44591191418436121 -0.20088144888889631 0 0.44544855994006688 -0.2135619053763245 0 0.44591191418436121 -0.20088144888889631 0 0.46030822212392969 -0.20577186141967341 0 0.43704203958206522 -0.18929505334170851 0 0.45371051824628539 -0.18718750716105281 0 0.44591191418436121 -0.20088144888889631 0 0.43704203958206522 -0.18929505334170851 0 0.43279487732576177 -0.2057177680927412 0 0.44591191418436121 -0.20088144888889631 0 0.45371051824628539 -0.18718750716105281 0 0.47032925359483818 -0.18748778576867611 0 0.46030822212392969 -0.20577186141967341 0 0.45371051824628539 -0.18718750716105281 0 0.44591191418436121 -0.20088144888889631 0 0.46030822212392969 -0.20577186141967341 0 0.45802438751333607 -0.22265639783362609 0 0.46030822212392969 -0.20577186141967341 0 0.47239893650413589 -0.2172390185249094 0 0.45802438751333607 -0.22265639783362609 0 0.44544855994006688 -0.2135619053763245 0 0.46030822212392969 -0.20577186141967341 0 0.46030822212392969 -0.20577186141967341 0 0.47239893650413589 -0.2172390185249094 0 0.48181552453209381 -0.20180966924818039 0 0.47239893650413589 -0.2172390185249094 0 0.48181552453209381 -0.20180966924818039 0 0.48563684608546659 -0.2217893649575183 0 0.48286360883579432 -0.1756546004911041 0 0.47032925359483818 -0.18748778576867611 0 0.48181552453209381 -0.20180966924818039 0 0.47032925359483818 -0.18748778576867611 0 0.46030822212392969 -0.20577186141967341 0 0.48181552453209381 -0.20180966924818039 0 0.48286360883579432 -0.1756546004911041 0 0.48181552453209381 -0.20180966924818039 0 0.5 -0.1887778049314012 0 0.48181552453209381 -0.20180966924818039 0 0.5 -0.1887778049314012 0 0.5 -0.2140835241731657 0 0.48181552453209381 -0.20180966924818039 0 0.5 -0.2140835241731657 0 0.48563684608546659 -0.2217893649575183 0 0.5 -0.2140835241731657 0 0.48563684608546659 -0.2217893649575183 0 0.5 -0.23938924341493009 0 0.48563684608546659 -0.2217893649575183 0 0.47332897442072802 -0.2339116105146814 0 0.5 -0.23938924341493009 0 0.47239893650413589 -0.2172390185249094 0 0.48563684608546659 -0.2217893649575183 0 0.47332897442072802 -0.2339116105146814 0 0.47332897442072802 -0.2339116105146814 0 0.48450869228969101 -0.25207378970617839 0 0.46529485974085311 -0.25135528403943519 0 0.47332897442072802 -0.2339116105146814 0 0.5 -0.23938924341493009 0 0.48450869228969101 -0.25207378970617839 0 0.50000000000000089 -0.26469496265669462 0 0.48450869228969101 -0.25207378970617839 0 0.48213210412871799 -0.27108122124588152 0 0.5 -0.23938924341493009 0 0.50000000000000089 -0.26469496265669462 0 0.48450869228969101 -0.25207378970617839 0 0.50000000000000089 -0.26469496265669462 0 0.48213210412871799 -0.27108122124588152 0 0.49999999999999928 -0.29201463432992741 0 0.50000000000000089 -0.26469496265669462 0 0.48213210412871799 -0.27108122124588152 0 0.48213210412871799 -0.27108122124588152 0 0.45754605404238552 -0.2798686506482625 0 0.47843044578984328 -0.28793556551980171 0 0.48213210412871799 -0.27108122124588152 0 0.45754605404238552 -0.2798686506482625 0 0.48213210412871799 -0.27108122124588152 0 0.46529485974085311 -0.25135528403943519 0 0.48450869228969101 -0.25207378970617839 0 0.48213210412871799 -0.27108122124588152 0 0.46529485974085311 -0.25135528403943519 0 0.48213210412871799 -0.27108122124588152 0 0.46529485974085311 -0.25135528403943519 0 0.46057735884977691 -0.26538284663002282 0 0.4447729432568156 -0.24569528213603811 0 0.46529485974085311 -0.25135528403943519 0 0.46057735884977691 -0.26538284663002282 0 0.48213210412871799 -0.27108122124588152 0 0.46057735884977691 -0.26538284663002282 0 0.45754605404238552 -0.2798686506482625 0 0.46057735884977691 -0.26538284663002282 0 0.45754605404238552 -0.2798686506482625 0 0.45166914176877221 -0.27720109503356583 0 0.45166914176877221 -0.27720109503356583 0 0.43762205898824891 -0.27210767179964013 0 0.435558855691697 -0.25739406417061123 0 0.46057735884977691 -0.26538284663002282 0 0.45166914176877221 -0.27720109503356583 0 0.435558855691697 -0.25739406417061123 0 0.45166914176877221 -0.27720109503356583 0 0.435558855691697 -0.25739406417061123 0 0.44928132954932742 -0.28084743796089279 0 0.45166914176877221 -0.27720109503356583 0 0.44255159524851723 -0.2788499744444527 0 0.44255159524851723 -0.2788499744444527 0 0.43762205898824891 -0.27210767179964013 0 0.43599660736935453 -0.28494400474602949 0 0.45166914176877221 -0.27720109503356583 0 0.44255159524851723 -0.2788499744444527 0 0.43762205898824891 -0.27210767179964013 0 0.4447729432568156 -0.24569528213603811 0 0.46057735884977691 -0.26538284663002282 0 0.435558855691697 -0.25739406417061123 0 0.45101545073011062 -0.30979961617029111 0 0.43804760157825978 -0.30180124505444089 0 0.4526439872431185 -0.2965396558918969 0 0.45101545073011062 -0.30979961617029111 0 0.43804760157825978 -0.30180124505444089 0 0.43965554177997029 -0.31433787880657349 0 0.44928132954932742 -0.28084743796089279 0 0.43804760157825978 -0.30180124505444089 0 0.44928132954932742 -0.28084743796089279 0 0.43804760157825978 -0.30180124505444089 0 0.4526439872431185 -0.2965396558918969 0 0.44928132954932742 -0.28084743796089279 0 0.43804760157825978 -0.30180124505444089 0 0.43599660736935453 -0.28494400474602949 0 0.44928132954932742 -0.28084743796089279 0 0.44255159524851723 -0.2788499744444527 0 0.43599660736935453 -0.28494400474602949 0 0.45166914176877221 -0.27720109503356583 0 0.46777942784584742 -0.29700812589652048 0 0.45754605404238552 -0.2798686506482625 0 0.45166914176877221 -0.27720109503356583 0 0.46777942784584742 -0.29700812589652048 0 0.44928132954932742 -0.28084743796089279 0 0.4526439872431185 -0.2965396558918969 0 0.46777942784584742 -0.29700812589652048 0 0.44928132954932742 -0.28084743796089279 0 0.45166914176877221 -0.27720109503356583 0 0.46777942784584742 -0.29700812589652048 0 0.45754605404238552 -0.2798686506482625 0 0.46777942784584742 -0.29700812589652048 0 0.47843044578984328 -0.28793556551980171 0 0.46834865367009793 -0.30403334540053623 0 0.46777942784584742 -0.29700812589652048 0 0.46046532586915823 -0.30278433811952199 0 0.4526439872431185 -0.2965396558918969 0 0.46777942784584742 -0.29700812589652048 0 0.46046532586915823 -0.30278433811952199 0 0.45101545073011062 -0.30979961617029111 0 0.4526439872431185 -0.2965396558918969 0 0.46046532586915823 -0.30278433811952199 0 0.45101545073011062 -0.30979961617029111 0 0.46046532586915823 -0.30278433811952199 0 0.46128273695043609 -0.30993856333490483 0 0.46834865367009793 -0.30403334540053623 0 0.46128273695043609 -0.30993856333490483 0 0.46817755581930248 -0.31403613727384622 0 0.46834865367009793 -0.30403334540053623 0 0.46046532586915823 -0.30278433811952199 0 0.46128273695043609 -0.30993856333490483 0 0.46834865367009793 -0.30403334540053623 0 0.46777942784584742 -0.29700812589652048 0 0.48388971392292263 -0.31681515675947508 0 0.46777942784584742 -0.29700812589652048 0 0.48388971392292263 -0.31681515675947508 0 0.46777942784584742 -0.29700812589652048 0 0.48517761471778259 -0.30040241968321357 0 0.48388971392292263 -0.31681515675947508 0 0.46777942784584742 -0.29700812589652048 0 0.47843044578984328 -0.28793556551980171 0 0.48517761471778259 -0.30040241968321357 0 0.48213210412871799 -0.27108122124588152 0 0.49999999999999928 -0.29201463432992741 0 0.48213210412871799 -0.27108122124588152 0 0.47843044578984328 -0.28793556551980171 0 0.49999999999999928 -0.29201463432992741 0 0.47843044578984328 -0.28793556551980171 0 0.49999999999999928 -0.29201463432992741 0 0.48517761471778259 -0.30040241968321357 0 0.48517761471778259 -0.30040241968321357 0 0.5 -0.31431841097617819 0 0.48388971392292263 -0.31681515675947508 0 0.49999999999999928 -0.29201463432992741 0 0.48517761471778259 -0.30040241968321357 0 0.5 -0.31431841097617819 0 0.49999999999999861 -0.33662218762242901 0 0.48388971392292263 -0.31681515675947508 0 0.49999999999999861 -0.33662218762242901 0 0.48388971392292263 -0.31681515675947508 0 0.4841743268350488 -0.32772614909785291 0 0.5 -0.31431841097617819 0 0.49999999999999861 -0.33662218762242901 0 0.48388971392292263 -0.31681515675947508 0 0.4841743268350488 -0.32772614909785291 0 0.49999999999999978 -0.35141895279516971 0 0.48589041106536163 -0.34092749571105613 0 0.4841743268350488 -0.32772614909785291 0 0.49999999999999978 -0.35141895279516971 0 0.49999999999999861 -0.33662218762242901 0 0.4841743268350488 -0.32772614909785291 0 0.49999999999999978 -0.35141895279516971 0 0.48589041106536163 -0.34092749571105613 0 0.47795827307006572 -0.33411653922117179 0 0.4841743268350488 -0.32772614909785291 0 0.48589041106536163 -0.34092749571105613 0 0.47795827307006572 -0.33411653922117179 0 0.47743291059604509 -0.34194949892511761 0 0.47795827307006572 -0.33411653922117179 0 0.47743291059604509 -0.34194949892511761 0 0.46869894841096399 -0.3355456310626897 0 0.47743291059604509 -0.34194949892511761 0 0.47002676322760711 -0.34612938753090838 0 0.46869894841096399 -0.3355456310626897 0 0.47795827307006572 -0.33411653922117179 0 0.47204400893823389 -0.32826410324460881 0 0.46869894841096399 -0.3355456310626897 0 0.46834865367009793 -0.30403334540053623 0 0.4841743268350488 -0.32772614909785291 0 0.46834865367009793 -0.30403334540053623 0 0.47332252219066973 -0.32165290548431219 0 0.46817755581930248 -0.31403613727384622 0 0.46834865367009793 -0.30403334540053623 0 0.47332252219066973 -0.32165290548431219 0 0.4841743268350488 -0.32772614909785291 0 0.46834865367009793 -0.30403334540053623 0 0.48388971392292263 -0.31681515675947508 0 0.4841743268350488 -0.32772614909785291 0 0.47795827307006572 -0.33411653922117179 0 0.47204400893823389 -0.32826410324460881 0 0.47332252219066973 -0.32165290548431219 0 0.47204400893823389 -0.32826410324460881 0 0.47332252219066973 -0.32165290548431219 0 0.46923231481126981 -0.32174115866785791 0 0.47332252219066973 -0.32165290548431219 0 0.46923231481126981 -0.32174115866785791 0 0.46817755581930248 -0.31403613727384622 0 0.47795827307006572 -0.33411653922117179 0 0.47332252219066973 -0.32165290548431219 0 0.4841743268350488 -0.32772614909785291 0 0.49999999999999978 -0.35141895279516971 0 0.4825730755300176 -0.36810832584522668 0 0.5 -0.38005224507457919 0 0.49999999999999978 -0.35141895279516971 0 0.49134667275356109 -0.34903808687237298 0 0.4825730755300176 -0.36810832584522668 0 0.48589041106536163 -0.34092749571105613 0 0.49999999999999978 -0.35141895279516971 0 0.49134667275356109 -0.34903808687237298 0 0.48589041106536163 -0.34092749571105613 0 0.47743291059604509 -0.34194949892511761 0 0.49134667275356109 -0.34903808687237298 0 0.49134667275356109 -0.34903808687237298 0 0.46234658772405968 -0.35424628002661013 0 0.49134667275356109 -0.34903808687237298 0 0.47190516035913682 -0.36233555814878748 0 0.46234658772405968 -0.35424628002661013 0 0.49134667275356109 -0.34903808687237298 0 0.47002676322760711 -0.34612938753090838 0 0.46234658772405968 -0.35424628002661013 0 0.47743291059604509 -0.34194949892511761 0 0.49134667275356109 -0.34903808687237298 0 0.47002676322760711 -0.34612938753090838 0 0.4825730755300176 -0.36810832584522668 0 0.47190516035913682 -0.36233555814878748 0 0.46680554537209201 -0.37381767462463489 0 0.49134667275356109 -0.34903808687237298 0 0.4825730755300176 -0.36810832584522668 0 0.47190516035913682 -0.36233555814878748 0 0.46680554537209201 -0.37381767462463489 0 0.45794094878538938 -0.36517314279534241 0 0.45497478341173497 -0.38120126314447061 0 0.47190516035913682 -0.36233555814878748 0 0.45794094878538938 -0.36517314279534241 0 0.46234658772405968 -0.35424628002661013 0 0.47190516035913682 -0.36233555814878748 0 0.46680554537209201 -0.37381767462463489 0 0.45794094878538938 -0.36517314279534241 0 0.45794094878538938 -0.36517314279534241 0 0.46234658772405968 -0.35424628002661013 0 0.44713553874993411 -0.36455777425600489 0 0.47002676322760711 -0.34612938753090838 0 0.46234658772405968 -0.35424628002661013 0 0.46009364522264617 -0.3424807711847534 0 0.46234658772405968 -0.35424628002661013 0 0.45037085889147482 -0.34789629748495232 0 0.46009364522264617 -0.3424807711847534 0 0.45037085889147482 -0.34789629748495232 0 0.43918228052019931 -0.34689591175783502 0 0.43334650269455838 -0.35945447318084728 0 0.46234658772405968 -0.35424628002661013 0 0.45037085889147482 -0.34789629748495232 0 0.43334650269455838 -0.35945447318084728 0 0.46234658772405968 -0.35424628002661013 0 0.43334650269455838 -0.35945447318084728 0 0.45037085889147482 -0.34789629748495232 0 0.43918228052019931 -0.34689591175783502 0 0.44215662876344269 -0.33928618755272649 0 0.44713553874993411 -0.36455777425600489 0 0.43334650269455838 -0.35945447318084728 0 0.43859496164911471 -0.37735683622028721 0 0.46234658772405968 -0.35424628002661013 0 0.44713553874993411 -0.36455777425600489 0 0.43334650269455838 -0.35945447318084728 0 0.45794094878538938 -0.36517314279534241 0 0.43859496164911471 -0.37735683622028721 0 0.45794094878538938 -0.36517314279534241 0 0.45497478341173497 -0.38120126314447061 0 0.43859496164911471 -0.37735683622028721 0 0.45794094878538938 -0.36517314279534241 0 0.44713553874993411 -0.36455777425600489 0 0.43859496164911471 -0.37735683622028721 0 0.45615678265017301 -0.32010257485561622 0 0.45886575844788469 -0.33134072742431592 0 0.44928151293482133 -0.3291036806937645 0 0.45615678265017301 -0.32010257485561622 0 0.46447127937426558 -0.32453838990795258 0 0.45886575844788469 -0.33134072742431592 0 0.45101545073011062 -0.30979961617029111 0 0.46128273695043609 -0.30993856333490483 0 0.45615678265017301 -0.32010257485561622 0 0.46128273695043609 -0.30993856333490483 0 0.45615678265017301 -0.32010257485561622 0 0.46409543072202009 -0.31693400251435122 0 0.46128273695043609 -0.30993856333490483 0 0.46409543072202009 -0.31693400251435122 0 0.46817755581930248 -0.31403613727384622 0 0.46923231481126981 -0.32174115866785791 0 0.46409543072202009 -0.31693400251435122 0 0.46817755581930248 -0.31403613727384622 0 0.46923231481126981 -0.32174115866785791 0 0.46409543072202009 -0.31693400251435122 0 0.46447127937426558 -0.32453838990795258 0 0.45615678265017301 -0.32010257485561622 0 0.46409543072202009 -0.31693400251435122 0 0.46447127937426558 -0.32453838990795258 0 0.47204400893823389 -0.32826410324460881 0 0.46923231481126981 -0.32174115866785791 0 0.46447127937426558 -0.32453838990795258 0 0.47204400893823389 -0.32826410324460881 0 0.46447127937426558 -0.32453838990795258 0 0.46869894841096399 -0.3355456310626897 0 0.46447127937426558 -0.32453838990795258 0 0.46869894841096399 -0.3355456310626897 0 0.45886575844788469 -0.33134072742431592 0 0.47002676322760711 -0.34612938753090838 0 0.46869894841096399 -0.3355456310626897 0 0.46009364522264617 -0.3424807711847534 0 0.46869894841096399 -0.3355456310626897 0 0.46009364522264617 -0.3424807711847534 0 0.45886575844788469 -0.33134072742431592 0 0.45037085889147482 -0.34789629748495232 0 0.46009364522264617 -0.3424807711847534 0 0.45215368085205399 -0.33802153286810238 0 0.46009364522264617 -0.3424807711847534 0 0.45886575844788469 -0.33134072742431592 0 0.45215368085205399 -0.33802153286810238 0 0.45886575844788469 -0.33134072742431592 0 0.44928151293482133 -0.3291036806937645 0 0.45215368085205399 -0.33802153286810238 0 0.44928151293482133 -0.3291036806937645 0 0.45215368085205399 -0.33802153286810238 0 0.44215662876344269 -0.33928618755272649 0 0.45037085889147482 -0.34789629748495232 0 0.45215368085205399 -0.33802153286810238 0 0.44215662876344269 -0.33928618755272649 0 0.44928151293482133 -0.3291036806937645 0 0.44215662876344269 -0.33928618755272649 0 0.43550094733465722 -0.33057786247713539 0 0.44928151293482133 -0.3291036806937645 0 0.44274524120431868 -0.3229956018535729 0 0.43550094733465722 -0.33057786247713539 0 0.45615678265017301 -0.32010257485561622 0 0.44928151293482133 -0.3291036806937645 0 0.44274524120431868 -0.3229956018535729 0 0.45101545073011062 -0.30979961617029111 0 0.45615678265017301 -0.32010257485561622 0 0.44274524120431868 -0.3229956018535729 0 0.45101545073011062 -0.30979961617029111 0 0.44274524120431868 -0.3229956018535729 0 0.43965554177997029 -0.31433787880657349 0 0.43804760157825978 -0.30180124505444089 0 0.43965554177997029 -0.31433787880657349 0 0.42681387360719242 -0.32275505214798889 0 0.44274524120431868 -0.3229956018535729 0 0.42681387360719242 -0.32275505214798889 0 0.43550094733465722 -0.33057786247713539 0 0.44274524120431868 -0.3229956018535729 0 0.43965554177997029 -0.31433787880657349 0 0.42681387360719242 -0.32275505214798889 0 0.42681387360719242 -0.32275505214798889 0 0.41658767322425749 -0.32164989172801989 0 0.42348356252314567 -0.31027953998358859 0 0.42681387360719242 -0.32275505214798889 0 0.43550094733465722 -0.33057786247713539 0 0.43085513173132112 -0.34094668881281381 0 0.42681387360719242 -0.32275505214798889 0 0.43085513173132112 -0.34094668881281381 0 0.41558014563612478 -0.34370885924153688 0 0.44215662876344269 -0.33928618755272649 0 0.43550094733465722 -0.33057786247713539 0 0.43085513173132112 -0.34094668881281381 0 0.43918228052019931 -0.34689591175783502 0 0.44215662876344269 -0.33928618755272649 0 0.43085513173132112 -0.34094668881281381 0 0.42681387360719242 -0.32275505214798889 0 0.41558014563612478 -0.34370885924153688 0 0.41658767322425749 -0.32164989172801989 0 0.41558014563612478 -0.34370885924153688 0 0.41658767322425749 -0.32164989172801989 0 0.40513377476745688 -0.3235137521193131 0 0.42681387360719242 -0.32275505214798889 0 0.41558014563612478 -0.34370885924153688 0 0.41658767322425749 -0.32164989172801989 0 0.40513377476745688 -0.3235137521193131 0 0.41192700958736778 -0.30799225514767198 0 0.41658767322425749 -0.32164989172801989 0 0.42348356252314567 -0.31027953998358859 0 0.41192700958736778 -0.30799225514767198 0 0.43334650269455838 -0.35945447318084728 0 0.42064516823078429 -0.37402276863838502 0 0.43859496164911471 -0.37735683622028721 0 0.43085513173132112 -0.34094668881281381 0 0.41558014563612478 -0.34370885924153688 0 0.43334650269455838 -0.35945447318084728 0 0.43918228052019931 -0.34689591175783502 0 0.43085513173132112 -0.34094668881281381 0 0.43334650269455838 -0.35945447318084728 0 0.41558014563612478 -0.34370885924153688 0 0.40434641766505708 -0.36466266633508482 0 0.41558014563612478 -0.34370885924153688 0 0.43334650269455838 -0.35945447318084728 0 0.40434641766505708 -0.36466266633508482 0 0.43334650269455838 -0.35945447318084728 0 0.42064516823078429 -0.37402276863838502 0 0.40434641766505708 -0.36466266633508482 0 0.43334650269455838 -0.35945447318084728 0 0.40434641766505708 -0.36466266633508482 0 0.42064516823078429 -0.37402276863838502 0 0.40434641766505708 -0.36466266633508482 0 0.40768898463235109 -0.37909933781047328 0 0.40434641766505708 -0.36466266633508482 0 0.39241096112685298 -0.35213966966885829 0 0.38554025173073059 -0.36804010969695627 0 0.40434641766505708 -0.36466266633508482 0 0.38554025173073059 -0.36804010969695627 0 0.39381524537170548 -0.38430602544722869 0 0.40434641766505708 -0.36466266633508482 0 0.38554025173073059 -0.36804010969695627 0 0.40434641766505708 -0.36466266633508482 0 0.39381524537170548 -0.38430602544722869 0 0.41558014563612478 -0.34370885924153688 0 0.39241096112685298 -0.35213966966885829 0 0.39746685561584211 -0.33719429133361167 0 0.41558014563612478 -0.34370885924153688 0 0.40434641766505708 -0.36466266633508482 0 0.39241096112685298 -0.35213966966885829 0 0.39241096112685298 -0.35213966966885829 0 0.37626942297652338 -0.34475019158411091 0 0.37892694536517668 -0.35732182778380028 0 0.39241096112685298 -0.35213966966885829 0 0.37892694536517668 -0.35732182778380028 0 0.38554025173073059 -0.36804010969695627 0 0.38554025173073059 -0.36804010969695627 0 0.37872773141026811 -0.38403121354771141 0 0.36673408579640387 -0.37141755305882729 0 0.37892694536517668 -0.35732182778380028 0 0.38554025173073059 -0.36804010969695627 0 0.36673408579640387 -0.37141755305882729 0 0.38554025173073059 -0.36804010969695627 0 0.36673408579640387 -0.37141755305882729 0 0.40513377476745688 -0.3235137521193131 0 0.38918258259559879 -0.31981897289302108 0 0.39969562438033313 -0.310928779700476 0 0.40513377476745688 -0.3235137521193131 0 0.39746685561584211 -0.33719429133361167 0 0.38918258259559879 -0.31981897289302108 0 0.40513377476745688 -0.3235137521193131 0 0.39969562438033313 -0.310928779700476 0 0.41192700958736778 -0.30799225514767198 0 0.39241096112685298 -0.35213966966885829 0 0.39746685561584211 -0.33719429133361167 0 0.38508515386669517 -0.33429661236714642 0 0.41558014563612478 -0.34370885924153688 0 0.40513377476745688 -0.3235137521193131 0 0.39746685561584211 -0.33719429133361167 0 0.39241096112685298 -0.35213966966885829 0 0.37626942297652338 -0.34475019158411091 0 0.38508515386669517 -0.33429661236714642 0 0.39746685561584211 -0.33719429133361167 0 0.38508515386669517 -0.33429661236714642 0 0.38918258259559879 -0.31981897289302108 0 0.37626942297652338 -0.34475019158411091 0 0.38508515386669517 -0.33429661236714642 0 0.37219049522129399 -0.32551643064874142 0 0.38918258259559879 -0.31981897289302108 0 0.37699853060293359 -0.3032918143950174 0 0.37219049522129399 -0.32551643064874142 0 0.38508515386669517 -0.33429661236714642 0 0.38918258259559879 -0.31981897289302108 0 0.37219049522129399 -0.32551643064874142 0 0.37699853060293359 -0.3032918143950174 0 0.39144897915974619 -0.30210664700153472 0 0.39038779191352641 -0.28600476574521011 0 0.38918258259559879 -0.31981897289302108 0 0.37699853060293359 -0.3032918143950174 0 0.39144897915974619 -0.30210664700153472 0 0.38918258259559879 -0.31981897289302108 0 0.39144897915974619 -0.30210664700153472 0 0.39969562438033313 -0.310928779700476 0 0.39144897915974619 -0.30210664700153472 0 0.4039193271903524 -0.29762423452340592 0 0.39969562438033313 -0.310928779700476 0 0.4039193271903524 -0.29762423452340592 0 0.39969562438033313 -0.310928779700476 0 0.41192700958736778 -0.30799225514767198 0 0.39144897915974619 -0.30210664700153472 0 0.4039193271903524 -0.29762423452340592 0 0.39038779191352641 -0.28600476574521011 0 0.4039193271903524 -0.29762423452340592 0 0.39038779191352641 -0.28600476574521011 0 0.40720608676573938 -0.28253769829868952 0 0.37699853060293359 -0.3032918143950174 0 0.39038779191352641 -0.28600476574521011 0 0.37272477687605871 -0.28516516925310809 0 0.39038779191352641 -0.28600476574521011 0 0.38102784705546822 -0.26328283175542633 0 0.40033277848770937 -0.26919775340454871 0 0.39038779191352641 -0.28600476574521011 0 0.38102784705546822 -0.26328283175542633 0 0.37272477687605871 -0.28516516925310809 0 0.40256976526565352 -0.2498466097469009 0 0.38102784705546822 -0.26328283175542633 0 0.40033277848770937 -0.26919775340454871 0 0.39038779191352641 -0.28600476574521011 0 0.40033277848770937 -0.26919775340454871 0 0.40720608676573938 -0.28253769829868952 0 0.40033277848770937 -0.26919775340454871 0 0.42079356725079659 -0.2618178688663006 0 0.40720608676573938 -0.28253769829868952 0 0.42079356725079659 -0.2618178688663006 0 0.42213856488697121 -0.28604870442494462 0 0.40720608676573938 -0.28253769829868952 0 0.42079356725079659 -0.2618178688663006 0 0.42213856488697121 -0.28604870442494462 0 0.40256976526565352 -0.2498466097469009 0 0.40033277848770937 -0.26919775340454871 0 0.42079356725079659 -0.2618178688663006 0 0.41944856961462201 -0.2375870333076566 0 0.42079356725079659 -0.2618178688663006 0 0.435558855691697 -0.25739406417061123 0 0.43762205898824891 -0.27210767179964013 0 0.42079356725079659 -0.2618178688663006 0 0.435558855691697 -0.25739406417061123 0 0.43762205898824891 -0.27210767179964013 0 0.42079356725079659 -0.2618178688663006 0 0.42213856488697121 -0.28604870442494462 0 0.43762205898824891 -0.27210767179964013 0 0.43599660736935453 -0.28494400474602949 0 0.42213856488697121 -0.28604870442494462 0 0.43804760157825978 -0.30180124505444089 0 0.43599660736935453 -0.28494400474602949 0 0.42213856488697121 -0.28604870442494462 0 0.42213856488697121 -0.28604870442494462 0 0.42348356252314567 -0.31027953998358859 0 0.43804760157825978 -0.30180124505444089 0 0.42681387360719242 -0.32275505214798889 0 0.42348356252314567 -0.31027953998358859 0 0.43804760157825978 -0.30180124505444089 0 0.42213856488697121 -0.28604870442494462 0 0.42348356252314567 -0.31027953998358859 0 0.43804760157825978 -0.30180124505444089 0 0.42681387360719242 -0.32275505214798889 0 0.4039193271903524 -0.29762423452340592 0 0.42213856488697121 -0.28604870442494462 0 0.41192700958736778 -0.30799225514767198 0 0.42213856488697121 -0.28604870442494462 0 0.42348356252314567 -0.31027953998358859 0 0.41192700958736778 -0.30799225514767198 0 0.4039193271903524 -0.29762423452340592 0 0.42213856488697121 -0.28604870442494462 0 0.40720608676573938 -0.28253769829868952 0 0.45112731391400379 -0.50000000000000067 0 0.44383519788567211 -0.48830681216426369 0 0.46050512677007188 -0.48238038531332911 0 0.45112731391400379 -0.50000000000000067 0 0.44383519788567211 -0.48830681216426369 0 0.43173720264974408 -0.48994512322017941 0 0.44383519788567211 -0.48830681216426369 0 0.44886573766341392 -0.46905620858625552 0 0.46050512677007188 -0.48238038531332911 0 0.44383519788567211 -0.48830681216426369 0 0.44886573766341392 -0.46905620858625552 0 0.44383519788567211 -0.48830681216426369 0 0.44886573766341392 -0.46905620858625552 0 0.42971985842364341 -0.47682500417429619 0 0.44886573766341392 -0.46905620858625552 0 0.42971985842364341 -0.47682500417429619 0 0.44886573766341392 -0.46905620858625552 0 0.46050512677007188 -0.48238038531332911 0 0.4646727537085954 -0.46264221866320399 0 0.46050512677007188 -0.48238038531332911 0 0.47192526898962578 -0.47448262667593138 0 0.4646727537085954 -0.46264221866320399 0 0.45112731391400379 -0.50000000000000067 0 0.46050512677007188 -0.48238038531332911 0 0.47556365695700281 -0.49166745874039519 0 0.45112731391400379 -0.50000000000000067 0 0.47556365695700281 -0.49166745874039519 0 0.45112731391400379 -0.50000000000000067 0 0.47556365695700281 -0.49166745874039519 0 0.5 -0.5 0 0.47556365695700281 -0.49166745874039519 0 0.5 -0.5 0 0.50000000000000133 -0.48333491748078872 0 0.47556365695700281 -0.49166745874039519 0 0.50000000000000133 -0.48333491748078872 0 0.47556365695700281 -0.49166745874039519 0 0.50000000000000133 -0.48333491748078872 0 0.48559373914008069 -0.47368628638849353 0 0.50000000000000133 -0.48333491748078872 0 0.48559373914008069 -0.47368628638849353 0 0.49999999999999711 -0.46271820030519972 0 0.47556365695700281 -0.49166745874039519 0 0.48559373914008069 -0.47368628638849353 0 0.47192526898962578 -0.47448262667593138 0 0.46050512677007188 -0.48238038531332911 0 0.47556365695700281 -0.49166745874039519 0 0.47192526898962578 -0.47448262667593138 0 0.48047976975377688 -0.45622822874015218 0 0.4646727537085954 -0.46264221866320399 0 0.47192526898962578 -0.47448262667593138 0 0.48047976975377688 -0.45622822874015218 0 0.4646727537085954 -0.46264221866320399 0 0.48559373914008069 -0.47368628638849353 0 0.47192526898962578 -0.47448262667593138 0 0.48047976975377688 -0.45622822874015218 0 0.48047976975377688 -0.45622822874015218 0 0.470691407189475 -0.45297385141420099 0 0.4646727537085954 -0.46264221866320399 0 0.48047976975377688 -0.45622822874015218 0 0.470691407189475 -0.45297385141420099 0 0.48047976975377688 -0.45622822874015218 0 0.49999999999999711 -0.46271820030519972 0 0.50000000000000244 -0.44830753328839051 0 0.48559373914008069 -0.47368628638849353 0 0.48047976975377688 -0.45622822874015218 0 0.49999999999999711 -0.46271820030519972 0 0.48047976975377688 -0.45622822874015218 0 0.49999999999999711 -0.46271820030519972 0 0.48047976975377688 -0.45622822874015218 0 0.50000000000000244 -0.44830753328839051 0 0.48047976975377688 -0.45622822874015218 0 0.50000000000000244 -0.44830753328839051 0 0.48534570359473722 -0.44514634052379981 0 0.50000000000000244 -0.44830753328839051 0 0.48534570359473722 -0.44514634052379981 0 0.49999999999999928 -0.4373188296333983 0 0.48534570359473722 -0.44514634052379981 0 0.49999999999999928 -0.4373188296333983 0 0.48534570359473722 -0.44514634052379981 0 0.470691407189475 -0.45297385141420099 0 0.47097048664221319 -0.43643251844295372 0 0.48047976975377688 -0.45622822874015218 0 0.48534570359473722 -0.44514634052379981 0 0.470691407189475 -0.45297385141420099 0 0.48534570359473722 -0.44514634052379981 0 0.470691407189475 -0.45297385141420099 0 0.470691407189475 -0.45297385141420099 0 0.4544770832219866 -0.44758300816244723 0 0.470691407189475 -0.45297385141420099 0 0.4544770832219866 -0.44758300816244723 0 0.47097048664221319 -0.43643251844295372 0 0.44886573766341392 -0.46905620858625552 0 0.4646727537085954 -0.46264221866320399 0 0.470691407189475 -0.45297385141420099 0 0.4646727537085954 -0.46264221866320399 0 0.45020944586695522 -0.46391417709583921 0 0.470691407189475 -0.45297385141420099 0 0.4544770832219866 -0.44758300816244723 0 0.45020944586695522 -0.46391417709583921 0 0.44886573766341392 -0.46905620858625552 0 0.4646727537085954 -0.46264221866320399 0 0.45020944586695522 -0.46391417709583921 0 0.470691407189475 -0.45297385141420099 0 0.45020944586695522 -0.46391417709583921 0 0.45020944586695522 -0.46391417709583921 0 0.43354429895265317 -0.47281577259755192 0 0.4544770832219866 -0.44758300816244723 0 0.45020944586695522 -0.46391417709583921 0 0.45020944586695522 -0.46391417709583921 0 0.43809781679219229 -0.46582749488248509 0 0.43354429895265317 -0.47281577259755192 0 0.4544770832219866 -0.44758300816244723 0 0.45020944586695522 -0.46391417709583921 0 0.43983568967163922 -0.45392720411593052 0 0.44886573766341392 -0.46905620858625552 0 0.45020944586695522 -0.46391417709583921 0 0.43354429895265317 -0.47281577259755192 0 0.44886573766341392 -0.46905620858625552 0 0.45020944586695522 -0.46391417709583921 0 0.45020944586695522 -0.46391417709583921 0 0.43954534047197691 -0.46190563183931183 0 0.43809781679219229 -0.46582749488248509 0 0.45020944586695522 -0.46391417709583921 0 0.43954534047197691 -0.46190563183931183 0 0.43983568967163922 -0.45392720411593052 0 0.4544770832219866 -0.44758300816244723 0 0.43983568967163922 -0.45392720411593052 0 0.42639476312990371 -0.43824636322643662 0 0.4544770832219866 -0.44758300816244723 0 0.42639476312990371 -0.43824636322643662 0 0.4544770832219866 -0.44758300816244723 0 0.44129703071422421 -0.42311630120439092 0 0.46204244936752009 -0.41863226509614671 0 0.4544770832219866 -0.44758300816244723 0 0.44129703071422421 -0.42311630120439092 0 0.42639476312990371 -0.43824636322643662 0 0.44129703071422421 -0.42311630120439092 0 0.46204244936752009 -0.41863226509614671 0 0.44341167410846138 -0.39868285947249099 0 0.4544770832219866 -0.44758300816244723 0 0.46204244936752009 -0.41863226509614671 0 0.47097048664221319 -0.43643251844295372 0 0.4544770832219866 -0.44758300816244723 0 0.46204244936752009 -0.41863226509614671 0 0.46204244936752009 -0.41863226509614671 0 0.47097048664221319 -0.43643251844295372 0 0.48326021817421938 -0.42458114554289239 0 0.48534570359473722 -0.44514634052379981 0 0.47097048664221319 -0.43643251844295372 0 0.48326021817421938 -0.42458114554289239 0 0.48534570359473722 -0.44514634052379981 0 0.48326021817421938 -0.42458114554289239 0 0.49999999999999928 -0.4373188296333983 0 0.48326021817421938 -0.42458114554289239 0 0.49999999999999928 -0.4373188296333983 0 0.5 -0.40868553735398883 0 0.48326021817421938 -0.42458114554289239 0 0.5 -0.40868553735398883 0 0.48221987020137669 -0.40445354362338781 0 0.46204244936752009 -0.41863226509614671 0 0.48326021817421938 -0.42458114554289239 0 0.48221987020137669 -0.40445354362338781 0 0.48221987020137669 -0.40445354362338781 0 0.5 -0.38005224507457919 0 0.46960781551305342 -0.38968152202984618 0 0.46204244936752009 -0.41863226509614671 0 0.48221987020137669 -0.40445354362338781 0 0.46960781551305342 -0.38968152202984618 0 0.5 -0.40868553735398883 0 0.48221987020137669 -0.40445354362338781 0 0.5 -0.38005224507457919 0 0.4825730755300176 -0.36810832584522668 0 0.46680554537209201 -0.37381767462463489 0 0.46960781551305342 -0.38968152202984618 0 0.4825730755300176 -0.36810832584522668 0 0.5 -0.38005224507457919 0 0.46960781551305342 -0.38968152202984618 0 0.46960781551305342 -0.38968152202984618 0 0.45497478341173497 -0.38120126314447061 0 0.44341167410846138 -0.39868285947249099 0 0.46680554537209201 -0.37381767462463489 0 0.46960781551305342 -0.38968152202984618 0 0.45497478341173497 -0.38120126314447061 0 0.46204244936752009 -0.41863226509614671 0 0.46960781551305342 -0.38968152202984618 0 0.44341167410846138 -0.39868285947249099 0 0.46204244936752009 -0.41863226509614671 0 0.46960781551305342 -0.38968152202984618 0 0.45497478341173497 -0.38120126314447061 0 0.44341167410846138 -0.39868285947249099 0 0.43859496164911471 -0.37735683622028721 0 0.43859496164911471 -0.37735683622028721 0 0.41924897451283988 -0.389540529645232 0 0.44341167410846138 -0.39868285947249099 0 0.43859496164911471 -0.37735683622028721 0 0.41924897451283988 -0.389540529645232 0 0.42064516823078429 -0.37402276863838502 0 0.43859496164911471 -0.37735683622028721 0 0.41924897451283988 -0.389540529645232 0 0.44341167410846138 -0.39868285947249099 0 0.41924897451283988 -0.389540529645232 0 0.42015918374324901 -0.41243701006443251 0 0.41924897451283988 -0.389540529645232 0 0.4030787767879741 -0.38815408338542218 0 0.3999029873765651 -0.40172422307017691 0 0.41924897451283988 -0.389540529645232 0 0.3999029873765651 -0.40172422307017691 0 0.42015918374324901 -0.41243701006443251 0 0.41924897451283988 -0.389540529645232 0 0.3999029873765651 -0.40172422307017691 0 0.41924897451283988 -0.389540529645232 0 0.40768898463235109 -0.37909933781047328 0 0.4030787767879741 -0.38815408338542218 0 0.42064516823078429 -0.37402276863838502 0 0.41924897451283988 -0.389540529645232 0 0.40768898463235109 -0.37909933781047328 0 0.40434641766505708 -0.36466266633508482 0 0.40768898463235109 -0.37909933781047328 0 0.39381524537170548 -0.38430602544722869 0 0.40768898463235109 -0.37909933781047328 0 0.4030787767879741 -0.38815408338542218 0 0.39381524537170548 -0.38430602544722869 0 0.4030787767879741 -0.38815408338542218 0 0.39381524537170548 -0.38430602544722869 0 0.39602960953723759 -0.39312002070651769 0 0.38554025173073059 -0.36804010969695627 0 0.37872773141026811 -0.38403121354771141 0 0.386488824886625 -0.39219351892882881 0 0.38554025173073059 -0.36804010969695627 0 0.39381524537170548 -0.38430602544722869 0 0.386488824886625 -0.39219351892882881 0 0.37872773141026811 -0.38403121354771141 0 0.386488824886625 -0.39219351892882881 0 0.37872773141026811 -0.38403121354771141 0 0.38011185199866099 -0.40791405387020252 0 0.39381524537170548 -0.38430602544722869 0 0.38741235749015701 -0.39878981903645538 0 0.38328407307835338 -0.40394938455937229 0 0.37872773141026811 -0.38403121354771141 0 0.386488824886625 -0.39219351892882881 0 0.38328407307835338 -0.40394938455937229 0 0.37872773141026811 -0.38403121354771141 0 0.38328407307835338 -0.40394938455937229 0 0.38011185199866099 -0.40791405387020252 0 0.39381524537170548 -0.38430602544722869 0 0.386488824886625 -0.39219351892882881 0 0.38328407307835338 -0.40394938455937229 0 0.38741235749015701 -0.39878981903645538 0 0.38328407307835338 -0.40394938455937229 0 0.3999029873765651 -0.40172422307017691 0 0.37872773141026811 -0.38403121354771141 0 0.38011185199866099 -0.40791405387020252 0 0.37066492906770221 -0.39784483428232981 0 0.38228220884780839 -0.40581812037662168 0 0.38328407307835338 -0.40394938455937229 0 0.3999029873765651 -0.40172422307017691 0 0.39381524537170548 -0.38430602544722869 0 0.38328407307835338 -0.40394938455937229 0 0.38228220884780839 -0.40581812037662168 0 0.38328407307835338 -0.40394938455937229 0 0.38011185199866099 -0.40791405387020252 0 0.38328407307835338 -0.40394938455937229 0 0.38011185199866099 -0.40791405387020252 0 0.38228220884780839 -0.40581812037662168 0 0.38328407307835338 -0.40394938455937229 0 0.38741235749015701 -0.39878981903645538 0 0.38328407307835338 -0.40394938455937229 0 0.39381524537170548 -0.38430602544722869 0 0.38741235749015701 -0.39878981903645538 0 0.39602960953723759 -0.39312002070651769 0 0.38741235749015701 -0.39878981903645538 0 0.39602960953723759 -0.39312002070651769 0 0.3999029873765651 -0.40172422307017691 0 0.4030787767879741 -0.38815408338542218 0 0.39602960953723759 -0.39312002070651769 0 0.3999029873765651 -0.40172422307017691 0 0.3999029873765651 -0.40172422307017691 0 0.39489834377311228 -0.41525232102608378 0 0.38055700024028949 -0.41390791649512038 0 0.3999029873765651 -0.40172422307017691 0 0.4049478401920994 -0.41371247788859861 0 0.39489834377311228 -0.41525232102608378 0 0.4049478401920994 -0.41371247788859861 0 0.39489834377311228 -0.41525232102608378 0 0.39999320125919202 -0.42331866650463751 0 0.39489834377311228 -0.41525232102608378 0 0.38924074373060469 -0.42480961455627608 0 0.39999320125919202 -0.42331866650463751 0 0.3999029873765651 -0.40172422307017691 0 0.38055700024028949 -0.41390791649512038 0 0.38228220884780839 -0.40581812037662168 0 0.3999029873765651 -0.40172422307017691 0 0.38055700024028949 -0.41390791649512038 0 0.39489834377311228 -0.41525232102608378 0 0.38055700024028949 -0.41390791649512038 0 0.38924074373060469 -0.42480961455627608 0 0.38055700024028949 -0.41390791649512038 0 0.36999264865686993 -0.42056112162851989 0 0.38011185199866099 -0.40791405387020252 0 0.38055700024028949 -0.41390791649512038 0 0.36999264865686993 -0.42056112162851989 0 0.38011185199866099 -0.40791405387020252 0 0.36999264865686993 -0.42056112162851989 0 0.38228220884780839 -0.40581812037662168 0 0.38011185199866099 -0.40791405387020252 0 0.38055700024028949 -0.41390791649512038 0 0.38011185199866099 -0.40791405387020252 0 0.38055700024028949 -0.41390791649512038 0 0.38055700024028949 -0.41390791649512038 0 0.38216038541245639 -0.43549728731182069 0 0.38924074373060469 -0.42480961455627608 0 0.38216038541245639 -0.43549728731182069 0 0.38924074373060469 -0.42480961455627608 0 0.39863823464078768 -0.44100468123562792 0 0.38055700024028949 -0.41390791649512038 0 0.38216038541245639 -0.43549728731182069 0 0.38055700024028949 -0.41390791649512038 0 0.38216038541245639 -0.43549728731182069 0 0.36999264865686993 -0.42056112162851989 0 0.39999320125919202 -0.42331866650463751 0 0.41081245425675911 -0.42995412860293802 0 0.39863823464078768 -0.44100468123562792 0 0.38924074373060469 -0.42480961455627608 0 0.39999320125919202 -0.42331866650463751 0 0.39863823464078768 -0.44100468123562792 0 0.4049478401920994 -0.41371247788859861 0 0.39999320125919202 -0.42331866650463751 0 0.41081245425675911 -0.42995412860293802 0 0.41081245425675911 -0.42995412860293802 0 0.42015918374324901 -0.41243701006443251 0 0.42639476312990371 -0.43824636322643662 0 0.4049478401920994 -0.41371247788859861 0 0.41081245425675911 -0.42995412860293802 0 0.42015918374324901 -0.41243701006443251 0 0.3999029873765651 -0.40172422307017691 0 0.4049478401920994 -0.41371247788859861 0 0.42015918374324901 -0.41243701006443251 0 0.44129703071422421 -0.42311630120439092 0 0.44341167410846138 -0.39868285947249099 0 0.42015918374324901 -0.41243701006443251 0 0.44129703071422421 -0.42311630120439092 0 0.42015918374324901 -0.41243701006443251 0 0.42639476312990371 -0.43824636322643662 0 0.42639476312990371 -0.43824636322643662 0 0.42615756409492611 -0.45419387264070282 0 0.41474150257532261 -0.45100557269789548 0 0.43983568967163922 -0.45392720411593052 0 0.42639476312990371 -0.43824636322643662 0 0.42615756409492611 -0.45419387264070282 0 0.43983568967163922 -0.45392720411593052 0 0.43161545569034859 -0.46275240670591711 0 0.42615756409492611 -0.45419387264070282 0 0.43954534047197691 -0.46190563183931183 0 0.43983568967163922 -0.45392720411593052 0 0.43161545569034859 -0.46275240670591711 0 0.43954534047197691 -0.46190563183931183 0 0.43809781679219229 -0.46582749488248509 0 0.43161545569034859 -0.46275240670591711 0 0.43809781679219229 -0.46582749488248509 0 0.43161545569034859 -0.46275240670591711 0 0.43354429895265317 -0.47281577259755192 0 0.43161545569034859 -0.46275240670591711 0 0.42109471743711102 -0.4736731032341272 0 0.43161545569034859 -0.46275240670591711 0 0.42186617001222981 -0.46348976261781683 0 0.42109471743711102 -0.4736731032341272 0 0.43161545569034859 -0.46275240670591711 0 0.42615756409492611 -0.45419387264070282 0 0.42186617001222981 -0.46348976261781683 0 0.41193640477771543 -0.46764431714803589 0 0.41474150257532261 -0.45100557269789548 0 0.40215000086710689 -0.45667862739943671 0 0.42186617001222981 -0.46348976261781683 0 0.41193640477771543 -0.46764431714803589 0 0.41474150257532261 -0.45100557269789548 0 0.42615756409492611 -0.45419387264070282 0 0.42186617001222981 -0.46348976261781683 0 0.41474150257532261 -0.45100557269789548 0 0.42186617001222981 -0.46348976261781683 0 0.41193640477771543 -0.46764431714803589 0 0.42109471743711102 -0.4736731032341272 0 0.41081245425675911 -0.42995412860293802 0 0.42639476312990371 -0.43824636322643662 0 0.41474150257532261 -0.45100557269789548 0 0.41081245425675911 -0.42995412860293802 0 0.41474150257532261 -0.45100557269789548 0 0.39863823464078768 -0.44100468123562792 0 0.41474150257532261 -0.45100557269789548 0 0.39863823464078768 -0.44100468123562792 0 0.40215000086710689 -0.45667862739943671 0 0.39863823464078768 -0.44100468123562792 0 0.38376377058462691 -0.45708665812852078 0 0.40215000086710689 -0.45667862739943671 0 0.38216038541245639 -0.43549728731182069 0 0.39863823464078768 -0.44100468123562792 0 0.38376377058462691 -0.45708665812852078 0 0.38216038541245639 -0.43549728731182069 0 0.38376377058462691 -0.45708665812852078 0 0.38216038541245639 -0.43549728731182069 0 0.38376377058462691 -0.45708665812852078 0 0.37443578174858783 -0.44692519807429332 0 0.38216038541245639 -0.43549728731182069 0 0.37443578174858783 -0.44692519807429332 0 0.36941448342498118 -0.43561323724203821 0 0.38376377058462691 -0.45708665812852078 0 0.39778160963841869 -0.46968460933064221 0 0.3853671557567972 -0.47867602894522082 0 0.38376377058462691 -0.45708665812852078 0 0.3853671557567972 -0.47867602894522082 0 0.37333433305271618 -0.46807149774360041 0 0.38376377058462691 -0.45708665812852078 0 0.3853671557567972 -0.47867602894522082 0 0.38376377058462691 -0.45708665812852078 0 0.40215000086710689 -0.45667862739943671 0 0.39778160963841869 -0.46968460933064221 0 0.41193640477771543 -0.46764431714803589 0 0.40215000086710689 -0.45667862739943671 0 0.39778160963841869 -0.46968460933064221 0 0.41193640477771543 -0.46764431714803589 0 0.40621469855655151 -0.47787031755281911 0 0.39778160963841869 -0.46968460933064221 0 0.40621469855655151 -0.47787031755281911 0 0.39780573289922211 -0.48264346980654821 0 0.40738733373279568 -0.48588684025480611 0 0.40621469855655151 -0.47787031755281911 0 0.39780573289922211 -0.48264346980654821 0 0.39778160963841869 -0.46968460933064221 0 0.39780573289922211 -0.48264346980654821 0 0.39778160963841869 -0.46968460933064221 0 0.3853671557567972 -0.47867602894522082 0 0.3853671557567972 -0.47867602894522082 0 0.39573201376905331 -0.50000000000000122 0 0.37134820330251822 -0.5 0 0.39780573289922211 -0.48264346980654821 0 0.39573201376905331 -0.50000000000000122 0 0.40738733373279568 -0.48588684025480611 0 0.39780573289922211 -0.48264346980654821 0 0.3853671557567972 -0.47867602894522082 0 0.39573201376905331 -0.50000000000000122 0 0.39573201376905331 -0.50000000000000122 0 0.41057397918387267 -0.48459379976233657 0 0.40738733373279568 -0.48588684025480611 0 0.39573201376905331 -0.50000000000000122 0 0.41057397918387267 -0.48459379976233657 0 0.39573201376905331 -0.50000000000000122 0 0.41057397918387267 -0.48459379976233657 0 0.42342966384152858 -0.5 0 0.41057397918387267 -0.48459379976233657 0 0.41698994145119023 -0.48199040407958149 0 0.43173720264974408 -0.48994512322017941 0 0.41057397918387267 -0.48459379976233657 0 0.40738733373279568 -0.48588684025480611 0 0.40621469855655151 -0.47787031755281911 0 0.41057397918387267 -0.48459379976233657 0 0.41245494998881249 -0.47594538442432949 0 0.40621469855655151 -0.47787031755281911 0 0.41057397918387267 -0.48459379976233657 0 0.40738733373279568 -0.48588684025480611 0 0.41057397918387267 -0.48459379976233657 0 0.41698994145119023 -0.48199040407958149 0 0.41193640477771543 -0.46764431714803589 0 0.40621469855655151 -0.47787031755281911 0 0.41245494998881249 -0.47594538442432949 0 0.41193640477771543 -0.46764431714803589 0 0.41245494998881249 -0.47594538442432949 0 0.42109471743711102 -0.4736731032341272 0 0.41057397918387267 -0.48459379976233657 0 0.42109471743711102 -0.4736731032341272 0 0.41698994145119023 -0.48199040407958149 0 0.41057397918387267 -0.48459379976233657 0 0.41245494998881249 -0.47594538442432949 0 0.42109471743711102 -0.4736731032341272 0 0.41057397918387267 -0.48459379976233657 0 0.42109471743711102 -0.4736731032341272 0 0.44886573766341392 -0.46905620858625552 0 0.43354429895265317 -0.47281577259755192 0 0.42971985842364341 -0.47682500417429619 0 0.42109471743711102 -0.4736731032341272 0 0.41698994145119023 -0.48199040407958149 0 0.43354429895265317 -0.47281577259755192 0 0.41698994145119023 -0.48199040407958149 0 0.43354429895265317 -0.47281577259755192 0 0.42971985842364341 -0.47682500417429619 0 0.41698994145119023 -0.48199040407958149 0 0.43354429895265317 -0.47281577259755192 0 0.41698994145119023 -0.48199040407958149 0 0.42971985842364341 -0.47682500417429619 0 0.41698994145119023 -0.48199040407958149 0 0.42971985842364341 -0.47682500417429619 0 0.43173720264974408 -0.48994512322017941 0 0.43161545569034859 -0.46275240670591711 0 0.42109471743711102 -0.4736731032341272 0 0.43354429895265317 -0.47281577259755192 0 0.41057397918387267 -0.48459379976233657 0 0.43173720264974408 -0.48994512322017941 0 0.42342966384152858 -0.5 0 0.44383519788567211 -0.48830681216426369 0 0.42971985842364341 -0.47682500417429619 0 0.43173720264974408 -0.48994512322017941 0 0.45112731391400379 -0.50000000000000067 0 0.43173720264974408 -0.48994512322017941 0 0.42342966384152858 -0.5 0 0.32258058236944798 -0.5 0 0.32212688393084649 -0.48038416790466959 0 0.30600606236159622 -0.48512230486692759 0 0.32212688393084649 -0.48038416790466959 0 0.33808213883952087 -0.46044315247928619 0 0.32212688393084649 -0.48038416790466959 0 0.34020356085998471 -0.48249631182493918 0 0.33808213883952087 -0.46044315247928619 0 0.32258058236944798 -0.5 0 0.34020356085998471 -0.48249631182493918 0 0.34696439283598302 -0.5 0 0.32258058236944798 -0.5 0 0.32212688393084649 -0.48038416790466959 0 0.34020356085998471 -0.48249631182493918 0 0.34020356085998471 -0.48249631182493918 0 0.34696439283598302 -0.5 0 0.36013108391176291 -0.47819567723086881 0 0.34696439283598302 -0.5 0 0.37134820330251822 -0.5 0 0.36013108391176291 -0.47819567723086881 0 0.3853671557567972 -0.47867602894522082 0 0.37134820330251822 -0.5 0 0.36013108391176291 -0.47819567723086881 0 0.3853671557567972 -0.47867602894522082 0 0.36013108391176291 -0.47819567723086881 0 0.37333433305271618 -0.46807149774360041 0 0.34020356085998471 -0.48249631182493918 0 0.36013108391176291 -0.47819567723086881 0 0.33808213883952087 -0.46044315247928619 0 0.36013108391176291 -0.47819567723086881 0 0.36407532195767811 -0.4583276266697911 0 0.33808213883952087 -0.46044315247928619 0 0.38376377058462691 -0.45708665812852078 0 0.37333433305271618 -0.46807149774360041 0 0.36407532195767811 -0.4583276266697911 0 0.38376377058462691 -0.45708665812852078 0 0.36407532195767811 -0.4583276266697911 0 0.37443578174858783 -0.44692519807429332 0 0.36013108391176291 -0.47819567723086881 0 0.37333433305271618 -0.46807149774360041 0 0.36407532195767811 -0.4583276266697911 0 0.37443578174858783 -0.44692519807429332 0 0.35403739374819532 -0.44050213705390301 0 0.36941448342498118 -0.43561323724203821 0 0.36407532195767811 -0.4583276266697911 0 0.37443578174858783 -0.44692519807429332 0 0.35403739374819532 -0.44050213705390301 0 0.36407532195767811 -0.4583276266697911 0 0.35403739374819532 -0.44050213705390301 0 0.33808213883952087 -0.46044315247928619 0 0.35403739374819532 -0.44050213705390301 0 0.33808213883952087 -0.46044315247928619 0 0.35403739374819532 -0.44050213705390301 0 0.33808213883952087 -0.46044315247928619 0 0.32405613103707021 -0.43551898695432728 0 0.32212688393084649 -0.48038416790466959 0 0.33808213883952087 -0.46044315247928619 0 0.30730840783683949 -0.45701265796955193 0 0.32405613103707021 -0.43551898695432728 0 0.30754385596312561 -0.42880221774276123 0 0.30730840783683949 -0.45701265796955193 0 0.32405613103707021 -0.43551898695432728 0 0.30730840783683949 -0.45701265796955193 0 0.33808213883952087 -0.46044315247928619 0 0.32405613103707021 -0.43551898695432728 0 0.30730840783683949 -0.45701265796955193 0 0.32405613103707021 -0.43551898695432728 0 0.32219994594435508 -0.40761046451754879 0 0.30754385596312561 -0.42880221774276123 0 0.32219994594435508 -0.40761046451754879 0 0.34080385423730092 -0.41402531593910291 0 0.33966809938678011 -0.40171005065643239 0 0.32405613103707021 -0.43551898695432728 0 0.32219994594435508 -0.40761046451754879 0 0.34080385423730092 -0.41402531593910291 0 0.34080385423730092 -0.41402531593910291 0 0.34974357121117211 -0.40578881253119881 0 0.33966809938678011 -0.40171005065643239 0 0.32405613103707021 -0.43551898695432728 0 0.34080385423730092 -0.41402531593910291 0 0.34728985247950611 -0.42633030275290001 0 0.35403739374819532 -0.44050213705390301 0 0.32405613103707021 -0.43551898695432728 0 0.34728985247950611 -0.42633030275290001 0 0.32405613103707021 -0.43551898695432728 0 0.34080385423730092 -0.41402531593910291 0 0.34728985247950611 -0.42633030275290001 0 0.3605503273891979 -0.4265076958061409 0 0.35700155598576599 -0.41509737801102597 0 0.35403739374819532 -0.44050213705390301 0 0.34728985247950611 -0.42633030275290001 0 0.3605503273891979 -0.4265076958061409 0 0.35403739374819532 -0.44050213705390301 0 0.36941448342498118 -0.43561323724203821 0 0.36999264865686993 -0.42056112162851989 0 0.35403739374819532 -0.44050213705390301 0 0.3605503273891979 -0.4265076958061409 0 0.36999264865686993 -0.42056112162851989 0 0.35403739374819532 -0.44050213705390301 0 0.36999264865686993 -0.42056112162851989 0 0.3605503273891979 -0.4265076958061409 0 0.36999264865686993 -0.42056112162851989 0 0.38216038541245639 -0.43549728731182069 0 0.36941448342498118 -0.43561323724203821 0 0.36999264865686993 -0.42056112162851989 0 0.38011185199866099 -0.40791405387020252 0 0.36844751927040592 -0.40906378870439081 0 0.36999264865686993 -0.42056112162851989 0 0.36844751927040592 -0.40906378870439081 0 0.36999264865686993 -0.42056112162851989 0 0.35700155598576599 -0.41509737801102597 0 0.3605503273891979 -0.4265076958061409 0 0.36999264865686993 -0.42056112162851989 0 0.35700155598576599 -0.41509737801102597 0 0.36844751927040592 -0.40906378870439081 0 0.35700155598576599 -0.41509737801102597 0 0.36136527763605941 -0.40164169906751718 0 0.34080385423730092 -0.41402531593910291 0 0.35700155598576599 -0.41509737801102597 0 0.34974357121117211 -0.40578881253119881 0 0.34080385423730092 -0.41402531593910291 0 0.34728985247950611 -0.42633030275290001 0 0.35700155598576599 -0.41509737801102597 0 0.35700155598576599 -0.41509737801102597 0 0.34974357121117211 -0.40578881253119881 0 0.36136527763605941 -0.40164169906751718 0 0.34987906880995367 -0.39646961898191529 0 0.36136527763605941 -0.40164169906751718 0 0.36348549573409628 -0.38509747776662362 0 0.34974357121117211 -0.40578881253119881 0 0.34987906880995367 -0.39646961898191529 0 0.33966809938678011 -0.40171005065643239 0 0.34974357121117211 -0.40578881253119881 0 0.34987906880995367 -0.39646961898191529 0 0.36136527763605941 -0.40164169906751718 0 0.36844751927040592 -0.40906378870439081 0 0.36136527763605941 -0.40164169906751718 0 0.37066492906770221 -0.39784483428232981 0 0.36136527763605941 -0.40164169906751718 0 0.37066492906770221 -0.39784483428232981 0 0.36348549573409628 -0.38509747776662362 0 0.38011185199866099 -0.40791405387020252 0 0.36844751927040592 -0.40906378870439081 0 0.37066492906770221 -0.39784483428232981 0 0.37872773141026811 -0.38403121354771141 0 0.36673408579640387 -0.37141755305882729 0 0.37872773141026811 -0.38403121354771141 0 0.36348549573409628 -0.38509747776662362 0 0.36673408579640387 -0.37141755305882729 0 0.37872773141026811 -0.38403121354771141 0 0.37066492906770221 -0.39784483428232981 0 0.36348549573409628 -0.38509747776662362 0 0.36348549573409628 -0.38509747776662362 0 0.33856736420206429 -0.37647608052299641 0 0.33421563968185197 -0.38971038363704469 0 0.36348549573409628 -0.38509747776662362 0 0.33421563968185197 -0.38971038363704469 0 0.34987906880995367 -0.39646961898191529 0 0.36348549573409628 -0.38509747776662362 0 0.33421563968185197 -0.38971038363704469 0 0.36348549573409628 -0.38509747776662362 0 0.33856736420206429 -0.37647608052299641 0 0.36673408579640387 -0.37141755305882729 0 0.32219994594435508 -0.40761046451754879 0 0.33421563968185197 -0.38971038363704469 0 0.33966809938678011 -0.40171005065643239 0 0.34987906880995367 -0.39646961898191529 0 0.33421563968185197 -0.38971038363704469 0 0.33966809938678011 -0.40171005065643239 0 0.32219994594435508 -0.40761046451754879 0 0.33421563968185197 -0.38971038363704469 0 0.30494578362960761 -0.39432328950746581 0 0.33421563968185197 -0.38971038363704469 0 0.30494578362960761 -0.39432328950746581 0 0.33856736420206429 -0.37647608052299641 0 0.33421563968185197 -0.38971038363704469 0 0.31040064260772471 -0.38153460798716449 0 0.33856736420206429 -0.37647608052299641 0 0.31040064260772471 -0.38153460798716449 0 0.33856736420206429 -0.37647608052299641 0 0.31040064260772471 -0.38153460798716449 0 0.31878951036080028 -0.37056314492068798 0 0.33421563968185197 -0.38971038363704469 0 0.31040064260772471 -0.38153460798716449 0 0.30494578362960761 -0.39432328950746581 0 0.31040064260772471 -0.38153460798716449 0 0.30494578362960761 -0.39432328950746581 0 0.28223392101338501 -0.38659313545133273 0 0.31040064260772471 -0.38153460798716449 0 0.28727210962547878 -0.3760602607361076 0 0.30115315567059497 -0.36900928796358362 0 0.32219994594435508 -0.40761046451754879 0 0.30494578362960761 -0.39432328950746581 0 0.30596081231038957 -0.41050817810991852 0 0.30494578362960761 -0.39432328950746581 0 0.29172713373153808 -0.40818571268928389 0 0.30596081231038957 -0.41050817810991852 0 0.30494578362960761 -0.39432328950746581 0 0.28223392101338501 -0.38659313545133273 0 0.27567592757736331 -0.39893619537788683 0 0.30494578362960761 -0.39432328950746581 0 0.27567592757736331 -0.39893619537788683 0 0.29172713373153808 -0.40818571268928389 0 0.30494578362960761 -0.39432328950746581 0 0.27567592757736331 -0.39893619537788683 0 0.31040064260772471 -0.38153460798716449 0 0.28223392101338501 -0.38659313545133273 0 0.31040064260772471 -0.38153460798716449 0 0.28223392101338501 -0.38659313545133273 0 0.28727210962547878 -0.3760602607361076 0 0.28727210962547878 -0.3760602607361076 0 0.2721050617615654 -0.38162682933401432 0 0.28223392101338501 -0.38659313545133273 0 0.25406719941904499 -0.39165166291549969 0 0.28223392101338501 -0.38659313545133273 0 0.28727210962547878 -0.3760602607361076 0 0.2721050617615654 -0.38162682933401432 0 0.28223392101338501 -0.38659313545133273 0 0.2721050617615654 -0.38162682933401432 0 0.25406719941904499 -0.39165166291549969 0 0.2721050617615654 -0.38162682933401432 0 0.26117294983186512 -0.38061670454965119 0 0.28028441834602452 -0.3670781455361205 0 0.2721050617615654 -0.38162682933401432 0 0.2569380138976522 -0.38719339793192148 0 0.25406719941904499 -0.39165166291549969 0 0.2721050617615654 -0.38162682933401432 0 0.26117294983186512 -0.38061670454965119 0 0.2569380138976522 -0.38719339793192148 0 0.2721050617615654 -0.38162682933401432 0 0.2569380138976522 -0.38719339793192148 0 0.26117294983186512 -0.38061670454965119 0 0.2569380138976522 -0.38719339793192148 0 0.26117294983186512 -0.38061670454965119 0 0.24905319067607451 -0.3892023385860352 0 0.26117294983186512 -0.38061670454965119 0 0.2569380138976522 -0.38719339793192148 0 0.24905319067607451 -0.3892023385860352 0 0.2569380138976522 -0.38719339793192148 0 0.25406719941904499 -0.39165166291549969 0 0.26117294983186512 -0.38061670454965119 0 0.2486235252893392 -0.37526373790379403 0 0.24905319067607451 -0.3892023385860352 0 0.27567592757736331 -0.39893619537788683 0 0.24640607152511901 -0.40354910124830851 0 0.25406719941904499 -0.39165166291549969 0 0.27567592757736331 -0.39893619537788683 0 0.24640607152511901 -0.40354910124830851 0 0.27567592757736331 -0.39893619537788683 0 0.26251128004628832 -0.41119497252338832 0 0.24640607152511901 -0.40354910124830851 0 0.25406719941904499 -0.39165166291549969 0 0.24640607152511901 -0.40354910124830851 0 0.28223392101338501 -0.38659313545133273 0 0.25406719941904499 -0.39165166291549969 0 0.27567592757736331 -0.39893619537788683 0 0.27567592757736331 -0.39893619537788683 0 0.27872359511788369 -0.41470083848158462 0 0.26251128004628832 -0.41119497252338832 0 0.27872359511788369 -0.41470083848158462 0 0.26251128004628832 -0.41119497252338832 0 0.26150268906424212 -0.42142421723391899 0 0.27872359511788369 -0.41470083848158462 0 0.26150268906424212 -0.42142421723391899 0 0.28034731300207438 -0.4281358719620591 0 0.26251128004628832 -0.41119497252338832 0 0.25024811694683369 -0.41736451027524291 0 0.24640607152511901 -0.40354910124830851 0 0.26251128004628832 -0.41119497252338832 0 0.26150268906424212 -0.42142421723391899 0 0.25024811694683369 -0.41736451027524291 0 0.26150268906424212 -0.42142421723391899 0 0.25897048810701268 -0.43489440019333442 0 0.27132043853851978 -0.43896135315391832 0 0.26150268906424212 -0.42142421723391899 0 0.25024811694683369 -0.41736451027524291 0 0.24917355477919639 -0.43118944032294948 0 0.26150268906424212 -0.42142421723391899 0 0.25897048810701268 -0.43489440019333442 0 0.24917355477919639 -0.43118944032294948 0 0.28034731300207438 -0.4281358719620591 0 0.29155478101013621 -0.44096334171931051 0 0.27132043853851978 -0.43896135315391832 0 0.26150268906424212 -0.42142421723391899 0 0.28034731300207438 -0.4281358719620591 0 0.27132043853851978 -0.43896135315391832 0 0.28034731300207438 -0.4281358719620591 0 0.29418305763996311 -0.42119967718591012 0 0.29155478101013621 -0.44096334171931051 0 0.27567592757736331 -0.39893619537788683 0 0.27872359511788369 -0.41470083848158462 0 0.29172713373153808 -0.40818571268928389 0 0.27872359511788369 -0.41470083848158462 0 0.28034731300207438 -0.4281358719620591 0 0.29418305763996311 -0.42119967718591012 0 0.27872359511788369 -0.41470083848158462 0 0.29172713373153808 -0.40818571268928389 0 0.29418305763996311 -0.42119967718591012 0 0.29418305763996311 -0.42119967718591012 0 0.30596081231038957 -0.41050817810991852 0 0.30754385596312561 -0.42880221774276123 0 0.32219994594435508 -0.40761046451754879 0 0.30596081231038957 -0.41050817810991852 0 0.30754385596312561 -0.42880221774276123 0 0.29172713373153808 -0.40818571268928389 0 0.29418305763996311 -0.42119967718591012 0 0.30596081231038957 -0.41050817810991852 0 0.29418305763996311 -0.42119967718591012 0 0.30754385596312561 -0.42880221774276123 0 0.29155478101013621 -0.44096334171931051 0 0.30754385596312561 -0.42880221774276123 0 0.30730840783683949 -0.45701265796955193 0 0.29155478101013621 -0.44096334171931051 0 0.30730840783683949 -0.45701265796955193 0 0.29056068463660878 -0.47850632898477641 0 0.30730840783683949 -0.45701265796955193 0 0.27718082942801803 -0.45896032763382683 0 0.29056068463660878 -0.47850632898477641 0 0.30730840783683949 -0.45701265796955193 0 0.29155478101013621 -0.44096334171931051 0 0.27718082942801803 -0.45896032763382683 0 0.29155478101013621 -0.44096334171931051 0 0.27132043853851978 -0.43896135315391832 0 0.27718082942801803 -0.45896032763382683 0 0.27132043853851978 -0.43896135315391832 0 0.25388527004609263 -0.4480025900625505 0 0.27718082942801803 -0.45896032763382683 0 0.25897048810701268 -0.43489440019333442 0 0.25388527004609263 -0.4480025900625505 0 0.24917355477919639 -0.43118944032294948 0 0.25897048810701268 -0.43489440019333442 0 0.27132043853851978 -0.43896135315391832 0 0.25388527004609263 -0.4480025900625505 0 0.25388527004609263 -0.4480025900625505 0 0.25405696806359668 -0.46712639438704973 0 0.27718082942801803 -0.45896032763382683 0 0.25405696806359668 -0.46712639438704973 0 0.27718082942801803 -0.45896032763382683 0 0.26568355678642969 -0.48072610901422203 0 0.27718082942801803 -0.45896032763382683 0 0.26568355678642969 -0.48072610901422203 0 0.29056068463660878 -0.47850632898477641 0 0.25405696806359668 -0.46712639438704973 0 0.26568355678642969 -0.48072610901422203 0 0.23878849170555491 -0.48082748886226789 0 0.26568355678642969 -0.48072610901422203 0 0.25079767143598858 -0.5 0 0.23878849170555491 -0.48082748886226789 0 0.26568355678642969 -0.48072610901422203 0 0.25079767143598858 -0.5 0 0.27381296143637779 -0.50000000000000067 0 0.26568355678642969 -0.48072610901422203 0 0.27381296143637779 -0.50000000000000067 0 0.29056068463660878 -0.47850632898477641 0 0.27381296143637779 -0.50000000000000067 0 0.29056068463660878 -0.47850632898477641 0 0.29819677190291283 -0.5 0 0.27381296143637779 -0.50000000000000067 0 0.29056068463660878 -0.47850632898477641 0 0.32212688393084649 -0.48038416790466959 0 0.30730840783683949 -0.45701265796955193 0 0.30600606236159622 -0.48512230486692759 0 0.30730840783683949 -0.45701265796955193 0 0.29056068463660878 -0.47850632898477641 0 0.30600606236159622 -0.48512230486692759 0 0.29056068463660878 -0.47850632898477641 0 0.29819677190291283 -0.5 0 0.30600606236159622 -0.48512230486692759 0 0.32258058236944798 -0.5 0 0.29819677190291283 -0.5 0 0.30600606236159622 -0.48512230486692759 0 0.33177487355804192 -0.29747112343242182 0 0.34093556071833031 -0.2811394976737604 0 0.35663710736875931 -0.30064407293163398 0 0.33177487355804192 -0.29747112343242182 0 0.32278040344860159 -0.27376804078495698 0 0.34093556071833031 -0.2811394976737604 0 0.33177487355804192 -0.29747112343242182 0 0.35663710736875931 -0.30064407293163398 0 0.3393100609006075 -0.31709347661112719 0 0.33177487355804192 -0.29747112343242182 0 0.3393100609006075 -0.31709347661112719 0 0.31803577510986208 -0.32020176953824381 0 0.33177487355804192 -0.29747112343242182 0 0.31505238968431593 -0.29282064908167421 0 0.31803577510986208 -0.32020176953824381 0 0.33177487355804192 -0.29747112343242182 0 0.31505238968431593 -0.29282064908167421 0 0.32278040344860159 -0.27376804078495698 0 0.31505238968431593 -0.29282064908167421 0 0.32278040344860159 -0.27376804078495698 0 0.30286492262761999 -0.27611417897097001 0 0.32278040344860159 -0.27376804078495698 0 0.3351638155597263 -0.25225363975510923 0 0.31102920082380109 -0.26014652324891169 0 0.30819810831357242 -0.24106028415953401 0 0.3351638155597263 -0.25225363975510923 0 0.31102920082380109 -0.26014652324891169 0 0.32278040344860159 -0.27376804078495698 0 0.3351638155597263 -0.25225363975510923 0 0.34093556071833031 -0.2811394976737604 0 0.3351638155597263 -0.25225363975510923 0 0.34093556071833031 -0.2811394976737604 0 0.35857260743960617 -0.27260236143825278 0 0.36050810751045298 -0.24456064994487159 0 0.3351638155597263 -0.25225363975510923 0 0.35857260743960617 -0.27260236143825278 0 0.36050810751045298 -0.24456064994487159 0 0.35857260743960617 -0.27260236143825278 0 0.36050810751045298 -0.24456064994487159 0 0.38102784705546822 -0.26328283175542633 0 0.35857260743960617 -0.27260236143825278 0 0.38102784705546822 -0.26328283175542633 0 0.35857260743960617 -0.27260236143825278 0 0.37272477687605871 -0.28516516925310809 0 0.37699853060293359 -0.3032918143950174 0 0.37272477687605871 -0.28516516925310809 0 0.35663710736875931 -0.30064407293163398 0 0.35857260743960617 -0.27260236143825278 0 0.37272477687605871 -0.28516516925310809 0 0.35663710736875931 -0.30064407293163398 0 0.35857260743960617 -0.27260236143825278 0 0.35663710736875931 -0.30064407293163398 0 0.34093556071833031 -0.2811394976737604 0 0.35857260743960617 -0.27260236143825278 0 0.35663710736875931 -0.30064407293163398 0 0.37699853060293359 -0.3032918143950174 0 0.35663710736875931 -0.30064407293163398 0 0.37219049522129399 -0.32551643064874142 0 0.35663710736875931 -0.30064407293163398 0 0.37219049522129399 -0.32551643064874142 0 0.35470160729791239 -0.32868578442501523 0 0.37626942297652338 -0.34475019158411091 0 0.37219049522129399 -0.32551643064874142 0 0.36469661641304157 -0.34223344466870481 0 0.37219049522129399 -0.32551643064874142 0 0.36469661641304157 -0.34223344466870481 0 0.35470160729791239 -0.32868578442501523 0 0.35470160729791239 -0.32868578442501523 0 0.35276610722706342 -0.35672749591839642 0 0.33540094116846147 -0.33846463272832128 0 0.36469661641304157 -0.34223344466870481 0 0.35470160729791239 -0.32868578442501523 0 0.35276610722706342 -0.35672749591839642 0 0.35470160729791239 -0.32868578442501523 0 0.35276610722706342 -0.35672749591839642 0 0.35663710736875931 -0.30064407293163398 0 0.35470160729791239 -0.32868578442501523 0 0.3393100609006075 -0.31709347661112719 0 0.35663710736875931 -0.30064407293163398 0 0.35470160729791239 -0.32868578442501523 0 0.37892694536517668 -0.35732182778380028 0 0.36673408579640387 -0.37141755305882729 0 0.36722824552746292 -0.3545129818405488 0 0.36673408579640387 -0.37141755305882729 0 0.36722824552746292 -0.3545129818405488 0 0.35276610722706342 -0.35672749591839642 0 0.36673408579640387 -0.37141755305882729 0 0.35276610722706342 -0.35672749591839642 0 0.37626942297652338 -0.34475019158411091 0 0.37892694536517668 -0.35732182778380028 0 0.36722824552746292 -0.3545129818405488 0 0.37626942297652338 -0.34475019158411091 0 0.36469661641304157 -0.34223344466870481 0 0.36722824552746292 -0.3545129818405488 0 0.36469661641304157 -0.34223344466870481 0 0.36722824552746292 -0.3545129818405488 0 0.35276610722706342 -0.35672749591839642 0 0.35276610722706342 -0.35672749591839642 0 0.34489507239696232 -0.36041186135021219 0 0.33540094116846147 -0.33846463272832128 0 0.35276610722706342 -0.35672749591839642 0 0.33540094116846147 -0.33846463272832128 0 0.33856736420206429 -0.37647608052299641 0 0.36673408579640387 -0.37141755305882729 0 0.34428521284313263 -0.36860346444302622 0 0.33856736420206429 -0.37647608052299641 0 0.36673408579640387 -0.37141755305882729 0 0.36673408579640387 -0.37141755305882729 0 0.35218527230260988 -0.36514268826181062 0 0.34428521284313263 -0.36860346444302622 0 0.36673408579640387 -0.37141755305882729 0 0.35276610722706342 -0.35672749591839642 0 0.35218527230260988 -0.36514268826181062 0 0.35276610722706342 -0.35672749591839642 0 0.35218527230260988 -0.36514268826181062 0 0.35276610722706342 -0.35672749591839642 0 0.35218527230260988 -0.36514268826181062 0 0.34489507239696232 -0.36041186135021219 0 0.35218527230260988 -0.36514268826181062 0 0.34489507239696232 -0.36041186135021219 0 0.34428521284313263 -0.36860346444302622 0 0.33856736420206429 -0.37647608052299641 0 0.32888733277091842 -0.36618056145565092 0 0.31878951036080028 -0.37056314492068798 0 0.33856736420206429 -0.37647608052299641 0 0.34428521284313263 -0.36860346444302622 0 0.32888733277091842 -0.36618056145565092 0 0.34489507239696232 -0.36041186135021219 0 0.34428521284313263 -0.36860346444302622 0 0.33546278052536649 -0.35796112438268107 0 0.34428521284313263 -0.36860346444302622 0 0.32888733277091842 -0.36618056145565092 0 0.33546278052536649 -0.35796112438268107 0 0.33546278052536649 -0.35796112438268107 0 0.32502032281910098 -0.3520050769873071 0 0.33540094116846147 -0.33846463272832128 0 0.34489507239696232 -0.36041186135021219 0 0.33546278052536649 -0.35796112438268107 0 0.33540094116846147 -0.33846463272832128 0 0.32888733277091842 -0.36618056145565092 0 0.33546278052536649 -0.35796112438268107 0 0.32502032281910098 -0.3520050769873071 0 0.32502032281910098 -0.3520050769873071 0 0.31493905655269921 -0.35961518667404452 0 0.31850735537434333 -0.34000102750905931 0 0.32888733277091842 -0.36618056145565092 0 0.32502032281910098 -0.3520050769873071 0 0.31493905655269921 -0.35961518667404452 0 0.32888733277091842 -0.36618056145565092 0 0.31493905655269921 -0.35961518667404452 0 0.31878951036080028 -0.37056314492068798 0 0.3393100609006075 -0.31709347661112719 0 0.33540094116846147 -0.33846463272832128 0 0.31803577510986208 -0.32020176953824381 0 0.35470160729791239 -0.32868578442501523 0 0.3393100609006075 -0.31709347661112719 0 0.33540094116846147 -0.33846463272832128 0 0.33540094116846147 -0.33846463272832128 0 0.31803577510986208 -0.32020176953824381 0 0.33540094116846147 -0.33846463272832128 0 0.31850735537434333 -0.34000102750905931 0 0.31803577510986208 -0.32020176953824381 0 0.32502032281910098 -0.3520050769873071 0 0.33540094116846147 -0.33846463272832128 0 0.31850735537434333 -0.34000102750905931 0 0.31803577510986208 -0.32020176953824381 0 0.29720434972762239 -0.3284630752085394 0 0.30067060905126258 -0.30193890634816628 0 0.31850735537434333 -0.34000102750905931 0 0.31803577510986208 -0.32020176953824381 0 0.29720434972762239 -0.3284630752085394 0 0.31850735537434333 -0.34000102750905931 0 0.29720434972762239 -0.3284630752085394 0 0.29939588686018392 -0.35353958652258988 0 0.29720434972762239 -0.3284630752085394 0 0.28264994471999472 -0.33443103179109168 0 0.29939588686018392 -0.35353958652258988 0 0.29720434972762239 -0.3284630752085394 0 0.28418187981411519 -0.30730326752812531 0 0.30067060905126258 -0.30193890634816628 0 0.29720434972762239 -0.3284630752085394 0 0.28264994471999472 -0.33443103179109168 0 0.27538823740033502 -0.32101757188968522 0 0.29720434972762239 -0.3284630752085394 0 0.27538823740033502 -0.32101757188968522 0 0.28418187981411519 -0.30730326752812531 0 0.31040064260772471 -0.38153460798716449 0 0.31878951036080028 -0.37056314492068798 0 0.30115315567059497 -0.36900928796358362 0 0.31493905655269921 -0.35961518667404452 0 0.31878951036080028 -0.37056314492068798 0 0.30115315567059497 -0.36900928796358362 0 0.31493905655269921 -0.35961518667404452 0 0.30115315567059497 -0.36900928796358362 0 0.29939588686018392 -0.35353958652258988 0 0.31493905655269921 -0.35961518667404452 0 0.31850735537434333 -0.34000102750905931 0 0.29939588686018392 -0.35353958652258988 0 0.31850735537434333 -0.34000102750905931 0 0.29939588686018392 -0.35353958652258988 0 0.29939588686018392 -0.35353958652258988 0 0.28028441834602452 -0.3670781455361205 0 0.28109211097044062 -0.34968300985497519 0 0.28264994471999472 -0.33443103179109168 0 0.29939588686018392 -0.35353958652258988 0 0.28109211097044062 -0.34968300985497519 0 0.30115315567059497 -0.36900928796358362 0 0.29939588686018392 -0.35353958652258988 0 0.28028441834602452 -0.3670781455361205 0 0.29939588686018392 -0.35353958652258988 0 0.28028441834602452 -0.3670781455361205 0 0.28727210962547878 -0.3760602607361076 0 0.30115315567059497 -0.36900928796358362 0 0.28028441834602452 -0.3670781455361205 0 0.26117294983186512 -0.38061670454965119 0 0.28028441834602452 -0.3670781455361205 0 0.26117294983186512 -0.38061670454965119 0 0.28028441834602452 -0.3670781455361205 0 0.27113253040115293 -0.36514985720231319 0 0.28028441834602452 -0.3670781455361205 0 0.27113253040115293 -0.36514985720231319 0 0.28109211097044062 -0.34968300985497519 0 0.26117294983186512 -0.38061670454965119 0 0.27113253040115293 -0.36514985720231319 0 0.28727210962547878 -0.3760602607361076 0 0.2721050617615654 -0.38162682933401432 0 0.28028441834602452 -0.3670781455361205 0 0.27113253040115293 -0.36514985720231319 0 0.28109211097044062 -0.34968300985497519 0 0.26256163427262869 -0.35317330646138251 0 0.28109211097044062 -0.34968300985497519 0 0.26256163427262869 -0.35317330646138251 0 0.26777214857491721 -0.33741746764993569 0 0.27113253040115293 -0.36514985720231319 0 0.28109211097044062 -0.34968300985497519 0 0.26256163427262869 -0.35317330646138251 0 0.249458090832507 -0.33990190657442088 0 0.24795699434168089 -0.35970105813092401 0 0.27113253040115293 -0.36514985720231319 0 0.26256163427262869 -0.35317330646138251 0 0.25809438463603379 -0.36707104520227002 0 0.26256163427262869 -0.35317330646138251 0 0.25809438463603379 -0.36707104520227002 0 0.24795699434168089 -0.35970105813092401 0 0.26117294983186512 -0.38061670454965119 0 0.25809438463603379 -0.36707104520227002 0 0.2486235252893392 -0.37526373790379403 0 0.25809438463603379 -0.36707104520227002 0 0.24795699434168089 -0.35970105813092401 0 0.2486235252893392 -0.37526373790379403 0 0.26117294983186512 -0.38061670454965119 0 0.27113253040115293 -0.36514985720231319 0 0.25809438463603379 -0.36707104520227002 0 0.27538823740033502 -0.32101757188968522 0 0.25973050593711738 -0.3232524497740597 0 0.26434075989869299 -0.30142074103614669 0 0.27538823740033502 -0.32101757188968522 0 0.26777214857491721 -0.33741746764993569 0 0.25973050593711738 -0.3232524497740597 0 0.28264994471999472 -0.33443103179109168 0 0.27538823740033502 -0.32101757188968522 0 0.26777214857491721 -0.33741746764993569 0 0.28264994471999472 -0.33443103179109168 0 0.28109211097044062 -0.34968300985497519 0 0.26777214857491721 -0.33741746764993569 0 0.26256163427262869 -0.35317330646138251 0 0.26777214857491721 -0.33741746764993569 0 0.249458090832507 -0.33990190657442088 0 0.26777214857491721 -0.33741746764993569 0 0.25973050593711738 -0.3232524497740597 0 0.249458090832507 -0.33990190657442088 0 0.25973050593711738 -0.3232524497740597 0 0.24553558198473091 -0.31435176084963351 0 0.249458090832507 -0.33990190657442088 0 0.25973050593711738 -0.3232524497740597 0 0.26434075989869299 -0.30142074103614669 0 0.24553558198473091 -0.31435176084963351 0 0.26434075989869299 -0.30142074103614669 0 0.2420200458813114 -0.29048884940289638 0 0.24553558198473091 -0.31435176084963351 0 0.26434075989869299 -0.30142074103614669 0 0.26407940002539831 -0.27401266098844229 0 0.2420200458813114 -0.29048884940289638 0 0.26407940002539831 -0.27401266098844229 0 0.2420200458813114 -0.29048884940289638 0 0.26434075989869299 -0.30142074103614669 0 0.28330544299266308 -0.2836760431580887 0 0.26407940002539831 -0.27401266098844229 0 0.26434075989869299 -0.30142074103614669 0 0.28418187981411519 -0.30730326752812531 0 0.28330544299266308 -0.2836760431580887 0 0.27538823740033502 -0.32101757188968522 0 0.26434075989869299 -0.30142074103614669 0 0.28418187981411519 -0.30730326752812531 0 0.28418187981411519 -0.30730326752812531 0 0.28330544299266308 -0.2836760431580887 0 0.30067060905126258 -0.30193890634816628 0 0.28330544299266308 -0.2836760431580887 0 0.30067060905126258 -0.30193890634816628 0 0.28330544299266308 -0.2836760431580887 0 0.30067060905126258 -0.30193890634816628 0 0.30286492262761999 -0.27611417897097001 0 0.31505238968431593 -0.29282064908167421 0 0.30067060905126258 -0.30193890634816628 0 0.30286492262761999 -0.27611417897097001 0 0.31803577510986208 -0.32020176953824381 0 0.30067060905126258 -0.30193890634816628 0 0.31505238968431593 -0.29282064908167421 0 0.31803577510986208 -0.32020176953824381 0 0.30067060905126258 -0.30193890634816628 0 0.30819810831357242 -0.24106028415953401 0 0.31102920082380109 -0.26014652324891169 0 0.28613875416948542 -0.25753647257398821 0 0.31102920082380109 -0.26014652324891169 0 0.30286492262761999 -0.27611417897097001 0 0.28613875416948542 -0.25753647257398821 0 0.32278040344860159 -0.27376804078495698 0 0.31102920082380109 -0.26014652324891169 0 0.30286492262761999 -0.27611417897097001 0 0.28330544299266308 -0.2836760431580887 0 0.30286492262761999 -0.27611417897097001 0 0.28613875416948542 -0.25753647257398821 0 0.27517653528561892 -0.24063479640347971 0 0.28613875416948542 -0.25753647257398821 0 0.26021268495159 -0.25369246622202929 0 0.28613875416948542 -0.25753647257398821 0 0.26407940002539831 -0.27401266098844229 0 0.26021268495159 -0.25369246622202929 0 0.28613875416948542 -0.25753647257398821 0 0.26407940002539831 -0.27401266098844229 0 0.28330544299266308 -0.2836760431580887 0 0.28613875416948542 -0.25753647257398821 0 0.26407940002539831 -0.27401266098844229 0 0.26407940002539831 -0.27401266098844229 0 0.26021268495159 -0.25369246622202929 0 0.2414694795391398 -0.26942316962641888 0 0.26021268495159 -0.25369246622202929 0 0.2414694795391398 -0.26942316962641888 0 0.2359657753849061 -0.24686569655727211 0 0.26407940002539831 -0.27401266098844229 0 0.2414694795391398 -0.26942316962641888 0 0.2420200458813114 -0.29048884940289638 0 0.2414694795391398 -0.26942316962641888 0 0.22164992267999631 -0.26461046573988328 0 0.22404122764718029 -0.28942299769522611 0 0.2414694795391398 -0.26942316962641888 0 0.22164992267999631 -0.26461046573988328 0 0.2359657753849061 -0.24686569655727211 0 0.22164992267999631 -0.26461046573988328 0 0.2359657753849061 -0.24686569655727211 0 0.21515344991645319 -0.24530421796328999 0 0.22164992267999631 -0.26461046573988328 0 0.20270426843027989 -0.25754390902865992 0 0.21515344991645319 -0.24530421796328999 0 0.22164992267999631 -0.26461046573988328 0 0.2100441422612177 -0.27808917461310823 0 0.22404122764718029 -0.28942299769522611 0 0.22164992267999631 -0.26461046573988328 0 0.2100441422612177 -0.27808917461310823 0 0.20270426843027989 -0.25754390902865992 0 0.2100441422612177 -0.27808917461310823 0 0.1950826415222521 -0.2778323907864374 0 0.20270426843027989 -0.25754390902865992 0 0.1950826415222521 -0.2778323907864374 0 0.20270426843027989 -0.25754390902865992 0 0.18439312041272921 -0.26696631368910501 0 0.20270426843027989 -0.25754390902865992 0 0.18439312041272921 -0.26696631368910501 0 0.18477260126701189 -0.24804654939694321 0 0.19550492905848191 -0.30751445319551352 0 0.1907659590886942 -0.28993009147832982 0 0.20367172731253569 -0.29391081472215608 0 0.19550492905848191 -0.30751445319551352 0 0.20367172731253569 -0.29391081472215608 0 0.2047037781199226 -0.30543864209841831 0 0.19550492905848191 -0.30751445319551352 0 0.20453799577623269 -0.31051036400218562 0 0.2047037781199226 -0.30543864209841831 0 0.2100441422612177 -0.27808917461310823 0 0.1950826415222521 -0.2778323907864374 0 0.20367172731253569 -0.29391081472215608 0 0.1950826415222521 -0.2778323907864374 0 0.1907659590886942 -0.28993009147832982 0 0.20367172731253569 -0.29391081472215608 0 0.19550492905848191 -0.30751445319551352 0 0.1907659590886942 -0.28993009147832982 0 0.1812980008206507 -0.29197357766481669 0 0.1950826415222521 -0.2778323907864374 0 0.1907659590886942 -0.28993009147832982 0 0.1820912460657336 -0.28077092951692129 0 0.2100441422612177 -0.27808917461310823 0 0.21361146366384481 -0.30781568405875931 0 0.22404122764718029 -0.28942299769522611 0 0.2100441422612177 -0.27808917461310823 0 0.20367172731253569 -0.29391081472215608 0 0.21361146366384481 -0.30781568405875931 0 0.2100441422612177 -0.27808917461310823 0 0.21361146366384481 -0.30781568405875931 0 0.20367172731253569 -0.29391081472215608 0 0.2047037781199226 -0.30543864209841831 0 0.21361146366384481 -0.30781568405875931 0 0.20453799577623269 -0.31051036400218562 0 0.2047037781199226 -0.30543864209841831 0 0.21361146366384481 -0.30781568405875931 0 0.21996069173722441 -0.30696503781735052 0 0.23375637270354149 -0.30871814311605178 0 0.2420200458813114 -0.29048884940289638 0 0.21996069173722441 -0.30696503781735052 0 0.2420200458813114 -0.29048884940289638 0 0.21361146366384481 -0.30781568405875931 0 0.21996069173722441 -0.30696503781735052 0 0.22404122764718029 -0.28942299769522611 0 0.21996069173722441 -0.30696503781735052 0 0.22404122764718029 -0.28942299769522611 0 0.2420200458813114 -0.29048884940289638 0 0.2414694795391398 -0.26942316962641888 0 0.22404122764718029 -0.28942299769522611 0 0.2420200458813114 -0.29048884940289638 0 0.23375637270354149 -0.30871814311605178 0 0.2420200458813114 -0.29048884940289638 0 0.24553558198473091 -0.31435176084963351 0 0.24553558198473091 -0.31435176084963351 0 0.249458090832507 -0.33990190657442088 0 0.22750917121089939 -0.32306692439432699 0 0.23375637270354149 -0.30871814311605178 0 0.24553558198473091 -0.31435176084963351 0 0.22750917121089939 -0.32306692439432699 0 0.249458090832507 -0.33990190657442088 0 0.22750917121089939 -0.32306692439432699 0 0.23299839342262979 -0.34981253713130139 0 0.22750917121089939 -0.32306692439432699 0 0.23299839342262979 -0.34981253713130139 0 0.21717878506647181 -0.33754219350441039 0 0.21361146366384481 -0.30781568405875931 0 0.22750917121089939 -0.32306692439432699 0 0.21717878506647181 -0.33754219350441039 0 0.21996069173722441 -0.30696503781735052 0 0.23375637270354149 -0.30871814311605178 0 0.22750917121089939 -0.32306692439432699 0 0.21361146366384481 -0.30781568405875931 0 0.21996069173722441 -0.30696503781735052 0 0.22750917121089939 -0.32306692439432699 0 0.23677314110955061 -0.36717394062999742 0 0.2486235252893392 -0.37526373790379403 0 0.23572025440614661 -0.38195842678338932 0 0.24795699434168089 -0.35970105813092401 0 0.23677314110955061 -0.36717394062999742 0 0.2486235252893392 -0.37526373790379403 0 0.249458090832507 -0.33990190657442088 0 0.24795699434168089 -0.35970105813092401 0 0.23299839342262979 -0.34981253713130139 0 0.24795699434168089 -0.35970105813092401 0 0.23677314110955061 -0.36717394062999742 0 0.23299839342262979 -0.34981253713130139 0 0.23299839342262979 -0.34981253713130139 0 0.2207461064690989 -0.36726870295006131 0 0.21717878506647181 -0.33754219350441039 0 0.2207461064690989 -0.36726870295006131 0 0.21717878506647181 -0.33754219350441039 0 0.23677314110955061 -0.36717394062999742 0 0.23299839342262979 -0.34981253713130139 0 0.2207461064690989 -0.36726870295006131 0 0.23677314110955061 -0.36717394062999742 0 0.2207461064690989 -0.36726870295006131 0 0.23572025440614661 -0.38195842678338932 0 0.2207461064690989 -0.36726870295006131 0 0.20465575920516699 -0.37123648301107698 0 0.20279597144072711 -0.35319974219218597 0 0.2207461064690989 -0.36726870295006131 0 0.20465575920516699 -0.37123648301107698 0 0.21453199434940931 -0.3804329772062689 0 0.2207461064690989 -0.36726870295006131 0 0.20279597144072711 -0.35319974219218597 0 0.21717878506647181 -0.33754219350441039 0 0.19063773553339089 -0.34861268274156831 0 0.20279597144072711 -0.35319974219218597 0 0.1940857276368845 -0.33592187077047753 0 0.19063773553339089 -0.34861268274156831 0 0.20279597144072711 -0.35319974219218597 0 0.19182700423648741 -0.3598006152260203 0 0.19063773553339089 -0.34861268274156831 0 0.19182700423648741 -0.3598006152260203 0 0.18471346175462791 -0.35152806597550601 0 0.20465575920516699 -0.37123648301107698 0 0.20279597144072711 -0.35319974219218597 0 0.19182700423648741 -0.3598006152260203 0 0.19182700423648741 -0.3598006152260203 0 0.19252850447063119 -0.371336442161119 0 0.18687477358041901 -0.36544735032267528 0 0.19252850447063119 -0.371336442161119 0 0.18427593038848861 -0.37377788177057691 0 0.18687477358041901 -0.36544735032267528 0 0.20465575920516699 -0.37123648301107698 0 0.19182700423648741 -0.3598006152260203 0 0.19252850447063119 -0.371336442161119 0 0.21361146366384481 -0.30781568405875931 0 0.2043318122626816 -0.32127267665605141 0 0.21717878506647181 -0.33754219350441039 0 0.21361146366384481 -0.30781568405875931 0 0.21717878506647181 -0.33754219350441039 0 0.20453799577623269 -0.31051036400218562 0 0.21361146366384481 -0.30781568405875931 0 0.2043318122626816 -0.32127267665605141 0 0.2043318122626816 -0.32127267665605141 0 0.21717878506647181 -0.33754219350441039 0 0.1940857276368845 -0.33592187077047753 0 0.20279597144072711 -0.35319974219218597 0 0.21717878506647181 -0.33754219350441039 0 0.1940857276368845 -0.33592187077047753 0 0.19063773553339089 -0.34861268274156831 0 0.1940857276368845 -0.33592187077047753 0 0.1834568154628631 -0.3432999279273044 0 0.1940857276368845 -0.33592187077047753 0 0.18806819746461309 -0.32201558986647388 0 0.18069304119550181 -0.33425359709724101 0 0.2043318122626816 -0.32127267665605141 0 0.1940857276368845 -0.33592187077047753 0 0.18806819746461309 -0.32201558986647388 0 0.19550492905848191 -0.30751445319551352 0 0.2043318122626816 -0.32127267665605141 0 0.18806819746461309 -0.32201558986647388 0 0.19550492905848191 -0.30751445319551352 0 0.20453799577623269 -0.31051036400218562 0 0.2043318122626816 -0.32127267665605141 0 0.19550492905848191 -0.30751445319551352 0 0.18806819746461309 -0.32201558986647388 0 0.18112552876611571 -0.31099981206061322 0 0.18806819746461309 -0.32201558986647388 0 0.1726681458680128 -0.32213112941894728 0 0.18112552876611571 -0.31099981206061322 0 0.18806819746461309 -0.32201558986647388 0 0.1726681458680128 -0.32213112941894728 0 0.18069304119550181 -0.33425359709724101 0 0.1726681458680128 -0.32213112941894728 0 0.174321349778019 -0.34770207740996922 0 0.1726681458680128 -0.32213112941894728 0 0.18069304119550181 -0.33425359709724101 0 0.174321349778019 -0.34770207740996922 0 0.1940857276368845 -0.33592187077047753 0 0.18069304119550181 -0.33425359709724101 0 0.1834568154628631 -0.3432999279273044 0 0.18069304119550181 -0.33425359709724101 0 0.1834568154628631 -0.3432999279273044 0 0.174321349778019 -0.34770207740996922 0 0.16002434963430351 -0.34004137917559629 0 0.16513065574247021 -0.35216970711433759 0 0.14598600144066851 -0.33282291240334472 0 0.1726681458680128 -0.32213112941894728 0 0.16105002297814869 -0.32692197770862091 0 0.174321349778019 -0.34770207740996922 0 0.16002434963430351 -0.34004137917559629 0 0.16105002297814869 -0.32692197770862091 0 0.16851228833308701 -0.3500975015548059 0 0.16105002297814869 -0.32692197770862091 0 0.174321349778019 -0.34770207740996922 0 0.16851228833308701 -0.3500975015548059 0 0.16105002297814869 -0.32692197770862091 0 0.16851228833308701 -0.3500975015548059 0 0.16002434963430351 -0.34004137917559629 0 0.16105002297814869 -0.32692197770862091 0 0.15509467008815689 -0.33094691097691592 0 0.16105002297814869 -0.32692197770862091 0 0.15331830629950699 -0.32400137462010159 0 0.15509467008815689 -0.33094691097691592 0 0.16105002297814869 -0.32692197770862091 0 0.15896173179909351 -0.31354733135871588 0 0.15331830629950699 -0.32400137462010159 0 0.1726681458680128 -0.32213112941894728 0 0.16105002297814869 -0.32692197770862091 0 0.15896173179909351 -0.31354733135871588 0 0.1759745536880252 -0.373273025400991 0 0.16851228833308701 -0.3500975015548059 0 0.1759745536880252 -0.373273025400991 0 0.174321349778019 -0.34770207740996922 0 0.1759745536880252 -0.373273025400991 0 0.1808146739418304 -0.3655156873045618 0 0.174321349778019 -0.34770207740996922 0 0.1759745536880252 -0.373273025400991 0 0.17975762697986519 -0.37439619487988018 0 0.1808146739418304 -0.3655156873045618 0 0.18427593038848861 -0.37377788177057691 0 0.17975762697986519 -0.37439619487988018 0 0.1808146739418304 -0.3655156873045618 0 0.18427593038848861 -0.37377788177057691 0 0.1808146739418304 -0.3655156873045618 0 0.18687477358041901 -0.36544735032267528 0 0.19182700423648741 -0.3598006152260203 0 0.18687477358041901 -0.36544735032267528 0 0.1833244037623793 -0.35822502657266803 0 0.1808146739418304 -0.3655156873045618 0 0.18687477358041901 -0.36544735032267528 0 0.1833244037623793 -0.35822502657266803 0 0.1759745536880252 -0.373273025400991 0 0.174321349778019 -0.34770207740996922 0 0.16851228833308701 -0.3500975015548059 0 0.1808146739418304 -0.3655156873045618 0 0.1833244037623793 -0.35822502657266803 0 0.174321349778019 -0.34770207740996922 0 0.1833244037623793 -0.35822502657266803 0 0.18471346175462791 -0.35152806597550601 0 0.174321349778019 -0.34770207740996922 0 0.19182700423648741 -0.3598006152260203 0 0.1833244037623793 -0.35822502657266803 0 0.18471346175462791 -0.35152806597550601 0 0.19063773553339089 -0.34861268274156831 0 0.1834568154628631 -0.3432999279273044 0 0.18471346175462791 -0.35152806597550601 0 0.1834568154628631 -0.3432999279273044 0 0.18471346175462791 -0.35152806597550601 0 0.174321349778019 -0.34770207740996922 0 0.1599455624564225 -0.35976042380053891 0 0.15676844330674319 -0.36838655190670172 0 0.15311879317902519 -0.34953088621492739 0 0.16002434963430351 -0.34004137917559629 0 0.16851228833308701 -0.3500975015548059 0 0.16513065574247021 -0.35216970711433759 0 0.1585930897326451 -0.35327028783923092 0 0.16513065574247021 -0.35216970711433759 0 0.15311879317902519 -0.34953088621492739 0 0.1585930897326451 -0.35327028783923092 0 0.1599455624564225 -0.35976042380053891 0 0.15311879317902519 -0.34953088621492739 0 0.1585930897326451 -0.35327028783923092 0 0.16216627238101161 -0.35569886131464201 0 0.16513065574247021 -0.35216970711433759 0 0.1585930897326451 -0.35327028783923092 0 0.16216627238101161 -0.35569886131464201 0 0.1599455624564225 -0.35976042380053891 0 0.16216627238101161 -0.35569886131464201 0 0.16499578159250869 -0.35759502650446051 0 0.1599455624564225 -0.35976042380053891 0 0.16851228833308701 -0.3500975015548059 0 0.16499578159250869 -0.35759502650446051 0 0.16811590539830609 -0.3639734593341184 0 0.16851228833308701 -0.3500975015548059 0 0.16499578159250869 -0.35759502650446051 0 0.16513065574247021 -0.35216970711433759 0 0.16216627238101161 -0.35569886131464201 0 0.16499578159250869 -0.35759502650446051 0 0.16513065574247021 -0.35216970711433759 0 0.1759745536880252 -0.373273025400991 0 0.16811590539830609 -0.3639734593341184 0 0.15676844330674319 -0.36838655190670172 0 0.15676844330674319 -0.36838655190670172 0 0.17627218205678569 -0.37787659516765237 0 0.1759745536880252 -0.373273025400991 0 0.15676844330674319 -0.36838655190670172 0 0.17627218205678569 -0.37787659516765237 0 0.1759745536880252 -0.373273025400991 0 0.16851228833308701 -0.3500975015548059 0 0.16811590539830609 -0.3639734593341184 0 0.15676844330674319 -0.36838655190670172 0 0.17627218205678569 -0.37787659516765237 0 0.16385276723791439 -0.37779546502542088 0 0.16499578159250869 -0.35759502650446051 0 0.16811590539830609 -0.3639734593341184 0 0.1624564231884951 -0.36242886538645491 0 0.16499578159250869 -0.35759502650446051 0 0.1624564231884951 -0.36242886538645491 0 0.1599455624564225 -0.35976042380053891 0 0.1624564231884951 -0.36242886538645491 0 0.1599455624564225 -0.35976042380053891 0 0.15676844330674319 -0.36838655190670172 0 0.16811590539830609 -0.3639734593341184 0 0.1624564231884951 -0.36242886538645491 0 0.15676844330674319 -0.36838655190670172 0 0.15676844330674319 -0.36838655190670172 0 0.16385276723791439 -0.37779546502542088 0 0.15676844330674319 -0.36838655190670172 0 0.134942643881725 -0.35776665059430368 0 0.13884580460497589 -0.37748287045214529 0 0.15676844330674319 -0.36838655190670172 0 0.134942643881725 -0.35776665059430368 0 0.15676844330674319 -0.36838655190670172 0 0.14099906250465871 -0.34744274197588038 0 0.134942643881725 -0.35776665059430368 0 0.16513065574247021 -0.35216970711433759 0 0.15311879317902519 -0.34953088621492739 0 0.14598600144066851 -0.33282291240334472 0 0.15676844330674319 -0.36838655190670172 0 0.15311879317902519 -0.34953088621492739 0 0.14099906250465871 -0.34744274197588038 0 0.15676844330674319 -0.36838655190670172 0 0.14099906250465871 -0.34744274197588038 0 0.14099906250465871 -0.34744274197588038 0 0.134942643881725 -0.35776665059430368 0 0.1261821465740697 -0.34229294288840512 0 0.134942643881725 -0.35776665059430368 0 0.12725451995619561 -0.36966521274644643 0 0.13884580460497589 -0.37748287045214529 0 0.134942643881725 -0.35776665059430368 0 0.12725451995619561 -0.36966521274644643 0 0.11997443032266659 -0.36128539168157792 0 0.14583902740822061 -0.31368504357979721 0 0.15331830629950699 -0.32400137462010159 0 0.14598600144066851 -0.33282291240334472 0 0.15896173179909351 -0.31354733135871588 0 0.14583902740822061 -0.31368504357979721 0 0.15331830629950699 -0.32400137462010159 0 0.16513065574247021 -0.35216970711433759 0 0.14598600144066851 -0.33282291240334472 0 0.15311879317902519 -0.34953088621492739 0 0.14099906250465871 -0.34744274197588038 0 0.14598600144066851 -0.33282291240334472 0 0.16002434963430351 -0.34004137917559629 0 0.15509467008815689 -0.33094691097691592 0 0.14598600144066851 -0.33282291240334472 0 0.15331830629950699 -0.32400137462010159 0 0.15509467008815689 -0.33094691097691592 0 0.14598600144066851 -0.33282291240334472 0 0.14099906250465871 -0.34744274197588038 0 0.12522968170257401 -0.32649893204505931 0 0.14099906250465871 -0.34744274197588038 0 0.1261821465740697 -0.34229294288840512 0 0.12522968170257401 -0.32649893204505931 0 0.14099906250465871 -0.34744274197588038 0 0.14598600144066851 -0.33282291240334472 0 0.12522968170257401 -0.32649893204505931 0 0.14598600144066851 -0.33282291240334472 0 0.12684134713886669 -0.31347611769235179 0 0.12522968170257401 -0.32649893204505931 0 0.14598600144066851 -0.33282291240334472 0 0.12684134713886669 -0.31347611769235179 0 0.14583902740822061 -0.31368504357979721 0 0.14598600144066851 -0.33282291240334472 0 0.12684134713886669 -0.31347611769235179 0 0.14583902740822061 -0.31368504357979721 0 0.12684134713886669 -0.31347611769235179 0 0.1397796845354127 -0.30099952800939828 0 0.12684134713886669 -0.31347611769235179 0 0.1397796845354127 -0.30099952800939828 0 0.12773706826987269 -0.29344404498182097 0 0.14583902740822061 -0.31368504357979721 0 0.1397796845354127 -0.30099952800939828 0 0.1523420319251656 -0.30204290435419717 0 0.15896173179909351 -0.31354733135871588 0 0.14583902740822061 -0.31368504357979721 0 0.1523420319251656 -0.30204290435419717 0 0.1397796845354127 -0.30099952800939828 0 0.1523420319251656 -0.30204290435419717 0 0.14611477392509481 -0.28542243739514939 0 0.14611477392509481 -0.28542243739514939 0 0.12773706826987269 -0.29344404498182097 0 0.1212146058921835 -0.27428469336237271 0 0.1397796845354127 -0.30099952800939828 0 0.14611477392509481 -0.28542243739514939 0 0.12773706826987269 -0.29344404498182097 0 0.14611477392509481 -0.28542243739514939 0 0.1442300507489096 -0.25955745300895983 0 0.1212146058921835 -0.27428469336237271 0 0.14611477392509481 -0.28542243739514939 0 0.1212146058921835 -0.27428469336237271 0 0.1284018024931908 -0.25439569680934893 0 0.1442300507489096 -0.25955745300895983 0 0.1212146058921835 -0.27428469336237271 0 0.1442300507489096 -0.25955745300895983 0 0.1579158558967115 -0.26653609250655769 0 0.1567649187369701 -0.2477814471462626 0 0.14611477392509481 -0.28542243739514939 0 0.1442300507489096 -0.25955745300895983 0 0.1579158558967115 -0.26653609250655769 0 0.14611477392509481 -0.28542243739514939 0 0.1579158558967115 -0.26653609250655769 0 0.16074813535372021 -0.2813882458136624 0 0.1579158558967115 -0.26653609250655769 0 0.17072021218006009 -0.27261408244778917 0 0.16074813535372021 -0.2813882458136624 0 0.17072021218006009 -0.27261408244778917 0 0.16074813535372021 -0.2813882458136624 0 0.17028754237001531 -0.28530912103504952 0 0.1579158558967115 -0.26653609250655769 0 0.17072021218006009 -0.27261408244778917 0 0.17090619971108759 -0.25322506140830192 0 0.1579158558967115 -0.26653609250655769 0 0.17090619971108759 -0.25322506140830192 0 0.1567649187369701 -0.2477814471462626 0 0.17090619971108759 -0.25322506140830192 0 0.18439312041272921 -0.26696631368910501 0 0.18477260126701189 -0.24804654939694321 0 0.17072021218006009 -0.27261408244778917 0 0.17090619971108759 -0.25322506140830192 0 0.18439312041272921 -0.26696631368910501 0 0.17072021218006009 -0.27261408244778917 0 0.18439312041272921 -0.26696631368910501 0 0.1820912460657336 -0.28077092951692129 0 0.17072021218006009 -0.27261408244778917 0 0.1820912460657336 -0.28077092951692129 0 0.17028754237001531 -0.28530912103504952 0 0.1950826415222521 -0.2778323907864374 0 0.18439312041272921 -0.26696631368910501 0 0.1820912460657336 -0.28077092951692129 0 0.1907659590886942 -0.28993009147832982 0 0.1820912460657336 -0.28077092951692129 0 0.1812980008206507 -0.29197357766481669 0 0.1820912460657336 -0.28077092951692129 0 0.1812980008206507 -0.29197357766481669 0 0.17028754237001531 -0.28530912103504952 0 0.1812980008206507 -0.29197357766481669 0 0.17028754237001531 -0.28530912103504952 0 0.1710149419580064 -0.29656018142792562 0 0.19550492905848191 -0.30751445319551352 0 0.1710149419580064 -0.29656018142792562 0 0.19550492905848191 -0.30751445319551352 0 0.18112552876611571 -0.31099981206061322 0 0.1710149419580064 -0.29656018142792562 0 0.19550492905848191 -0.30751445319551352 0 0.1812980008206507 -0.29197357766481669 0 0.1710149419580064 -0.29656018142792562 0 0.1726681458680128 -0.32213112941894728 0 0.18112552876611571 -0.31099981206061322 0 0.1710149419580064 -0.29656018142792562 0 0.1726681458680128 -0.32213112941894728 0 0.15896173179909351 -0.31354733135871588 0 0.1710149419580064 -0.29656018142792562 0 0.1726681458680128 -0.32213112941894728 0 0.1710149419580064 -0.29656018142792562 0 0.15896173179909351 -0.31354733135871588 0 0.1523420319251656 -0.30204290435419717 0 0.1710149419580064 -0.29656018142792562 0 0.1523420319251656 -0.30204290435419717 0 0.14611477392509481 -0.28542243739514939 0 0.1710149419580064 -0.29656018142792562 0 0.14611477392509481 -0.28542243739514939 0 0.16074813535372021 -0.2813882458136624 0 0.1710149419580064 -0.29656018142792562 0 0.14611477392509481 -0.28542243739514939 0 0.1710149419580064 -0.29656018142792562 0 0.16074813535372021 -0.2813882458136624 0 0.17028754237001531 -0.28530912103504952 0 0.1710149419580064 -0.29656018142792562 0 0.17028754237001531 -0.28530912103504952 0 0.1710149419580064 -0.29656018142792562 0 0.20476709143521021 -0.5 0 0.1865940872914689 -0.48333291755796298 0 0.20476709143521021 -0.5 0 0.1865940872914689 -0.48333291755796298 0 0.1763845582976924 -0.5 0 0.20476709143521021 -0.5 0 0.2118204540253433 -0.48530813137607559 0 0.1865940872914689 -0.48333291755796298 0 0.2036568376166252 -0.46925075840349062 0 0.2118204540253433 -0.48530813137607559 0 0.1865940872914689 -0.48333291755796298 0 0.2036568376166252 -0.46925075840349062 0 0.18580573865707181 -0.46107370259783359 0 0.1865940872914689 -0.48333291755796298 0 0.2036568376166252 -0.46925075840349062 0 0.2118204540253433 -0.48530813137607559 0 0.22121605617351781 -0.47134936791464999 0 0.20476709143521021 -0.5 0 0.2118204540253433 -0.48530813137607559 0 0.2277823814355994 -0.5 0 0.2118204540253433 -0.48530813137607559 0 0.2277823814355994 -0.5 0 0.23878849170555491 -0.48082748886226789 0 0.25079767143598858 -0.5 0 0.2277823814355994 -0.5 0 0.23878849170555491 -0.48082748886226789 0 0.25405696806359668 -0.46712639438704973 0 0.23878849170555491 -0.48082748886226789 0 0.23645246484656179 -0.46172570508662408 0 0.23878849170555491 -0.48082748886226789 0 0.22121605617351781 -0.47134936791464999 0 0.23645246484656179 -0.46172570508662408 0 0.2118204540253433 -0.48530813137607559 0 0.23878849170555491 -0.48082748886226789 0 0.22121605617351781 -0.47134936791464999 0 0.22121605617351781 -0.47134936791464999 0 0.23645246484656179 -0.46172570508662408 0 0.21643121545891711 -0.4563880163436978 0 0.23645246484656179 -0.46172570508662408 0 0.2300111944658573 -0.44447473368438217 0 0.21643121545891711 -0.4563880163436978 0 0.25388527004609263 -0.4480025900625505 0 0.25405696806359668 -0.46712639438704973 0 0.23645246484656179 -0.46172570508662408 0 0.25388527004609263 -0.4480025900625505 0 0.2300111944658573 -0.44447473368438217 0 0.24917355477919639 -0.43118944032294948 0 0.25388527004609263 -0.4480025900625505 0 0.23645246484656179 -0.46172570508662408 0 0.2300111944658573 -0.44447473368438217 0 0.21643121545891711 -0.4563880163436978 0 0.20019237267889561 -0.45440173701607561 0 0.20705836697204461 -0.43712579595696421 0 0.2300111944658573 -0.44447473368438217 0 0.21643121545891711 -0.4563880163436978 0 0.20705836697204461 -0.43712579595696421 0 0.2036568376166252 -0.46925075840349062 0 0.22121605617351781 -0.47134936791464999 0 0.21643121545891711 -0.4563880163436978 0 0.2036568376166252 -0.46925075840349062 0 0.21643121545891711 -0.4563880163436978 0 0.20019237267889561 -0.45440173701607561 0 0.2036568376166252 -0.46925075840349062 0 0.20019237267889561 -0.45440173701607561 0 0.18580573865707181 -0.46107370259783359 0 0.20019237267889561 -0.45440173701607561 0 0.1856550639965385 -0.44282070391938488 0 0.18580573865707181 -0.46107370259783359 0 0.20019237267889561 -0.45440173701607561 0 0.20705836697204461 -0.43712579595696421 0 0.1856550639965385 -0.44282070391938488 0 0.20705836697204461 -0.43712579595696421 0 0.18455499271052991 -0.42450686095695572 0 0.1856550639965385 -0.44282070391938488 0 0.20490748799253489 -0.41469486244176851 0 0.20705836697204461 -0.43712579595696421 0 0.18455499271052991 -0.42450686095695572 0 0.20490748799253489 -0.41469486244176851 0 0.18455499271052991 -0.42450686095695572 0 0.19087428120130601 -0.41954704191759451 0 0.18853976254332969 -0.41229673785389792 0 0.20490748799253489 -0.41469486244176851 0 0.19087428120130601 -0.41954704191759451 0 0.20490748799253489 -0.41469486244176851 0 0.18455499271052991 -0.42450686095695572 0 0.19087428120130601 -0.41954704191759451 0 0.18853976254332969 -0.41229673785389792 0 0.18455499271052991 -0.42450686095695572 0 0.18853976254332969 -0.41229673785389792 0 0.2065514208693828 -0.40568614807178238 0 0.18853976254332969 -0.41229673785389792 0 0.20490748799253489 -0.41469486244176851 0 0.2065514208693828 -0.40568614807178238 0 0.19087428120130601 -0.41954704191759451 0 0.18853976254332969 -0.41229673785389792 0 0.20490748799253489 -0.41469486244176851 0 0.22525998327453881 -0.40488286392657941 0 0.2065514208693828 -0.40568614807178238 0 0.20490748799253489 -0.41469486244176851 0 0.22525998327453881 -0.40488286392657941 0 0.20490748799253489 -0.41469486244176851 0 0.20705836697204461 -0.43712579595696421 0 0.22763558887019769 -0.42467879880548087 0 0.2300111944658573 -0.44447473368438217 0 0.20705836697204461 -0.43712579595696421 0 0.22763558887019769 -0.42467879880548087 0 0.2300111944658573 -0.44447473368438217 0 0.22763558887019769 -0.42467879880548087 0 0.2300111944658573 -0.44447473368438217 0 0.22763558887019769 -0.42467879880548087 0 0.2385649930928829 -0.42538279469360191 0 0.2300111944658573 -0.44447473368438217 0 0.2385649930928829 -0.42538279469360191 0 0.24917355477919639 -0.43118944032294948 0 0.25024811694683369 -0.41736451027524291 0 0.2385649930928829 -0.42538279469360191 0 0.24917355477919639 -0.43118944032294948 0 0.23941977658172711 -0.41439854984317698 0 0.24640607152511901 -0.40354910124830851 0 0.25024811694683369 -0.41736451027524291 0 0.23941977658172711 -0.41439854984317698 0 0.24640607152511901 -0.40354910124830851 0 0.25024811694683369 -0.41736451027524291 0 0.2385649930928829 -0.42538279469360191 0 0.23941977658172711 -0.41439854984317698 0 0.22763558887019769 -0.42467879880548087 0 0.2385649930928829 -0.42538279469360191 0 0.23941977658172711 -0.41439854984317698 0 0.23941977658172711 -0.41439854984317698 0 0.2329583111898923 -0.40566845750628389 0 0.24640607152511901 -0.40354910124830851 0 0.22763558887019769 -0.42467879880548087 0 0.22525998327453881 -0.40488286392657941 0 0.2329583111898923 -0.40566845750628389 0 0.20490748799253489 -0.41469486244176851 0 0.22763558887019769 -0.42467879880548087 0 0.22525998327453881 -0.40488286392657941 0 0.22763558887019769 -0.42467879880548087 0 0.23941977658172711 -0.41439854984317698 0 0.2329583111898923 -0.40566845750628389 0 0.22763558887019769 -0.42467879880548087 0 0.22525998327453881 -0.40488286392657941 0 0.22456307919543569 -0.39907555828966629 0 0.22525998327453881 -0.40488286392657941 0 0.2065514208693828 -0.40568614807178238 0 0.22456307919543569 -0.39907555828966629 0 0.2243134278717262 -0.39699521239571239 0 0.2114277957754272 -0.3993093732267477 0 0.22456307919543569 -0.39907555828966629 0 0.22525998327453881 -0.40488286392657941 0 0.22456307919543569 -0.39907555828966629 0 0.2243134278717262 -0.39699521239571239 0 0.2243134278717262 -0.39699521239571239 0 0.23590191921166151 -0.39491400810947758 0 0.22456307919543569 -0.39907555828966629 0 0.2243134278717262 -0.39699521239571239 0 0.23590191921166151 -0.39491400810947758 0 0.2243134278717262 -0.39699521239571239 0 0.23590191921166151 -0.39491400810947758 0 0.23572025440614661 -0.38195842678338932 0 0.22456307919543569 -0.39907555828966629 0 0.23590191921166151 -0.39491400810947758 0 0.22456307919543569 -0.39907555828966629 0 0.2329583111898923 -0.40566845750628389 0 0.23590191921166151 -0.39491400810947758 0 0.22456307919543569 -0.39907555828966629 0 0.22525998327453881 -0.40488286392657941 0 0.2329583111898923 -0.40566845750628389 0 0.2329583111898923 -0.40566845750628389 0 0.23590191921166151 -0.39491400810947758 0 0.24640607152511901 -0.40354910124830851 0 0.25406719941904499 -0.39165166291549969 0 0.23590191921166151 -0.39491400810947758 0 0.24640607152511901 -0.40354910124830851 0 0.2569380138976522 -0.38719339793192148 0 0.23590191921166151 -0.39491400810947758 0 0.2329583111898923 -0.40566845750628389 0 0.24640607152511901 -0.40354910124830851 0 0.2569380138976522 -0.38719339793192148 0 0.25406719941904499 -0.39165166291549969 0 0.23590191921166151 -0.39491400810947758 0 0.25406719941904499 -0.39165166291549969 0 0.23590191921166151 -0.39491400810947758 0 0.2569380138976522 -0.38719339793192148 0 0.23590191921166151 -0.39491400810947758 0 0.24905319067607451 -0.3892023385860352 0 0.2486235252893392 -0.37526373790379403 0 0.24905319067607451 -0.3892023385860352 0 0.23572025440614661 -0.38195842678338932 0 0.23590191921166151 -0.39491400810947758 0 0.24905319067607451 -0.3892023385860352 0 0.23572025440614661 -0.38195842678338932 0 0.2207461064690989 -0.36726870295006131 0 0.2243134278717262 -0.39699521239571239 0 0.21453199434940931 -0.3804329772062689 0 0.2207461064690989 -0.36726870295006131 0 0.2243134278717262 -0.39699521239571239 0 0.23572025440614661 -0.38195842678338932 0 0.2207461064690989 -0.36726870295006131 0 0.2243134278717262 -0.39699521239571239 0 0.2243134278717262 -0.39699521239571239 0 0.21453199434940931 -0.3804329772062689 0 0.21414090913747291 -0.38904932083865229 0 0.20655617652088959 -0.38424070016840822 0 0.2098635803233864 -0.39422134972119449 0 0.1937702596287271 -0.38639073265018131 0 0.20465575920516699 -0.37123648301107698 0 0.21453199434940931 -0.3804329772062689 0 0.20655617652088959 -0.38424070016840822 0 0.20655617652088959 -0.38424070016840822 0 0.21414090913747291 -0.38904932083865229 0 0.2098635803233864 -0.39422134972119449 0 0.21453199434940931 -0.3804329772062689 0 0.20655617652088959 -0.38424070016840822 0 0.21414090913747291 -0.38904932083865229 0 0.2243134278717262 -0.39699521239571239 0 0.2114277957754272 -0.3993093732267477 0 0.2243134278717262 -0.39699521239571239 0 0.2160564080325986 -0.39467374108888009 0 0.2114277957754272 -0.3993093732267477 0 0.2243134278717262 -0.39699521239571239 0 0.21414090913747291 -0.38904932083865229 0 0.2160564080325986 -0.39467374108888009 0 0.22456307919543569 -0.39907555828966629 0 0.2114277957754272 -0.3993093732267477 0 0.2065514208693828 -0.40568614807178238 0 0.22456307919543569 -0.39907555828966629 0 0.2065514208693828 -0.40568614807178238 0 0.2160564080325986 -0.39467374108888009 0 0.2114277957754272 -0.3993093732267477 0 0.2098635803233864 -0.39422134972119449 0 0.21414090913747291 -0.38904932083865229 0 0.2160564080325986 -0.39467374108888009 0 0.2098635803233864 -0.39422134972119449 0 0.2065828875049355 -0.39909072284345531 0 0.2065514208693828 -0.40568614807178238 0 0.19848875305154551 -0.3971460203540963 0 0.2114277957754272 -0.3993093732267477 0 0.2065828875049355 -0.39909072284345531 0 0.2065514208693828 -0.40568614807178238 0 0.2065828875049355 -0.39909072284345531 0 0.2098635803233864 -0.39422134972119449 0 0.19848875305154551 -0.3971460203540963 0 0.2114277957754272 -0.3993093732267477 0 0.2065828875049355 -0.39909072284345531 0 0.2098635803233864 -0.39422134972119449 0 0.18853976254332969 -0.41229673785389792 0 0.19848875305154551 -0.3971460203540963 0 0.18310835073869869 -0.395428426716533 0 0.18853976254332969 -0.41229673785389792 0 0.2065514208693828 -0.40568614807178238 0 0.19848875305154551 -0.3971460203540963 0 0.2098635803233864 -0.39422134972119449 0 0.19848875305154551 -0.3971460203540963 0 0.1937702596287271 -0.38639073265018131 0 0.19848875305154551 -0.3971460203540963 0 0.1937702596287271 -0.38639073265018131 0 0.18310835073869869 -0.395428426716533 0 0.2098635803233864 -0.39422134972119449 0 0.1937702596287271 -0.38639073265018131 0 0.19252850447063119 -0.371336442161119 0 0.18427593038848861 -0.37377788177057691 0 0.1937702596287271 -0.38639073265018131 0 0.20465575920516699 -0.37123648301107698 0 0.20655617652088959 -0.38424070016840822 0 0.1937702596287271 -0.38639073265018131 0 0.20465575920516699 -0.37123648301107698 0 0.19252850447063119 -0.371336442161119 0 0.1937702596287271 -0.38639073265018131 0 0.17678778867768899 -0.38585174572660291 0 0.17627218205678569 -0.37787659516765237 0 0.18310835073869869 -0.395428426716533 0 0.17627218205678569 -0.37787659516765237 0 0.18310835073869869 -0.395428426716533 0 0.1937702596287271 -0.38639073265018131 0 0.17627218205678569 -0.37787659516765237 0 0.1937702596287271 -0.38639073265018131 0 0.17627218205678569 -0.37787659516765237 0 0.18310835073869869 -0.395428426716533 0 0.18427593038848861 -0.37377788177057691 0 0.1937702596287271 -0.38639073265018131 0 0.17627218205678569 -0.37787659516765237 0 0.17678778867768899 -0.38585174572660291 0 0.17139024675331641 -0.39375948522412552 0 0.16928029008819051 -0.38453802724033342 0 0.17678778867768899 -0.38585174572660291 0 0.17627218205678569 -0.37787659516765237 0 0.16928029008819051 -0.38453802724033342 0 0.17678778867768899 -0.38585174572660291 0 0.17627218205678569 -0.37787659516765237 0 0.1759745536880252 -0.373273025400991 0 0.17975762697986519 -0.37439619487988018 0 0.17627218205678569 -0.37787659516765237 0 0.1759745536880252 -0.373273025400991 0 0.17627218205678569 -0.37787659516765237 0 0.18427593038848861 -0.37377788177057691 0 0.17975762697986519 -0.37439619487988018 0 0.17627218205678569 -0.37787659516765237 0 0.18853976254332969 -0.41229673785389792 0 0.18310835073869869 -0.395428426716533 0 0.18853976254332969 -0.41229673785389792 0 0.18310835073869869 -0.395428426716533 0 0.1758383815355051 -0.40587703262204827 0 0.18310835073869869 -0.395428426716533 0 0.1758383815355051 -0.40587703262204827 0 0.17139024675331641 -0.39375948522412552 0 0.17678778867768899 -0.38585174572660291 0 0.18310835073869869 -0.395428426716533 0 0.17139024675331641 -0.39375948522412552 0 0.17139024675331641 -0.39375948522412552 0 0.16344408517006209 -0.4018401204234342 0 0.1598825843097528 -0.38902155861580112 0 0.1758383815355051 -0.40587703262204827 0 0.17139024675331641 -0.39375948522412552 0 0.16344408517006209 -0.4018401204234342 0 0.17139024675331641 -0.39375948522412552 0 0.1598825843097528 -0.38902155861580112 0 0.16928029008819051 -0.38453802724033342 0 0.1598825843097528 -0.38902155861580112 0 0.16928029008819051 -0.38453802724033342 0 0.16385276723791439 -0.37779546502542088 0 0.17627218205678569 -0.37787659516765237 0 0.16928029008819051 -0.38453802724033342 0 0.16385276723791439 -0.37779546502542088 0 0.1598825843097528 -0.38902155861580112 0 0.16385276723791439 -0.37779546502542088 0 0.1513215346333695 -0.37985921723184107 0 0.15676844330674319 -0.36838655190670172 0 0.16385276723791439 -0.37779546502542088 0 0.1513215346333695 -0.37985921723184107 0 0.1513215346333695 -0.37985921723184107 0 0.13884580460497589 -0.37748287045214529 0 0.14142790299556071 -0.39741517481003658 0 0.1598825843097528 -0.38902155861580112 0 0.1513215346333695 -0.37985921723184107 0 0.14142790299556071 -0.39741517481003658 0 0.15676844330674319 -0.36838655190670172 0 0.1513215346333695 -0.37985921723184107 0 0.13884580460497589 -0.37748287045214529 0 0.13884580460497589 -0.37748287045214529 0 0.12517983724594761 -0.38184384705093849 0 0.14142790299556071 -0.39741517481003658 0 0.12725451995619561 -0.36966521274644643 0 0.13884580460497589 -0.37748287045214529 0 0.12517983724594761 -0.38184384705093849 0 0.12517983724594761 -0.38184384705093849 0 0.14142790299556071 -0.39741517481003658 0 0.1131381689462954 -0.39378605836187702 0 0.14142790299556071 -0.39741517481003658 0 0.1131381689462954 -0.39378605836187702 0 0.14142790299556071 -0.39741517481003658 0 0.12138725619122601 -0.40582348381147548 0 0.1131381689462954 -0.39378605836187702 0 0.16344408517006209 -0.4018401204234342 0 0.14142790299556071 -0.39741517481003658 0 0.15235064514107699 -0.41204029760121691 0 0.16344408517006209 -0.4018401204234342 0 0.1598825843097528 -0.38902155861580112 0 0.14142790299556071 -0.39741517481003658 0 0.15235064514107699 -0.41204029760121691 0 0.13650890774812771 -0.41554019669586117 0 0.15073496567997971 -0.42617175143320207 0 0.14142790299556071 -0.39741517481003658 0 0.15235064514107699 -0.41204029760121691 0 0.13650890774812771 -0.41554019669586117 0 0.14142790299556071 -0.39741517481003658 0 0.13650890774812771 -0.41554019669586117 0 0.12138725619122601 -0.40582348381147548 0 0.13650890774812771 -0.41554019669586117 0 0.13183256724830639 -0.43310925822285867 0 0.15073496567997971 -0.42617175143320207 0 0.13650890774812771 -0.41554019669586117 0 0.13183256724830639 -0.43310925822285867 0 0.1158979561714838 -0.41849508247082101 0 0.13183256724830639 -0.43310925822285867 0 0.15073496567997971 -0.42617175143320207 0 0.13183256724830639 -0.43310925822285867 0 0.15073496567997971 -0.42617175143320207 0 0.14385000214651991 -0.44413085798733021 0 0.15073496567997971 -0.42617175143320207 0 0.16420249742852491 -0.43431885947214299 0 0.14385000214651991 -0.44413085798733021 0 0.15073496567997971 -0.42617175143320207 0 0.16420249742852491 -0.43431885947214299 0 0.16963736411165459 -0.41923424464354958 0 0.15073496567997971 -0.42617175143320207 0 0.16963736411165459 -0.41923424464354958 0 0.16344408517006209 -0.4018401204234342 0 0.15235064514107699 -0.41204029760121691 0 0.16963736411165459 -0.41923424464354958 0 0.1758383815355051 -0.40587703262204827 0 0.16344408517006209 -0.4018401204234342 0 0.16963736411165459 -0.41923424464354958 0 0.15235064514107699 -0.41204029760121691 0 0.15073496567997971 -0.42617175143320207 0 0.16963736411165459 -0.41923424464354958 0 0.18853976254332969 -0.41229673785389792 0 0.16963736411165459 -0.41923424464354958 0 0.18455499271052991 -0.42450686095695572 0 0.18853976254332969 -0.41229673785389792 0 0.1758383815355051 -0.40587703262204827 0 0.16963736411165459 -0.41923424464354958 0 0.18853976254332969 -0.41229673785389792 0 0.16963736411165459 -0.41923424464354958 0 0.16420249742852491 -0.43431885947214299 0 0.18455499271052991 -0.42450686095695572 0 0.1856550639965385 -0.44282070391938488 0 0.16420249742852491 -0.43431885947214299 0 0.16963736411165459 -0.41923424464354958 0 0.18455499271052991 -0.42450686095695572 0 0.16420249742852491 -0.43431885947214299 0 0.18455499271052991 -0.42450686095695572 0 0.16420249742852491 -0.43431885947214299 0 0.1856550639965385 -0.44282070391938488 0 0.1703149872111748 -0.44997026357416209 0 0.1856550639965385 -0.44282070391938488 0 0.18580573865707181 -0.46107370259783359 0 0.1703149872111748 -0.44997026357416209 0 0.18580573865707181 -0.46107370259783359 0 0.16842108314772761 -0.46666583511592608 0 0.1703149872111748 -0.44997026357416209 0 0.16842108314772761 -0.46666583511592608 0 0.1536201494627446 -0.44806990196086938 0 0.15024807900398349 -0.44999875267389222 0 0.16842108314772761 -0.46666583511592608 0 0.1703149872111748 -0.44997026357416209 0 0.1536201494627446 -0.44806990196086938 0 0.16842108314772761 -0.46666583511592608 0 0.15024807900398349 -0.44999875267389222 0 0.16420249742852491 -0.43431885947214299 0 0.1703149872111748 -0.44997026357416209 0 0.1536201494627446 -0.44806990196086938 0 0.16420249742852491 -0.43431885947214299 0 0.1536201494627446 -0.44806990196086938 0 0.14385000214651991 -0.44413085798733021 0 0.16420249742852491 -0.43431885947214299 0 0.14385000214651991 -0.44413085798733021 0 0.15024807900398349 -0.44999875267389222 0 0.14385000214651991 -0.44413085798733021 0 0.1303229046546269 -0.45065231192534461 0 0.1536201494627446 -0.44806990196086938 0 0.15024807900398349 -0.44999875267389222 0 0.14385000214651991 -0.44413085798733021 0 0.1536201494627446 -0.44806990196086938 0 0.15024807900398349 -0.44999875267389222 0 0.15024807900398349 -0.44999875267389222 0 0.14385000214651991 -0.44413085798733021 0 0.13183256724830639 -0.43310925822285867 0 0.14385000214651991 -0.44413085798733021 0 0.13183256724830639 -0.43310925822285867 0 0.14385000214651991 -0.44413085798733021 0 0.12893727280907341 -0.44231123750735069 0 0.14385000214651991 -0.44413085798733021 0 0.1303229046546269 -0.45065231192534461 0 0.14385000214651991 -0.44413085798733021 0 0.1303229046546269 -0.45065231192534461 0 0.12893727280907341 -0.44231123750735069 0 0.1303229046546269 -0.45065231192534461 0 0.12893727280907341 -0.44231123750735069 0 0.12174374633063501 -0.44981089461588802 0 0.13183256724830639 -0.43310925822285867 0 0.12893727280907341 -0.44231123750735069 0 0.1202287093499108 -0.44286905811385768 0 0.15024807900398349 -0.44999875267389222 0 0.12934456146542619 -0.46195572842575078 0 0.15024807900398349 -0.44999875267389222 0 0.1303229046546269 -0.45065231192534461 0 0.12934456146542619 -0.46195572842575078 0 0.1303229046546269 -0.45065231192534461 0 0.12934456146542619 -0.46195572842575078 0 0.12035288374125951 -0.45849298428064572 0 0.16842108314772761 -0.46666583511592608 0 0.15024807900398349 -0.44999875267389222 0 0.14818527923923969 -0.47257216873077212 0 0.15024807900398349 -0.44999875267389222 0 0.12934456146542619 -0.46195572842575078 0 0.14818527923923969 -0.47257216873077212 0 0.12934456146542619 -0.46195572842575078 0 0.14818527923923969 -0.47257216873077212 0 0.12760324301467479 -0.48288041514247121 0 0.12760324301467479 -0.48288041514247121 0 0.14800202516017461 -0.5 0 0.1196194920226568 -0.5 0 0.14818527923923969 -0.47257216873077212 0 0.14800202516017461 -0.5 0 0.16219329172893349 -0.48577195662546441 0 0.14818527923923969 -0.47257216873077212 0 0.12760324301467479 -0.48288041514247121 0 0.14800202516017461 -0.5 0 0.14800202516017461 -0.5 0 0.16219329172893349 -0.48577195662546441 0 0.1763845582976924 -0.5 0 0.16842108314772761 -0.46666583511592608 0 0.14818527923923969 -0.47257216873077212 0 0.16219329172893349 -0.48577195662546441 0 0.16842108314772761 -0.46666583511592608 0 0.16219329172893349 -0.48577195662546441 0 0.1865940872914689 -0.48333291755796298 0 0.18580573865707181 -0.46107370259783359 0 0.16842108314772761 -0.46666583511592608 0 0.1865940872914689 -0.48333291755796298 0 0.16842108314772761 -0.46666583511592608 0 0.1865940872914689 -0.48333291755796298 0 0.16219329172893349 -0.48577195662546441 0 0.1865940872914689 -0.48333291755796298 0 0.1763845582976924 -0.5 0 0.066634008849752929 -0.49782665568132312 0 0.087537526388310707 -0.48586967992946561 0 0.066634008849752929 -0.49782665568132312 0 0.075791752376312332 -0.48369059752775773 0 0.087537526388310707 -0.48586967992946561 0 0.066634008849752929 -0.49782665568132312 0 0.062854425747621123 -0.5 0 0.091236958885138941 -0.5 0 0.066634008849752929 -0.49782665568132312 0 0.067623185916694528 -0.48757774077778893 0 0.075791752376312332 -0.48369059752775773 0 0.066634008849752929 -0.49782665568132312 0 0.067623185916694528 -0.48757774077778893 0 0.057677045661119079 -0.48662306979380399 0 0.067623185916694528 -0.48757774077778893 0 0.069990483642720688 -0.47723617612893138 0 0.057677045661119079 -0.48662306979380399 0 0.069990483642720688 -0.47723617612893138 0 0.062831140545445904 -0.45935847994314499 0 0.057677045661119079 -0.48662306979380399 0 0.069990483642720688 -0.47723617612893138 0 0.075791752376312332 -0.48369059752775773 0 0.084166154185529335 -0.46811089900678199 0 0.067623185916694528 -0.48757774077778893 0 0.069990483642720688 -0.47723617612893138 0 0.075791752376312332 -0.48369059752775773 0 0.087537526388310707 -0.48586967992946561 0 0.094838069889482901 -0.47199273650265511 0 0.084166154185529335 -0.46811089900678199 0 0.075791752376312332 -0.48369059752775773 0 0.087537526388310707 -0.48586967992946561 0 0.084166154185529335 -0.46811089900678199 0 0.066634008849752929 -0.49782665568132312 0 0.087537526388310707 -0.48586967992946561 0 0.091236958885138941 -0.5 0 0.091236958885138941 -0.5 0 0.1058792166576648 -0.48874529967684233 0 0.1196194920226568 -0.5 0 0.087537526388310707 -0.48586967992946561 0 0.091236958885138941 -0.5 0 0.1058792166576648 -0.48874529967684233 0 0.12760324301467479 -0.48288041514247121 0 0.1058792166576648 -0.48874529967684233 0 0.1196194920226568 -0.5 0 0.12760324301467479 -0.48288041514247121 0 0.1058792166576648 -0.48874529967684233 0 0.1084410439268684 -0.47391270417760822 0 0.12934456146542619 -0.46195572842575078 0 0.12760324301467479 -0.48288041514247121 0 0.1084410439268684 -0.47391270417760822 0 0.087537526388310707 -0.48586967992946561 0 0.1058792166576648 -0.48874529967684233 0 0.1084410439268684 -0.47391270417760822 0 0.087537526388310707 -0.48586967992946561 0 0.1084410439268684 -0.47391270417760822 0 0.087537526388310707 -0.48586967992946561 0 0.1084410439268684 -0.47391270417760822 0 0.094838069889482901 -0.47199273650265511 0 0.1084410439268684 -0.47391270417760822 0 0.099207555057223132 -0.46007766289676438 0 0.11191216232874079 -0.45613328225863659 0 0.1084410439268684 -0.47391270417760822 0 0.094838069889482901 -0.47199273650265511 0 0.099207555057223132 -0.46007766289676438 0 0.099207555057223132 -0.46007766289676438 0 0.1032401387759509 -0.45134886670592489 0 0.086288594501165952 -0.44929695168096112 0 0.099207555057223132 -0.46007766289676438 0 0.11191216232874079 -0.45613328225863659 0 0.1032401387759509 -0.45134886670592489 0 0.1084410439268684 -0.47391270417760822 0 0.11191216232874079 -0.45613328225863659 0 0.12035288374125951 -0.45849298428064572 0 0.12934456146542619 -0.46195572842575078 0 0.1084410439268684 -0.47391270417760822 0 0.12934456146542619 -0.46195572842575078 0 0.1084410439268684 -0.47391270417760822 0 0.12035288374125951 -0.45849298428064572 0 0.11191216232874079 -0.45613328225863659 0 0.12035288374125951 -0.45849298428064572 0 0.12174374633063501 -0.44981089461588802 0 0.13183256724830639 -0.43310925822285867 0 0.10570891787707461 -0.44269708886447912 0 0.13183256724830639 -0.43310925822285867 0 0.1202287093499108 -0.44286905811385768 0 0.10570891787707461 -0.44269708886447912 0 0.12893727280907341 -0.44231123750735069 0 0.1202287093499108 -0.44286905811385768 0 0.12174374633063501 -0.44981089461588802 0 0.1303229046546269 -0.45065231192534461 0 0.12035288374125951 -0.45849298428064572 0 0.12174374633063501 -0.44981089461588802 0 0.1202287093499108 -0.44286905811385768 0 0.12174374633063501 -0.44981089461588802 0 0.11308346411554999 -0.44853934782878319 0 0.11191216232874079 -0.45613328225863659 0 0.12174374633063501 -0.44981089461588802 0 0.11308346411554999 -0.44853934782878319 0 0.11191216232874079 -0.45613328225863659 0 0.11308346411554999 -0.44853934782878319 0 0.1032401387759509 -0.45134886670592489 0 0.1202287093499108 -0.44286905811385768 0 0.11308346411554999 -0.44853934782878319 0 0.10570891787707461 -0.44269708886447912 0 0.1100034814817455 -0.43924187324545028 0 0.10570891787707461 -0.44269708886447912 0 0.11854301372872771 -0.43546217015475452 0 0.1100034814817455 -0.43924187324545028 0 0.10570891787707461 -0.44269708886447912 0 0.086288594501165952 -0.44929695168096112 0 0.1100034814817455 -0.43924187324545028 0 0.080820163809380702 -0.43851070310554341 0 0.1100034814817455 -0.43924187324545028 0 0.086288594501165952 -0.44929695168096112 0 0.10570891787707461 -0.44269708886447912 0 0.1032401387759509 -0.45134886670592489 0 0.086288594501165952 -0.44929695168096112 0 0.11308346411554999 -0.44853934782878319 0 0.10570891787707461 -0.44269708886447912 0 0.1032401387759509 -0.45134886670592489 0 0.1100034814817455 -0.43924187324545028 0 0.080820163809380702 -0.43851070310554341 0 0.086288594501165952 -0.44929695168096112 0 0.099207555057223132 -0.46007766289676438 0 0.086288594501165952 -0.44929695168096112 0 0.084166154185529335 -0.46811089900678199 0 0.094838069889482901 -0.47199273650265511 0 0.099207555057223132 -0.46007766289676438 0 0.084166154185529335 -0.46811089900678199 0 0.086288594501165952 -0.44929695168096112 0 0.084166154185529335 -0.46811089900678199 0 0.062831140545445904 -0.45935847994314499 0 0.086288594501165952 -0.44929695168096112 0 0.062831140545445904 -0.45935847994314499 0 0.069990483642720688 -0.47723617612893138 0 0.084166154185529335 -0.46811089900678199 0 0.062831140545445904 -0.45935847994314499 0 0.080820163809380702 -0.43851070310554341 0 0.062831140545445904 -0.45935847994314499 0 0.051894279161875827 -0.43778598279231212 0 0.080820163809380702 -0.43851070310554341 0 0.051894279161875827 -0.43778598279231212 0 0.080820163809380702 -0.43851070310554341 0 0.086288594501165952 -0.44929695168096112 0 0.062831140545445904 -0.45935847994314499 0 0.080820163809380702 -0.43851070310554341 0 0.066712453126269916 -0.4259473449320586 0 0.051894279161875827 -0.43778598279231212 0 0.080820163809380702 -0.43851070310554341 0 0.066712453126269916 -0.4259473449320586 0 0.080040480133542979 -0.42272351959006632 0 0.067661455886976071 -0.41260405535160383 0 0.080040480133542979 -0.42272351959006632 0 0.08089544756948569 -0.40623350771157157 0 0.066712453126269916 -0.4259473449320586 0 0.067661455886976071 -0.41260405535160383 0 0.080040480133542979 -0.42272351959006632 0 0.0920205979410752 -0.41245754993283562 0 0.080040480133542979 -0.42272351959006632 0 0.095780167115111836 -0.42417449295575932 0 0.0920205979410752 -0.41245754993283562 0 0.080040480133542979 -0.42272351959006632 0 0.08089544756948569 -0.40623350771157157 0 0.080820163809380702 -0.43851070310554341 0 0.080040480133542979 -0.42272351959006632 0 0.092038195924988089 -0.4323482429183147 0 0.080040480133542979 -0.42272351959006632 0 0.092038195924988089 -0.4323482429183147 0 0.095780167115111836 -0.42417449295575932 0 0.1100034814817455 -0.43924187324545028 0 0.092038195924988089 -0.4323482429183147 0 0.1021939525657969 -0.43221798676597151 0 0.1100034814817455 -0.43924187324545028 0 0.080820163809380702 -0.43851070310554341 0 0.092038195924988089 -0.4323482429183147 0 0.092038195924988089 -0.4323482429183147 0 0.095780167115111836 -0.42417449295575932 0 0.1021939525657969 -0.43221798676597151 0 0.095780167115111836 -0.42417449295575932 0 0.11016844712562519 -0.42807799270312491 0 0.1027661026895917 -0.41741720495626439 0 0.095780167115111836 -0.42417449295575932 0 0.1021939525657969 -0.43221798676597151 0 0.11016844712562519 -0.42807799270312491 0 0.1021939525657969 -0.43221798676597151 0 0.1088231103494719 -0.43346182153452839 0 0.11016844712562519 -0.42807799270312491 0 0.1100034814817455 -0.43924187324545028 0 0.1021939525657969 -0.43221798676597151 0 0.1088231103494719 -0.43346182153452839 0 0.13183256724830639 -0.43310925822285867 0 0.1158979561714838 -0.41849508247082101 0 0.13183256724830639 -0.43310925822285867 0 0.10570891787707461 -0.44269708886447912 0 0.11854301372872771 -0.43546217015475452 0 0.1100034814817455 -0.43924187324545028 0 0.11854301372872771 -0.43546217015475452 0 0.11218224090091471 -0.43413195555635092 0 0.11016844712562519 -0.42807799270312491 0 0.11854301372872771 -0.43546217015475452 0 0.13183256724830639 -0.43310925822285867 0 0.11854301372872771 -0.43546217015475452 0 0.1158979561714838 -0.41849508247082101 0 0.11016844712562519 -0.42807799270312491 0 0.11854301372872771 -0.43546217015475452 0 0.1158979561714838 -0.41849508247082101 0 0.1100034814817455 -0.43924187324545028 0 0.11218224090091471 -0.43413195555635092 0 0.11854301372872771 -0.43546217015475452 0 0.1100034814817455 -0.43924187324545028 0 0.1088231103494719 -0.43346182153452839 0 0.11218224090091471 -0.43413195555635092 0 0.1088231103494719 -0.43346182153452839 0 0.11218224090091471 -0.43413195555635092 0 0.11016844712562519 -0.42807799270312491 0 0.1158979561714838 -0.41849508247082101 0 0.099963345094662662 -0.40388090671878157 0 0.12138725619122601 -0.40582348381147548 0 0.13650890774812771 -0.41554019669586117 0 0.1158979561714838 -0.41849508247082101 0 0.12138725619122601 -0.40582348381147548 0 0.11016844712562519 -0.42807799270312491 0 0.1158979561714838 -0.41849508247082101 0 0.1027661026895917 -0.41741720495626439 0 0.1158979561714838 -0.41849508247082101 0 0.1027661026895917 -0.41741720495626439 0 0.099963345094662662 -0.40388090671878157 0 0.1158979561714838 -0.41849508247082101 0 0.099963345094662662 -0.40388090671878157 0 0.0920205979410752 -0.41245754993283562 0 0.095780167115111836 -0.42417449295575932 0 0.1027661026895917 -0.41741720495626439 0 0.0920205979410752 -0.41245754993283562 0 0.1027661026895917 -0.41741720495626439 0 0.099963345094662662 -0.40388090671878157 0 0.0920205979410752 -0.41245754993283562 0 0.099963345094662662 -0.40388090671878157 0 0.091384466166640754 -0.39976572055485998 0 0.1131381689462954 -0.39378605836187702 0 0.084848434897030284 -0.3901569419137173 0 0.091384466166640754 -0.39976572055485998 0 0.099963345094662662 -0.40388090671878157 0 0.1131381689462954 -0.39378605836187702 0 0.091384466166640754 -0.39976572055485998 0 0.1131381689462954 -0.39378605836187702 0 0.084848434897030284 -0.3901569419137173 0 0.099963345094662662 -0.40388090671878157 0 0.12138725619122601 -0.40582348381147548 0 0.1131381689462954 -0.39378605836187702 0 0.12517983724594761 -0.38184384705093849 0 0.1118352925336914 -0.38211316024377351 0 0.11609404378980021 -0.3712243242388219 0 0.12517983724594761 -0.38184384705093849 0 0.1131381689462954 -0.39378605836187702 0 0.1118352925336914 -0.38211316024377351 0 0.1131381689462954 -0.39378605836187702 0 0.1001314126044148 -0.38309968547062018 0 0.084848434897030284 -0.3901569419137173 0 0.1118352925336914 -0.38211316024377351 0 0.1001314126044148 -0.38309968547062018 0 0.099415933695794101 -0.37050162789457552 0 0.1131381689462954 -0.39378605836187702 0 0.1118352925336914 -0.38211316024377351 0 0.1001314126044148 -0.38309968547062018 0 0.1001314126044148 -0.38309968547062018 0 0.088366776947027131 -0.37830966834622792 0 0.099415933695794101 -0.37050162789457552 0 0.088366776947027131 -0.37830966834622792 0 0.075482826549249288 -0.38262901299186203 0 0.084592952976450378 -0.36741201234362081 0 0.088366776947027131 -0.37830966834622792 0 0.084848434897030284 -0.3901569419137173 0 0.075482826549249288 -0.38262901299186203 0 0.1001314126044148 -0.38309968547062018 0 0.088366776947027131 -0.37830966834622792 0 0.084848434897030284 -0.3901569419137173 0 0.084848434897030284 -0.3901569419137173 0 0.091384466166640754 -0.39976572055485998 0 0.08089544756948569 -0.40623350771157157 0 0.084848434897030284 -0.3901569419137173 0 0.08089544756948569 -0.40623350771157157 0 0.069040307323794084 -0.39970606145243831 0 0.0920205979410752 -0.41245754993283562 0 0.091384466166640754 -0.39976572055485998 0 0.08089544756948569 -0.40623350771157157 0 0.084848434897030284 -0.3901569419137173 0 0.069040307323794084 -0.39970606145243831 0 0.056558700847764903 -0.3865278254655577 0 0.067661455886976071 -0.41260405535160383 0 0.08089544756948569 -0.40623350771157157 0 0.069040307323794084 -0.39970606145243831 0 0.067661455886976071 -0.41260405535160383 0 0.069040307323794084 -0.39970606145243831 0 0.054529940024465547 -0.40407910031114402 0 0.084848434897030284 -0.3901569419137173 0 0.056558700847764903 -0.3865278254655577 0 0.075482826549249288 -0.38262901299186203 0 0.056558700847764903 -0.3865278254655577 0 0.062186155557695667 -0.37164122596917581 0 0.084848434897030284 -0.3901569419137173 0 0.075482826549249288 -0.38262901299186203 0 0.056558700847764903 -0.3865278254655577 0 0.056558700847764903 -0.3865278254655577 0 0.039089164359802323 -0.37789726012767522 0 0.053015904133274762 -0.37395361750043649 0 0.056558700847764903 -0.3865278254655577 0 0.053015904133274762 -0.37395361750043649 0 0.062186155557695667 -0.37164122596917581 0 0.069040307323794084 -0.39970606145243831 0 0.056558700847764903 -0.3865278254655577 0 0.054529940024465547 -0.40407910031114402 0 0.056558700847764903 -0.3865278254655577 0 0.054529940024465547 -0.40407910031114402 0 0.040185806757932353 -0.39749058754999178 0 0.054529940024465547 -0.40407910031114402 0 0.040185806757932353 -0.39749058754999178 0 0.038889344946956873 -0.41260430460587411 0 0.056558700847764903 -0.3865278254655577 0 0.040185806757932353 -0.39749058754999178 0 0.039089164359802323 -0.37789726012767522 0 0.040185806757932353 -0.39749058754999178 0 0.039089164359802323 -0.37789726012767522 0 0.023948732951768519 -0.39604636181601283 0 0.039089164359802323 -0.37789726012767522 0 0.023948732951768519 -0.39604636181601283 0 0.039089164359802323 -0.37789726012767522 0 0.01820654377677056 -0.3853213777242403 0 0.023948732951768519 -0.39604636181601283 0 0.039089164359802323 -0.37789726012767522 0 0.01820654377677056 -0.3853213777242403 0 0.024632921607404889 -0.37499182360665201 0 0.01820654377677056 -0.3853213777242403 0 0.0064026000298581494 -0.37540694283770731 0 0.024632921607404889 -0.37499182360665201 0 -0.01144646081429648 -0.38965261029225212 0 0.0064026000298581494 -0.37540694283770731 0 0.0080942134445603012 -0.39208442404542598 0 0.01820654377677056 -0.3853213777242403 0 0.0064026000298581494 -0.37540694283770731 0 0.0080942134445603012 -0.39208442404542598 0 0.0080942134445603012 -0.39208442404542598 0 0.023948732951768519 -0.39604636181601283 0 0.0088083015437354986 -0.41419546350435121 0 -0.0044247763618271959 -0.40210583404303157 0 0.0080942134445603012 -0.39208442404542598 0 0.0088083015437354986 -0.41419546350435121 0 0.0080942134445603012 -0.39208442404542598 0 0.0088083015437354986 -0.41419546350435121 0 0.01820654377677056 -0.3853213777242403 0 0.0080942134445603012 -0.39208442404542598 0 0.023948732951768519 -0.39604636181601283 0 0.023948732951768519 -0.39604636181601283 0 0.0088083015437354986 -0.41419546350435121 0 0.040185806757932353 -0.39749058754999178 0 0.023948732951768519 -0.39604636181601283 0 0.027391400023587989 -0.40885979646509069 0 0.027391400023587989 -0.40885979646509069 0 0.0088083015437354986 -0.41419546350435121 0 0.023088723258007319 -0.42236733264752829 0 0.023948732951768519 -0.39604636181601283 0 0.027391400023587989 -0.40885979646509069 0 0.0088083015437354986 -0.41419546350435121 0 0.027391400023587989 -0.40885979646509069 0 0.023088723258007319 -0.42236733264752829 0 0.038889344946956873 -0.41260430460587411 0 -0.0041312503842245059 -0.42970633221166138 0 0.0088083015437354986 -0.41419546350435121 0 0.0097483964575000772 -0.44330458289357078 0 0.0088083015437354986 -0.41419546350435121 0 0.0097483964575000772 -0.44330458289357078 0 0.0088083015437354986 -0.41419546350435121 0 0.023088723258007319 -0.42236733264752829 0 0.0097483964575000772 -0.44330458289357078 0 -0.0041312503842245059 -0.42970633221166138 0 0.0088083015437354986 -0.41419546350435121 0 0.02296839451437082 -0.43706126247908078 0 0.023088723258007319 -0.42236733264752829 0 0.0097483964575000772 -0.44330458289357078 0 0.02296839451437082 -0.43706126247908078 0 0.023088723258007319 -0.42236733264752829 0 0.037801736971113893 -0.42603472511540319 0 0.02296839451437082 -0.43706126247908078 0 0.051894279161875827 -0.43778598279231212 0 0.02296839451437082 -0.43706126247908078 0 0.037801736971113893 -0.42603472511540319 0 0.051894279161875827 -0.43778598279231212 0 0.023088723258007319 -0.42236733264752829 0 0.037801736971113893 -0.42603472511540319 0 0.038889344946956873 -0.41260430460587411 0 0.040185806757932353 -0.39749058754999178 0 0.027391400023587989 -0.40885979646509069 0 0.038889344946956873 -0.41260430460587411 0 0.037801736971113893 -0.42603472511540319 0 0.038889344946956873 -0.41260430460587411 0 0.052167942974358568 -0.42035474305222059 0 0.067661455886976071 -0.41260405535160383 0 0.054529940024465547 -0.40407910031114402 0 0.052167942974358568 -0.42035474305222059 0 0.054529940024465547 -0.40407910031114402 0 0.038889344946956873 -0.41260430460587411 0 0.052167942974358568 -0.42035474305222059 0 0.066712453126269916 -0.4259473449320586 0 0.067661455886976071 -0.41260405535160383 0 0.052167942974358568 -0.42035474305222059 0 0.037801736971113893 -0.42603472511540319 0 0.052167942974358568 -0.42035474305222059 0 0.051894279161875827 -0.43778598279231212 0 0.066712453126269916 -0.4259473449320586 0 0.052167942974358568 -0.42035474305222059 0 0.051894279161875827 -0.43778598279231212 0 0.062831140545445904 -0.45935847994314499 0 0.051894279161875827 -0.43778598279231212 0 0.040252555022761261 -0.45208059092560288 0 0.062831140545445904 -0.45935847994314499 0 0.040252555022761261 -0.45208059092560288 0 0.039373686589725898 -0.46942000820532892 0 0.062831140545445904 -0.45935847994314499 0 0.039373686589725898 -0.46942000820532892 0 0.040252555022761261 -0.45208059092560288 0 0.024195274302387871 -0.45677722120814751 0 0.039373686589725898 -0.46942000820532892 0 0.02296839451437082 -0.43706126247908078 0 0.051894279161875827 -0.43778598279231212 0 0.040252555022761261 -0.45208059092560288 0 0.02296839451437082 -0.43706126247908078 0 0.040252555022761261 -0.45208059092560288 0 0.024195274302387871 -0.45677722120814751 0 0.02296839451437082 -0.43706126247908078 0 0.0097483964575000772 -0.44330458289357078 0 0.024195274302387871 -0.45677722120814751 0 0.0097483964575000772 -0.44330458289357078 0 0.010688491371263259 -0.47241370228279062 0 -0.01246189318989015 -0.46010874199320551 0 0.0097483964575000772 -0.44330458289357078 0 0.010688491371263259 -0.47241370228279062 0 0.0097483964575000772 -0.44330458289357078 0 0.024195274302387871 -0.45677722120814751 0 0.010688491371263259 -0.47241370228279062 0 0.024195274302387871 -0.45677722120814751 0 0.010688491371263259 -0.47241370228279062 0 0.039373686589725898 -0.46942000820532892 0 0.010688491371263259 -0.47241370228279062 0 0.034471892610103187 -0.5 0 0.039373686589725898 -0.46942000820532892 0 -0.01102378916454722 -0.48135915223211512 0 0.010688491371263259 -0.47241370228279062 0 0.0060893594725853761 -0.5 0 0.010688491371263259 -0.47241370228279062 0 0.0060893594725853761 -0.5 0 0.034471892610103187 -0.5 0 0.034471892610103187 -0.5 0 0.039373686589725898 -0.46942000820532892 0 0.057677045661119079 -0.48662306979380399 0 0.062831140545445904 -0.45935847994314499 0 0.039373686589725898 -0.46942000820532892 0 0.057677045661119079 -0.48662306979380399 0 0.062854425747621123 -0.5 0 0.034471892610103187 -0.5 0 0.057677045661119079 -0.48662306979380399 0 0.066634008849752929 -0.49782665568132312 0 0.062854425747621123 -0.5 0 0.057677045661119079 -0.48662306979380399 0 0.085620459045822009 -0.29344495114469399 0 0.093690920098404601 -0.28461131218341679 0 0.088552038535263153 -0.27478252827036592 0 0.085620459045822009 -0.29344495114469399 0 0.074313759281483191 -0.29143496503194172 0 0.077513921639644684 -0.27444034235203152 0 0.085620459045822009 -0.29344495114469399 0 0.077513921639644684 -0.27444034235203152 0 0.085620459045822009 -0.29344495114469399 0 0.077778828115986812 -0.30158111921626668 0 0.074313759281483191 -0.29143496503194172 0 0.085620459045822009 -0.29344495114469399 0 0.093690920098404601 -0.28461131218341679 0 0.095624669124178815 -0.29901523634492638 0 0.085620459045822009 -0.29344495114469399 0 0.093726996451999348 -0.31244955993735662 0 0.085620459045822009 -0.29344495114469399 0 0.093726996451999348 -0.31244955993735662 0 0.077778828115986812 -0.30158111921626668 0 0.085620459045822009 -0.29344495114469399 0 0.093726996451999348 -0.31244955993735662 0 0.095624669124178815 -0.29901523634492638 0 0.093726996451999348 -0.31244955993735662 0 0.077778828115986812 -0.30158111921626668 0 0.079462724575764129 -0.31259601870157472 0 0.077778828115986812 -0.30158111921626668 0 0.066507869567777239 -0.30238976000992179 0 0.074313759281483191 -0.29143496503194172 0 0.077778828115986812 -0.30158111921626668 0 0.066507869567777239 -0.30238976000992179 0 0.079462724575764129 -0.31259601870157472 0 0.066507869567777239 -0.30238976000992179 0 0.079462724575764129 -0.31259601870157472 0 0.075132603423591501 -0.3177071200507956 0 0.074313759281483191 -0.29143496503194172 0 0.064147718038185225 -0.28531865243679438 0 0.077513921639644684 -0.27444034235203152 0 0.066507869567777239 -0.30238976000992179 0 0.074313759281483191 -0.29143496503194172 0 0.064147718038185225 -0.28531865243679438 0 0.064147718038185225 -0.28531865243679438 0 0.063060091295950527 -0.26941549792116942 0 0.077513921639644684 -0.27444034235203152 0 0.063060091295950527 -0.26941549792116942 0 0.077513921639644684 -0.27444034235203152 0 0.069407384233463862 -0.25543573355937038 0 0.077513921639644684 -0.27444034235203152 0 0.069407384233463862 -0.25543573355937038 0 0.069407384233463862 -0.25543573355937038 0 0.086319144832975828 -0.25368007494239792 0 0.076310615083964084 -0.24267254447822559 0 0.069407384233463862 -0.25543573355937038 0 0.088552038535263153 -0.27478252827036592 0 0.069407384233463862 -0.25543573355937038 0 0.086319144832975828 -0.25368007494239792 0 0.088552038535263153 -0.27478252827036592 0 0.086319144832975828 -0.25368007494239792 0 0.088552038535263153 -0.27478252827036592 0 0.096314437859272073 -0.26314694932959598 0 0.085620459045822009 -0.29344495114469399 0 0.077513921639644684 -0.27444034235203152 0 0.088552038535263153 -0.27478252827036592 0 0.077513921639644684 -0.27444034235203152 0 0.069407384233463862 -0.25543573355937038 0 0.088552038535263153 -0.27478252827036592 0 0.088552038535263153 -0.27478252827036592 0 0.1049318813213326 -0.27771953670789029 0 0.096314437859272073 -0.26314694932959598 0 0.096314437859272073 -0.26314694932959598 0 0.1212146058921835 -0.27428469336237271 0 0.1049318813213326 -0.27771953670789029 0 0.096314437859272073 -0.26314694932959598 0 0.1212146058921835 -0.27428469336237271 0 0.096314437859272073 -0.26314694932959598 0 0.112710106436876 -0.2561722663583727 0 0.1002849970824637 -0.2478345159434279 0 0.086319144832975828 -0.25368007494239792 0 0.096314437859272073 -0.26314694932959598 0 0.1002849970824637 -0.2478345159434279 0 0.096314437859272073 -0.26314694932959598 0 0.112710106436876 -0.2561722663583727 0 0.1212146058921835 -0.27428469336237271 0 0.1284018024931908 -0.25439569680934893 0 0.112710106436876 -0.2561722663583727 0 0.11733468885727009 -0.24119947634711811 0 0.1284018024931908 -0.25439569680934893 0 0.112710106436876 -0.2561722663583727 0 0.1212146058921835 -0.27428469336237271 0 0.1049318813213326 -0.27771953670789029 0 0.1212146058921835 -0.27428469336237271 0 0.11539506208011339 -0.28489439950836071 0 0.12773706826987269 -0.29344404498182097 0 0.1212146058921835 -0.27428469336237271 0 0.11539506208011339 -0.28489439950836071 0 0.12773706826987269 -0.29344404498182097 0 0.11539506208011339 -0.28489439950836071 0 0.107696692837065 -0.29412932298135891 0 0.1049318813213326 -0.27771953670789029 0 0.11539506208011339 -0.28489439950836071 0 0.107696692837065 -0.29412932298135891 0 0.088552038535263153 -0.27478252827036592 0 0.107696692837065 -0.29412932298135891 0 0.093690920098404601 -0.28461131218341679 0 0.1094603009004893 -0.30555512211423808 0 0.088552038535263153 -0.27478252827036592 0 0.1049318813213326 -0.27771953670789029 0 0.107696692837065 -0.29412932298135891 0 0.093690920098404601 -0.28461131218341679 0 0.088552038535263153 -0.27478252827036592 0 0.107696692837065 -0.29412932298135891 0 0.093690920098404601 -0.28461131218341679 0 0.095624669124178815 -0.29901523634492638 0 0.1094603009004893 -0.30555512211423808 0 0.093690920098404601 -0.28461131218341679 0 0.107696692837065 -0.29412932298135891 0 0.1094603009004893 -0.30555512211423808 0 0.093726996451999348 -0.31244955993735662 0 0.095624669124178815 -0.29901523634492638 0 0.1094603009004893 -0.30555512211423808 0 0.12684134713886669 -0.31347611769235179 0 0.107696692837065 -0.29412932298135891 0 0.12684134713886669 -0.31347611769235179 0 0.12773706826987269 -0.29344404498182097 0 0.107696692837065 -0.29412932298135891 0 0.12684134713886669 -0.31347611769235179 0 0.107696692837065 -0.29412932298135891 0 0.1094603009004893 -0.30555512211423808 0 0.12522968170257401 -0.32649893204505931 0 0.1094603009004893 -0.30555512211423808 0 0.1077568017925077 -0.3214093119414394 0 0.12522968170257401 -0.32649893204505931 0 0.1094603009004893 -0.30555512211423808 0 0.12684134713886669 -0.31347611769235179 0 0.12522968170257401 -0.32649893204505931 0 0.1094603009004893 -0.30555512211423808 0 0.12522968170257401 -0.32649893204505931 0 0.11029417522024 -0.33328953150375001 0 0.1077568017925077 -0.3214093119414394 0 0.1261821465740697 -0.34229294288840512 0 0.11029417522024 -0.33328953150375001 0 0.1131168444567071 -0.34714674928190548 0 0.1261821465740697 -0.34229294288840512 0 0.12522968170257401 -0.32649893204505931 0 0.11029417522024 -0.33328953150375001 0 0.11029417522024 -0.33328953150375001 0 0.098188531763892556 -0.32586240489618312 0 0.091291045031689042 -0.33652684796950738 0 0.11029417522024 -0.33328953150375001 0 0.1131168444567071 -0.34714674928190548 0 0.091291045031689042 -0.33652684796950738 0 0.1131168444567071 -0.34714674928190548 0 0.091291045031689042 -0.33652684796950738 0 0.093726996451999348 -0.31244955993735662 0 0.1094603009004893 -0.30555512211423808 0 0.1077568017925077 -0.3214093119414394 0 0.093726996451999348 -0.31244955993735662 0 0.098188531763892556 -0.32586240489618312 0 0.1077568017925077 -0.3214093119414394 0 0.11029417522024 -0.33328953150375001 0 0.098188531763892556 -0.32586240489618312 0 0.1077568017925077 -0.3214093119414394 0 0.12725451995619561 -0.36966521274644643 0 0.12517983724594761 -0.38184384705093849 0 0.11609404378980021 -0.3712243242388219 0 0.12725451995619561 -0.36966521274644643 0 0.11609404378980021 -0.3712243242388219 0 0.11997443032266659 -0.36128539168157792 0 0.11609404378980021 -0.3712243242388219 0 0.11997443032266659 -0.36128539168157792 0 0.1084640995289053 -0.36062402154641232 0 0.134942643881725 -0.35776665059430368 0 0.1261821465740697 -0.34229294288840512 0 0.1131168444567071 -0.34714674928190548 0 0.134942643881725 -0.35776665059430368 0 0.11997443032266659 -0.36128539168157792 0 0.1131168444567071 -0.34714674928190548 0 0.134942643881725 -0.35776665059430368 0 0.1131168444567071 -0.34714674928190548 0 0.11997443032266659 -0.36128539168157792 0 0.1131168444567071 -0.34714674928190548 0 0.1084640995289053 -0.36062402154641232 0 0.1131168444567071 -0.34714674928190548 0 0.1084640995289053 -0.36062402154641232 0 0.092483405443695876 -0.3542390349207355 0 0.1131168444567071 -0.34714674928190548 0 0.092483405443695876 -0.3542390349207355 0 0.091291045031689042 -0.33652684796950738 0 0.1084640995289053 -0.36062402154641232 0 0.099415933695794101 -0.37050162789457552 0 0.092483405443695876 -0.3542390349207355 0 0.1118352925336914 -0.38211316024377351 0 0.11609404378980021 -0.3712243242388219 0 0.099415933695794101 -0.37050162789457552 0 0.11609404378980021 -0.3712243242388219 0 0.1084640995289053 -0.36062402154641232 0 0.099415933695794101 -0.37050162789457552 0 0.099415933695794101 -0.37050162789457552 0 0.084592952976450378 -0.36741201234362081 0 0.092483405443695876 -0.3542390349207355 0 0.088366776947027131 -0.37830966834622792 0 0.099415933695794101 -0.37050162789457552 0 0.084592952976450378 -0.36741201234362081 0 0.092483405443695876 -0.3542390349207355 0 0.072491174222091947 -0.35588259533121519 0 0.080304459630772304 -0.34371980464435309 0 0.092483405443695876 -0.3542390349207355 0 0.080304459630772304 -0.34371980464435309 0 0.091291045031689042 -0.33652684796950738 0 0.084592952976450378 -0.36741201234362081 0 0.092483405443695876 -0.3542390349207355 0 0.072491174222091947 -0.35588259533121519 0 0.072491174222091947 -0.35588259533121519 0 0.063777681245096488 -0.33827820414016169 0 0.056763895527111093 -0.34502334960474662 0 0.075482826549249288 -0.38262901299186203 0 0.072491174222091947 -0.35588259533121519 0 0.062186155557695667 -0.37164122596917581 0 0.075482826549249288 -0.38262901299186203 0 0.084592952976450378 -0.36741201234362081 0 0.072491174222091947 -0.35588259533121519 0 0.072491174222091947 -0.35588259533121519 0 0.062186155557695667 -0.37164122596917581 0 0.054229595767836189 -0.35974815843933738 0 0.075482826549249288 -0.38262901299186203 0 0.072491174222091947 -0.35588259533121519 0 0.093726996451999348 -0.31244955993735662 0 0.083420290103074043 -0.32469977907133191 0 0.079462724575764129 -0.31259601870157472 0 0.083420290103074043 -0.32469977907133191 0 0.079462724575764129 -0.31259601870157472 0 0.075132603423591501 -0.3177071200507956 0 0.093726996451999348 -0.31244955993735662 0 0.098188531763892556 -0.32586240489618312 0 0.083420290103074043 -0.32469977907133191 0 0.080304459630772304 -0.34371980464435309 0 0.091291045031689042 -0.33652684796950738 0 0.069499521894934579 -0.32913617767056857 0 0.098188531763892556 -0.32586240489618312 0 0.083420290103074043 -0.32469977907133191 0 0.091291045031689042 -0.33652684796950738 0 0.091291045031689042 -0.33652684796950738 0 0.069142364058012232 -0.32594306174918231 0 0.083420290103074043 -0.32469977907133191 0 0.091291045031689042 -0.33652684796950738 0 0.069142364058012232 -0.32594306174918231 0 0.072491174222091947 -0.35588259533121519 0 0.063777681245096488 -0.33827820414016169 0 0.069499521894934579 -0.32913617767056857 0 0.072491174222091947 -0.35588259533121519 0 0.080304459630772304 -0.34371980464435309 0 0.069499521894934579 -0.32913617767056857 0 0.091291045031689042 -0.33652684796950738 0 0.069499521894934579 -0.32913617767056857 0 0.069142364058012232 -0.32594306174918231 0 0.072491174222091947 -0.35588259533121519 0 0.069499521894934579 -0.32913617767056857 0 0.063777681245096488 -0.33827820414016169 0 0.063082639391203413 -0.33015119873318588 0 0.069499521894934579 -0.32913617767056857 0 0.063082639391203413 -0.33015119873318588 0 0.069499521894934579 -0.32913617767056857 0 0.061805006962569881 -0.32206579975377841 0 0.066507869567777239 -0.30238976000992179 0 0.069142364058012232 -0.32594306174918231 0 0.075132603423591501 -0.3177071200507956 0 0.066507869567777239 -0.30238976000992179 0 0.069142364058012232 -0.32594306174918231 0 0.066507869567777239 -0.30238976000992179 0 0.069142364058012232 -0.32594306174918231 0 0.061805006962569881 -0.32206579975377841 0 0.069499521894934579 -0.32913617767056857 0 0.069142364058012232 -0.32594306174918231 0 0.061805006962569881 -0.32206579975377841 0 0.069499521894934579 -0.32913617767056857 0 0.069142364058012232 -0.32594306174918231 0 0.083420290103074043 -0.32469977907133191 0 0.069142364058012232 -0.32594306174918231 0 0.075132603423591501 -0.3177071200507956 0 0.052883828768792822 -0.3174541629941231 0 0.041101931917878982 -0.32412245022009062 0 0.050054254893027512 -0.30552215780039232 0 0.066507869567777239 -0.30238976000992179 0 0.052883828768792822 -0.3174541629941231 0 0.061805006962569881 -0.32206579975377841 0 0.052883828768792822 -0.3174541629941231 0 0.056722554736689072 -0.33131950934918752 0 0.041101931917878982 -0.32412245022009062 0 0.052883828768792822 -0.3174541629941231 0 0.061805006962569881 -0.32206579975377841 0 0.056722554736689072 -0.33131950934918752 0 0.063082639391203413 -0.33015119873318588 0 0.061805006962569881 -0.32206579975377841 0 0.056722554736689072 -0.33131950934918752 0 0.063777681245096488 -0.33827820414016169 0 0.063082639391203413 -0.33015119873318588 0 0.056722554736689072 -0.33131950934918752 0 0.063777681245096488 -0.33827820414016169 0 0.056722554736689072 -0.33131950934918752 0 0.056763895527111093 -0.34502334960474662 0 0.056722554736689072 -0.33131950934918752 0 0.046239235444002998 -0.33664791469906508 0 0.056763895527111093 -0.34502334960474662 0 0.056722554736689072 -0.33131950934918752 0 0.046239235444002998 -0.33664791469906508 0 0.041101931917878982 -0.32412245022009062 0 0.046239235444002998 -0.33664791469906508 0 0.032066463360537777 -0.33755857837157299 0 0.041101931917878982 -0.32412245022009062 0 0.046239235444002998 -0.33664791469906508 0 0.032066463360537777 -0.33755857837157299 0 0.044321092835177989 -0.34976563747407657 0 0.032066463360537777 -0.33755857837157299 0 0.041101931917878982 -0.32412245022009062 0 0.026829089321596361 -0.31931235954863152 0 0.041101931917878982 -0.32412245022009062 0 0.026829089321596361 -0.31931235954863152 0 0.035107578284499952 -0.29952384007232902 0 0.039089164359802323 -0.37789726012767522 0 0.053015904133274762 -0.37395361750043649 0 0.054229595767836189 -0.35974815843933738 0 0.053015904133274762 -0.37395361750043649 0 0.062186155557695667 -0.37164122596917581 0 0.054229595767836189 -0.35974815843933738 0 0.072491174222091947 -0.35588259533121519 0 0.054229595767836189 -0.35974815843933738 0 0.056763895527111093 -0.34502334960474662 0 0.054229595767836189 -0.35974815843933738 0 0.056763895527111093 -0.34502334960474662 0 0.044321092835177989 -0.34976563747407657 0 0.046239235444002998 -0.33664791469906508 0 0.056763895527111093 -0.34502334960474662 0 0.044321092835177989 -0.34976563747407657 0 0.054229595767836189 -0.35974815843933738 0 0.044321092835177989 -0.34976563747407657 0 0.034366473881108257 -0.36507444486372198 0 0.032066463360537777 -0.33755857837157299 0 0.044321092835177989 -0.34976563747407657 0 0.032441089615130932 -0.35293819867704618 0 0.044321092835177989 -0.34976563747407657 0 0.032441089615130932 -0.35293819867704618 0 0.034366473881108257 -0.36507444486372198 0 0.039089164359802323 -0.37789726012767522 0 0.054229595767836189 -0.35974815843933738 0 0.034366473881108257 -0.36507444486372198 0 0.039089164359802323 -0.37789726012767522 0 0.054229595767836189 -0.35974815843933738 0 0.039089164359802323 -0.37789726012767522 0 0.034366473881108257 -0.36507444486372198 0 0.024632921607404889 -0.37499182360665201 0 0.034366473881108257 -0.36507444486372198 0 0.024632921607404889 -0.37499182360665201 0 0.02239128407936716 -0.35174007121053652 0 0.024632921607404889 -0.37499182360665201 0 0.02239128407936716 -0.35174007121053652 0 0.0044519867552184986 -0.35652166306277228 0 0.032441089615130932 -0.35293819867704618 0 0.034366473881108257 -0.36507444486372198 0 0.02239128407936716 -0.35174007121053652 0 0.032066463360537777 -0.33755857837157299 0 0.032441089615130932 -0.35293819867704618 0 0.02239128407936716 -0.35174007121053652 0 0.02239128407936716 -0.35174007121053652 0 0.0044519867552184986 -0.35652166306277228 0 0.012927593570646 -0.33171198549435688 0 0.0064026000298581494 -0.37540694283770731 0 0.024632921607404889 -0.37499182360665201 0 0.0044519867552184986 -0.35652166306277228 0 0.024632921607404889 -0.37499182360665201 0 0.0044519867552184986 -0.35652166306277228 0 0.026829089321596361 -0.31931235954863152 0 0.012927593570646 -0.33171198549435688 0 0.01345282628654261 -0.31452427875339289 0 0.032066463360537777 -0.33755857837157299 0 0.02239128407936716 -0.35174007121053652 0 0.012927593570646 -0.33171198549435688 0 0.032066463360537777 -0.33755857837157299 0 0.026829089321596361 -0.31931235954863152 0 0.012927593570646 -0.33171198549435688 0 -0.0045930383722408126 -0.33106057767172498 0 0.0044519867552184986 -0.35652166306277228 0 0.012927593570646 -0.33171198549435688 0 -0.0045930383722408126 -0.33106057767172498 0 0.012927593570646 -0.33171198549435688 0 0.001188009823060373 -0.31679446608462342 0 0.012927593570646 -0.33171198549435688 0 0.01345282628654261 -0.31452427875339289 0 0.001188009823060373 -0.31679446608462342 0 0.01345282628654261 -0.31452427875339289 0 0.001188009823060373 -0.31679446608462342 0 0.001763373636564664 -0.30168821179745692 0 0.01345282628654261 -0.31452427875339289 0 0.001763373636564664 -0.30168821179745692 0 0.016640872198588261 -0.30055445620572929 0 -0.0027757212633066561 -0.28308677540222332 0 0.016640872198588261 -0.30055445620572929 0 0.021411867177789898 -0.27844879108924458 0 -0.0027757212633066561 -0.28308677540222332 0 0.001763373636564664 -0.30168821179745692 0 0.016640872198588261 -0.30055445620572929 0 0.016640872198588261 -0.30055445620572929 0 0.035107578284499952 -0.29952384007232902 0 0.021411867177789898 -0.27844879108924458 0 0.026829089321596361 -0.31931235954863152 0 0.016640872198588261 -0.30055445620572929 0 0.035107578284499952 -0.29952384007232902 0 0.026829089321596361 -0.31931235954863152 0 0.01345282628654261 -0.31452427875339289 0 0.016640872198588261 -0.30055445620572929 0 0.041101931917878982 -0.32412245022009062 0 0.035107578284499952 -0.29952384007232902 0 0.050054254893027512 -0.30552215780039232 0 0.035107578284499952 -0.29952384007232902 0 0.050404305882029987 -0.28890252602350908 0 0.050054254893027512 -0.30552215780039232 0 0.035107578284499952 -0.29952384007232902 0 0.038585651540154843 -0.28163528976904378 0 0.021411867177789898 -0.27844879108924458 0 0.035107578284499952 -0.29952384007232902 0 0.038585651540154843 -0.28163528976904378 0 0.050404305882029987 -0.28890252602350908 0 0.038585651540154843 -0.28163528976904378 0 0.050404305882029987 -0.28890252602350908 0 0.050808015964917387 -0.27496449139471901 0 0.066507869567777239 -0.30238976000992179 0 0.064147718038185225 -0.28531865243679438 0 0.050404305882029987 -0.28890252602350908 0 0.064147718038185225 -0.28531865243679438 0 0.050404305882029987 -0.28890252602350908 0 0.050808015964917387 -0.27496449139471901 0 0.066507869567777239 -0.30238976000992179 0 0.052883828768792822 -0.3174541629941231 0 0.050054254893027512 -0.30552215780039232 0 0.066507869567777239 -0.30238976000992179 0 0.050404305882029987 -0.28890252602350908 0 0.050054254893027512 -0.30552215780039232 0 0.069407384233463862 -0.25543573355937038 0 0.051563800112102223 -0.25779356895052941 0 0.058031694591052507 -0.24393993276097539 0 0.063060091295950527 -0.26941549792116942 0 0.069407384233463862 -0.25543573355937038 0 0.051563800112102223 -0.25779356895052941 0 0.063060091295950527 -0.26941549792116942 0 0.051563800112102223 -0.25779356895052941 0 0.050808015964917387 -0.27496449139471901 0 0.064147718038185225 -0.28531865243679438 0 0.063060091295950527 -0.26941549792116942 0 0.050808015964917387 -0.27496449139471901 0 0.051563800112102223 -0.25779356895052941 0 0.050808015964917387 -0.27496449139471901 0 0.038472196115803672 -0.26640391726297058 0 0.038585651540154843 -0.28163528976904378 0 0.038472196115803672 -0.26640391726297058 0 0.021411867177789898 -0.27844879108924458 0 0.038585651540154843 -0.28163528976904378 0 0.050808015964917387 -0.27496449139471901 0 0.038472196115803672 -0.26640391726297058 0 0.051563800112102223 -0.25779356895052941 0 0.038472196115803672 -0.26640391726297058 0 0.035514200733511518 -0.25281883070702721 0 0.051563800112102223 -0.25779356895052941 0 0.035514200733511518 -0.25281883070702721 0 0.043773176109511723 -0.24454306043739371 0 0.038472196115803672 -0.26640391726297058 0 0.035514200733511518 -0.25281883070702721 0 0.025793661615702391 -0.26060215054244779 0 0.025793661615702391 -0.26060215054244779 0 0.021411867177789898 -0.27844879108924458 0 0.0106961603384575 -0.25745202186843219 0 0.035514200733511518 -0.25281883070702721 0 0.025793661615702391 -0.26060215054244779 0 0.02287388371294935 -0.24788719178456481 0 0.025793661615702391 -0.26060215054244779 0 0.0106961603384575 -0.25745202186843219 0 0.02287388371294935 -0.24788719178456481 0 0.038472196115803672 -0.26640391726297058 0 0.025793661615702391 -0.26060215054244779 0 0.021411867177789898 -0.27844879108924458 0 -0.0027757212633066561 -0.28308677540222332 0 -0.004277733196565655 -0.26493900554078142 0 0.021411867177789898 -0.27844879108924458 0 -0.0027757212633066561 -0.28308677540222332 0 0.021411867177789898 -0.27844879108924458 0 -0.004277733196565655 -0.26493900554078142 0 0.021411867177789898 -0.27844879108924458 0 0.0106961603384575 -0.25745202186843219 0 -0.004277733196565655 -0.26493900554078142 0 -0.0051000949063709604 -0.24904007175921131 0 0.0106961603384575 -0.25745202186843219 0 -0.0051000949063709604 -0.24904007175921131 0 0.011654400976862199 -0.2410062268801875 0 0.0028816789089166558 -0.23183637951985259 0 0.0106961603384575 -0.25745202186843219 0 0.011654400976862199 -0.2410062268801875 0 0.02287388371294935 -0.24788719178456481 0 -0.0051000949063709604 -0.24904007175921131 0 0.0106961603384575 -0.25745202186843219 0 0.011654400976862199 -0.2410062268801875 0 0.0028816789089166558 -0.23183637951985259 0 0.01462937057412849 -0.2240538746983283 0 0.004701453699878894 -0.21579903142299711 0 0.011654400976862199 -0.2410062268801875 0 0.0028816789089166558 -0.23183637951985259 0 0.01462937057412849 -0.2240538746983283 0 -0.0071321940753977476 -0.22261446124919521 0 0.0028816789089166558 -0.23183637951985259 0 0.004701453699878894 -0.21579903142299711 0 0.0028816789089166558 -0.23183637951985259 0 0.004701453699878894 -0.21579903142299711 0 0.02364828999517329 -0.2145304100774604 0 0.028017793991622891 -0.21360912792013689 0 0.040775351499507902 -0.22929913682877789 0 0.01462937057412849 -0.2240538746983283 0 0.022707011958577241 -0.23406713982814309 0 0.023074893148630329 -0.2243790069053245 0 0.011654400976862199 -0.2410062268801875 0 0.01462937057412849 -0.2240538746983283 0 0.022707011958577241 -0.23406713982814309 0 0.018809988853569239 -0.21943478388111101 0 0.023074893148630329 -0.2243790069053245 0 0.02364828999517329 -0.2145304100774604 0 0.01462937057412849 -0.2240538746983283 0 0.018809988853569239 -0.21943478388111101 0 0.023074893148630329 -0.2243790069053245 0 0.01462937057412849 -0.2240538746983283 0 0.018809988853569239 -0.21943478388111101 0 0.01388740169634483 -0.2147758438433309 0 0.023074893148630329 -0.2243790069053245 0 0.029529338384813281 -0.22864588643036399 0 0.02364828999517329 -0.2145304100774604 0 0.022707011958577241 -0.23406713982814309 0 0.023074893148630329 -0.2243790069053245 0 0.029529338384813281 -0.22864588643036399 0 0.022707011958577241 -0.23406713982814309 0 0.029529338384813281 -0.22864588643036399 0 0.033110115198594407 -0.23873590212053891 0 0.022707011958577241 -0.23406713982814309 0 0.02287388371294935 -0.24788719178456481 0 0.033110115198594407 -0.23873590212053891 0 0.035514200733511518 -0.25281883070702721 0 0.02287388371294935 -0.24788719178456481 0 0.033110115198594407 -0.23873590212053891 0 0.011654400976862199 -0.2410062268801875 0 0.022707011958577241 -0.23406713982814309 0 0.02287388371294935 -0.24788719178456481 0 0.0073229988707017007 -0.19269582510052111 0 0.0065212284908399872 -0.19976168332614139 0 0.028017793991622891 -0.21360912792013689 0 0.013665005934331211 -0.18750908436963901 0 0.0073229988707017007 -0.19269582510052111 0 0.018491144942704148 -0.1966763665436605 0 -0.001716520374770193 -0.18356086134659491 0 0.0073229988707017007 -0.19269582510052111 0 -0.001716520374770193 -0.18356086134659491 0 -0.0040962595028597214 -0.1906061852318178 0 0.0073229988707017007 -0.19269582510052111 0 -0.0040962595028597214 -0.1906061852318178 0 0.0073229988707017007 -0.19269582510052111 0 0.0065212284908399872 -0.19976168332614139 0 -0.0040962595028597214 -0.1906061852318178 0 0.0065212284908399872 -0.19976168332614139 0 -0.0013413224236437889 -0.20129110548027501 0 -0.0040962595028597214 -0.1906061852318178 0 0.0065212284908399872 -0.19976168332614139 0 0.0073229988707017007 -0.19269582510052111 0 0.0065212284908399872 -0.19976168332614139 0 0.0065212284908399872 -0.19976168332614139 0 0.004701453699878894 -0.21579903142299711 0 0.0065212284908399872 -0.19976168332614139 0 0.02364828999517329 -0.2145304100774604 0 0.0065212284908399872 -0.19976168332614139 0 0.01388740169634483 -0.2147758438433309 0 0.02364828999517329 -0.2145304100774604 0 -0.0013413224236437889 -0.20129110548027501 0 0.0065212284908399872 -0.19976168332614139 0 0.004701453699878894 -0.21579903142299711 0 0.0065212284908399872 -0.19976168332614139 0 0.004701453699878894 -0.21579903142299711 0 0.01388740169634483 -0.2147758438433309 0 0.01462937057412849 -0.2240538746983283 0 0.004701453699878894 -0.21579903142299711 0 0.01388740169634483 -0.2147758438433309 0 0.0073229988707017007 -0.19269582510052111 0 0.028017793991622891 -0.21360912792013689 0 0.0065212284908399872 -0.19976168332614139 0 0.02364828999517329 -0.2145304100774604 0 0.028017793991622891 -0.21360912792013689 0 0.028017793991622891 -0.21360912792013689 0 0.018491144942704148 -0.1966763665436605 0 0.025157987485142079 -0.20180139957009041 0 0.018809988853569239 -0.21943478388111101 0 0.01388740169634483 -0.2147758438433309 0 0.02364828999517329 -0.2145304100774604 0 0.028017793991622891 -0.21360912792013689 0 0.02999013049287064 -0.20546082626940229 0 0.025157987485142079 -0.20180139957009041 0 0.028017793991622891 -0.21360912792013689 0 0.02999013049287064 -0.20546082626940229 0 0.0324070066473977 -0.20951842104896029 0 0.0073229988707017007 -0.19269582510052111 0 0.028017793991622891 -0.21360912792013689 0 0.018491144942704148 -0.1966763665436605 0 0.018491144942704148 -0.1966763665436605 0 0.025157987485142079 -0.20180139957009041 0 0.024045283865786481 -0.19437171675397771 0 0.02999013049287064 -0.20546082626940229 0 0.025157987485142079 -0.20180139957009041 0 0.03035198148479883 -0.19855803240777339 0 0.025157987485142079 -0.20180139957009041 0 0.03035198148479883 -0.19855803240777339 0 0.024045283865786481 -0.19437171675397771 0 0.024045283865786481 -0.19437171675397771 0 0.032136229536427127 -0.1901460159505371 0 0.024805350841866001 -0.1865109080109903 0 0.03035198148479883 -0.19855803240777339 0 0.024045283865786481 -0.19437171675397771 0 0.032136229536427127 -0.1901460159505371 0 0.024045283865786481 -0.19437171675397771 0 0.018761544846157479 -0.19000984924694531 0 0.024805350841866001 -0.1865109080109903 0 0.013665005934331211 -0.18750908436963901 0 0.018491144942704148 -0.1966763665436605 0 0.018761544846157479 -0.19000984924694531 0 0.018491144942704148 -0.1966763665436605 0 0.024045283865786481 -0.19437171675397771 0 0.018761544846157479 -0.19000984924694531 0 0.04384416339129027 -0.19224611530111421 0 0.032136229536427127 -0.1901460159505371 0 0.037122704559522962 -0.1803168735087794 0 0.03035198148479883 -0.19855803240777339 0 0.032136229536427127 -0.1901460159505371 0 0.036730667332170827 -0.1968208791558918 0 0.04384416339129027 -0.19224611530111421 0 0.032136229536427127 -0.1901460159505371 0 0.036730667332170827 -0.1968208791558918 0 0.03035198148479883 -0.19855803240777339 0 0.036730667332170827 -0.1968208791558918 0 0.035345707874588579 -0.20385500525163869 0 0.02999013049287064 -0.20546082626940229 0 0.03035198148479883 -0.19855803240777339 0 0.035345707874588579 -0.20385500525163869 0 0.036730667332170827 -0.1968208791558918 0 0.04131995937114788 -0.2006731440368619 0 0.035345707874588579 -0.20385500525163869 0 0.04384416339129027 -0.19224611530111421 0 0.036730667332170827 -0.1968208791558918 0 0.04131995937114788 -0.2006731440368619 0 0.04384416339129027 -0.19224611530111421 0 0.04131995937114788 -0.2006731440368619 0 0.048988037247861202 -0.20414883441969889 0 0.041691221009828527 -0.2062948860559661 0 0.044739233142967849 -0.21208298822685531 0 0.048988037247861202 -0.20414883441969889 0 0.04131995937114788 -0.2006731440368619 0 0.041691221009828527 -0.2062948860559661 0 0.048988037247861202 -0.20414883441969889 0 0.041691221009828527 -0.2062948860559661 0 0.037407872409975708 -0.21208837551324211 0 0.044739233142967849 -0.21208298822685531 0 0.04131995937114788 -0.2006731440368619 0 0.041691221009828527 -0.2062948860559661 0 0.035345707874588579 -0.20385500525163869 0 0.035345707874588579 -0.20385500525163869 0 0.0324070066473977 -0.20951842104896029 0 0.037407872409975708 -0.21208837551324211 0 0.041691221009828527 -0.2062948860559661 0 0.035345707874588579 -0.20385500525163869 0 0.037407872409975708 -0.21208837551324211 0 0.02999013049287064 -0.20546082626940229 0 0.035345707874588579 -0.20385500525163869 0 0.0324070066473977 -0.20951842104896029 0 0.028017793991622891 -0.21360912792013689 0 0.037407872409975708 -0.21208837551324211 0 0.042425530973735658 -0.22003194801152839 0 0.028017793991622891 -0.21360912792013689 0 0.0324070066473977 -0.20951842104896029 0 0.037407872409975708 -0.21208837551324211 0 0.044739233142967849 -0.21208298822685531 0 0.052370736255902911 -0.2153814678227329 0 0.042425530973735658 -0.22003194801152839 0 0.037407872409975708 -0.21208837551324211 0 0.044739233142967849 -0.21208298822685531 0 0.042425530973735658 -0.22003194801152839 0 0.052370736255902911 -0.2153814678227329 0 0.059716634861676797 -0.20726135210210539 0 0.064925854322850085 -0.21611823019055279 0 0.052370736255902911 -0.2153814678227329 0 0.059716634861676797 -0.20726135210210539 0 0.048988037247861202 -0.20414883441969889 0 0.044739233142967849 -0.21208298822685531 0 0.052370736255902911 -0.2153814678227329 0 0.048988037247861202 -0.20414883441969889 0 0.04384416339129027 -0.19224611530111421 0 0.060476405403509029 -0.1942698559506098 0 0.051330153515782247 -0.17849113508331041 0 0.04384416339129027 -0.19224611530111421 0 0.048988037247861202 -0.20414883441969889 0 0.060476405403509029 -0.1942698559506098 0 0.059716634861676797 -0.20726135210210539 0 0.048988037247861202 -0.20414883441969889 0 0.060476405403509029 -0.1942698559506098 0 0.043773176109511723 -0.24454306043739371 0 0.033110115198594407 -0.23873590212053891 0 0.040775351499507902 -0.22929913682877789 0 0.035514200733511518 -0.25281883070702721 0 0.043773176109511723 -0.24454306043739371 0 0.033110115198594407 -0.23873590212053891 0 0.028017793991622891 -0.21360912792013689 0 0.042425530973735658 -0.22003194801152839 0 0.048712589112542129 -0.2345224307397549 0 0.028017793991622891 -0.21360912792013689 0 0.040775351499507902 -0.22929913682877789 0 0.048712589112542129 -0.2345224307397549 0 0.028017793991622891 -0.21360912792013689 0 0.048712589112542129 -0.2345224307397549 0 0.029529338384813281 -0.22864588643036399 0 0.033110115198594407 -0.23873590212053891 0 0.040775351499507902 -0.22929913682877789 0 0.029529338384813281 -0.22864588643036399 0 0.02364828999517329 -0.2145304100774604 0 0.040775351499507902 -0.22929913682877789 0 0.02364828999517329 -0.2145304100774604 0 0.040775351499507902 -0.22929913682877789 0 0.050068684076850438 -0.2239338487559023 0 0.056765879965221068 -0.22579954844959299 0 0.048712589112542129 -0.2345224307397549 0 0.052370736255902911 -0.2153814678227329 0 0.042425530973735658 -0.22003194801152839 0 0.050068684076850438 -0.2239338487559023 0 0.052370736255902911 -0.2153814678227329 0 0.050068684076850438 -0.2239338487559023 0 0.056765879965221068 -0.22579954844959299 0 0.042425530973735658 -0.22003194801152839 0 0.050068684076850438 -0.2239338487559023 0 0.048712589112542129 -0.2345224307397549 0 0.052370736255902911 -0.2153814678227329 0 0.056765879965221068 -0.22579954844959299 0 0.064925854322850085 -0.21611823019055279 0 0.056765879965221068 -0.22579954844959299 0 0.063086632099344203 -0.24061764100448099 0 0.056765879965221068 -0.22579954844959299 0 0.048712589112542129 -0.2345224307397549 0 0.063086632099344203 -0.24061764100448099 0 0.048712589112542129 -0.2345224307397549 0 0.058031694591052507 -0.24393993276097539 0 0.063086632099344203 -0.24061764100448099 0 0.043773176109511723 -0.24454306043739371 0 0.040775351499507902 -0.22929913682877789 0 0.058031694591052507 -0.24393993276097539 0 0.040775351499507902 -0.22929913682877789 0 0.048712589112542129 -0.2345224307397549 0 0.058031694591052507 -0.24393993276097539 0 0.040775351499507902 -0.22929913682877789 0 0.058031694591052507 -0.24393993276097539 0 0.048712589112542129 -0.2345224307397549 0 0.058031694591052507 -0.24393993276097539 0 0.051563800112102223 -0.25779356895052941 0 0.043773176109511723 -0.24454306043739371 0 0.058031694591052507 -0.24393993276097539 0 0.069407384233463862 -0.25543573355937038 0 0.058031694591052507 -0.24393993276097539 0 0.063086632099344203 -0.24061764100448099 0 0.076310615083964084 -0.24267254447822559 0 0.074956421688934308 -0.22679738145524739 0 0.069407384233463862 -0.25543573355937038 0 0.058031694591052507 -0.24393993276097539 0 0.063086632099344203 -0.24061764100448099 0 0.069407384233463862 -0.25543573355937038 0 0.063086632099344203 -0.24061764100448099 0 0.076310615083964084 -0.24267254447822559 0 0.069407384233463862 -0.25543573355937038 0 0.063086632099344203 -0.24061764100448099 0 0.086319144832975828 -0.25368007494239792 0 0.087783492565102261 -0.2368318914296311 0 0.1002849970824637 -0.2478345159434279 0 0.086319144832975828 -0.25368007494239792 0 0.076310615083964084 -0.24267254447822559 0 0.087783492565102261 -0.2368318914296311 0 0.076310615083964084 -0.24267254447822559 0 0.087783492565102261 -0.2368318914296311 0 0.074956421688934308 -0.22679738145524739 0 0.087783492565102261 -0.2368318914296311 0 0.089008184157288187 -0.21979994207860989 0 0.074956421688934308 -0.22679738145524739 0 0.087783492565102261 -0.2368318914296311 0 0.089008184157288187 -0.21979994207860989 0 0.1033657475248638 -0.230836287473243 0 0.056765879965221068 -0.22579954844959299 0 0.074956421688934308 -0.22679738145524739 0 0.064925854322850085 -0.21611823019055279 0 0.056765879965221068 -0.22579954844959299 0 0.063086632099344203 -0.24061764100448099 0 0.074956421688934308 -0.22679738145524739 0 0.074956421688934308 -0.22679738145524739 0 0.064925854322850085 -0.21611823019055279 0 0.074819742221630695 -0.2073931091056411 0 0.059716634861676797 -0.20726135210210539 0 0.064925854322850085 -0.21611823019055279 0 0.074819742221630695 -0.2073931091056411 0 0.060476405403509029 -0.1942698559506098 0 0.074819742221630695 -0.2073931091056411 0 0.079592796952163397 -0.18888924659286591 0 0.059716634861676797 -0.20726135210210539 0 0.060476405403509029 -0.1942698559506098 0 0.074819742221630695 -0.2073931091056411 0 0.079592796952163397 -0.18888924659286591 0 0.092675461307541507 -0.20263860808969769 0 0.097107010874188521 -0.1865028621063522 0 0.074819742221630695 -0.2073931091056411 0 0.079592796952163397 -0.18888924659286591 0 0.092675461307541507 -0.20263860808969769 0 0.089008184157288187 -0.21979994207860989 0 0.074819742221630695 -0.2073931091056411 0 0.092675461307541507 -0.20263860808969769 0 0.089008184157288187 -0.21979994207860989 0 0.074956421688934308 -0.22679738145524739 0 0.074819742221630695 -0.2073931091056411 0 0.092675461307541507 -0.20263860808969769 0 0.1037395851219249 -0.21383741777744589 0 0.1117854485180534 -0.19940907087727169 0 0.089008184157288187 -0.21979994207860989 0 0.092675461307541507 -0.20263860808969769 0 0.1037395851219249 -0.21383741777744589 0 0.092675461307541507 -0.20263860808969769 0 0.1117854485180534 -0.19940907087727169 0 0.097107010874188521 -0.1865028621063522 0 0.1117854485180534 -0.19940907087727169 0 0.1163428853765546 -0.1739781751317093 0 0.13022061167876001 -0.1966054580212783 0 0.1117854485180534 -0.19940907087727169 0 0.12522972808992511 -0.21829503339356829 0 0.13022061167876001 -0.1966054580212783 0 0.1037395851219249 -0.21383741777744589 0 0.1117854485180534 -0.19940907087727169 0 0.12522972808992511 -0.21829503339356829 0 0.1037395851219249 -0.21383741777744589 0 0.1033657475248638 -0.230836287473243 0 0.12522972808992511 -0.21829503339356829 0 0.11733468885727009 -0.24119947634711811 0 0.1033657475248638 -0.230836287473243 0 0.12522972808992511 -0.21829503339356829 0 0.112710106436876 -0.2561722663583727 0 0.11733468885727009 -0.24119947634711811 0 0.1002849970824637 -0.2478345159434279 0 0.087783492565102261 -0.2368318914296311 0 0.1002849970824637 -0.2478345159434279 0 0.1033657475248638 -0.230836287473243 0 0.11733468885727009 -0.24119947634711811 0 0.1002849970824637 -0.2478345159434279 0 0.1033657475248638 -0.230836287473243 0 0.089008184157288187 -0.21979994207860989 0 0.1037395851219249 -0.21383741777744589 0 0.1033657475248638 -0.230836287473243 0 0.1152953509880221 -0.14742664451427989 0 0.087922885953701749 -0.1644453144253091 0 0.08104222808295973 -0.14656041117322649 0 0.1152953509880221 -0.14742664451427989 0 0.08104222808295973 -0.14656041117322649 0 0.091825808360400649 -0.13071971631881599 0 0.1132019957566571 -0.12895631246466679 0 0.1152953509880221 -0.14742664451427989 0 0.091825808360400649 -0.13071971631881599 0 0.1152953509880221 -0.14742664451427989 0 0.091825808360400649 -0.13071971631881599 0 0.1132019957566571 -0.12895631246466679 0 0.12666681042280259 -0.1148879963719676 0 0.12801254774923829 -0.1367659702484201 0 0.1132019957566571 -0.12895631246466679 0 0.1152953509880221 -0.14742664451427989 0 0.12801254774923829 -0.1367659702484201 0 0.1152953509880221 -0.14742664451427989 0 0.1163428853765546 -0.1739781751317093 0 0.13570756930478459 -0.15697766912763211 0 0.1117854485180534 -0.19940907087727169 0 0.1163428853765546 -0.1739781751317093 0 0.097107010874188521 -0.1865028621063522 0 0.1163428853765546 -0.1739781751317093 0 0.097107010874188521 -0.1865028621063522 0 0.087922885953701749 -0.1644453144253091 0 0.1152953509880221 -0.14742664451427989 0 0.1163428853765546 -0.1739781751317093 0 0.087922885953701749 -0.1644453144253091 0 0.1163428853765546 -0.1739781751317093 0 0.087922885953701749 -0.1644453144253091 0 0.079592796952163397 -0.18888924659286591 0 0.087922885953701749 -0.1644453144253091 0 0.067846621438677354 -0.17762077273883239 0 0.079592796952163397 -0.18888924659286591 0 0.097107010874188521 -0.1865028621063522 0 0.087922885953701749 -0.1644453144253091 0 0.060476405403509029 -0.1942698559506098 0 0.079592796952163397 -0.18888924659286591 0 0.067846621438677354 -0.17762077273883239 0 0.087922885953701749 -0.1644453144253091 0 0.059502886530849189 -0.15491245371890891 0 0.087922885953701749 -0.1644453144253091 0 0.067846621438677354 -0.17762077273883239 0 0.059502886530849189 -0.15491245371890891 0 0.08104222808295973 -0.14656041117322649 0 0.063165984824581689 -0.13679565429396251 0 0.059502886530849189 -0.15491245371890891 0 0.087922885953701749 -0.1644453144253091 0 0.08104222808295973 -0.14656041117322649 0 0.059502886530849189 -0.15491245371890891 0 0.08104222808295973 -0.14656041117322649 0 0.091825808360400649 -0.13071971631881599 0 0.072651104250291351 -0.13027573411947399 0 0.08104222808295973 -0.14656041117322649 0 0.072651104250291351 -0.13027573411947399 0 0.063165984824581689 -0.13679565429396251 0 0.091825808360400649 -0.13071971631881599 0 0.072651104250291351 -0.13027573411947399 0 0.068356265732779142 -0.11401278812335219 0 0.072651104250291351 -0.13027573411947399 0 0.063165984824581689 -0.13679565429396251 0 0.058865234250735553 -0.12329010068801249 0 0.063165984824581689 -0.13679565429396251 0 0.04485173414439024 -0.1340670178301879 0 0.058865234250735553 -0.12329010068801249 0 0.059502886530849189 -0.15491245371890891 0 0.03988914173572445 -0.15156241575472759 0 0.04485173414439024 -0.1340670178301879 0 0.063165984824581689 -0.13679565429396251 0 0.059502886530849189 -0.15491245371890891 0 0.04485173414439024 -0.1340670178301879 0 0.03988914173572445 -0.15156241575472759 0 0.04485173414439024 -0.1340670178301879 0 0.02842055614966784 -0.1428194405803746 0 0.03988914173572445 -0.15156241575472759 0 0.026498592662546491 -0.15916092077607891 0 0.02842055614966784 -0.1428194405803746 0 0.04485173414439024 -0.1340670178301879 0 0.027044046320462822 -0.1303162166611489 0 0.02842055614966784 -0.1428194405803746 0 0.04485173414439024 -0.1340670178301879 0 0.02842055614966784 -0.1428194405803746 0 0.04485173414439024 -0.1340670178301879 0 0.027044046320462822 -0.1303162166611489 0 0.031624226822419298 -0.1180379366099287 0 0.060476405403509029 -0.1942698559506098 0 0.067846621438677354 -0.17762077273883239 0 0.051330153515782247 -0.17849113508331041 0 0.067846621438677354 -0.17762077273883239 0 0.059502886530849189 -0.15491245371890891 0 0.051330153515782247 -0.17849113508331041 0 0.059502886530849189 -0.15491245371890891 0 0.051330153515782247 -0.17849113508331041 0 0.040171939191168488 -0.16685224586808781 0 0.059502886530849189 -0.15491245371890891 0 0.03988914173572445 -0.15156241575472759 0 0.040171939191168488 -0.16685224586808781 0 0.03988914173572445 -0.15156241575472759 0 0.040171939191168488 -0.16685224586808781 0 0.026498592662546491 -0.15916092077607891 0 0.040171939191168488 -0.16685224586808781 0 0.028351172506096169 -0.17093532640219039 0 0.026498592662546491 -0.15916092077607891 0 0.051330153515782247 -0.17849113508331041 0 0.040171939191168488 -0.16685224586808781 0 0.037122704559522962 -0.1803168735087794 0 0.040171939191168488 -0.16685224586808781 0 0.037122704559522962 -0.1803168735087794 0 0.028351172506096169 -0.17093532640219039 0 0.032136229536427127 -0.1901460159505371 0 0.037122704559522962 -0.1803168735087794 0 0.03057542533407687 -0.1837092231098732 0 0.04384416339129027 -0.19224611530111421 0 0.051330153515782247 -0.17849113508331041 0 0.037122704559522962 -0.1803168735087794 0 0.013665005934331211 -0.18750908436963901 0 0.018761544846157479 -0.19000984924694531 0 0.01773518973515963 -0.1819458888957764 0 0.018761544846157479 -0.19000984924694531 0 0.01773518973515963 -0.1819458888957764 0 0.024805350841866001 -0.1865109080109903 0 0.01773518973515963 -0.1819458888957764 0 0.024805350841866001 -0.1865109080109903 0 0.02532193143793102 -0.17898111604158101 0 0.037122704559522962 -0.1803168735087794 0 0.03057542533407687 -0.1837092231098732 0 0.02532193143793102 -0.17898111604158101 0 0.032136229536427127 -0.1901460159505371 0 0.024805350841866001 -0.1865109080109903 0 0.03057542533407687 -0.1837092231098732 0 0.024805350841866001 -0.1865109080109903 0 0.03057542533407687 -0.1837092231098732 0 0.02532193143793102 -0.17898111604158101 0 0.037122704559522962 -0.1803168735087794 0 0.02532193143793102 -0.17898111604158101 0 0.028351172506096169 -0.17093532640219039 0 0.02532193143793102 -0.17898111604158101 0 0.016317567146182151 -0.17198503158244821 0 0.028351172506096169 -0.17093532640219039 0 0.01773518973515963 -0.1819458888957764 0 0.02532193143793102 -0.17898111604158101 0 0.016317567146182151 -0.17198503158244821 0 0.016317567146182151 -0.17198503158244821 0 0.026498592662546491 -0.15916092077607891 0 0.01198937815494599 -0.1515718633305623 0 0.016317567146182151 -0.17198503158244821 0 0.028351172506096169 -0.17093532640219039 0 0.026498592662546491 -0.15916092077607891 0 0.016317567146182151 -0.17198503158244821 0 0.0091511013935732868 -0.17658508619936361 0 0.01198937815494599 -0.1515718633305623 0 -0.002862460002846737 -0.15948301651848881 0 -0.0021769760571534991 -0.1715651156863349 0 0.0091511013935732868 -0.17658508619936361 0 -0.002862460002846737 -0.15948301651848881 0 0.0091511013935732868 -0.17658508619936361 0 0.01198937815494599 -0.1515718633305623 0 0.0091511013935732868 -0.17658508619936361 0 0.01198937815494599 -0.1515718633305623 0 0.0073229988707017007 -0.19269582510052111 0 0.0091511013935732868 -0.17658508619936361 0 -0.001716520374770193 -0.18356086134659491 0 0.0073229988707017007 -0.19269582510052111 0 0.0091511013935732868 -0.17658508619936361 0 0.013665005934331211 -0.18750908436963901 0 0.0073229988707017007 -0.19269582510052111 0 0.0091511013935732868 -0.17658508619936361 0 0.01773518973515963 -0.1819458888957764 0 0.016317567146182151 -0.17198503158244821 0 0.0091511013935732868 -0.17658508619936361 0 0.016317567146182151 -0.17198503158244821 0 0.0091511013935732868 -0.17658508619936361 0 -0.0021769760571534991 -0.1715651156863349 0 -0.001716520374770193 -0.18356086134659491 0 0.0091511013935732868 -0.17658508619936361 0 -0.001716520374770193 -0.18356086134659491 0 0.0091511013935732868 -0.17658508619936361 0 0.013665005934331211 -0.18750908436963901 0 0.01773518973515963 -0.1819458888957764 0 0.0091511013935732868 -0.17658508619936361 0 0.027044046320462822 -0.1303162166611489 0 0.02842055614966784 -0.1428194405803746 0 0.01463486193421327 -0.12825769035520709 0 0.027044046320462822 -0.1303162166611489 0 0.01463486193421327 -0.12825769035520709 0 0.018851700960063399 -0.1164586796996341 0 0.02842055614966784 -0.1428194405803746 0 0.01198937815494599 -0.1515718633305623 0 0.026498592662546491 -0.15916092077607891 0 0.02842055614966784 -0.1428194405803746 0 0.01198937815494599 -0.1515718633305623 0 0.02842055614966784 -0.1428194405803746 0 0.01198937815494599 -0.1515718633305623 0 0.01463486193421327 -0.12825769035520709 0 -0.00021813125033820981 -0.14121417949905171 0 -0.002862460002846737 -0.15948301651848881 0 0.01198937815494599 -0.1515718633305623 0 -0.002862460002846737 -0.15948301651848881 0 0.01198937815494599 -0.1515718633305623 0 0.01198937815494599 -0.1515718633305623 0 0.01463486193421327 -0.12825769035520709 0 -0.00051383012936461261 -0.12115106769845869 0 -0.00021813125033820981 -0.14121417949905171 0 0.01463486193421327 -0.12825769035520709 0 -0.00021813125033820981 -0.14121417949905171 0 0.01198937815494599 -0.1515718633305623 0 0.01463486193421327 -0.12825769035520709 0 -0.00051383012936461261 -0.12115106769845869 0 0.013451089847699819 -0.10345084613446461 0 -0.00051383012936461261 -0.12115106769845869 0 0.01463486193421327 -0.12825769035520709 0 0.018851700960063399 -0.1164586796996341 0 -0.0097443134821825275 -0.10568296153180221 0 -0.00051383012936461261 -0.12115106769845869 0 0.013451089847699819 -0.10345084613446461 0 -0.00051383012936461261 -0.12115106769845869 0 0.018851700960063399 -0.1164586796996341 0 0.013451089847699819 -0.10345084613446461 0 0.018851700960063399 -0.1164586796996341 0 0.028985222770275671 -0.099438690446445585 0 0.031624226822419298 -0.1180379366099287 0 0.027044046320462822 -0.1303162166611489 0 0.018851700960063399 -0.1164586796996341 0 0.031624226822419298 -0.1180379366099287 0 0.018851700960063399 -0.1164586796996341 0 0.028985222770275671 -0.099438690446445585 0 0.013451089847699819 -0.10345084613446461 0 0.028985222770275671 -0.099438690446445585 0 0.02061700423608195 -0.094611564365618003 0 0.013451089847699819 -0.10345084613446461 0 0.02061700423608195 -0.094611564365618003 0 0.013451089847699819 -0.10345084613446461 0 0.014802697373948719 -0.092012585164660182 0 0.013451089847699819 -0.10345084613446461 0 0.0049108475916147332 -0.088758796278125912 0 0.014802697373948719 -0.092012585164660182 0 -0.0097443134821825275 -0.10568296153180221 0 -0.0036165696749490728 -0.094806956262067837 0 0.013451089847699819 -0.10345084613446461 0 -0.0036165696749490728 -0.094806956262067837 0 0.013451089847699819 -0.10345084613446461 0 0.0049108475916147332 -0.088758796278125912 0 -0.001818144037319683 -0.073153901583463868 0 0.02153428953391933 -0.085229880755675613 0 -0.001818144037319683 -0.073153901583463868 0 0.0066886753495183134 -0.082827876461960326 0 0.02153428953391933 -0.085229880755675613 0 -0.001818144037319683 -0.073153901583463868 0 0.02271559553046346 -0.081523215916455991 0 0.02153428953391933 -0.085229880755675613 0 0.0049108475916147332 -0.088758796278125912 0 0.0066886753495183134 -0.082827876461960326 0 0.011498417737940589 -0.086394490079967731 0 -0.001818144037319683 -0.073153901583463868 0 -0.0024121720072170631 -0.081149604640722323 0 0.0066886753495183134 -0.082827876461960326 0 -0.0024121720072170631 -0.081149604640722323 0 0.0049108475916147332 -0.088758796278125912 0 0.0066886753495183134 -0.082827876461960326 0 0.0066886753495183134 -0.082827876461960326 0 0.011498417737940589 -0.086394490079967731 0 0.02153428953391933 -0.085229880755675613 0 0.0049108475916147332 -0.088758796278125912 0 0.014802697373948719 -0.092012585164660182 0 0.011498417737940589 -0.086394490079967731 0 -0.001818144037319683 -0.073153901583463868 0 0.00054446795576909568 -0.065740571905023568 0 0.02271559553046346 -0.081523215916455991 0 0.00054446795576909568 -0.065740571905023568 0 0.02271559553046346 -0.081523215916455991 0 0.00054446795576909568 -0.065740571905023568 0 0.01488547279489217 -0.069058718540469868 0 0.02271559553046346 -0.081523215916455991 0 0.01488547279489217 -0.069058718540469868 0 0.0090327125127275237 -0.06275681988270411 0 0.019352796331291611 -0.059992601805486323 0 0.00054446795576909568 -0.065740571905023568 0 0.01488547279489217 -0.069058718540469868 0 0.0090327125127275237 -0.06275681988270411 0 0.01488547279489217 -0.069058718540469868 0 0.023690219765380272 -0.070729216811861687 0 0.019352796331291611 -0.059992601805486323 0 0.01488547279489217 -0.069058718540469868 0 0.023690219765380272 -0.070729216811861687 0 0.02271559553046346 -0.081523215916455991 0 0.023690219765380272 -0.070729216811861687 0 0.02271559553046346 -0.081523215916455991 0 0.035509877685808738 -0.07724704692715105 0 0.023690219765380272 -0.070729216811861687 0 0.029176346888741499 -0.065530909797946901 0 0.035509877685808738 -0.07724704692715105 0 0.023690219765380272 -0.070729216811861687 0 0.029176346888741499 -0.065530909797946901 0 0.019352796331291611 -0.059992601805486323 0 0.02271559553046346 -0.081523215916455991 0 0.02153428953391933 -0.085229880755675613 0 0.044886723105158143 -0.0973058599278879 0 0.014802697373948719 -0.092012585164660182 0 0.011498417737940589 -0.086394490079967731 0 0.02153428953391933 -0.085229880755675613 0 0.02061700423608195 -0.094611564365618003 0 0.014802697373948719 -0.092012585164660182 0 0.02153428953391933 -0.085229880755675613 0 0.028985222770275671 -0.099438690446445585 0 0.02061700423608195 -0.094611564365618003 0 0.02153428953391933 -0.085229880755675613 0 0.02271559553046346 -0.081523215916455991 0 0.035509877685808738 -0.07724704692715105 0 0.044886723105158143 -0.0973058599278879 0 0.02153428953391933 -0.085229880755675613 0 0.044886723105158143 -0.0973058599278879 0 0.02271559553046346 -0.081523215916455991 0 0.044886723105158143 -0.0973058599278879 0 0.035509877685808738 -0.07724704692715105 0 0.048136730363360532 -0.079684271428667963 0 0.044886723105158143 -0.0973058599278879 0 0.029176346888741499 -0.065530909797946901 0 0.035509877685808738 -0.07724704692715105 0 0.044453650461748567 -0.068708807680085943 0 0.035509877685808738 -0.07724704692715105 0 0.044453650461748567 -0.068708807680085943 0 0.048136730363360532 -0.079684271428667963 0 0.044453650461748567 -0.068708807680085943 0 0.061237722517209783 -0.0704425506612463 0 0.052271857815577603 -0.05034479583743727 0 0.044453650461748567 -0.068708807680085943 0 0.061237722517209783 -0.0704425506612463 0 0.048136730363360532 -0.079684271428667963 0 0.048136730363360532 -0.079684271428667963 0 0.060383405475292848 -0.089209767810746493 0 0.044886723105158143 -0.0973058599278879 0 0.061237722517209783 -0.0704425506612463 0 0.048136730363360532 -0.079684271428667963 0 0.060383405475292848 -0.089209767810746493 0 0.044886723105158143 -0.0973058599278879 0 0.068356265732779142 -0.11401278812335219 0 0.054833584109015017 -0.11262607327662599 0 0.047226113347387258 -0.11589554436725159 0 0.044886723105158143 -0.0973058599278879 0 0.054833584109015017 -0.11262607327662599 0 0.044886723105158143 -0.0973058599278879 0 0.068356265732779142 -0.11401278812335219 0 0.058806846412966941 -0.1045042154494613 0 0.044886723105158143 -0.0973058599278879 0 0.068356265732779142 -0.11401278812335219 0 0.060383405475292848 -0.089209767810746493 0 0.058806846412966941 -0.1045042154494613 0 0.044886723105158143 -0.0973058599278879 0 0.058806846412966941 -0.1045042154494613 0 0.044886723105158143 -0.0973058599278879 0 0.04485173414439024 -0.1340670178301879 0 0.058865234250735553 -0.12329010068801249 0 0.047226113347387258 -0.11589554436725159 0 0.054833584109015017 -0.11262607327662599 0 0.058865234250735553 -0.12329010068801249 0 0.068356265732779142 -0.11401278812335219 0 0.054833584109015017 -0.11262607327662599 0 0.058865234250735553 -0.12329010068801249 0 0.047226113347387258 -0.11589554436725159 0 0.04485173414439024 -0.1340670178301879 0 0.047226113347387258 -0.11589554436725159 0 0.031624226822419298 -0.1180379366099287 0 0.047226113347387258 -0.11589554436725159 0 0.031624226822419298 -0.1180379366099287 0 0.038180571511310088 -0.1076695078378784 0 0.028985222770275671 -0.099438690446445585 0 0.02153428953391933 -0.085229880755675613 0 0.044886723105158143 -0.0973058599278879 0 0.028985222770275671 -0.099438690446445585 0 0.031624226822419298 -0.1180379366099287 0 0.038180571511310088 -0.1076695078378784 0 0.028985222770275671 -0.099438690446445585 0 0.038180571511310088 -0.1076695078378784 0 0.044886723105158143 -0.0973058599278879 0 0.047226113347387258 -0.11589554436725159 0 0.038180571511310088 -0.1076695078378784 0 0.044886723105158143 -0.0973058599278879 0 0.017113146904798579 -0.014484369006268099 0 0.03064400719958554 -0.021002910132810831 0 0.034304151136240253 -0.0046500892954977006 0 0.017113146904798579 -0.014484369006268099 0 0.0122706565695259 -0.0055741078097889859 0 0.034304151136240253 -0.0046500892954977006 0 0.017113146904798579 -0.014484369006268099 0 0.034304151136240253 -0.0046500892954977006 0 -0.0035715171708147128 -0.026317230513622 0 0.017113146904798579 -0.014484369006268099 0 0.0122706565695259 -0.0055741078097889859 0 0.017113146904798579 -0.014484369006268099 0 0.0122706565695259 -0.0055741078097889859 0 -0.0035715171708147128 -0.026317230513622 0 0.017113146904798579 -0.014484369006268099 0 -0.0035715171708147128 -0.026317230513622 0 0.0122706565695259 -0.0055741078097889859 0 -0.0035715171708147128 -0.026317230513622 0 0.017113146904798579 -0.014484369006268099 0 0.01069819564410363 -0.02964713306915228 0 -0.0035715171708147128 -0.026317230513622 0 0.01069819564410363 -0.02964713306915228 0 0.0043718263274121734 -0.036099688687670467 0 0.017113146904798579 -0.014484369006268099 0 0.01069819564410363 -0.02964713306915228 0 0.020157280267794168 -0.031829491110852988 0 0.017113146904798579 -0.014484369006268099 0 0.02853677030723523 -0.035504022382642643 0 0.017113146904798579 -0.014484369006268099 0 0.02853677030723523 -0.035504022382642643 0 0.020157280267794168 -0.031829491110852988 0 0.017113146904798579 -0.014484369006268099 0 0.03064400719958554 -0.021002910132810831 0 0.02853677030723523 -0.035504022382642643 0 0.02629974553772307 -0.036101493452047197 0 0.02853677030723523 -0.035504022382642643 0 0.026904729907228701 -0.043467543494919797 0 0.02629974553772307 -0.036101493452047197 0 0.02853677030723523 -0.035504022382642643 0 0.020157280267794168 -0.031829491110852988 0 0.02629974553772307 -0.036101493452047197 0 0.02853677030723523 -0.035504022382642643 0 0.02853677030723523 -0.035504022382642643 0 0.026904729907228701 -0.043467543494919797 0 0.034334326551922111 -0.046171620429333371 0 0.026904729907228701 -0.043467543494919797 0 0.02253914697090385 -0.040579379115427062 0 0.021195436196661869 -0.048087929875156553 0 0.02629974553772307 -0.036101493452047197 0 0.026904729907228701 -0.043467543494919797 0 0.02253914697090385 -0.040579379115427062 0 0.02253914697090385 -0.040579379115427062 0 0.016458163287629252 -0.039423081961906033 0 0.021195436196661869 -0.048087929875156553 0 0.016458163287629252 -0.039423081961906033 0 0.012323640891488069 -0.049736999701186752 0 0.021195436196661869 -0.048087929875156553 0 0.016458163287629252 -0.039423081961906033 0 0.021363584016012589 -0.03698336141005832 0 0.020157280267794168 -0.031829491110852988 0 0.01069819564410363 -0.02964713306915228 0 0.016458163287629252 -0.039423081961906033 0 0.020157280267794168 -0.031829491110852988 0 0.02629974553772307 -0.036101493452047197 0 0.02253914697090385 -0.040579379115427062 0 0.021363584016012589 -0.03698336141005832 0 0.02253914697090385 -0.040579379115427062 0 0.016458163287629252 -0.039423081961906033 0 0.021363584016012589 -0.03698336141005832 0 0.02629974553772307 -0.036101493452047197 0 0.021363584016012589 -0.03698336141005832 0 0.020157280267794168 -0.031829491110852988 0 0.01069819564410363 -0.02964713306915228 0 0.016458163287629252 -0.039423081961906033 0 0.0043718263274121734 -0.036099688687670467 0 -0.0033234267383674778 -0.042950679409621197 0 0.0062544941311495333 -0.043966463102470897 0 0.0026901866096132711 -0.050198525173678121 0 -0.0033234267383674778 -0.042950679409621197 0 0.0043718263274121734 -0.036099688687670467 0 0.0062544941311495333 -0.043966463102470897 0 0.016458163287629252 -0.039423081961906033 0 0.0043718263274121734 -0.036099688687670467 0 0.0062544941311495333 -0.043966463102470897 0 0.016458163287629252 -0.039423081961906033 0 0.0062544941311495333 -0.043966463102470897 0 0.012323640891488069 -0.049736999701186752 0 0.012323640891488069 -0.049736999701186752 0 0.0026901866096132711 -0.050198525173678121 0 0.0092748904325984302 -0.056793050814120227 0 0.0062544941311495333 -0.043966463102470897 0 0.012323640891488069 -0.049736999701186752 0 0.0026901866096132711 -0.050198525173678121 0 0.00054446795576909568 -0.065740571905023568 0 0.0090327125127275237 -0.06275681988270411 0 0.0026116530460322772 -0.057796347036650757 0 0.0026901866096132711 -0.050198525173678121 0 0.0026116530460322772 -0.057796347036650757 0 0.0092748904325984302 -0.056793050814120227 0 0.0090327125127275237 -0.06275681988270411 0 0.0026116530460322772 -0.057796347036650757 0 0.0092748904325984302 -0.056793050814120227 0 0.012323640891488069 -0.049736999701186752 0 0.0092748904325984302 -0.056793050814120227 0 0.019352796331291611 -0.059992601805486323 0 0.0090327125127275237 -0.06275681988270411 0 0.0092748904325984302 -0.056793050814120227 0 0.019352796331291611 -0.059992601805486323 0 0.019352796331291611 -0.059992601805486323 0 0.021195436196661869 -0.048087929875156553 0 0.028836397690420741 -0.054669063113515839 0 0.012323640891488069 -0.049736999701186752 0 0.019352796331291611 -0.059992601805486323 0 0.021195436196661869 -0.048087929875156553 0 0.026904729907228701 -0.043467543494919797 0 0.021195436196661869 -0.048087929875156553 0 0.028836397690420741 -0.054669063113515839 0 0.026904729907228701 -0.043467543494919797 0 0.028836397690420741 -0.054669063113515839 0 0.034334326551922111 -0.046171620429333371 0 0.029176346888741499 -0.065530909797946901 0 0.019352796331291611 -0.059992601805486323 0 0.028836397690420741 -0.054669063113515839 0 0.028836397690420741 -0.054669063113515839 0 0.052271857815577603 -0.05034479583743727 0 0.034334326551922111 -0.046171620429333371 0 0.029176346888741499 -0.065530909797946901 0 0.052271857815577603 -0.05034479583743727 0 0.029176346888741499 -0.065530909797946901 0 0.044453650461748567 -0.068708807680085943 0 0.052271857815577603 -0.05034479583743727 0 0.029176346888741499 -0.065530909797946901 0 0.028836397690420741 -0.054669063113515839 0 0.052271857815577603 -0.05034479583743727 0 0.061237722517209783 -0.0704425506612463 0 0.052271857815577603 -0.05034479583743727 0 0.070900805939892536 -0.055786727705204112 0 0.052271857815577603 -0.05034479583743727 0 0.06129657965387833 -0.035090017702156931 0 0.048694620788251999 -0.03012020515896666 0 0.02853677030723523 -0.035504022382642643 0 0.042621960450068393 -0.029373159846839181 0 0.048694620788251999 -0.03012020515896666 0 0.02853677030723523 -0.035504022382642643 0 0.034334326551922111 -0.046171620429333371 0 0.048694620788251999 -0.03012020515896666 0 0.02853677030723523 -0.035504022382642643 0 0.048694620788251999 -0.03012020515896666 0 0.052271857815577603 -0.05034479583743727 0 0.034334326551922111 -0.046171620429333371 0 0.048694620788251999 -0.03012020515896666 0 0.02853677030723523 -0.035504022382642643 0 0.034334326551922111 -0.046171620429333371 0 0.042621960450068393 -0.029373159846839181 0 0.034304151136240253 -0.0046500892954977006 0 0.03064400719958554 -0.021002910132810831 0 0.042621960450068393 -0.029373159846839181 0 0.034304151136240253 -0.0046500892954977006 0 0.042621960450068393 -0.029373159846839181 0 0.041063122926013967 -0.014474288935996329 0 0.034304151136240253 -0.0046500892954977006 0 0.03064400719958554 -0.021002910132810831 0 0.02853677030723523 -0.035504022382642643 0 0.042621960450068393 -0.029373159846839181 0 0.046258611461687187 -0.022276101749063349 0 0.042621960450068393 -0.029373159846839181 0 0.041063122926013967 -0.014474288935996329 0 0.045776383501470001 -0.017319118731857971 0 0.046258611461687187 -0.022276101749063349 0 0.041063122926013967 -0.014474288935996329 0 0.046258611461687187 -0.022276101749063349 0 0.042621960450068393 -0.029373159846839181 0 0.048694620788251999 -0.03012020515896666 0 0.048694620788251999 -0.03012020515896666 0 0.056884340209880591 -0.021940062416641429 0 0.068852471269270271 -0.02473638793529603 0 0.048694620788251999 -0.03012020515896666 0 0.068852471269270271 -0.02473638793529603 0 0.06129657965387833 -0.035090017702156931 0 0.048694620788251999 -0.03012020515896666 0 0.068852471269270271 -0.02473638793529603 0 0.046258611461687187 -0.022276101749063349 0 0.048694620788251999 -0.03012020515896666 0 0.056884340209880591 -0.021940062416641429 0 0.056884340209880591 -0.021940062416641429 0 0.067734526826214586 -0.022947941433418339 0 0.06287487338398455 -0.019341839126347089 0 0.060655241958543708 -0.017255524713707421 0 0.057869800338057331 -0.018626519077860091 0 0.06287487338398455 -0.019341839126347089 0 0.060655241958543708 -0.017255524713707421 0 0.056511024414781397 -0.01603263235476093 0 0.059001286620974161 -0.01456932385826238 0 0.060655241958543708 -0.017255524713707421 0 0.062726596036944693 -0.01510286019012845 0 0.06287487338398455 -0.019341839126347089 0 0.060655241958543708 -0.017255524713707421 0 0.059001286620974161 -0.01456932385826238 0 0.062726596036944693 -0.01510286019012845 0 0.056884340209880591 -0.021940062416641429 0 0.057869800338057331 -0.018626519077860091 0 0.06287487338398455 -0.019341839126347089 0 0.056884340209880591 -0.021940062416641429 0 0.054731172339097189 -0.018045863781704571 0 0.057869800338057331 -0.018626519077860091 0 0.060655241958543708 -0.017255524713707421 0 0.057869800338057331 -0.018626519077860091 0 0.056511024414781397 -0.01603263235476093 0 0.054731172339097189 -0.018045863781704571 0 0.057869800338057331 -0.018626519077860091 0 0.056511024414781397 -0.01603263235476093 0 0.054731172339097189 -0.018045863781704571 0 0.056511024414781397 -0.01603263235476093 0 0.052676322128763053 -0.01505181742481526 0 0.054731172339097189 -0.018045863781704571 0 0.049714374604003582 -0.018578287634445131 0 0.052676322128763053 -0.01505181742481526 0 0.056884340209880591 -0.021940062416641429 0 0.054731172339097189 -0.018045863781704571 0 0.049714374604003582 -0.018578287634445131 0 0.046258611461687187 -0.022276101749063349 0 0.056884340209880591 -0.021940062416641429 0 0.049714374604003582 -0.018578287634445131 0 0.049714374604003582 -0.018578287634445131 0 0.049826676976093082 -0.01376233463260536 0 0.052676322128763053 -0.01505181742481526 0 0.045776383501470001 -0.017319118731857971 0 0.046258611461687187 -0.022276101749063349 0 0.049714374604003582 -0.018578287634445131 0 0.045776383501470001 -0.017319118731857971 0 0.049714374604003582 -0.018578287634445131 0 0.04606942501417529 -0.01394779660792706 0 0.049714374604003582 -0.018578287634445131 0 0.049826676976093082 -0.01376233463260536 0 0.04606942501417529 -0.01394779660792706 0 0.049826676976093082 -0.01376233463260536 0 0.048353598728911727 -0.01101130561510393 0 0.04606942501417529 -0.01394779660792706 0 0.049826676976093082 -0.01376233463260536 0 0.048353598728911727 -0.01101130561510393 0 0.051420326703619783 -0.0108349663380074 0 0.048515238899595602 -0.0079586442023750707 0 0.051420326703619783 -0.0108349663380074 0 0.05225148085656809 -0.0067019104907116208 0 0.048515238899595602 -0.0079586442023750707 0 0.048353598728911727 -0.01101130561510393 0 0.0453887564622205 -0.01046460677317068 0 0.048515238899595602 -0.0079586442023750707 0 0.048353598728911727 -0.01101130561510393 0 0.051420326703619783 -0.0108349663380074 0 0.051420326703619783 -0.0108349663380074 0 0.055392256242581428 -0.0086915816225324478 0 0.05225148085656809 -0.0067019104907116208 0 0.051420326703619783 -0.0108349663380074 0 0.055891642723662829 -0.01268864570225446 0 0.055392256242581428 -0.0086915816225324478 0 0.049826676976093082 -0.01376233463260536 0 0.051420326703619783 -0.0108349663380074 0 0.052676322128763053 -0.01505181742481526 0 0.051420326703619783 -0.0108349663380074 0 0.052676322128763053 -0.01505181742481526 0 0.055891642723662829 -0.01268864570225446 0 0.056511024414781397 -0.01603263235476093 0 0.052676322128763053 -0.01505181742481526 0 0.055891642723662829 -0.01268864570225446 0 0.056511024414781397 -0.01603263235476093 0 0.055891642723662829 -0.01268864570225446 0 0.059001286620974161 -0.01456932385826238 0 0.055891642723662829 -0.01268864570225446 0 0.059782040481084743 -0.010885307433545349 0 0.059001286620974161 -0.01456932385826238 0 0.055392256242581428 -0.0086915816225324478 0 0.059782040481084743 -0.010885307433545349 0 0.058711429017939028 -0.0061943734285001134 0 0.055891642723662829 -0.01268864570225446 0 0.055392256242581428 -0.0086915816225324478 0 0.059782040481084743 -0.010885307433545349 0 0.059782040481084743 -0.010885307433545349 0 0.063051716082351453 -0.0071272338021825532 0 0.064097049977326639 -0.01141497262736246 0 0.059782040481084743 -0.010885307433545349 0 0.058711429017939028 -0.0061943734285001134 0 0.063051716082351453 -0.0071272338021825532 0 0.059782040481084743 -0.010885307433545349 0 0.062726596036944693 -0.01510286019012845 0 0.064097049977326639 -0.01141497262736246 0 0.059782040481084743 -0.010885307433545349 0 0.059001286620974161 -0.01456932385826238 0 0.062726596036944693 -0.01510286019012845 0 0.061144204342010108 -0.0032216576268612432 0 0.058711429017939028 -0.0061943734285001134 0 0.057621307896374631 -0.0022194826214428308 0 0.059064100454841291 0.0019859127964279031 0 0.061144204342010108 -0.0032216576268612432 0 0.066051670772587168 -0.0013996614558420869 0 0.059064100454841291 0.0019859127964279031 0 0.061144204342010108 -0.0032216576268612432 0 0.057621307896374631 -0.0022194826214428308 0 0.061144204342010108 -0.0032216576268612432 0 0.058711429017939028 -0.0061943734285001134 0 0.063051716082351453 -0.0071272338021825532 0 0.058711429017939028 -0.0061943734285001134 0 0.054938034639911752 -0.0044211180700760499 0 0.057621307896374631 -0.0022194826214428308 0 0.055392256242581428 -0.0086915816225324478 0 0.058711429017939028 -0.0061943734285001134 0 0.054938034639911752 -0.0044211180700760499 0 0.054570243933502537 0.00025638892382715879 0 0.054938034639911752 -0.0044211180700760499 0 0.057621307896374631 -0.0022194826214428308 0 0.054570243933502537 0.00025638892382715879 0 0.054938034639911752 -0.0044211180700760499 0 0.051732812259684631 -0.0029202261819517902 0 0.051440149982638711 0.00071573179540184361 0 0.054570243933502537 0.00025638892382715879 0 0.051732812259684631 -0.0029202261819517902 0 0.055392256242581428 -0.0086915816225324478 0 0.054938034639911752 -0.0044211180700760499 0 0.05225148085656809 -0.0067019104907116208 0 0.054938034639911752 -0.0044211180700760499 0 0.051732812259684631 -0.0029202261819517902 0 0.05225148085656809 -0.0067019104907116208 0 0.051732812259684631 -0.0029202261819517902 0 0.05225148085656809 -0.0067019104907116208 0 0.049761039220024783 -0.0047506179669398827 0 0.048515238899595602 -0.0079586442023750707 0 0.05225148085656809 -0.0067019104907116208 0 0.049761039220024783 -0.0047506179669398827 0 0.048515238899595602 -0.0079586442023750707 0 0.049761039220024783 -0.0047506179669398827 0 0.046783712454016142 -0.004440235442344803 0 0.051440149982638711 0.00071573179540184361 0 0.051732812259684631 -0.0029202261819517902 0 0.049084708219886461 -0.0010591366939475409 0 0.051732812259684631 -0.0029202261819517902 0 0.049761039220024783 -0.0047506179669398827 0 0.049084708219886461 -0.0010591366939475409 0 0.049761039220024783 -0.0047506179669398827 0 0.049084708219886461 -0.0010591366939475409 0 0.046783712454016142 -0.004440235442344803 0 0.049084708219886461 -0.0010591366939475409 0 0.046267370754784952 -0.001581008668838677 0 0.046783712454016142 -0.004440235442344803 0 0.045577883269561643 0.001356711203132103 0 0.049084708219886461 -0.0010591366939475409 0 0.046267370754784952 -0.001581008668838677 0 0.045577883269561643 0.001356711203132103 0 0.046267370754784952 -0.001581008668838677 0 0.044398023908916742 -0.00047599892084176752 0 0.046267370754784952 -0.001581008668838677 0 0.04490981848498906 -0.0031004115632199008 0 0.044398023908916742 -0.00047599892084176752 0 0.046267370754784952 -0.001581008668838677 0 0.04490981848498906 -0.0031004115632199008 0 0.046783712454016142 -0.004440235442344803 0 0.043282173419621518 -0.0020433983233804119 0 0.04211425813502731 -0.00366996572884837 0 0.043844058310513717 -0.0047823449204898588 0 0.04490981848498906 -0.0031004115632199008 0 0.043282173419621518 -0.0020433983233804119 0 0.043844058310513717 -0.0047823449204898588 0 0.04490981848498906 -0.0031004115632199008 0 0.043282173419621518 -0.0020433983233804119 0 0.044398023908916742 -0.00047599892084176752 0 0.042884969485449703 0.00071947726916594989 0 0.043282173419621518 -0.0020433983233804119 0 0.044398023908916742 -0.00047599892084176752 0 0.042884969485449703 0.00071947726916594989 0 0.043282173419621518 -0.0020433983233804119 0 0.041591041672707017 -0.0010959405660773741 0 0.042884969485449703 0.00071947726916594989 0 0.039943424991382682 0.00017342641415403869 0 0.041591041672707017 -0.0010959405660773741 0 0.043282173419621518 -0.0020433983233804119 0 0.041591041672707017 -0.0010959405660773741 0 0.04211425813502731 -0.00366996572884837 0 0.041591041672707017 -0.0010959405660773741 0 0.04211425813502731 -0.00366996572884837 0 0.040428413982109029 -0.0027164825758079609 0 0.04211425813502731 -0.00366996572884837 0 0.040428413982109029 -0.0027164825758079609 0 0.041143530859242189 -0.005329173617386343 0 0.040428413982109029 -0.0027164825758079609 0 0.039473663055008087 -0.0042780295657500354 0 0.038226370096844098 -0.0026601186837432768 0 0.039943424991382682 0.00017342641415403869 0 0.040428413982109029 -0.0027164825758079609 0 0.038226370096844098 -0.0026601186837432768 0 0.039943424991382682 0.00017342641415403869 0 0.041591041672707017 -0.0010959405660773741 0 0.040428413982109029 -0.0027164825758079609 0 0.04022574293118699 -0.0070962556306693432 0 0.039607926928832693 -0.0091790676658551479 0 0.037768378554715307 -0.0061058974810905622 0 0.04022574293118699 -0.0070962556306693432 0 0.039473663055008087 -0.0042780295657500354 0 0.037768378554715307 -0.0061058974810905622 0 0.04022574293118699 -0.0070962556306693432 0 0.039473663055008087 -0.0042780295657500354 0 0.041143530859242189 -0.005329173617386343 0 0.040428413982109029 -0.0027164825758079609 0 0.039473663055008087 -0.0042780295657500354 0 0.041143530859242189 -0.005329173617386343 0 0.041143530859242189 -0.005329173617386343 0 0.042779120669202378 -0.0064648494056756926 0 0.043844058310513717 -0.0047823449204898588 0 0.04211425813502731 -0.00366996572884837 0 0.041143530859242189 -0.005329173617386343 0 0.043844058310513717 -0.0047823449204898588 0 0.04022574293118699 -0.0070962556306693432 0 0.041143530859242189 -0.005329173617386343 0 0.042779120669202378 -0.0064648494056756926 0 0.04022574293118699 -0.0070962556306693432 0 0.042779120669202378 -0.0064648494056756926 0 0.042280756610599629 -0.0086963015270690898 0 0.042779120669202378 -0.0064648494056756926 0 0.043844058310513717 -0.0047823449204898588 0 0.044931940567691321 -0.0071344970451875317 0 0.042779120669202378 -0.0064648494056756926 0 0.044931940567691321 -0.0071344970451875317 0 0.042280756610599629 -0.0086963015270690898 0 0.043844058310513717 -0.0047823449204898588 0 0.046783712454016142 -0.004440235442344803 0 0.044931940567691321 -0.0071344970451875317 0 0.04490981848498906 -0.0031004115632199008 0 0.043844058310513717 -0.0047823449204898588 0 0.046783712454016142 -0.004440235442344803 0 0.048515238899595602 -0.0079586442023750707 0 0.046783712454016142 -0.004440235442344803 0 0.044931940567691321 -0.0071344970451875317 0 0.048515238899595602 -0.0079586442023750707 0 0.044931940567691321 -0.0071344970451875317 0 0.0453887564622205 -0.01046460677317068 0 0.0453887564622205 -0.01046460677317068 0 0.042280756610599629 -0.0086963015270690898 0 0.042814567728820023 -0.011560040057604011 0 0.044931940567691321 -0.0071344970451875317 0 0.0453887564622205 -0.01046460677317068 0 0.042280756610599629 -0.0086963015270690898 0 0.045776383501470001 -0.017319118731857971 0 0.04606942501417529 -0.01394779660792706 0 0.041063122926013967 -0.014474288935996329 0 0.04606942501417529 -0.01394779660792706 0 0.041063122926013967 -0.014474288935996329 0 0.042814567728820023 -0.011560040057604011 0 0.048353598728911727 -0.01101130561510393 0 0.0453887564622205 -0.01046460677317068 0 0.04606942501417529 -0.01394779660792706 0 0.0453887564622205 -0.01046460677317068 0 0.04606942501417529 -0.01394779660792706 0 0.042814567728820023 -0.011560040057604011 0 0.041063122926013967 -0.014474288935996329 0 0.042814567728820023 -0.011560040057604011 0 0.039607926928832693 -0.0091790676658551479 0 0.042280756610599629 -0.0086963015270690898 0 0.042814567728820023 -0.011560040057604011 0 0.039607926928832693 -0.0091790676658551479 0 0.04022574293118699 -0.0070962556306693432 0 0.042280756610599629 -0.0086963015270690898 0 0.039607926928832693 -0.0091790676658551479 0 0.041063122926013967 -0.014474288935996329 0 0.039607926928832693 -0.0091790676658551479 0 0.034304151136240253 -0.0046500892954977006 0 0.034304151136240253 -0.0046500892954977006 0 0.036760601409293207 -0.00017021607206089449 0 0.038226370096844098 -0.0026601186837432768 0 0.039943424991382682 0.00017342641415403869 0 0.036760601409293207 -0.00017021607206089449 0 0.038226370096844098 -0.0026601186837432768 0 0.039473663055008087 -0.0042780295657500354 0 0.038226370096844098 -0.0026601186837432768 0 0.038048354023545547 -0.0045948630751457163 0 0.034304151136240253 -0.0046500892954977006 0 0.038226370096844098 -0.0026601186837432768 0 0.038048354023545547 -0.0045948630751457163 0 0.039607926928832693 -0.0091790676658551479 0 0.034304151136240253 -0.0046500892954977006 0 0.037768378554715307 -0.0061058974810905622 0 0.039473663055008087 -0.0042780295657500354 0 0.038048354023545547 -0.0045948630751457163 0 0.037768378554715307 -0.0061058974810905622 0 0.034304151136240253 -0.0046500892954977006 0 0.038048354023545547 -0.0045948630751457163 0 0.037768378554715307 -0.0061058974810905622 0 0.080983079341953854 -0.0049042304712999746 0 0.08768456037129746 -0.019706658909340681 0 0.095293300726640384 -0.0026303323679718791 0 0.080983079341953854 -0.0049042304712999746 0 0.073330492630761634 -0.01437381166027475 0 0.08768456037129746 -0.019706658909340681 0 0.073284976120953346 0.0031879796578754439 0 0.080983079341953854 -0.0049042304712999746 0 0.073133913320343205 -0.0043620011616135506 0 0.073284976120953346 0.0031879796578754439 0 0.073133913320343205 -0.0043620011616135506 0 0.066051670772587168 -0.0013996614558420869 0 0.073133913320343205 -0.0043620011616135506 0 0.066051670772587168 -0.0013996614558420869 0 0.06797049077981579 -0.0088887686497702394 0 0.061144204342010108 -0.0032216576268612432 0 0.063051716082351453 -0.0071272338021825532 0 0.066051670772587168 -0.0013996614558420869 0 0.063051716082351453 -0.0071272338021825532 0 0.066051670772587168 -0.0013996614558420869 0 0.06797049077981579 -0.0088887686497702394 0 0.064097049977326639 -0.01141497262736246 0 0.06797049077981579 -0.0088887686497702394 0 0.066954406506436567 -0.0150706930611857 0 0.062726596036944693 -0.01510286019012845 0 0.064097049977326639 -0.01141497262736246 0 0.066954406506436567 -0.0150706930611857 0 0.063051716082351453 -0.0071272338021825532 0 0.064097049977326639 -0.01141497262736246 0 0.06797049077981579 -0.0088887686497702394 0 0.06797049077981579 -0.0088887686497702394 0 0.066954406506436567 -0.0150706930611857 0 0.073330492630761634 -0.01437381166027475 0 0.080983079341953854 -0.0049042304712999746 0 0.073133913320343205 -0.0043620011616135506 0 0.073330492630761634 -0.01437381166027475 0 0.073133913320343205 -0.0043620011616135506 0 0.06797049077981579 -0.0088887686497702394 0 0.073330492630761634 -0.01437381166027475 0 0.068852471269270271 -0.02473638793529603 0 0.08768456037129746 -0.019706658909340681 0 0.075367368742413815 -0.035158681876927562 0 0.073330492630761634 -0.01437381166027475 0 0.068852471269270271 -0.02473638793529603 0 0.08768456037129746 -0.019706658909340681 0 0.073330492630761634 -0.01437381166027475 0 0.067734526826214586 -0.022947941433418339 0 0.068852471269270271 -0.02473638793529603 0 0.066954406506436567 -0.0150706930611857 0 0.073330492630761634 -0.01437381166027475 0 0.067734526826214586 -0.022947941433418339 0 0.066954406506436567 -0.0150706930611857 0 0.067734526826214586 -0.022947941433418339 0 0.06287487338398455 -0.019341839126347089 0 0.056884340209880591 -0.021940062416641429 0 0.067734526826214586 -0.022947941433418339 0 0.068852471269270271 -0.02473638793529603 0 0.062726596036944693 -0.01510286019012845 0 0.066954406506436567 -0.0150706930611857 0 0.06287487338398455 -0.019341839126347089 0 0.067734526826214586 -0.022947941433418339 0 0.068852471269270271 -0.02473638793529603 0 0.068852471269270271 -0.02473638793529603 0 0.075367368742413815 -0.035158681876927562 0 0.08768456037129746 -0.019706658909340681 0 0.090942009107869745 -0.024917805880157899 0 0.075367368742413815 -0.035158681876927562 0 0.068852471269270271 -0.02473638793529603 0 0.08768456037129746 -0.019706658909340681 0 0.090942009107869745 -0.024917805880157899 0 0.075367368742413815 -0.035158681876927562 0 0.089361858802177424 -0.039478299451192571 0 0.075367368742413815 -0.035158681876927562 0 0.08711416874746869 -0.053950781527142243 0 0.089361858802177424 -0.039478299451192571 0 0.08711416874746869 -0.053950781527142243 0 0.1034824900067197 -0.041397128395915993 0 0.075367368742413815 -0.035158681876927562 0 0.08711416874746869 -0.053950781527142243 0 0.090942009107869745 -0.024917805880157899 0 0.089361858802177424 -0.039478299451192571 0 0.075367368742413815 -0.035158681876927562 0 0.052271857815577603 -0.05034479583743727 0 0.06129657965387833 -0.035090017702156931 0 0.075367368742413815 -0.035158681876927562 0 0.052271857815577603 -0.05034479583743727 0 0.075367368742413815 -0.035158681876927562 0 0.06129657965387833 -0.035090017702156931 0 0.068852471269270271 -0.02473638793529603 0 0.075367368742413815 -0.035158681876927562 0 0.052271857815577603 -0.05034479583743727 0 0.075367368742413815 -0.035158681876927562 0 0.070900805939892536 -0.055786727705204112 0 0.075367368742413815 -0.035158681876927562 0 0.070900805939892536 -0.055786727705204112 0 0.08711416874746869 -0.053950781527142243 0 0.070900805939892536 -0.055786727705204112 0 0.08711416874746869 -0.053950781527142243 0 0.080463742915549544 -0.070421200587395386 0 0.08711416874746869 -0.053950781527142243 0 0.1088016876639164 -0.05712503381925936 0 0.09886096875252387 -0.072742881177356722 0 0.08711416874746869 -0.053950781527142243 0 0.1088016876639164 -0.05712503381925936 0 0.1034824900067197 -0.041397128395915993 0 0.1088016876639164 -0.05712503381925936 0 0.12490347535430819 -0.04244780923243234 0 0.1034824900067197 -0.041397128395915993 0 0.1088016876639164 -0.05712503381925936 0 0.12490347535430819 -0.04244780923243234 0 0.12479666283625621 -0.068405031158979418 0 0.12490347535430819 -0.04244780923243234 0 0.1142606425988844 -0.028806579349397472 0 0.12977362870875031 -0.02445184795514314 0 0.12490347535430819 -0.04244780923243234 0 0.1034824900067197 -0.041397128395915993 0 0.1142606425988844 -0.028806579349397472 0 0.090942009107869745 -0.024917805880157899 0 0.089361858802177424 -0.039478299451192571 0 0.1034824900067197 -0.041397128395915993 0 0.090942009107869745 -0.024917805880157899 0 0.1034824900067197 -0.041397128395915993 0 0.1142606425988844 -0.028806579349397472 0 0.090942009107869745 -0.024917805880157899 0 0.1142606425988844 -0.028806579349397472 0 0.1065166494733252 -0.01467692988338746 0 0.08768456037129746 -0.019706658909340681 0 0.090942009107869745 -0.024917805880157899 0 0.1065166494733252 -0.01467692988338746 0 0.08768456037129746 -0.019706658909340681 0 0.1065166494733252 -0.01467692988338746 0 0.090942009107869745 -0.024917805880157899 0 0.1065166494733252 -0.01467692988338746 0 0.1142606425988844 -0.028806579349397472 0 0.1065166494733252 -0.01467692988338746 0 0.12977362870875031 -0.02445184795514314 0 0.1206640635614146 -0.0053745055608071489 0 0.1065166494733252 -0.01467692988338746 0 0.1065166494733252 -0.01467692988338746 0 0.13505410338374099 -0.0070550638502339322 0 0.1206640635614146 -0.0053745055608071489 0 0.1065166494733252 -0.01467692988338746 0 0.13505410338374099 -0.0070550638502339322 0 0.1065166494733252 -0.01467692988338746 0 0.13505410338374099 -0.0070550638502339322 0 0.12977362870875031 -0.02445184795514314 0 0.1085702234887449 0.0020309669460380048 0 0.1206640635614146 -0.0053745055608071489 0 0.1065166494733252 -0.01467692988338746 0 0.1085702234887449 0.0020309669460380048 0 0.1065166494733252 -0.01467692988338746 0 0.095293300726640384 -0.0026303323679718791 0 0.08768456037129746 -0.019706658909340681 0 0.1065166494733252 -0.01467692988338746 0 0.095293300726640384 -0.0026303323679718791 0 0.080545375583657597 -0.1041725303211104 0 0.09322734423696083 -0.1013987076767236 0 0.086221728363336914 -0.1172488560499296 0 0.080545375583657597 -0.1041725303211104 0 0.084335166156216973 -0.09427917845731601 0 0.072210464360319179 -0.096983220224375694 0 0.084335166156216973 -0.09427917845731601 0 0.09322734423696083 -0.1013987076767236 0 0.092328839936476212 -0.08658826599449071 0 0.080545375583657597 -0.1041725303211104 0 0.084335166156216973 -0.09427917845731601 0 0.09322734423696083 -0.1013987076767236 0 0.091825808360400649 -0.13071971631881599 0 0.086221728363336914 -0.1172488560499296 0 0.068356265732779142 -0.11401278812335219 0 0.091825808360400649 -0.13071971631881599 0 0.068356265732779142 -0.11401278812335219 0 0.080545375583657597 -0.1041725303211104 0 0.086221728363336914 -0.1172488560499296 0 0.072726969720775483 -0.1117025709710351 0 0.072651104250291351 -0.13027573411947399 0 0.058865234250735553 -0.12329010068801249 0 0.068356265732779142 -0.11401278812335219 0 0.086221728363336914 -0.1172488560499296 0 0.072726969720775483 -0.1117025709710351 0 0.068356265732779142 -0.11401278812335219 0 0.058806846412966941 -0.1045042154494613 0 0.072726969720775483 -0.1117025709710351 0 0.068356265732779142 -0.11401278812335219 0 0.058806846412966941 -0.1045042154494613 0 0.072726969720775483 -0.1117025709710351 0 0.071072414019429792 -0.1043406342414956 0 0.058806846412966941 -0.1045042154494613 0 0.071072414019429792 -0.1043406342414956 0 0.072210464360319179 -0.096983220224375694 0 0.058806846412966941 -0.1045042154494613 0 0.072726969720775483 -0.1117025709710351 0 0.080545375583657597 -0.1041725303211104 0 0.071072414019429792 -0.1043406342414956 0 0.072210464360319179 -0.096983220224375694 0 0.080545375583657597 -0.1041725303211104 0 0.072726969720775483 -0.1117025709710351 0 0.071072414019429792 -0.1043406342414956 0 0.060383405475292848 -0.089209767810746493 0 0.058806846412966941 -0.1045042154494613 0 0.072210464360319179 -0.096983220224375694 0 0.060383405475292848 -0.089209767810746493 0 0.072210464360319179 -0.096983220224375694 0 0.077021946092742558 -0.086338489172839983 0 0.061237722517209783 -0.0704425506612463 0 0.060383405475292848 -0.089209767810746493 0 0.077021946092742558 -0.086338489172839983 0 0.084335166156216973 -0.09427917845731601 0 0.072210464360319179 -0.096983220224375694 0 0.077021946092742558 -0.086338489172839983 0 0.061237722517209783 -0.0704425506612463 0 0.070900805939892536 -0.055786727705204112 0 0.080463742915549544 -0.070421200587395386 0 0.061237722517209783 -0.0704425506612463 0 0.077021946092742558 -0.086338489172839983 0 0.080463742915549544 -0.070421200587395386 0 0.08711416874746869 -0.053950781527142243 0 0.080463742915549544 -0.070421200587395386 0 0.09886096875252387 -0.072742881177356722 0 0.080463742915549544 -0.070421200587395386 0 0.092328839936476212 -0.08658826599449071 0 0.09886096875252387 -0.072742881177356722 0 0.08711416874746869 -0.053950781527142243 0 0.09886096875252387 -0.072742881177356722 0 0.077021946092742558 -0.086338489172839983 0 0.080463742915549544 -0.070421200587395386 0 0.092328839936476212 -0.08658826599449071 0 0.084335166156216973 -0.09427917845731601 0 0.077021946092742558 -0.086338489172839983 0 0.092328839936476212 -0.08658826599449071 0 0.09886096875252387 -0.072742881177356722 0 0.11060776875757911 -0.091534980827571222 0 0.092328839936476212 -0.08658826599449071 0 0.09886096875252387 -0.072742881177356722 0 0.11060776875757911 -0.091534980827571222 0 0.09322734423696083 -0.1013987076767236 0 0.092328839936476212 -0.08658826599449071 0 0.11060776875757911 -0.091534980827571222 0 0.1088016876639164 -0.05712503381925936 0 0.09886096875252387 -0.072742881177356722 0 0.12479666283625621 -0.068405031158979418 0 0.09886096875252387 -0.072742881177356722 0 0.12479666283625621 -0.068405031158979418 0 0.11060776875757911 -0.091534980827571222 0 0.12479666283625621 -0.068405031158979418 0 0.11060776875757911 -0.091534980827571222 0 0.13593192218240729 -0.088862871851813727 0 0.11060776875757911 -0.091534980827571222 0 0.10420946126282191 -0.1149812348698503 0 0.12666681042280259 -0.1148879963719676 0 0.11060776875757911 -0.091534980827571222 0 0.12666681042280259 -0.1148879963719676 0 0.13593192218240729 -0.088862871851813727 0 0.09322734423696083 -0.1013987076767236 0 0.11060776875757911 -0.091534980827571222 0 0.10420946126282191 -0.1149812348698503 0 0.091825808360400649 -0.13071971631881599 0 0.086221728363336914 -0.1172488560499296 0 0.10420946126282191 -0.1149812348698503 0 0.1132019957566571 -0.12895631246466679 0 0.091825808360400649 -0.13071971631881599 0 0.10420946126282191 -0.1149812348698503 0 0.09322734423696083 -0.1013987076767236 0 0.086221728363336914 -0.1172488560499296 0 0.10420946126282191 -0.1149812348698503 0 0.1132019957566571 -0.12895631246466679 0 0.10420946126282191 -0.1149812348698503 0 0.12666681042280259 -0.1148879963719676 0 0.12666681042280259 -0.1148879963719676 0 0.1503130674830869 -0.10695650818788111 0 0.14888234198181921 -0.1357392333427821 0 0.1503130674830869 -0.10695650818788111 0 0.16578351114589851 -0.1221417877286588 0 0.14888234198181921 -0.1357392333427821 0 0.12666681042280259 -0.1148879963719676 0 0.1503130674830869 -0.10695650818788111 0 0.13593192218240729 -0.088862871851813727 0 0.12479666283625621 -0.068405031158979418 0 0.13593192218240729 -0.088862871851813727 0 0.1494701134419979 -0.064610924285134333 0 0.13593192218240729 -0.088862871851813727 0 0.1494701134419979 -0.064610924285134333 0 0.16155092347560529 -0.083332678459940468 0 0.1503130674830869 -0.10695650818788111 0 0.13593192218240729 -0.088862871851813727 0 0.16155092347560529 -0.083332678459940468 0 0.1494701134419979 -0.064610924285134333 0 0.16155092347560529 -0.083332678459940468 0 0.17189572680083079 -0.058054136643499073 0 0.16155092347560529 -0.083332678459940468 0 0.18515665152110669 -0.075193858518680212 0 0.17189572680083079 -0.058054136643499073 0 0.18515665152110669 -0.075193858518680212 0 0.17189572680083079 -0.058054136643499073 0 0.19621632506442571 -0.057759059181732852 0 0.16155092347560529 -0.083332678459940468 0 0.18515665152110669 -0.075193858518680212 0 0.1783963638818615 -0.1012450325521123 0 0.1783963638818615 -0.1012450325521123 0 0.16578351114589851 -0.1221417877286588 0 0.18630600456307289 -0.12577295684399159 0 0.1503130674830869 -0.10695650818788111 0 0.1783963638818615 -0.1012450325521123 0 0.16578351114589851 -0.1221417877286588 0 0.1503130674830869 -0.10695650818788111 0 0.16155092347560529 -0.083332678459940468 0 0.1783963638818615 -0.1012450325521123 0 0.163591557294157 0.00056680218291868187 0 0.1456097857692818 -0.015521694566750699 0 0.13505410338374099 -0.0070550638502339322 0 0.163591557294157 0.00056680218291868187 0 0.13505410338374099 -0.0070550638502339322 0 0.12169987808444491 0.0072513285582684502 0 0.1206640635614146 -0.0053745055608071489 0 0.13505410338374099 -0.0070550638502339322 0 0.1456097857692818 -0.015521694566750699 0 0.12977362870875031 -0.02445184795514314 0 0.14222620758064261 -0.033553288622734108 0 0.1456097857692818 -0.015521694566750699 0 0.13505410338374099 -0.0070550638502339322 0 0.12977362870875031 -0.02445184795514314 0 0.1456097857692818 -0.015521694566750699 0 0.14222620758064261 -0.033553288622734108 0 0.15688891758083279 -0.029809355500732451 0 0.1551972609504457 -0.044614508756090847 0 0.14222620758064261 -0.033553288622734108 0 0.14107332800271 -0.04958216049235771 0 0.1551972609504457 -0.044614508756090847 0 0.14222620758064261 -0.033553288622734108 0 0.15688891758083279 -0.029809355500732451 0 0.12490347535430819 -0.04244780923243234 0 0.12977362870875031 -0.02445184795514314 0 0.14222620758064261 -0.033553288622734108 0 0.12490347535430819 -0.04244780923243234 0 0.14222620758064261 -0.033553288622734108 0 0.14107332800271 -0.04958216049235771 0 0.12479666283625621 -0.068405031158979418 0 0.1494701134419979 -0.064610924285134333 0 0.14107332800271 -0.04958216049235771 0 0.12490347535430819 -0.04244780923243234 0 0.12479666283625621 -0.068405031158979418 0 0.14107332800271 -0.04958216049235771 0 0.1494701134419979 -0.064610924285134333 0 0.1551972609504457 -0.044614508756090847 0 0.14107332800271 -0.04958216049235771 0 0.1494701134419979 -0.064610924285134333 0 0.1551972609504457 -0.044614508756090847 0 0.17189572680083079 -0.058054136643499073 0 0.17189572680083079 -0.058054136643499073 0 0.1851893271919331 -0.045158550986680077 0 0.19621632506442571 -0.057759059181732852 0 0.1851893271919331 -0.045158550986680077 0 0.17162809768848411 -0.036287805495520332 0 0.19623390951770331 -0.023774123916953171 0 0.17189572680083079 -0.058054136643499073 0 0.1851893271919331 -0.045158550986680077 0 0.17162809768848411 -0.036287805495520332 0 0.1551972609504457 -0.044614508756090847 0 0.17189572680083079 -0.058054136643499073 0 0.17162809768848411 -0.036287805495520332 0 0.1551972609504457 -0.044614508756090847 0 0.17162809768848411 -0.036287805495520332 0 0.15688891758083279 -0.029809355500732451 0 0.1456097857692818 -0.015521694566750699 0 0.17092184764349261 -0.019647909241851939 0 0.1456097857692818 -0.015521694566750699 0 0.17092184764349261 -0.019647909241851939 0 0.15688891758083279 -0.029809355500732451 0 0.17162809768848411 -0.036287805495520332 0 0.17092184764349261 -0.019647909241851939 0 0.15688891758083279 -0.029809355500732451 0 0.17162809768848411 -0.036287805495520332 0 0.17092184764349261 -0.019647909241851939 0 0.19623390951770331 -0.023774123916953171 0 0.17092184764349261 -0.019647909241851939 0 0.19623390951770331 -0.023774123916953171 0 0.17092184764349261 -0.019647909241851939 0 0.18566852940922329 -0.0088860214450327806 0 0.19623390951770331 -0.023774123916953171 0 0.163591557294157 0.00056680218291868187 0 0.17092184764349261 -0.019647909241851939 0 0.18566852940922329 -0.0088860214450327806 0 0.19212901120457321 0.0081886682160713375 0 0.163591557294157 0.00056680218291868187 0 0.18566852940922329 -0.0088860214450327806 0 0.163591557294157 0.00056680218291868187 0 0.1456097857692818 -0.015521694566750699 0 0.17092184764349261 -0.019647909241851939 0 0.18566852940922329 -0.0088860214450327806 0 0.20864284802578281 -0.0065324788891540156 0 0.19623390951770331 -0.023774123916953171 0 0.19212901120457321 0.0081886682160713375 0 0.18566852940922329 -0.0088860214450327806 0 0.20864284802578281 -0.0065324788891540156 0 0.19623390951770331 -0.023774123916953171 0 0.22154597139191409 -0.027900338592054399 0 0.19623390951770331 -0.023774123916953171 0 0.20050840357150401 -0.040768807803306363 0 0.22154597139191409 -0.027900338592054399 0 0.20864284802578281 -0.0065324788891540156 0 0.19623390951770331 -0.023774123916953171 0 0.22154597139191409 -0.027900338592054399 0 0.20050840357150401 -0.040768807803306363 0 0.213465200455912 -0.052567621061818497 0 0.22154597139191409 -0.027900338592054399 0 0.1851893271919331 -0.045158550986680077 0 0.19623390951770331 -0.023774123916953171 0 0.20050840357150401 -0.040768807803306363 0 0.1851893271919331 -0.045158550986680077 0 0.20050840357150401 -0.040768807803306363 0 0.19621632506442571 -0.057759059181732852 0 0.20050840357150401 -0.040768807803306363 0 0.19621632506442571 -0.057759059181732852 0 0.213465200455912 -0.052567621061818497 0 0.19621632506442571 -0.057759059181732852 0 0.213465200455912 -0.052567621061818497 0 0.20661309150214471 -0.071185393621547799 0 0.213465200455912 -0.052567621061818497 0 0.23145906209765199 -0.049728063818740821 0 0.22557396829825299 -0.064385512185646102 0 0.213465200455912 -0.052567621061818497 0 0.23145906209765199 -0.049728063818740821 0 0.23145906209765199 -0.049728063818740821 0 0.24052393531032029 -0.054942700078618442 0 0.22557396829825299 -0.064385512185646102 0 0.24052393531032029 -0.054942700078618442 0 0.22557396829825299 -0.064385512185646102 0 0.24193210565152751 -0.065305200451343373 0 0.24052393531032029 -0.054942700078618442 0 0.249462220344529 -0.049513941626465573 0 0.24193210565152751 -0.065305200451343373 0 0.23145906209765199 -0.049728063818740821 0 0.24052393531032029 -0.054942700078618442 0 0.24945292373939221 -0.046888506575663548 0 0.23145906209765199 -0.049728063818740821 0 0.24945292373939221 -0.046888506575663548 0 0.24052393531032029 -0.054942700078618442 0 0.24945292373939221 -0.046888506575663548 0 0.249462220344529 -0.049513941626465573 0 0.24945292373939221 -0.046888506575663548 0 0.249462220344529 -0.049513941626465573 0 0.23145906209765199 -0.049728063818740821 0 0.24945292373939221 -0.046888506575663548 0 0.2381248104927054 -0.033535920902004919 0 0.24945292373939221 -0.046888506575663548 0 0.24934833894078609 -0.017352929662964419 0 0.24945292373939221 -0.046888506575663548 0 0.2381248104927054 -0.033535920902004919 0 0.24934833894078609 -0.017352929662964419 0 0.23145906209765199 -0.049728063818740821 0 0.2381248104927054 -0.033535920902004919 0 0.22154597139191409 -0.027900338592054399 0 0.213465200455912 -0.052567621061818497 0 0.23145906209765199 -0.049728063818740821 0 0.22154597139191409 -0.027900338592054399 0 0.2381248104927054 -0.033535920902004919 0 0.22154597139191409 -0.027900338592054399 0 0.24934833894078609 -0.017352929662964419 0 0.22154597139191409 -0.027900338592054399 0 0.24934833894078609 -0.017352929662964419 0 0.23561320151629339 -0.0026335918461790988 0 0.24924375414218081 0.01218264724973479 0 0.24934833894078609 -0.017352929662964419 0 0.24924375414218081 0.01218264724973479 0 0.24934833894078609 -0.017352929662964419 0 0.23561320151629339 -0.0026335918461790988 0 0.20864284802578281 -0.0065324788891540156 0 0.22154597139191409 -0.027900338592054399 0 0.23561320151629339 -0.0026335918461790988 0 0.2048480382592244 -0.10561703804644219 0 0.223390071955376 -0.085461119248892797 0 0.224794100967453 -0.10416879855523629 0 0.2048480382592244 -0.10561703804644219 0 0.223390071955376 -0.085461119248892797 0 0.2048480382592244 -0.10561703804644219 0 0.21366435644586451 -0.120007417424299 0 0.224794100967453 -0.10416879855523629 0 0.2048480382592244 -0.10561703804644219 0 0.18630600456307289 -0.12577295684399159 0 0.2048480382592244 -0.10561703804644219 0 0.21366435644586451 -0.120007417424299 0 0.18630600456307289 -0.12577295684399159 0 0.1783963638818615 -0.1012450325521123 0 0.2048480382592244 -0.10561703804644219 0 0.18630600456307289 -0.12577295684399159 0 0.1783963638818615 -0.1012450325521123 0 0.2048480382592244 -0.10561703804644219 0 0.19968084342394271 -0.087740488397535066 0 0.18515665152110669 -0.075193858518680212 0 0.1783963638818615 -0.1012450325521123 0 0.19968084342394271 -0.087740488397535066 0 0.18515665152110669 -0.075193858518680212 0 0.19621632506442571 -0.057759059181732852 0 0.20661309150214471 -0.071185393621547799 0 0.18515665152110669 -0.075193858518680212 0 0.19968084342394271 -0.087740488397535066 0 0.20661309150214471 -0.071185393621547799 0 0.213465200455912 -0.052567621061818497 0 0.20661309150214471 -0.071185393621547799 0 0.22557396829825299 -0.064385512185646102 0 0.20661309150214471 -0.071185393621547799 0 0.223390071955376 -0.085461119248892797 0 0.22557396829825299 -0.064385512185646102 0 0.2048480382592244 -0.10561703804644219 0 0.19968084342394271 -0.087740488397535066 0 0.223390071955376 -0.085461119248892797 0 0.19968084342394271 -0.087740488397535066 0 0.20661309150214471 -0.071185393621547799 0 0.223390071955376 -0.085461119248892797 0 0.223390071955376 -0.085461119248892797 0 0.24409979373027321 -0.08419048956157503 0 0.23285679334907869 -0.09445883998852958 0 0.223390071955376 -0.085461119248892797 0 0.22557396829825299 -0.064385512185646102 0 0.24193210565152751 -0.065305200451343373 0 0.223390071955376 -0.085461119248892797 0 0.24193210565152751 -0.065305200451343373 0 0.25788891384778417 -0.078562395337112748 0 0.24193210565152751 -0.065305200451343373 0 0.24409979373027321 -0.08419048956157503 0 0.223390071955376 -0.085461119248892797 0 0.24193210565152751 -0.065305200451343373 0 0.24409979373027321 -0.08419048956157503 0 0.24409979373027321 -0.08419048956157503 0 0.23914320674321241 -0.1040149525884142 0 0.23285679334907869 -0.09445883998852958 0 0.25014461766983942 -0.1056157606165187 0 0.24409979373027321 -0.08419048956157503 0 0.23914320674321241 -0.1040149525884142 0 0.25014461766983942 -0.1056157606165187 0 0.23914320674321241 -0.1040149525884142 0 0.2462752805337094 -0.1164302520937919 0 0.23914320674321241 -0.1040149525884142 0 0.23285679334907869 -0.09445883998852958 0 0.224794100967453 -0.10416879855523629 0 0.223390071955376 -0.085461119248892797 0 0.23285679334907869 -0.09445883998852958 0 0.224794100967453 -0.10416879855523629 0 0.23914320674321241 -0.1040149525884142 0 0.224794100967453 -0.10416879855523629 0 0.23276065978702179 -0.11765059754847949 0 0.21366435644586451 -0.120007417424299 0 0.23276065978702179 -0.11765059754847949 0 0.22549002802868121 -0.13523141650051079 0 0.21366435644586451 -0.120007417424299 0 0.224794100967453 -0.10416879855523629 0 0.23276065978702179 -0.11765059754847949 0 0.23276065978702179 -0.11765059754847949 0 0.2462752805337094 -0.1164302520937919 0 0.24205581363735401 -0.12861510377613511 0 0.23914320674321241 -0.1040149525884142 0 0.23276065978702179 -0.11765059754847949 0 0.2462752805337094 -0.1164302520937919 0 0.25176187605930839 -0.1237749620808777 0 0.2462752805337094 -0.1164302520937919 0 0.24205581363735401 -0.12861510377613511 0 0.24205581363735401 -0.12861510377613511 0 0.2391989365397568 -0.14131525574514431 0 0.22549002802868121 -0.13523141650051079 0 0.25277327120285892 -0.13174155060927689 0 0.24630144909439439 -0.1366621448626984 0 0.24205581363735401 -0.12861510377613511 0 0.25176187605930839 -0.1237749620808777 0 0.25277327120285892 -0.13174155060927689 0 0.24205581363735401 -0.12861510377613511 0 0.24630144909439439 -0.1366621448626984 0 0.24205581363735401 -0.12861510377613511 0 0.2391989365397568 -0.14131525574514431 0 0.24784948648729269 -0.1473367807090844 0 0.24004608470840699 -0.15461002437933191 0 0.24978916718025401 -0.16190726118607571 0 0.24784948648729269 -0.1473367807090844 0 0.2391989365397568 -0.14131525574514431 0 0.24004608470840699 -0.15461002437933191 0 0.25348559013088362 -0.13826493822524219 0 0.24630144909439439 -0.1366621448626984 0 0.24784948648729269 -0.1473367807090844 0 0.24630144909439439 -0.1366621448626984 0 0.24784948648729269 -0.1473367807090844 0 0.2391989365397568 -0.14131525574514431 0 0.2391989365397568 -0.14131525574514431 0 0.24004608470840699 -0.15461002437933191 0 0.22751609099415659 -0.1500858901442472 0 0.22751609099415659 -0.1500858901442472 0 0.21177334993597691 -0.14952210558037621 0 0.2206039927190046 -0.16256708534647479 0 0.22751609099415659 -0.1500858901442472 0 0.22549002802868121 -0.13523141650051079 0 0.21177334993597691 -0.14952210558037621 0 0.2391989365397568 -0.14131525574514431 0 0.22751609099415659 -0.1500858901442472 0 0.22549002802868121 -0.13523141650051079 0 0.23276065978702179 -0.11765059754847949 0 0.24205581363735401 -0.12861510377613511 0 0.22549002802868121 -0.13523141650051079 0 0.22549002802868121 -0.13523141650051079 0 0.20616796932508941 -0.1348267058079263 0 0.21177334993597691 -0.14952210558037621 0 0.21366435644586451 -0.120007417424299 0 0.22549002802868121 -0.13523141650051079 0 0.20616796932508941 -0.1348267058079263 0 0.20616796932508941 -0.1348267058079263 0 0.21177334993597691 -0.14952210558037621 0 0.19269920577047239 -0.1446439405644884 0 0.21177334993597691 -0.14952210558037621 0 0.19269920577047239 -0.1446439405644884 0 0.2016681834789808 -0.16217040365414109 0 0.21366435644586451 -0.120007417424299 0 0.20616796932508941 -0.1348267058079263 0 0.18630600456307289 -0.12577295684399159 0 0.20616796932508941 -0.1348267058079263 0 0.19269920577047239 -0.1446439405644884 0 0.18630600456307289 -0.12577295684399159 0 0.20074904151738401 -0.17533010588893011 0 0.20057275522871759 -0.1885206899547818 0 0.1802516352578645 -0.17478308873167631 0 0.20074904151738401 -0.17533010588893011 0 0.2016681834789808 -0.16217040365414109 0 0.1802516352578645 -0.17478308873167631 0 0.19269920577047239 -0.1446439405644884 0 0.2016681834789808 -0.16217040365414109 0 0.1802516352578645 -0.17478308873167631 0 0.20074904151738401 -0.17533010588893011 0 0.2016681834789808 -0.16217040365414109 0 0.21393997749994439 -0.17518248218532231 0 0.2016681834789808 -0.16217040365414109 0 0.21393997749994439 -0.17518248218532231 0 0.2016681834789808 -0.16217040365414109 0 0.21393997749994439 -0.17518248218532231 0 0.2206039927190046 -0.16256708534647479 0 0.21177334993597691 -0.14952210558037621 0 0.2016681834789808 -0.16217040365414109 0 0.2206039927190046 -0.16256708534647479 0 0.21393997749994439 -0.17518248218532231 0 0.2194073160147639 -0.18988074059589249 0 0.20057275522871759 -0.1885206899547818 0 0.20074904151738401 -0.17533010588893011 0 0.21393997749994439 -0.17518248218532231 0 0.20057275522871759 -0.1885206899547818 0 0.22347716088692299 -0.17382490049597771 0 0.2331529018078346 -0.16935547373561041 0 0.2262117715209081 -0.1881945607165034 0 0.21393997749994439 -0.17518248218532231 0 0.2194073160147639 -0.18988074059589249 0 0.2262117715209081 -0.1881945607165034 0 0.21393997749994439 -0.17518248218532231 0 0.2262117715209081 -0.1881945607165034 0 0.21393997749994439 -0.17518248218532231 0 0.22347716088692299 -0.17382490049597771 0 0.2262117715209081 -0.1881945607165034 0 0.24004608470840699 -0.15461002437933191 0 0.22751609099415659 -0.1500858901442472 0 0.2331529018078346 -0.16935547373561041 0 0.22751609099415659 -0.1500858901442472 0 0.2206039927190046 -0.16256708534647479 0 0.2331529018078346 -0.16935547373561041 0 0.22347716088692299 -0.17382490049597771 0 0.2206039927190046 -0.16256708534647479 0 0.2331529018078346 -0.16935547373561041 0 0.21393997749994439 -0.17518248218532231 0 0.22347716088692299 -0.17382490049597771 0 0.2206039927190046 -0.16256708534647479 0 0.24004608470840699 -0.15461002437933191 0 0.2331529018078346 -0.16935547373561041 0 0.24978916718025401 -0.16190726118607571 0 0.25422100649276402 -0.18125372490620401 0 0.2331529018078346 -0.16935547373561041 0 0.24978916718025401 -0.16190726118607571 0 0.25422100649276402 -0.18125372490620401 0 0.2331529018078346 -0.16935547373561041 0 0.2262117715209081 -0.1881945607165034 0 0.25422100649276402 -0.18125372490620401 0 0.2262117715209081 -0.1881945607165034 0 0.24577709228845779 -0.20894014118177259 0 0.2262117715209081 -0.1881945607165034 0 0.25422100649276402 -0.18125372490620401 0 0.2473321467029129 -0.19438791307811501 0 0.2262117715209081 -0.1881945607165034 0 0.2473321467029129 -0.19438791307811501 0 0.24577709228845779 -0.20894014118177259 0 0.2262117715209081 -0.1881945607165034 0 0.24577709228845779 -0.20894014118177259 0 0.22722137850880811 -0.2068412868888187 0 0.2390432584826839 -0.22742997107546259 0 0.22722137850880811 -0.2068412868888187 0 0.2194073160147639 -0.18988074059589249 0 0.2262117715209081 -0.1881945607165034 0 0.24577709228845779 -0.20894014118177259 0 0.22722137850880811 -0.2068412868888187 0 0.2262117715209081 -0.1881945607165034 0 0.2194073160147639 -0.18988074059589249 0 0.2262117715209081 -0.1881945607165034 0 0.25728640421358012 -0.23480601073524321 0 0.2359657753849061 -0.24686569655727211 0 0.25728640421358012 -0.23480601073524321 0 0.2359657753849061 -0.24686569655727211 0 0.2390432584826839 -0.22742997107546259 0 0.25728640421358012 -0.23480601073524321 0 0.24577709228845779 -0.20894014118177259 0 0.2390432584826839 -0.22742997107546259 0 0.22722137850880811 -0.2068412868888187 0 0.2390432584826839 -0.22742997107546259 0 0.22022722571427539 -0.22754404956096971 0 0.2359657753849061 -0.24686569655727211 0 0.2390432584826839 -0.22742997107546259 0 0.22022722571427539 -0.22754404956096971 0 0.2359657753849061 -0.24686569655727211 0 0.22022722571427539 -0.22754404956096971 0 0.21515344991645319 -0.24530421796328999 0 0.20270426843027989 -0.25754390902865992 0 0.21515344991645319 -0.24530421796328999 0 0.19522005737280809 -0.2299569689296653 0 0.22022722571427539 -0.22754404956096971 0 0.21515344991645319 -0.24530421796328999 0 0.19522005737280809 -0.2299569689296653 0 0.22022722571427539 -0.22754404956096971 0 0.19522005737280809 -0.2299569689296653 0 0.2082382417191922 -0.2078525269959848 0 0.20270426843027989 -0.25754390902865992 0 0.19522005737280809 -0.2299569689296653 0 0.18477260126701189 -0.24804654939694321 0 0.20270426843027989 -0.25754390902865992 0 0.19522005737280809 -0.2299569689296653 0 0.2194073160147639 -0.18988074059589249 0 0.2082382417191922 -0.2078525269959848 0 0.20057275522871759 -0.1885206899547818 0 0.22722137850880811 -0.2068412868888187 0 0.2194073160147639 -0.18988074059589249 0 0.2082382417191922 -0.2078525269959848 0 0.22722137850880811 -0.2068412868888187 0 0.22022722571427539 -0.22754404956096971 0 0.2082382417191922 -0.2078525269959848 0 0.19522005737280809 -0.2299569689296653 0 0.2082382417191922 -0.2078525269959848 0 0.1877358463153363 -0.20237002883067071 0 0.19522005737280809 -0.2299569689296653 0 0.1877358463153363 -0.20237002883067071 0 0.1877358463153363 -0.20237002883067071 0 0.20057275522871759 -0.1885206899547818 0 0.1802516352578645 -0.17478308873167631 0 0.2082382417191922 -0.2078525269959848 0 0.1877358463153363 -0.20237002883067071 0 0.20057275522871759 -0.1885206899547818 0 0.1877358463153363 -0.20237002883067071 0 0.1802516352578645 -0.17478308873167631 0 0.1646471283011533 -0.187444270672665 0 0.1877358463153363 -0.20237002883067071 0 0.15298211160985969 -0.20783397486573291 0 0.1646471283011533 -0.187444270672665 0 0.1877358463153363 -0.20237002883067071 0 0.17063936040815461 -0.23254049392898379 0 0.15298211160985969 -0.20783397486573291 0 0.1877358463153363 -0.20237002883067071 0 0.1802516352578645 -0.17478308873167631 0 0.19522005737280809 -0.2299569689296653 0 0.18477260126701189 -0.24804654939694321 0 0.17063936040815461 -0.23254049392898379 0 0.17090619971108759 -0.25322506140830192 0 0.18477260126701189 -0.24804654939694321 0 0.17063936040815461 -0.23254049392898379 0 0.19522005737280809 -0.2299569689296653 0 0.1877358463153363 -0.20237002883067071 0 0.17063936040815461 -0.23254049392898379 0 0.17090619971108759 -0.25322506140830192 0 0.17063936040815461 -0.23254049392898379 0 0.1567649187369701 -0.2477814471462626 0 0.17063936040815461 -0.23254049392898379 0 0.1567649187369701 -0.2477814471462626 0 0.14480626874807001 -0.23445706608907391 0 0.1442300507489096 -0.25955745300895983 0 0.1567649187369701 -0.2477814471462626 0 0.14480626874807001 -0.23445706608907391 0 0.14480626874807001 -0.23445706608907391 0 0.15298211160985969 -0.20783397486573291 0 0.12522972808992511 -0.21829503339356829 0 0.17063936040815461 -0.23254049392898379 0 0.14480626874807001 -0.23445706608907391 0 0.15298211160985969 -0.20783397486573291 0 0.11733468885727009 -0.24119947634711811 0 0.14480626874807001 -0.23445706608907391 0 0.12522972808992511 -0.21829503339356829 0 0.1284018024931908 -0.25439569680934893 0 0.11733468885727009 -0.24119947634711811 0 0.14480626874807001 -0.23445706608907391 0 0.1284018024931908 -0.25439569680934893 0 0.1442300507489096 -0.25955745300895983 0 0.14480626874807001 -0.23445706608907391 0 0.15298211160985969 -0.20783397486573291 0 0.1447628847994073 -0.18351103583810949 0 0.1646471283011533 -0.187444270672665 0 0.15298211160985969 -0.20783397486573291 0 0.13022061167876001 -0.1966054580212783 0 0.1447628847994073 -0.18351103583810949 0 0.15298211160985969 -0.20783397486573291 0 0.12522972808992511 -0.21829503339356829 0 0.13022061167876001 -0.1966054580212783 0 0.1163428853765546 -0.1739781751317093 0 0.1447628847994073 -0.18351103583810949 0 0.1163428853765546 -0.1739781751317093 0 0.13022061167876001 -0.1966054580212783 0 0.1447628847994073 -0.18351103583810949 0 0.1447628847994073 -0.18351103583810949 0 0.1646471283011533 -0.187444270672665 0 0.1578326324784233 -0.1643268130829082 0 0.1447628847994073 -0.18351103583810949 0 0.13570756930478459 -0.15697766912763211 0 0.1578326324784233 -0.1643268130829082 0 0.1163428853765546 -0.1739781751317093 0 0.1447628847994073 -0.18351103583810949 0 0.13570756930478459 -0.15697766912763211 0 0.13570756930478459 -0.15697766912763211 0 0.12801254774923829 -0.1367659702484201 0 0.14888234198181921 -0.1357392333427821 0 0.1152953509880221 -0.14742664451427989 0 0.13570756930478459 -0.15697766912763211 0 0.12801254774923829 -0.1367659702484201 0 0.12666681042280259 -0.1148879963719676 0 0.12801254774923829 -0.1367659702484201 0 0.14888234198181921 -0.1357392333427821 0 0.13570756930478459 -0.15697766912763211 0 0.14888234198181921 -0.1357392333427821 0 0.1578326324784233 -0.1643268130829082 0 0.14888234198181921 -0.1357392333427821 0 0.17276742420039279 -0.14719614863268191 0 0.1578326324784233 -0.1643268130829082 0 0.16578351114589851 -0.1221417877286588 0 0.14888234198181921 -0.1357392333427821 0 0.17276742420039279 -0.14719614863268191 0 0.19269920577047239 -0.1446439405644884 0 0.18630600456307289 -0.12577295684399159 0 0.17276742420039279 -0.14719614863268191 0 0.16578351114589851 -0.1221417877286588 0 0.18630600456307289 -0.12577295684399159 0 0.17276742420039279 -0.14719614863268191 0 0.19269920577047239 -0.1446439405644884 0 0.17276742420039279 -0.14719614863268191 0 0.1802516352578645 -0.17478308873167631 0 0.17276742420039279 -0.14719614863268191 0 0.1802516352578645 -0.17478308873167631 0 0.1802516352578645 -0.17478308873167631 0 0.1646471283011533 -0.187444270672665 0 0.1578326324784233 -0.1643268130829082 0 0.17276742420039279 -0.14719614863268191 0 0.1802516352578645 -0.17478308873167631 0 0.1578326324784233 -0.1643268130829082 0 
</DataArray>
</Points>
<Cells>
<DataArray type="UInt32" Name="connectivity" format="ascii">
0 1 2 3 4 5 6 7 8 9 10 11 12 13 14 15 16 17 18 19 20 21 22 23 24 25 26 27 28 29 30 31 32 33 34 35 36 37 38 39 40 41 42 43 44 45 46 47 48 49 50 51 52 53 54 55 56 57 58 59 60 61 62 63 64 65 66 67 68 69 70 71 72 73 74 75 76 77 78 79 80 81 82 83 84 85 86 87 88 89 90 91 92 93 94 95 96 97 98 99 100 101 102 103 104 105 106 107 108 109 110 111 112 113 114 115 116 117 118 119 120 121 122 123 124 125 126 127 128 129 130 131 132 133 134 135 136 137 138 139 140 141 142 143 144 145 146 147 148 149 150 151 152 153 154 155 156 157 158 159 160 161 162 163 164 165 166 167 168 169 170 171 172 173 174 175 176 177 178 179 180 181 182 183 184 185 186 187 188 189 190 191 192 193 194 195 196 197 198 199 200 201 202 203 204 205 206 207 208 209 210 211 212 213 214 215 216 217 218 219 220 221 222 223 224 225 226 227 228 229 230 231 232 233 234 235 236 237 238 239 240 241 242 243 244 245 246 247 248 249 250 251 252 253 254 255 256 257 258 259 260 261 262 263 264 265 266 267 268 269 270 271 272 273 274 275 276 277 278 279 280 281 282 283 284 285 286 287 288 289 290 291 292 293 294 295 296 297 298 299 300 301 302 303 304 305 306 307 308 309 310 311 312 313 314 315 316 317 318 319 320 321 322 323 324 325 326 327 328 329 330 331 332 333 334 335 336 337 338 339 340 341 342 343 344 345 346 347 348 349 350 351 352 353 354 355 356 357 358 359 360 361 362 363 364 365 366 367 368 369 370 371 372 373 374 375 376 377 378 379 380 381 382 383 384 385 386 387 388 389 390 391 392 393 394 395 396 397 398 399 400 401 402 403 404 405 406 407 408 409 410 411 412 413 414 415 416 417 418 419 420 421 422 423 424 425 426 427 428 429 430 431 432 433 434 435 436 437 438 439 440 441 442 443 444 445 446 447 448 449 450 451 452 453 454 455 456 457 458 459 460 461 462 463 464 465 466 467 468 469 470 471 472 473 474 475 476 477 478 479 480 481 482 483 484 485 486 487 488 489 490 491 492 493 494 495 496 497 498 499 500 501 502 503 504 505 506 507 508 509 510 511 512 513 514 515 516 517 518 519 520 521 522 523 524 525 526 527 528 529 530 531 532 533 534 535 536 537 538 539 540 541 542 543 544 545 546 547 548 549 550 551 552 553 554 555 556 557 558 559 560 561 562 563 564 565 566 567 568 569 570 571 572 573 574 575 576 577 578 579 580 581 582 583 584 585 586 587 588 589 590 591 592 593 594 595 596 597 598 599 600 601 602 603 604 605 606 607 608 609 610 611 612 613 614 615 616 617 618 619 620 621 622 623 624 625 626 627 628 629 630 631 632 633 634 635 636 637 638 639 640 641 642 643 644 645 646 647 648 649 650 651 652 653 654 655 656 657 658 659 660 661 662 663 664 665 666 667 668 669 670 671 672 673 674 675 676 677 678 679 680 681 682 683 684 685 686 687 688 689 690 691 692 693 694 695 696 697 698 699 700 701 702 703 704 705 706 707 708 709 710 711 712 713 714 715 716 717 718 719 720 721 722 723 724 725 726 727 728 729 730 731 732 733 734 735 736 737 738 739 740 741 742 743 744 745 746 747 748 749 750 751 752 753 754 755 756 757 758 759 760 761 762 763 764 765 766 767 768 769 770 771 772 773 774 775 776 777 778 779 780 781 782 783 784 785 786 787 788 789 790 791 792 793 794 795 796 797 798 799 800 801 802 803 804 805 806 807 808 809 810 811 812 813 814 815 816 817 818 819 820 821 822 823 824 825 826 827 828 829 830 831 832 833 834 835 836 837 838 839 840 841 842 843 844 845 846 847 848 849 850 851 852 853 854 855 856 857 858 859 860 861 862 863 864 865 866 867 868 869 870 871 872 873 874 875 876 877 878 879 880 881 882 883 884 885 886 887 888 889 890 891 892 893 894 895 896 897 898 899 900 901 902 903 904 905 906 907 908 909 910 911 912 913 914 915 916 917 918 919 920 921 922 923 924 925 926 927 928 929 930 931 932 933 934 935 936 937 938 939 940 941 942 943 944 945 946 947 948 949 950 951 952 953 954 955 956 957 958 959 960 961 962 963 964 965 966 967 968 969 970 971 972 973 974 975 976 977 978 979 980 981 982 983 984 985 986 987 988 989 990 991 992 993 994 995 996 997 998 999 1000 1001 1002 1003 1004 1005 1006 1007 1008 1009 1010 1011 1012 1013 1014 1015 1016 1017 1018 1019 1020 1021 1022 1023 1024 1025 1026 1027 1028 1029 1030 1031 1032 1033 1034 1035 1036 1037 1038 1039 1040 1041 1042 1043 1044 1045 1046 1047 1048 1049 1050 1051 1052 1053 1054 1055 1056 1057 1058 1059 1060 1061 1062 1063 1064 1065 1066 1067 1068 1069 1070 1071 1072 1073 1074 1075 1076 1077 1078 1079 1080 1081 1082 1083 1084 1085 1086 1087 1088 1089 1090 1091 1092 1093 1094 1095 1096 1097 1098 1099 1100 1101 1102 1103 1104 1105 1106 1107 1108 1109 1110 1111 1112 1113 1114 1115 1116 1117 1118 1119 1120 1121 1122 1123 1124 1125 1126 1127 1128 1129 1130 1131 1132 1133 1134 1135 1136 1137 1138 1139 1140 1141 1142 1143 1144 1145 1146 1147 1148 1149 1150 1151 1152 1153 1154 1155 1156 1157 1158 1159 1160 1161 1162 1163 1164 1165 1166 1167 1168 1169 1170 1171 1172 1173 1174 1175 1176 1177 1178 1179 1180 1181 1182 1183 1184 1185 1186 1187 1188 1189 1190 1191 1192 1193 1194 1195 1196 1197 1198 1199 1200 1201 1202 1203 1204 1205 1206 1207 1208 1209 1210 1211 1212 1213 1214 1215 1216 1217 1218 1219 1220 1221 1222 1223 1224 1225 1226 1227 1228 1229 1230 1231 1232 1233 1234 1235 1236 1237 1238 1239 1240 1241 1242 1243 1244 1245 1246 1247 1248 1249 1250 1251 1252 1253 1254 1255 1256 1257 1258 1259 1260 1261 1262 1263 1264 1265 1266 1267 1268 1269 1270 1271 1272 1273 1274 1275 1276 1277 1278 1279 1280 1281 1282 1283 1284 1285 1286 1287 1288 1289 1290 1291 1292 1293 1294 1295 1296 1297 1298 1299 1300 1301 1302 1303 1304 1305 1306 1307 1308 1309 1310 1311 1312 1313 1314 1315 1316 1317 1318 1319 1320 1321 1322 1323 1324 1325 1326 1327 1328 1329 1330 1331 1332 1333 1334 1335 1336 1337 1338 1339 1340 1341 1342 1343 1344 1345 1346 1347 1348 1349 1350 1351 1352 1353 1354 1355 1356 1357 1358 1359 1360 1361 1362 1363 1364 1365 1366 1367 1368 1369 1370 1371 1372 1373 1374 1375 1376 1377 1378 1379 1380 1381 1382 1383 1384 1385 1386 1387 1388 1389 1390 1391 1392 1393 1394 1395 1396 1397 1398 1399 1400 1401 1402 1403 1404 1405 1406 1407 1408 1409 1410 1411 1412 1413 1414 1415 1416 1417 1418 1419 1420 1421 1422 1423 1424 1425 1426 1427 1428 1429 1430 1431 1432 1433 1434 1435 1436 1437 1438 1439 1440 1441 1442 1443 1444 1445 1446 1447 1448 1449 1450 1451 1452 1453 1454 1455 1456 1457 1458 1459 1460 1461 1462 1463 1464 1465 1466 1467 1468 1469 1470 1471 1472 1473 1474 1475 1476 1477 1478 1479 1480 1481 1482 1483 1484 1485 1486 1487 1488 1489 1490 1491 1492 1493 1494 1495 1496 1497 1498 1499 1500 1501 1502 1503 1504 1505 1506 1507 1508 1509 1510 1511 1512 1513 1514 1515 1516 1517 1518 1519 1520 1521 1522 1523 1524 1525 1526 1527 1528 1529 1530 1531 1532 1533 1534 1535 1536 1537 1538 1539 1540 1541 1542 1543 1544 1545 1546 1547 1548 1549 1550 1551 1552 1553 1554 1555 1556 1557 1558 1559 1560 1561 1562 1563 1564 1565 1566 1567 1568 1569 1570 1571 1572 1573 1574 1575 1576 1577 1578 1579 1580 1581 1582 1583 1584 1585 1586 1587 1588 1589 1590 1591 1592 1593 1594 1595 1596 1597 1598 1599 1600 1601 1602 1603 1604 1605 1606 1607 1608 1609 1610 1611 1612 1613 1614 1615 1616 1617 1618 1619 1620 1621 1622 1623 1624 1625 1626 1627 1628 1629 1630 1631 1632 1633 1634 1635 1636 1637 1638 1639 1640 1641 1642 1643 1644 1645 1646 1647 1648 1649 1650 1651 1652 1653 1654 1655 1656 1657 1658 1659 1660 1661 1662 1663 1664 1665 1666 1667 1668 1669 1670 1671 1672 1673 1674 1675 1676 1677 1678 1679 1680 1681 1682 1683 1684 1685 1686 1687 1688 1689 1690 1691 1692 1693 1694 1695 1696 1697 1698 1699 1700 1701 1702 1703 1704 1705 1706 1707 1708 1709 1710 1711 1712 1713 1714 1715 1716 1717 1718 1719 1720 1721 1722 1723 1724 1725 1726 1727 1728 1729 1730 1731 1732 1733 1734 1735 1736 1737 1738 1739 1740 1741 1742 1743 1744 1745 1746 1747 1748 1749 1750 1751 1752 1753 1754 1755 1756 1757 1758 1759 1760 1761 1762 1763 1764 1765 1766 1767 1768 1769 1770 1771 1772 1773 1774 1775 1776 1777 1778 1779 1780 1781 1782 1783 1784 1785 1786 1787 1788 1789 1790 1791 1792 1793 1794 1795 1796 1797 1798 1799 1800 1801 1802 1803 1804 1805 1806 1807 1808 1809 1810 1811 1812 1813 1814 1815 1816 1817 1818 1819 1820 1821 1822 1823 1824 1825 1826 1827 1828 1829 1830 1831 1832 1833 1834 1835 1836 1837 1838 1839 1840 1841 1842 1843 1844 1845 1846 1847 1848 1849 1850 1851 1852 1853 1854 1855 1856 1857 1858 1859 1860 1861 1862 1863 1864 1865 1866 1867 1868 1869 1870 1871 1872 1873 1874 1875 1876 1877 1878 1879 1880 1881 1882 1883 1884 1885 1886 1887 1888 1889 1890 1891 1892 1893 1894 1895 1896 1897 1898 1899 1900 1901 1902 1903 1904 1905 1906 1907 1908 1909 1910 1911 1912 1913 1914 1915 1916 1917 1918 1919 1920 1921 1922 1923 1924 1925 1926 1927 1928 1929 1930 1931 1932 1933 1934 1935 1936 1937 1938 1939 1940 1941 1942 1943 1944 1945 1946 1947 1948 1949 1950 1951 1952 1953 1954 1955 1956 1957 1958 1959 1960 1961 1962 1963 1964 1965 1966 1967 1968 1969 1970 1971 1972 1973 1974 1975 1976 1977 1978 1979 1980 1981 1982 1983 1984 1985 1986 1987 1988 1989 1990 1991 1992 1993 1994 1995 1996 1997 1998 1999 2000 2001 2002 2003 2004 2005 2006 2007 2008 2009 2010 2011 2012 2013 2014 2015 2016 2017 2018 2019 2020 2021 2022 2023 2024 2025 2026 2027 2028 2029 2030 2031 2032 2033 2034 2035 2036 2037 2038 2039 2040 2041 2042 2043 2044 2045 2046 2047 2048 2049 2050 2051 2052 2053 2054 2055 2056 2057 2058 2059 2060 2061 2062 2063 2064 2065 2066 2067 2068 2069 2070 2071 2072 2073 2074 2075 2076 2077 2078 2079 2080 2081 2082 2083 2084 2085 2086 2087 2088 2089 2090 2091 2092 2093 2094 2095 2096 2097 2098 2099 2100 2101 2102 2103 2104 2105 2106 2107 2108 2109 2110 2111 2112 2113 2114 2115 2116 2117 2118 2119 2120 2121 2122 2123 2124 2125 2126 2127 2128 2129 2130 2131 2132 2133 2134 2135 2136 2137 2138 2139 2140 2141 2142 2143 2144 2145 2146 2147 2148 2149 2150 2151 2152 2153 2154 2155 2156 2157 2158 2159 2160 2161 2162 2163 2164 2165 2166 2167 2168 2169 2170 2171 2172 2173 2174 2175 2176 2177 2178 2179 2180 2181 2182 2183 2184 2185 2186 2187 2188 2189 2190 2191 2192 2193 2194 2195 2196 2197 2198 2199 2200 2201 2202 2203 2204 2205 2206 2207 2208 2209 2210 2211 2212 2213 2214 2215 2216 2217 2218 2219 2220 2221 2222 2223 2224 2225 2226 2227 2228 2229 2230 2231 2232 2233 2234 2235 2236 2237 2238 2239 2240 2241 2242 2243 2244 2245 2246 2247 2248 2249 2250 2251 2252 2253 2254 2255 2256 2257 2258 2259 2260 2261 2262 2263 2264 2265 2266 2267 2268 2269 2270 2271 2272 2273 2274 2275 2276 2277 2278 2279 2280 2281 2282 2283 2284 2285 2286 2287 2288 2289 2290 2291 2292 2293 2294 2295 2296 2297 2298 2299 2300 2301 2302 2303 2304 2305 2306 2307 2308 2309 2310 2311 2312 2313 2314 2315 2316 2317 2318 2319 2320 2321 2322 2323 2324 2325 2326 2327 2328 2329 2330 2331 2332 2333 2334 2335 2336 2337 2338 2339 2340 2341 2342 2343 2344 2345 2346 2347 2348 2349 2350 2351 2352 2353 2354 2355 2356 2357 2358 2359 2360 2361 2362 2363 2364 2365 2366 2367 2368 2369 2370 2371 2372 2373 2374 2375 2376 2377 2378 2379 2380 2381 2382 2383 2384 2385 2386 2387 2388 2389 2390 2391 2392 2393 2394 2395 2396 2397 2398 2399 2400 2401 2402 2403 2404 2405 2406 2407 2408 2409 2410 2411 2412 2413 2414 2415 2416 2417 2418 2419 2420 2421 2422 2423 2424 2425 2426 2427 2428 2429 2430 2431 2432 2433 2434 2435 2436 2437 2438 2439 2440 2441 2442 2443 2444 2445 2446 2447 2448 2449 2450 2451 2452 2453 2454 2455 2456 2457 2458 2459 2460 2461 2462 2463 2464 2465 2466 2467 2468 2469 2470 2471 2472 2473 2474 2475 2476 2477 2478 2479 2480 2481 2482 2483 2484 2485 2486 2487 2488 2489 2490 2491 2492 2493 2494 2495 2496 2497 2498 2499 2500 2501 2502 2503 2504 2505 2506 2507 2508 2509 2510 2511 2512 2513 2514 2515 2516 2517 2518 2519 2520 2521 2522 2523 2524 2525 2526 2527 2528 2529 2530 2531 2532 2533 2534 2535 2536 2537 2538 2539 2540 2541 2542 2543 2544 2545 2546 2547 2548 2549 2550 2551 2552 2553 2554 2555 2556 2557 2558 2559 2560 2561 2562 2563 2564 2565 2566 2567 2568 2569 2570 2571 2572 2573 2574 2575 2576 2577 2578 2579 2580 2581 2582 2583 2584 2585 2586 2587 2588 2589 2590 2591 2592 2593 2594 2595 2596 2597 2598 2599 2600 2601 2602 2603 2604 2605 2606 2607 2608 2609 2610 2611 2612 2613 2614 2615 2616 2617 2618 2619 2620 2621 2622 2623 2624 2625 2626 2627 2628 2629 2630 2631 2632 2633 2634 2635 2636 2637 2638 2639 2640 2641 2642 2643 2644 2645 2646 2647 2648 2649 2650 2651 2652 2653 2654 2655 2656 2657 2658 2659 2660 2661 2662 2663 2664 2665 2666 2667 2668 2669 2670 2671 2672 2673 2674 2675 2676 2677 2678 2679 2680 2681 2682 2683 2684 2685 2686 2687 2688 2689 2690 2691 2692 2693 2694 2695 2696 2697 2698 2699 2700 2701 2702 2703 2704 2705 2706 2707 2708 2709 2710 2711 2712 2713 2714 2715 2716 2717 2718 2719 2720 2721 2722 2723 2724 2725 2726 2727 2728 2729 2730 2731 2732 2733 2734 2735 2736 2737 2738 2739 2740 2741 2742 2743 2744 2745 2746 2747 2748 2749 2750 2751 2752 2753 2754 2755 2756 2757 2758 2759 2760 2761 2762 2763 2764 2765 2766 2767 2768 2769 2770 2771 2772 2773 2774 2775 2776 2777 2778 2779 2780 2781 2782 2783 2784 2785 2786 2787 2788 2789 2790 2791 2792 2793 2794 2795 2796 2797 2798 2799 2800 2801 2802 2803 2804 2805 2806 2807 2808 2809 2810 2811 2812 2813 2814 2815 2816 2817 2818 2819 2820 2821 2822 2823 2824 2825 2826 2827 2828 2829 2830 2831 2832 2833 2834 2835 2836 2837 2838 2839 2840 2841 2842 2843 2844 2845 2846 2847 2848 2849 2850 2851 2852 2853 2854 2855 2856 2857 2858 2859 2860 2861 2862 2863 2864 2865 2866 2867 2868 2869 2870 2871 2872 2873 2874 2875 2876 2877 2878 2879 2880 2881 2882 2883 2884 2885 2886 2887 2888 2889 2890 2891 2892 2893 2894 2895 2896 2897 2898 2899 2900 2901 2902 2903 2904 2905 2906 2907 2908 2909 2910 2911 2912 2913 2914 2915 2916 2917 2918 2919 2920 2921 2922 2923 2924 2925 2926 2927 2928 2929 2930 2931 2932 2933 2934 2935 2936 2937 2938 2939 2940 2941 2942 2943 2944 2945 2946 2947 2948 2949 2950 2951 2952 2953 2954 2955 2956 2957 2958 2959 2960 2961 2962 2963 2964 2965 2966 2967 2968 2969 2970 2971 2972 2973 2974 2975 2976 2977 2978 2979 2980 2981 2982 2983 2984 2985 2986 2987 2988 2989 2990 2991 2992 2993 2994 2995 2996 2997 2998 2999 3000 3001 3002 3003 3004 3005 3006 3007 3008 3009 3010 3011 3012 3013 3014 3015 3016 3017 3018 3019 3020 3021 3022 3023 3024 3025 3026 3027 3028 3029 3030 3031 3032 3033 3034 3035 3036 3037 3038 3039 3040 3041 3042 3043 3044 3045 3046 3047 3048 3049 3050 3051 3052 3053 3054 3055 3056 3057 3058 3059 3060 3061 3062 3063 3064 3065 3066 3067 3068 3069 3070 3071 3072 3073 3074 3075 3076 3077 3078 3079 3080 3081 3082 3083 3084 3085 3086 3087 3088 3089 3090 3091 3092 3093 3094 3095 3096 3097 3098 3099 3100 3101 3102 3103 3104 3105 3106 3107 3108 3109 3110 3111 3112 3113 3114 3115 3116 3117 3118 3119 3120 3121 3122 3123 3124 3125 3126 3127 3128 3129 3130 3131 3132 3133 3134 3135 3136 3137 3138 3139 3140 3141 3142 3143 3144 3145 3146 3147 3148 3149 3150 3151 3152 3153 3154 3155 3156 3157 3158 3159 3160 3161 3162 3163 3164 3165 3166 3167 3168 3169 3170 3171 3172 3173 3174 3175 3176 3177 3178 3179 3180 3181 3182 3183 3184 3185 3186 3187 3188 3189 3190 3191 3192 3193 3194 3195 3196 3197 3198 3199 3200 3201 3202 3203 3204 3205 3206 3207 3208 3209 3210 3211 3212 3213 3214 3215 3216 3217 3218 3219 3220 3221 3222 3223 3224 3225 3226 3227 3228 3229 3230 3231 3232 3233 3234 3235 3236 3237 3238 3239 3240 3241 3242 3243 3244 3245 3246 3247 3248 3249 3250 3251 3252 3253 3254 3255 3256 3257 3258 3259 3260 3261 3262 3263 3264 3265 3266 3267 3268 3269 3270 3271 3272 3273 3274 3275 3276 3277 3278 3279 3280 3281 3282 3283 3284 3285 3286 3287 3288 3289 3290 3291 3292 3293 3294 3295 3296 3297 3298 3299 3300 3301 3302 3303 3304 3305 3306 3307 3308 3309 3310 3311 3312 3313 3314 3315 3316 3317 3318 3319 3320 3321 3322 3323 3324 3325 3326 3327 3328 3329 3330 3331 3332 3333 3334 3335 3336 3337 3338 3339 3340 3341 3342 3343 3344 3345 3346 3347 3348 3349 3350 3351 3352 3353 3354 3355 3356 3357 3358 3359 3360 3361 3362 3363 3364 3365 3366 3367 3368 3369 3370 3371 3372 3373 3374 3375 3376 3377 3378 3379 3380 3381 3382 3383 3384 3385 3386 3387 3388 3389 3390 3391 3392 3393 3394 3395 3396 3397 3398 3399 3400 3401 3402 3403 3404 3405 3406 3407 3408 3409 3410 3411 3412 3413 3414 3415 3416 3417 3418 3419 3420 3421 3422 3423 3424 3425 3426 3427 3428 3429 3430 3431 3432 3433 3434 3435 3436 3437 3438 3439 3440 3441 3442 3443 3444 3445 3446 3447 3448 3449 3450 3451 3452 3453 3454 3455 3456 3457 3458 3459 3460 3461 3462 3463 3464 3465 3466 3467 3468 3469 3470 3471 3472 3473 3474 3475 3476 3477 3478 3479 3480 3481 3482 3483 3484 3485 3486 3487 3488 3489 3490 3491 3492 3493 3494 3495 3496 3497 3498 3499 3500 3501 3502 3503 3504 3505 3506 3507 3508 3509 3510 3511 3512 3513 3514 3515 3516 3517 3518 3519 3520 3521 3522 3523 3524 3525 3526 3527 3528 3529 3530 3531 3532 3533 3534 3535 3536 3537 3538 3539 3540 3541 3542 3543 3544 3545 3546 3547 3548 3549 3550 3551 3552 3553 3554 3555 3556 3557 3558 3559 3560 3561 3562 3563 3564 3565 3566 3567 3568 3569 3570 3571 3572 3573 3574 3575 3576 3577 3578 3579 3580 3581 3582 3583 3584 3585 3586 3587 3588 3589 3590 3591 3592 3593 3594 3595 3596 3597 3598 3599 3600 3601 3602 3603 3604 3605 3606 3607 3608 3609 3610 3611 3612 3613 3614 3615 3616 3617 3618 3619 3620 3621 3622 3623 3624 3625 3626 3627 3628 3629 3630 3631 3632 3633 3634 3635 3636 3637 3638 3639 3640 3641 3642 3643 3644 3645 3646 3647 3648 3649 3650 3651 3652 3653 3654 3655 3656 3657 3658 3659 3660 3661 3662 3663 3664 3665 3666 3667 3668 3669 3670 3671 3672 3673 3674 3675 3676 3677 3678 3679 3680 3681 3682 3683 3684 3685 3686 3687 3688 3689 3690 3691 3692 3693 3694 3695 3696 3697 3698 3699 3700 3701 3702 3703 3704 3705 3706 3707 3708 3709 3710 3711 3712 3713 3714 3715 3716 3717 3718 3719 3720 3721 3722 3723 3724 3725 3726 3727 3728 3729 3730 3731 3732 3733 3734 3735 3736 3737 3738 3739 3740 3741 3742 3743 3744 3745 3746 3747 3748 3749 3750 3751 3752 3753 3754 3755 3756 3757 3758 3759 3760 3761 3762 3763 3764 3765 3766 3767 3768 3769 3770 3771 3772 3773 3774 3775 3776 3777 3778 3779 3780 3781 3782 3783 3784 3785 3786 3787 3788 3789 3790 3791 3792 3793 3794 3795 3796 3797 3798 3799 3800 3801 3802 3803 3804 3805 3806 3807 3808 3809 3810 3811 3812 3813 3814 3815 3816 3817 3818 3819 3820 3821 3822 3823 3824 3825 3826 3827 3828 3829 3830 3831 3832 3833 3834 3835 3836 3837 3838 3839 3840 3841 3842 3843 3844 3845 3846 3847 3848 3849 3850 3851 3852 3853 3854 3855 3856 3857 3858 3859 3860 3861 3862 3863 3864 3865 3866 3867 3868 3869 3870 3871 3872 3873 3874 3875 3876 3877 3878 3879 3880 3881 3882 3883 3884 3885 3886 3887 3888 3889 3890 3891 3892 3893 3894 3895 3896 3897 3898 3899 3900 3901 3902 3903 3904 3905 3906 3907 3908 3909 3910 3911 3912 3913 3914 3915 3916 3917 3918 3919 3920 3921 3922 3923 3924 3925 3926 3927 3928 3929 3930 3931 3932 3933 3934 3935 3936 3937 3938 3939 3940 3941 3942 3943 3944 3945 3946 3947 3948 3949 3950 3951 3952 3953 3954 3955 3956 3957 3958 3959 3960 3961 3962 3963 3964 3965 3966 3967 3968 3969 3970 3971 3972 3973 3974 3975 3976 3977 3978 3979 3980 3981 3982 3983 3984 3985 3986 3987 3988 3989 3990 3991 3992 3993 3994 3995 3996 3997 3998 3999 4000 4001 4002 4003 4004 4005 4006 4007 4008 4009 4010 4011 4012 4013 4014 4015 4016 4017 4018 4019 4020 4021 4022 4023 4024 4025 4026 4027 4028 4029 4030 4031 4032 4033 4034 4035 4036 4037 4038 4039 4040 4041 4042 4043 4044 4045 4046 4047 4048 4049 4050 4051 4052 4053 4054 4055 4056 4057 4058 4059 4060 4061 4062 4063 4064 4065 4066 4067 4068 4069 4070 4071 4072 4073 4074 4075 4076 4077 4078 4079 4080 4081 4082 4083 4084 4085 4086 4087 4088 4089 4090 4091 4092 4093 4094 4095 4096 4097 4098 4099 4100 4101 4102 4103 4104 4105 4106 4107 4108 4109 4110 4111 4112 4113 4114 4115 4116 4117 4118 4119 4120 4121 4122 4123 4124 4125 4126 4127 4128 4129 4130 4131 4132 4133 4134 4135 4136 4137 4138 4139 4140 4141 4142 4143 4144 4145 4146 4147 4148 4149 4150 4151 4152 4153 4154 4155 4156 4157 4158 4159 4160 4161 4162 4163 4164 4165 4166 4167 4168 4169 4170 4171 4172 4173 4174 4175 4176 4177 4178 4179 4180 4181 4182 4183 4184 4185 4186 4187 4188 4189 4190 4191 4192 4193 4194 4195 4196 4197 4198 4199 4200 4201 4202 4203 4204 4205 4206 4207 4208 4209 4210 4211 4212 4213 4214 4215 4216 4217 4218 4219 4220 4221 4222 4223 4224 4225 4226 4227 4228 4229 4230 4231 4232 4233 4234 4235 4236 4237 4238 4239 4240 4241 4242 4243 4244 4245 4246 4247 4248 4249 4250 4251 4252 4253 4254 4255 4256 4257 4258 4259 4260 4261 4262 4263 4264 4265 4266 4267 4268 4269 4270 4271 4272 4273 4274 4275 4276 4277 4278 4279 4280 4281 4282 4283 4284 4285 4286 4287 4288 4289 4290 4291 4292 4293 4294 4295 4296 4297 4298 4299 4300 4301 4302 4303 4304 4305 4306 4307 4308 4309 4310 4311 4312 4313 4314 4315 4316 4317 4318 4319 4320 4321 4322 4323 4324 4325 4326 4327 4328 4329 4330 4331 4332 4333 4334 4335 4336 4337 4338 4339 4340 4341 4342 4343 4344 4345 4346 4347 4348 4349 4350 4351 4352 4353 4354 4355 4356 4357 4358 4359 4360 4361 4362 4363 4364 4365 4366 4367 4368 4369 4370 4371 4372 4373 4374 4375 4376 4377 4378 4379 4380 4381 4382 4383 4384 4385 4386 4387 4388 4389 4390 4391 4392 4393 4394 4395 4396 4397 4398 4399 4400 4401 4402 4403 4404 4405 4406 4407 4408 4409 4410 4411 4412 4413 4414 4415 4416 4417 4418 4419 4420 4421 4422 4423 4424 4425 4426 4427 4428 4429 4430 4431 4432 4433 4434 4435 4436 4437 4438 4439 4440 4441 4442 4443 4444 4445 4446 4447 4448 4449 4450 4451 4452 4453 4454 4455 4456 4457 4458 4459 4460 4461 4462 4463 4464 4465 4466 4467 4468 4469 4470 4471 4472 4473 4474 4475 4476 4477 4478 4479 4480 4481 4482 4483 4484 4485 4486 4487 4488 4489 4490 4491 4492 4493 4494 4495 4496 4497 4498 4499 4500 4501 4502 4503 4504 4505 4506 4507 4508 4509 4510 4511 4512 4513 4514 4515 4516 4517 4518 4519 4520 4521 4522 4523 4524 4525 4526 4527 4528 4529 4530 4531 4532 4533 4534 4535 4536 4537 4538 4539 4540 4541 4542 4543 4544 4545 4546 4547 4548 4549 4550 4551 4552 4553 4554 4555 4556 4557 4558 4559 4560 4561 4562 4563 4564 4565 4566 4567 4568 4569 4570 4571 4572 4573 4574 4575 4576 4577 4578 4579 4580 4581 4582 4583 4584 4585 4586 4587 4588 4589 4590 4591 4592 4593 4594 4595 4596 4597 4598 4599 4600 4601 4602 4603 4604 4605 4606 4607 4608 4609 4610 4611 4612 4613 4614 4615 4616 4617 4618 4619 4620 4621 4622 4623 4624 4625 4626 4627 4628 4629 4630 4631 4632 4633 4634 4635 4636 4637 4638 4639 4640 4641 4642 4643 4644 4645 4646 4647 4648 4649 4650 4651 4652 4653 4654 4655 4656 4657 4658 4659 4660 4661 4662 4663 4664 4665 4666 4667 4668 4669 4670 4671 4672 4673 4674 4675 4676 4677 4678 4679 4680 4681 4682 4683 4684 4685 4686 4687 4688 4689 4690 4691 4692 4693 4694 4695 4696 4697 4698 4699 4700 4701 4702 4703 4704 4705 4706 4707 4708 4709 4710 4711 4712 4713 4714 4715 4716 4717 4718 4719 4720 4721 4722 4723 4724 4725 4726 4727 4728 4729 4730 4731 4732 4733 4734 4735 4736 4737 4738 4739 4740 4741 4742 4743 4744 4745 4746 4747 4748 4749 4750 4751 4752 4753 4754 4755 4756 4757 4758 4759 4760 4761 4762 4763 4764 4765 4766 4767 4768 4769 4770 4771 4772 4773 4774 4775 4776 4777 4778 4779 4780 4781 4782 4783 4784 4785 4786 4787 4788 4789 4790 4791 4792 4793 4794 4795 4796 4797 4798 4799 4800 4801 4802 4803 4804 4805 4806 4807 4808 4809 4810 4811 4812 4813 4814 4815 4816 4817 4818 4819 4820 4821 4822 4823 4824 4825 4826 4827 4828 4829 4830 4831 4832 4833 4834 4835 4836 4837 4838 4839 4840 4841 4842 4843 4844 4845 4846 4847 4848 4849 4850 4851 4852 4853 4854 4855 4856 4857 4858 4859 4860 4861 4862 4863 4864 4865 4866 4867 4868 4869 4870 4871 4872 4873 4874 4875 4876 4877 4878 4879 4880 4881 4882 4883 4884 4885 4886 4887 4888 4889 4890 4891 4892 4893 4894 4895 4896 4897 4898 4899 4900 4901 4902 4903 4904 4905 4906 4907 4908 4909 4910 4911 4912 4913 4914 4915 4916 4917 4918 4919 4920 4921 4922 4923 4924 4925 4926 4927 4928 4929 4930 4931 4932 4933 4934 4935 4936 4937 4938 4939 4940 4941 4942 4943 4944 4945 4946 4947 4948 4949 4950 4951 4952 4953 4954 4955 4956 4957 4958 4959 4960 4961 4962 4963 4964 4965 4966 4967 4968 4969 4970 4971 4972 4973 4974 4975 4976 4977 4978 4979 4980 4981 4982 4983 4984 4985 4986 4987 4988 4989 4990 4991 4992 4993 4994 4995 4996 4997 4998 4999 5000 5001 5002 5003 5004 5005 5006 5007 5008 5009 5010 5011 5012 5013 5014 5015 5016 5017 5018 5019 5020 5021 5022 5023 5024 5025 5026 5027 5028 5029 5030 5031 5032 5033 5034 5035 5036 5037 5038 5039 5040 5041 5042 5043 5044 5045 5046 5047 5048 5049 5050 5051 5052 5053 5054 5055 5056 5057 5058 5059 5060 5061 5062 5063 5064 5065 5066 5067 5068 5069 5070 5071 5072 5073 5074 5075 5076 5077 5078 5079 5080 5081 5082 5083 5084 5085 5086 5087 5088 5089 5090 5091 5092 5093 5094 5095 5096 5097 5098 5099 5100 5101 5102 5103 5104 5105 5106 5107 5108 5109 5110 5111 5112 5113 5114 5115 5116 5117 5118 5119 5120 5121 5122 5123 5124 5125 5126 5127 5128 5129 5130 5131 5132 5133 5134 5135 5136 5137 5138 5139 5140 5141 5142 5143 5144 5145 5146 5147 5148 5149 5150 5151 5152 5153 5154 5155 5156 5157 5158 5159 5160 5161 5162 5163 5164 5165 5166 5167 5168 5169 5170 5171 5172 5173 5174 5175 5176 5177 5178 5179 5180 5181 5182 5183 5184 5185 5186 5187 5188 5189 5190 5191 5192 5193 5194 5195 5196 5197 5198 5199 5200 5201 5202 5203 5204 5205 5206 5207 5208 5209 5210 5211 5212 5213 5214 5215 5216 5217 5218 5219 5220 5221 5222 5223 5224 5225 5226 5227 5228 5229 5230 5231 5232 5233 5234 5235 5236 5237 5238 5239 5240 5241 5242 5243 5244 5245 5246 5247 5248 5249 5250 5251 5252 5253 5254 5255 5256 5257 5258 5259 5260 5261 5262 5263 5264 5265 5266 5267 5268 5269 5270 5271 5272 5273 5274 5275 5276 5277 5278 5279 5280 5281 5282 5283 5284 5285 5286 5287 5288 5289 5290 5291 5292 5293 5294 5295 5296 5297 5298 5299 5300 5301 5302 5303 5304 5305 5306 5307 5308 5309 5310 5311 5312 5313 5314 5315 5316 5317 5318 5319 5320 5321 5322 5323 5324 5325 5326 5327 5328 5329 5330 5331 5332 5333 5334 5335 5336 5337 5338 5339 5340 5341 5342 5343 5344 5345 5346 5347 5348 5349 5350 5351 5352 5353 5354 5355 5356 5357 5358 5359 5360 5361 5362 5363 5364 5365 5366 5367 5368 5369 5370 5371 5372 5373 5374 5375 5376 5377 5378 5379 5380 5381 5382 5383 5384 5385 5386 5387 5388 5389 5390 5391 5392 5393 5394 5395 5396 5397 5398 5399 5400 5401 5402 5403 5404 5405 5406 5407 5408 5409 5410 5411 5412 5413 5414 5415 5416 5417 5418 5419 5420 5421 5422 5423 5424 5425 5426 5427 5428 5429 5430 5431 5432 5433 5434 5435 5436 5437 5438 5439 5440 5441 5442 5443 5444 5445 5446 5447 5448 5449 5450 5451 5452 5453 5454 5455 5456 5457 5458 5459 5460 5461 5462 5463 5464 5465 5466 5467 5468 5469 5470 5471 5472 5473 5474 5475 5476 5477 5478 5479 5480 5481 5482 5483 5484 5485 5486 5487 5488 5489 5490 5491 5492 5493 5494 5495 5496 5497 5498 5499 5500 5501 5502 5503 5504 5505 5506 5507 5508 5509 5510 5511 5512 5513 5514 5515 5516 5517 5518 5519 5520 5521 5522 5523 5524 5525 5526 5527 5528 5529 5530 5531 5532 5533 5534 5535 5536 5537 5538 5539 5540 5541 5542 5543 5544 5545 5546 5547 5548 5549 5550 5551 5552 5553 5554 5555 5556 5557 5558 5559 5560 5561 5562 5563 5564 5565 5566 5567 5568 5569 5570 5571 5572 5573 5574 5575 5576 5577 5578 5579 5580 5581 5582 5583 5584 5585 5586 5587 5588 5589 5590 5591 5592 5593 5594 5595 5596 5597 5598 5599 5600 5601 5602 5603 5604 5605 5606 5607 5608 5609 5610 5611 5612 5613 5614 5615 5616 5617 5618 5619 5620 5621 5622 5623 5624 5625 5626 5627 5628 5629 5630 5631 5632 5633 5634 5635 5636 5637 5638 5639 5640 5641 5642 5643 5644 5645 5646 5647 5648 5649 5650 5651 5652 5653 5654 5655 5656 5657 5658 5659 5660 5661 5662 5663 5664 5665 5666 5667 5668 5669 5670 5671 5672 5673 5674 5675 5676 5677 5678 5679 5680 5681 5682 5683 5684 5685 5686 5687 5688 5689 5690 5691 5692 5693 5694 5695 5696 5697 5698 5699 5700 5701 5702 5703 5704 5705 5706 5707 5708 5709 5710 5711 5712 5713 5714 5715 5716 5717 5718 5719 5720 5721 5722 5723 5724 5725 5726 5727 5728 5729 5730 5731 5732 5733 5734 5735 5736 5737 5738 5739 5740 5741 5742 5743 5744 5745 5746 5747 5748 5749 5750 5751 5752 5753 5754 5755 5756 5757 5758 5759 5760 5761 5762 5763 5764 5765 5766 5767 5768 5769 5770 5771 5772 5773 5774 5775 5776 5777 5778 5779 5780 5781 5782 5783 5784 5785 5786 5787 5788 5789 5790 5791 5792 5793 5794 5795 5796 5797 5798 5799 5800 5801 5802 5803 5804 5805 5806 5807 5808 5809 5810 5811 5812 5813 5814 5815 5816 5817 5818 5819 5820 5821 5822 5823 5824 5825 5826 5827 5828 5829 5830 5831 5832 5833 5834 5835 5836 5837 5838 5839 5840 5841 5842 5843 5844 5845 5846 5847 5848 5849 5850 5851 5852 5853 5854 5855 5856 5857 5858 5859 5860 5861 5862 5863 5864 5865 5866 5867 5868 5869 5870 5871 5872 5873 5874 5875 5876 5877 5878 5879 5880 5881 5882 5883 5884 5885 5886 5887 5888 5889 5890 5891 5892 5893 5894 5895 5896 5897 5898 5899 5900 5901 5902 5903 5904 5905 5906 5907 5908 5909 5910 5911 5912 5913 5914 5915 5916 5917 5918 5919 5920 5921 5922 5923 5924 5925 5926 5927 5928 5929 5930 5931 5932 5933 5934 5935 5936 5937 5938 5939 5940 5941 5942 5943 5944 5945 5946 5947 5948 5949 5950 5951 5952 5953 5954 5955 5956 5957 5958 5959 5960 5961 5962 5963 5964 5965 5966 5967 5968 5969 5970 5971 5972 5973 5974 5975 5976 5977 5978 5979 5980 5981 5982 5983 5984 5985 5986 5987 5988 5989 5990 5991 5992 5993 5994 5995 5996 5997 5998 5999 6000 6001 6002 6003 6004 6005 6006 6007 6008 6009 6010 6011 6012 6013 6014 6015 6016 6017 6018 6019 6020 6021 6022 6023 6024 6025 6026 6027 6028 6029 6030 6031 6032 6033 6034 6035 6036 6037 6038 6039 6040 6041 6042 6043 6044 6045 6046 6047 6048 6049 6050 6051 6052 6053 6054 6055 6056 6057 6058 6059 6060 6061 6062 6063 6064 6065 6066 6067 6068 6069 6070 6071 6072 6073 6074 6075 6076 6077 6078 6079 6080 6081 6082 6083 6084 6085 6086 6087 6088 6089 6090 6091 6092 6093 6094 6095 6096 6097 6098 6099 6100 6101 6102 6103 6104 6105 6106 6107 6108 6109 6110 6111 6112 6113 6114 6115 6116 6117 6118 6119 6120 6121 6122 6123 6124 6125 6126 6127 6128 6129 6130 6131 6132 6133 6134 6135 6136 6137 6138 6139 6140 6141 6142 6143 6144 6145 6146 6147 6148 6149 6150 6151 6152 6153 6154 6155 6156 6157 6158 6159 6160 6161 6162 6163 6164 6165 6166 6167 6168 6169 6170 6171 6172 6173 6174 6175 6176 6177 6178 6179 6180 6181 6182 6183 6184 6185 6186 6187 6188 6189 6190 6191 6192 6193 6194 6195 6196 6197 6198 6199 6200 6201 6202 6203 6204 6205 6206 6207 6208 6209 6210 6211 6212 6213 6214 6215 6216 6217 6218 6219 6220 6221 6222 6223 6224 6225 6226 6227 6228 6229 6230 6231 6232 6233 6234 6235 6236 6237 6238 6239 6240 6241 6242 6243 6244 6245 6246 6247 6248 6249 6250 6251 6252 6253 6254 6255 6256 6257 6258 6259 6260 6261 6262 6263 6264 6265 6266 6267 6268 6269 6270 6271 6272 6273 6274 6275 6276 6277 6278 6279 6280 6281 6282 6283 6284 6285 6286 6287 6288 6289 6290 6291 6292 6293 6294 6295 6296 6297 6298 6299 6300 6301 6302 6303 6304 6305 6306 6307 6308 6309 6310 6311 6312 6313 6314 6315 6316 6317 6318 6319 6320 6321 6322 6323 6324 6325 6326 6327 6328 6329 6330 6331 6332 6333 6334 6335 6336 6337 6338 6339 6340 6341 6342 6343 6344 6345 6346 6347 6348 6349 6350 6351 6352 6353 6354 6355 6356 6357 6358 6359 6360 6361 6362 6363 6364 6365 6366 6367 6368 6369 6370 6371 6372 6373 6374 6375 6376 6377 6378 6379 6380 6381 6382 6383 6384 6385 6386 6387 6388 6389 6390 6391 6392 6393 6394 6395 6396 6397 6398 6399 6400 6401 6402 6403 6404 6405 6406 6407 6408 6409 6410 6411 6412 6413 6414 6415 6416 6417 6418 6419 6420 6421 6422 6423 6424 6425 6426 6427 6428 6429 6430 6431 6432 6433 6434 6435 6436 6437 6438 6439 6440 6441 6442 6443 6444 6445 6446 6447 6448 6449 6450 6451 6452 6453 6454 6455 6456 6457 6458 6459 6460 6461 6462 6463 6464 6465 6466 6467 6468 6469 6470 6471 6472 6473 6474 6475 6476 6477 6478 6479 6480 6481 6482 6483 6484 6485 6486 6487 6488 6489 6490 6491 6492 6493 6494 6495 6496 6497 6498 6499 6500 6501 6502 6503 6504 6505 6506 6507 6508 6509 6510 6511 6512 6513 6514 6515 6516 6517 6518 6519 6520 6521 6522 6523 6524 6525 6526 6527 6528 6529 6530 6531 6532 6533 6534 6535 6536 6537 6538 6539 6540 6541 6542 6543 6544 6545 6546 6547 6548 6549 6550 6551 6552 6553 6554 6555 6556 6557 6558 6559 6560 6561 6562 6563 6564 6565 6566 6567 6568 6569 6570 6571 6572 6573 6574 6575 6576 6577 6578 6579 6580 6581 6582 6583 6584 6585 6586 6587 6588 6589 6590 6591 6592 6593 6594 6595 6596 6597 6598 6599 6600 6601 6602 6603 6604 6605 6606 6607 6608 6609 6610 6611 6612 6613 6614 6615 6616 6617 6618 6619 6620 6621 6622 6623 6624 6625 6626 6627 6628 6629 6630 6631 6632 6633 6634 6635 6636 6637 6638 6639 6640 6641 6642 6643 6644 6645 6646 6647 6648 6649 6650 6651 6652 6653 6654 6655 6656 6657 6658 6659 6660 6661 6662 6663 6664 6665 6666 6667 6668 6669 6670 6671 6672 6673 6674 6675 6676 6677 6678 6679 6680 6681 6682 6683 6684 6685 6686 6687 6688 6689 6690 6691 6692 6693 6694 6695 6696 6697 6698 6699 6700 6701 6702 6703 6704 6705 6706 6707 6708 6709 6710 6711 6712 6713 6714 6715 6716 6717 6718 6719 6720 6721 6722 6723 6724 6725 6726 6727 6728 6729 6730 6731 6732 6733 6734 6735 6736 6737 6738 6739 6740 6741 6742 6743 6744 6745 6746 6747 6748 6749 6750 6751 6752 6753 6754 6755 6756 6757 6758 6759 6760 6761 6762 6763 6764 6765 6766 6767 6768 6769 6770 6771 6772 6773 6774 6775 6776 6777 6778 6779 6780 6781 6782 6783 6784 6785 6786 6787 6788 6789 6790 6791 6792 6793 6794 6795 6796 6797 6798 6799 6800 6801 6802 6803 6804 6805 6806 6807 6808 6809 6810 6811 6812 6813 6814 6815 6816 6817 6818 6819 6820 6821 6822 6823 6824 6825 6826 6827 6828 6829 6830 6831 6832 6833 6834 6835 6836 6837 6838 6839 6840 6841 6842 6843 6844 6845 6846 6847 6848 6849 6850 6851 6852 6853 6854 6855 6856 6857 6858 6859 6860 6861 6862 6863 6864 6865 6866 6867 6868 6869 6870 6871 6872 6873 6874 6875 6876 6877 6878 6879 6880 6881 6882 6883 6884 6885 6886 6887 6888 6889 6890 6891 6892 6893 6894 6895 6896 6897 6898 6899 6900 6901 6902 6903 6904 6905 6906 6907 6908 6909 6910 6911 6912 6913 6914 6915 6916 6917 6918 6919 6920 6921 6922 6923 6924 6925 6926 6927 6928 6929 6930 6931 6932 6933 6934 6935 6936 6937 6938 6939 6940 6941 6942 6943 6944 6945 6946 6947 6948 6949 6950 6951 6952 6953 6954 6955 6956 6957 6958 6959 6960 6961 6962 6963 6964 6965 6966 6967 6968 6969 6970 6971 6972 6973 6974 6975 6976 6977 6978 6979 6980 6981 6982 6983 6984 6985 6986 6987 6988 6989 6990 6991 6992 6993 6994 6995 6996 6997 6998 6999 7000 7001 7002 7003 7004 7005 7006 7007 7008 7009 7010 7011 7012 7013 7014 7015 7016 7017 7018 7019 7020 7021 7022 7023 7024 7025 7026 7027 7028 7029 7030 7031 7032 7033 7034 7035 7036 7037 7038 7039 7040 7041 7042 7043 7044 7045 7046 7047 7048 7049 7050 7051 7052 7053 7054 7055 7056 7057 7058 7059 7060 7061 7062 7063 7064 7065 7066 7067 7068 7069 7070 7071 7072 7073 7074 7075 7076 7077 7078 7079 7080 7081 7082 7083 7084 7085 7086 7087 7088 7089 7090 7091 7092 7093 7094 7095 7096 7097 7098 7099 7100 7101 7102 7103 7104 7105 7106 7107 7108 7109 7110 7111 7112 7113 7114 7115 7116 7117 7118 7119 7120 7121 7122 7123 7124 7125 7126 7127 7128 7129 7130 7131 7132 7133 7134 7135 7136 7137 7138 7139 7140 7141 7142 7143 7144 7145 7146 7147 7148 7149 7150 7151 7152 7153 7154 7155 7156 7157 7158 7159 7160 7161 7162 7163 7164 7165 7166 7167 7168 7169 7170 7171 7172 7173 7174 7175 7176 7177 7178 7179 7180 7181 7182 7183 7184 7185 7186 7187 7188 7189 7190 7191 7192 7193 7194 7195 7196 7197 7198 7199 7200 7201 7202 7203 7204 7205 7206 7207 7208 7209 7210 7211 7212 7213 7214 7215 7216 7217 7218 7219 7220 7221 7222 7223 7224 7225 7226 7227 7228 7229 7230 7231 7232 7233 7234 7235 7236 7237 7238 7239 7240 7241 7242 7243 7244 7245 7246 7247 7248 7249 7250 7251 7252 7253 7254 7255 7256 7257 7258 7259 7260 7261 7262 7263 7264 7265 7266 7267 7268 7269 7270 7271 7272 7273 7274 7275 7276 7277 7278 7279 7280 7281 7282 7283 7284 7285 7286 7287 7288 7289 7290 7291 7292 7293 7294 7295 7296 7297 7298 7299 7300 7301 7302 7303 7304 7305 7306 7307 7308 7309 7310 7311 7312 7313 7314 7315 7316 7317 7318 7319 7320 7321 7322 7323 7324 7325 7326 7327 7328 7329 7330 7331 7332 7333 7334 7335 7336 7337 7338 7339 7340 7341 7342 7343 7344 7345 7346 7347 7348 7349 7350 7351 7352 7353 7354 7355 7356 7357 7358 7359 7360 7361 7362 7363 7364 7365 7366 7367 7368 7369 7370 7371 7372 7373 7374 7375 7376 7377 7378 7379 7380 7381 7382 7383 7384 7385 7386 7387 7388 7389 7390 7391 7392 7393 7394 7395 7396 7397 7398 7399 7400 7401 7402 7403 7404 7405 7406 7407 7408 7409 7410 7411 7412 7413 7414 7415 7416 7417 7418 7419 7420 7421 7422 7423 7424 7425 7426 7427 7428 7429 7430 7431 7432 7433 7434 7435 7436 7437 7438 7439 7440 7441 7442 7443 7444 7445 7446 7447 7448 7449 7450 7451 7452 7453 7454 7455 7456 7457 7458 7459 7460 7461 7462 7463 7464 7465 7466 7467 7468 7469 7470 7471 7472 7473 7474 7475 7476 7477 7478 7479 7480 7481 7482 7483 7484 7485 7486 7487 7488 7489 7490 7491 7492 7493 7494 7495 7496 7497 7498 7499 7500 7501 7502 7503 7504 7505 7506 7507 7508 7509 7510 7511 7512 7513 7514 7515 7516 7517 7518 7519 7520 7521 7522 7523 7524 7525 7526 7527 7528 7529 7530 7531 7532 7533 7534 7535 7536 7537 7538 7539 7540 7541 7542 7543 7544 7545 7546 7547 7548 7549 7550 7551 7552 7553 7554 7555 7556 7557 7558 7559 7560 7561 7562 7563 7564 7565 7566 7567 7568 7569 7570 7571 7572 7573 7574 7575 7576 7577 7578 7579 7580 7581 7582 7583 7584 7585 7586 7587 7588 7589 7590 7591 7592 7593 7594 7595 7596 7597 7598 7599 7600 7601 7602 7603 7604 7605 7606 7607 7608 7609 7610 7611 7612 7613 7614 7615 7616 7617 7618 7619 7620 7621 7622 7623 7624 7625 7626 7627 7628 7629 7630 7631 7632 7633 7634 7635 7636 7637 7638 7639 7640 7641 7642 7643 7644 7645 7646 7647 7648 7649 7650 7651 7652 7653 7654 7655 7656 7657 7658 7659 7660 7661 7662 7663 7664 7665 7666 7667 7668 7669 7670 7671 7672 7673 7674 7675 7676 7677 7678 7679 7680 7681 7682 7683 7684 7685 7686 7687 7688 7689 7690 7691 7692 7693 7694 7695 7696 7697 7698 7699 7700 7701 7702 7703 7704 7705 7706 7707 7708 7709 7710 7711 7712 7713 7714 7715 7716 7717 7718 7719 7720 7721 7722 7723 7724 7725 7726 7727 7728 7729 7730 7731 7732 7733 7734 7735 7736 7737 7738 7739 7740 7741 7742 7743 7744 7745 7746 7747 7748 7749 7750 7751 7752 7753 7754 7755 7756 7757 7758 7759 7760 7761 7762 7763 7764 7765 7766 7767 7768 7769 7770 7771 7772 7773 7774 7775 7776 7777 7778 7779 7780 7781 7782 7783 7784 7785 7786 7787 7788 7789 7790 7791 7792 7793 7794 7795 7796 7797 7798 7799 7800 7801 7802 7803 7804 7805 7806 7807 7808 7809 7810 7811 7812 7813 7814 7815 7816 7817 7818 7819 7820 7821 7822 7823 7824 7825 7826 7827 7828 7829 7830 7831 7832 7833 7834 7835 7836 7837 7838 7839 7840 7841 7842 7843 7844 7845 7846 7847 7848 7849 7850 7851 7852 7853 7854 7855 7856 7857 7858 7859 7860 7861 7862 7863 7864 7865 7866 7867 7868 7869 7870 7871 7872 7873 7874 7875 7876 7877 7878 7879 7880 7881 7882 7883 7884 7885 7886 7887 7888 7889 7890 7891 7892 7893 7894 7895 7896 7897 7898 7899 7900 7901 7902 7903 7904 7905 7906 7907 7908 7909 7910 7911 7912 7913 7914 7915 7916 7917 7918 7919 7920 7921 7922 7923 7924 7925 7926 7927 7928 7929 7930 7931 7932 7933 7934 7935 7936 7937 7938 7939 7940 7941 7942 7943 7944 7945 7946 7947 7948 7949 7950 7951 7952 7953 7954 7955 7956 7957 7958 7959 7960 7961 7962 7963 7964 7965 7966 7967 7968 7969 7970 7971 7972 7973 7974 7975 7976 7977 7978 7979 7980 7981 7982 7983 7984 7985 7986 7987 7988 7989 7990 7991 7992 7993 7994 7995 7996 7997 7998 7999 8000 8001 8002 8003 8004 8005 8006 8007 8008 8009 8010 8011 8012 8013 8014 8015 8016 8017 8018 8019 8020 8021 8022 8023 8024 8025 8026 8027 8028 8029 8030 8031 8032 8033 8034 8035 8036 8037 8038 8039 8040 8041 8042 8043 8044 8045 8046 8047 8048 8049 8050 8051 8052 8053 8054 8055 8056 8057 8058 8059 8060 8061 8062 8063 8064 8065 8066 8067 8068 8069 8070 8071 8072 8073 8074 8075 8076 8077 8078 8079 8080 8081 8082 8083 8084 8085 8086 8087 8088 8089 8090 8091 8092 8093 8094 8095 8096 8097 8098 8099 8100 8101 8102 8103 8104 8105 8106 8107 8108 8109 8110 8111 8112 8113 8114 8115 8116 8117 8118 8119 8120 8121 8122 8123 8124 8125 8126 8127 8128 8129 8130 8131 8132 8133 8134 8135 8136 8137 8138 8139 8140 8141 8142 8143 8144 8145 8146 8147 8148 8149 8150 8151 8152 8153 8154 8155 8156 8157 8158 8159 8160 8161 8162 8163 8164 8165 8166 8167 8168 8169 8170 8171 8172 8173 8174 8175 8176 8177 8178 8179 8180 8181 8182 8183 8184 8185 8186 8187 8188 8189 8190 8191 8192 8193 8194 8195 8196 8197 8198 8199 8200 8201 8202 8203 8204 8205 8206 8207 8208 8209 8210 8211 8212 8213 8214 8215 8216 8217 8218 8219 8220 8221 8222 8223 8224 8225 8226 8227 8228 8229 8230 8231 8232 8233 8234 8235 8236 8237 8238 8239 8240 8241 8242 8243 8244 8245 8246 8247 8248 8249 8250 8251 8252 8253 8254 8255 8256 8257 8258 8259 8260 8261 8262 8263 8264 8265 8266 8267 8268 8269 8270 8271 8272 8273 8274 8275 8276 8277 8278 8279 8280 8281 8282 8283 8284 8285 8286 8287 8288 8289 8290 8291 8292 8293 8294 8295 8296 8297 8298 8299 8300 8301 8302 8303 8304 8305 8306 8307 8308 8309 8310 8311 8312 8313 8314 8315 8316 8317 8318 8319 8320 8321 8322 8323 8324 8325 8326 8327 8328 8329 8330 8331 8332 8333 8334 8335 8336 8337 8338 8339 8340 8341 8342 8343 8344 8345 8346 8347 8348 8349 8350 8351 8352 8353 8354 8355 8356 8357 8358 8359 8360 8361 8362 8363 8364 8365 8366 8367 8368 8369 8370 8371 8372 8373 8374 8375 8376 8377 8378 8379 8380 8381 8382 8383 8384 8385 8386 8387 8388 8389 8390 8391 8392 8393 8394 8395 8396 8397 8398 8399 8400 8401 8402 8403 8404 8405 8406 8407 8408 8409 8410 8411 8412 8413 8414 8415 8416 8417 8418 8419 8420 8421 8422 8423 8424 8425 8426 8427 8428 8429 8430 8431 8432 8433 8434 8435 8436 8437 8438 8439 8440 8441 8442 8443 8444 8445 8446 8447 8448 8449 8450 8451 8452 8453 8454 8455 8456 8457 8458 8459 8460 8461 8462 8463 8464 8465 8466 8467 8468 8469 8470 8471 8472 8473 8474 8475 8476 8477 8478 8479 8480 8481 8482 8483 8484 8485 8486 8487 8488 8489 8490 8491 8492 8493 8494 8495 8496 8497 8498 8499 8500 8501 8502 8503 8504 8505 8506 8507 8508 8509 8510 8511 8512 8513 8514 8515 8516 8517 8518 8519 8520 8521 8522 8523 8524 8525 8526 8527 8528 8529 8530 8531 8532 8533 8534 8535 8536 8537 8538 8539 8540 8541 8542 8543 8544 8545 8546 8547 8548 8549 8550 8551 8552 8553 8554 8555 8556 8557 8558 8559 8560 8561 8562 8563 8564 8565 8566 8567 8568 8569 8570 8571 8572 8573 8574 8575 8576 8577 8578 8579 8580 8581 8582 8583 8584 8585 8586 8587 8588 8589 8590 8591 8592 8593 8594 8595 8596 8597 8598 8599 8600 8601 8602 8603 8604 8605 8606 8607 8608 8609 8610 8611 8612 8613 8614 8615 8616 8617 8618 8619 8620 8621 8622 8623 8624 8625 8626 8627 8628 8629 8630 8631 8632 8633 8634 8635 8636 8637 8638 8639 8640 8641 8642 8643 8644 8645 8646 8647 8648 8649 8650 8651 8652 8653 8654 8655 8656 8657 8658 8659 8660 8661 8662 8663 8664 8665 8666 8667 8668 8669 8670 8671 8672 8673 8674 8675 8676 8677 8678 8679 8680 8681 8682 8683 8684 8685 8686 8687 8688 8689 8690 8691 8692 8693 8694 8695 8696 8697 8698 8699 8700 8701 8702 8703 8704 8705 8706 8707 8708 8709 8710 8711 8712 8713 8714 8715 8716 8717 8718 8719 8720 8721 8722 8723 8724 8725 8726 8727 8728 8729 8730 8731 8732 8733 8734 8735 8736 8737 8738 8739 8740 8741 8742 8743 8744 8745 8746 8747 8748 8749 8750 8751 8752 8753 8754 8755 8756 8757 8758 8759 8760 8761 8762 8763 8764 8765 8766 8767 8768 8769 8770 8771 8772 8773 8774 8775 8776 8777 8778 8779 8780 8781 8782 8783 8784 8785 8786 8787 8788 8789 8790 8791 8792 8793 8794 8795 8796 8797 8798 8799 8800 8801 8802 8803 8804 8805 8806 8807 8808 8809 8810 8811 8812 8813 8814 8815 8816 8817 8818 8819 8820 8821 8822 8823 8824 8825 8826 8827 8828 8829 8830 8831 8832 8833 8834 8835 8836 8837 8838 8839 8840 8841 8842 8843 8844 8845 8846 8847 8848 8849 8850 8851 8852 8853 8854 8855 8856 8857 8858 8859 8860 8861 8862 8863 8864 8865 8866 8867 8868 8869 8870 8871 8872 8873 8874 8875 8876 8877 8878 8879 8880 8881 8882 8883 8884 8885 8886 8887 8888 8889 8890 8891 8892 8893 8894 8895 8896 8897 8898 8899 8900 8901 8902 8903 8904 8905 8906 8907 8908 8909 8910 8911 8912 8913 8914 8915 8916 8917 8918 8919 8920 8921 8922 8923 8924 8925 8926 8927 8928 8929 8930 8931 8932 8933 8934 8935 8936 8937 8938 8939 8940 8941 8942 8943 8944 8945 8946 8947 8948 8949 8950 8951 8952 8953 8954 8955 8956 8957 8958 8959 8960 8961 8962 8963 8964 8965 8966 8967 8968 8969 8970 8971 8972 8973 8974 8975 8976 8977 8978 8979 8980 8981 8982 8983 8984 8985 8986 8987 8988 8989 8990 8991 8992 8993 8994 8995 8996 8997 8998 8999 9000 9001 9002 9003 9004 9005 9006 9007 9008 9009 9010 9011 9012 9013 9014 9015 9016 9017 9018 9019 9020 9021 9022 9023 9024 9025 9026 9027 9028 9029 9030 9031 9032 9033 9034 9035 9036 9037 9038 9039 9040 9041 9042 9043 9044 9045 9046 9047 9048 9049 9050 9051 9052 9053 9054 9055 9056 9057 9058 9059 9060 9061 9062 9063 9064 9065 9066 9067 9068 9069 9070 9071 9072 9073 9074 9075 9076 9077 9078 9079 9080 9081 9082 9083 9084 9085 9086 9087 9088 9089 9090 9091 9092 9093 9094 9095 9096 9097 9098 9099 9100 9101 9102 9103 9104 9105 9106 9107 9108 9109 9110 9111 9112 9113 9114 9115 9116 9117 9118 9119 9120 9121 9122 9123 9124 9125 9126 9127 9128 9129 9130 9131 9132 9133 9134 9135 9136 9137 9138 9139 9140 9141 9142 9143 9144 9145 9146 9147 9148 9149 9150 9151 9152 9153 9154 9155 9156 9157 9158 9159 9160 9161 9162 9163 9164 9165 9166 9167 9168 9169 9170 9171 9172 9173 9174 9175 9176 9177 9178 9179 9180 9181 9182 9183 9184 9185 9186 9187 9188 9189 9190 9191 9192 9193 9194 9195 9196 9197 9198 9199 9200 9201 9202 9203 9204 9205 9206 9207 9208 9209 9210 9211 9212 9213 9214 9215 9216 9217 9218 9219 9220 9221 9222 9223 9224 9225 9226 9227 9228 9229 9230 9231 9232 9233 9234 9235 9236 9237 9238 9239 9240 9241 9242 9243 9244 9245 9246 9247 9248 9249 9250 9251 9252 9253 9254 9255 9256 9257 9258 9259 9260 9261 9262 9263 9264 9265 9266 9267 9268 9269 9270 9271 9272 9273 9274 9275 9276 9277 9278 9279 9280 9281 9282 9283 9284 9285 9286 9287 9288 9289 9290 9291 9292 9293 9294 9295 9296 9297 9298 9299 9300 9301 9302 9303 9304 9305 9306 9307 9308 9309 9310 9311 9312 9313 9314 9315 9316 9317 9318 9319 9320 9321 9322 9323 9324 9325 9326 9327 9328 9329 9330 9331 9332 9333 9334 9335 9336 9337 9338 9339 9340 9341 9342 9343 9344 9345 9346 9347 9348 9349 9350 9351 9352 9353 9354 9355 9356 9357 9358 9359 9360 9361 9362 9363 9364 9365 9366 9367 9368 9369 9370 9371 9372 9373 9374 9375 9376 9377 9378 9379 9380 9381 9382 9383 9384 9385 9386 9387 9388 9389 9390 9391 9392 9393 9394 9395 9396 9397 9398 9399 9400 9401 9402 9403 9404 9405 9406 9407 9408 9409 9410 9411 9412 9413 9414 9415 9416 9417 9418 9419 9420 9421 9422 9423 9424 9425 9426 9427 9428 9429 9430 9431 9432 9433 9434 9435 9436 9437 9438 9439 9440 9441 9442 9443 9444 9445 9446 9447 9448 9449 9450 9451 9452 9453 9454 9455 9456 9457 9458 9459 9460 9461 9462 9463 9464 9465 9466 9467 9468 9469 9470 9471 9472 9473 9474 9475 9476 9477 9478 9479 9480 9481 9482 9483 9484 9485 9486 9487 9488 9489 9490 9491 9492 9493 9494 9495 9496 9497 9498 9499 9500 9501 9502 9503 9504 9505 9506 9507 9508 9509 9510 9511 9512 9513 9514 9515 9516 9517 9518 9519 9520 9521 9522 9523 9524 9525 9526 9527 9528 9529 9530 9531 9532 9533 9534 9535 9536 9537 9538 9539 9540 9541 9542 9543 9544 9545 9546 9547 9548 9549 9550 9551 9552 9553 9554 9555 9556 9557 9558 9559 9560 9561 9562 9563 9564 9565 9566 9567 9568 9569 9570 9571 9572 9573 9574 9575 9576 9577 9578 9579 9580 9581 9582 9583 9584 9585 9586 9587 9588 9589 9590 9591 9592 9593 9594 9595 9596 9597 9598 9599 9600 9601 9602 9603 9604 9605 9606 9607 9608 9609 9610 9611 9612 9613 9614 9615 9616 9617 9618 9619 9620 9621 9622 9623 9624 9625 9626 9627 9628 9629 9630 9631 9632 9633 9634 9635 9636 9637 9638 9639 9640 9641 9642 9643 9644 9645 9646 9647 9648 9649 9650 9651 9652 9653 9654 9655 9656 9657 9658 9659 9660 9661 9662 9663 9664 9665 9666 9667 9668 9669 9670 9671 9672 9673 9674 9675 9676 9677 9678 9679 9680 9681 9682 9683 9684 9685 9686 9687 9688 9689 9690 9691 9692 9693 9694 9695 9696 9697 9698 9699 9700 9701 9702 9703 9704 9705 9706 9707 9708 9709 9710 9711 9712 9713 9714 9715 9716 9717 9718 9719 9720 9721 9722 9723 9724 9725 9726 9727 9728 9729 9730 9731 9732 9733 9734 9735 9736 9737 9738 9739 9740 9741 9742 9743 9744 9745 9746 9747 9748 9749 9750 9751 9752 9753 9754 9755 9756 9757 9758 9759 9760 9761 9762 9763 9764 9765 9766 9767 9768 9769 9770 9771 9772 9773 9774 9775 9776 9777 9778 9779 9780 9781 9782 9783 9784 9785 9786 9787 9788 9789 9790 9791 9792 9793 9794 9795 9796 9797 9798 9799 9800 9801 9802 9803 9804 9805 9806 9807 9808 9809 9810 9811 9812 9813 9814 9815 9816 9817 9818 9819 9820 9821 9822 9823 9824 9825 9826 9827 9828 9829 9830 9831 9832 9833 9834 9835 9836 9837 9838 9839 9840 9841 9842 9843 9844 9845 9846 9847 9848 9849 9850 9851 9852 9853 9854 9855 9856 9857 9858 9859 9860 9861 9862 9863 9864 9865 9866 9867 9868 9869 9870 9871 9872 9873 9874 9875 9876 9877 9878 9879 9880 9881 9882 9883 9884 9885 9886 9887 9888 9889 9890 9891 9892 9893 9894 9895 9896 9897 9898 9899 9900 9901 9902 9903 9904 9905 9906 9907 9908 9909 9910 9911 9912 9913 9914 9915 9916 9917 9918 9919 9920 9921 9922 9923 9924 9925 9926 9927 9928 9929 9930 9931 9932 9933 9934 9935 9936 9937 9938 9939 9940 9941 9942 9943 9944 9945 9946 9947 9948 9949 9950 9951 9952 9953 9954 9955 9956 9957 9958 9959 9960 9961 9962 9963 9964 9965 9966 9967 9968 9969 9970 9971 9972 9973 9974 9975 9976 9977 9978 9979 9980 9981 9982 9983 9984 9985 9986 9987 9988 9989 9990 9991 9992 9993 9994 9995 9996 9997 9998 9999 10000 10001 10002 10003 10004 10005 10006 10007 10008 10009 10010 10011 10012 10013 10014 10015 10016 10017 10018 10019 10020 10021 10022 10023 10024 10025 10026 10027 10028 10029 10030 10031 10032 10033 10034 10035 10036 10037 10038 10039 10040 10041 10042 10043 10044 10045 10046 10047 10048 10049 10050 10051 10052 10053 10054 10055 10056 10057 10058 10059 10060 10061 10062 10063 10064 10065 10066 10067 10068 10069 10070 10071 10072 10073 10074 10075 10076 10077 10078 10079 10080 10081 10082 10083 10084 10085 10086 10087 10088 10089 10090 10091 10092 10093 10094 10095 10096 10097 10098 10099 10100 10101 10102 10103 10104 10105 10106 10107 10108 10109 10110 10111 10112 10113 10114 10115 10116 10117 10118 10119 10120 10121 10122 10123 10124 10125 10126 10127 10128 10129 10130 10131 10132 10133 10134 10135 10136 10137 10138 10139 10140 10141 10142 10143 10144 10145 10146 10147 10148 10149 10150 10151 10152 10153 10154 10155 10156 10157 10158 10159 10160 10161 10162 10163 10164 10165 10166 10167 10168 10169 10170 10171 10172 10173 10174 10175 10176 10177 10178 10179 10180 10181 10182 10183 10184 10185 10186 10187 10188 10189 10190 10191 10192 10193 10194 10195 10196 10197 10198 10199 10200 10201 10202 10203 10204 10205 10206 10207 10208 10209 10210 10211 10212 10213 10214 10215 10216 10217 10218 10219 10220 10221 10222 10223 10224 10225 10226 10227 10228 10229 10230 10231 10232 10233 10234 10235 10236 10237 10238 10239 10240 10241 10242 10243 10244 10245 10246 10247 10248 10249 10250 10251 10252 10253 10254 10255 10256 10257 10258 10259 10260 10261 10262 10263 10264 10265 10266 10267 10268 10269 10270 10271 10272 10273 10274 10275 10276 10277 10278 10279 10280 10281 10282 10283 10284 10285 10286 10287 10288 10289 10290 10291 10292 10293 10294 10295 10296 10297 10298 10299 10300 10301 10302 10303 10304 10305 10306 10307 10308 10309 10310 10311 10312 10313 10314 10315 10316 10317 10318 10319 10320 10321 10322 10323 10324 10325 10326 10327 10328 10329 10330 10331 10332 10333 10334 10335 10336 10337 10338 10339 10340 10341 10342 10343 10344 10345 10346 10347 10348 10349 10350 10351 10352 10353 10354 10355 10356 10357 10358 10359 10360 10361 10362 10363 10364 10365 10366 10367 10368 10369 10370 10371 10372 10373 10374 10375 10376 10377 10378 10379 10380 10381 10382 10383 10384 10385 10386 10387 10388 10389 10390 10391 10392 10393 10394 10395 10396 10397 10398 10399 10400 10401 10402 10403 10404 10405 10406 10407 10408 10409 10410 10411 10412 10413 10414 10415 10416 10417 10418 10419 10420 10421 10422 10423 10424 10425 10426 10427 10428 10429 10430 10431 10432 10433 10434 10435 10436 10437 10438 10439 10440 10441 10442 10443 10444 10445 10446 10447 10448 10449 10450 10451 10452 10453 10454 10455 10456 10457 10458 10459 10460 10461 10462 10463 10464 10465 10466 10467 10468 10469 10470 10471 10472 10473 10474 10475 10476 10477 10478 10479 10480 10481 10482 10483 10484 10485 10486 10487 10488 10489 10490 10491 10492 10493 10494 10495 10496 10497 10498 10499 10500 10501 10502 10503 10504 10505 10506 10507 10508 10509 10510 10511 10512 10513 10514 10515 10516 10517 10518 10519 10520 10521 10522 10523 10524 10525 10526 10527 10528 10529 10530 10531 10532 10533 10534 10535 10536 10537 10538 10539 10540 10541 10542 10543 10544 10545 10546 10547 10548 10549 10550 10551 10552 10553 10554 10555 10556 10557 10558 10559 10560 10561 10562 10563 10564 10565 10566 10567 10568 10569 10570 10571 10572 10573 10574 10575 10576 10577 10578 10579 10580 10581 10582 10583 10584 10585 10586 10587 10588 10589 10590 10591 10592 10593 10594 10595 10596 10597 10598 10599 10600 10601 10602 10603 10604 10605 10606 10607 10608 10609 10610 10611 10612 10613 10614 10615 10616 10617 10618 10619 10620 10621 10622 10623 10624 10625 10626 10627 10628 10629 10630 10631 10632 10633 10634 10635 10636 10637 10638 10639 10640 10641 10642 10643 10644 10645 10646 10647 10648 10649 10650 10651 10652 10653 10654 10655 10656 10657 10658 10659 10660 10661 10662 10663 10664 10665 10666 10667 10668 10669 10670 10671 10672 10673 10674 10675 10676 10677 10678 10679 10680 10681 10682 10683 10684 10685 10686 10687 10688 10689 10690 10691 10692 10693 10694 10695 10696 10697 10698 10699 10700 10701 10702 10703 10704 10705 10706 10707 10708 10709 10710 10711 10712 10713 10714 10715 10716 10717 10718 10719 10720 10721 10722 10723 10724 10725 10726 10727 10728 10729 10730 10731 10732 10733 10734 10735 10736 10737 10738 10739 10740 10741 10742 10743 10744 10745 10746 10747 10748 10749 10750 10751 10752 10753 10754 10755 10756 10757 10758 10759 10760 10761 10762 10763 10764 10765 10766 10767 10768 10769 10770 10771 10772 10773 10774 10775 10776 10777 10778 10779 10780 10781 10782 10783 10784 10785 10786 10787 10788 10789 10790 10791 10792 10793 10794 10795 10796 10797 10798 10799 10800 10801 10802 10803 10804 10805 10806 10807 10808 10809 10810 10811 10812 10813 10814 10815 10816 10817 10818 10819 10820 10821 10822 10823 10824 10825 10826 10827 10828 10829 10830 10831 10832 10833 10834 10835 10836 10837 10838 10839 10840 10841 10842 10843 10844 10845 10846 10847 10848 10849 10850 10851 10852 10853 10854 10855 10856 10857 10858 10859 10860 10861 10862 10863 10864 10865 10866 10867 10868 10869 10870 10871 10872 10873 10874 10875 10876 10877 10878 10879 10880 10881 10882 10883 10884 10885 10886 10887 10888 10889 10890 10891 10892 10893 10894 10895 10896 10897 10898 10899 10900 10901 10902 10903 10904 10905 10906 10907 10908 10909 10910 10911 10912 10913 10914 10915 10916 10917 10918 10919 10920 10921 10922 10923 10924 10925 10926 10927 10928 10929 10930 10931 10932 10933 10934 10935 10936 10937 10938 10939 10940 10941 10942 10943 10944 10945 10946 10947 10948 10949 10950 10951 10952 10953 10954 10955 10956 10957 10958 10959 10960 10961 10962 10963 10964 10965 10966 10967 10968 10969 10970 10971 10972 10973 10974 10975 10976 10977 10978 10979 10980 10981 10982 10983 10984 10985 10986 10987 10988 10989 10990 10991 10992 10993 10994 10995 10996 10997 10998 10999 11000 11001 11002 11003 11004 11005 11006 11007 11008 11009 11010 11011 11012 11013 11014 11015 11016 11017 11018 11019 11020 11021 11022 11023 11024 11025 11026 11027 11028 11029 11030 11031 11032 11033 11034 11035 11036 11037 11038 11039 11040 11041 11042 11043 11044 11045 11046 11047 11048 11049 11050 11051 11052 11053 11054 11055 11056 11057 11058 11059 11060 11061 11062 11063 11064 11065 11066 11067 11068 11069 11070 11071 11072 11073 11074 11075 11076 11077 11078 11079 11080 11081 11082 11083 11084 11085 11086 11087 11088 11089 11090 11091 11092 11093 11094 11095 11096 11097 11098 11099 11100 11101 11102 11103 11104 11105 11106 11107 11108 11109 11110 11111 11112 11113 11114 11115 11116 11117 11118 11119 11120 11121 11122 11123 11124 11125 11126 11127 11128 11129 11130 11131 11132 11133 11134 11135 11136 11137 11138 11139 11140 11141 11142 11143 11144 11145 11146 11147 11148 11149 11150 11151 11152 11153 11154 11155 11156 11157 11158 11159 11160 11161 11162 11163 11164 11165 11166 11167 11168 11169 11170 11171 11172 11173 11174 11175 11176 11177 11178 11179 11180 11181 11182 11183 11184 11185 11186 11187 11188 11189 11190 11191 11192 11193 11194 11195 11196 11197 11198 11199 11200 11201 11202 11203 11204 11205 11206 11207 11208 11209 11210 11211 11212 11213 11214 11215 11216 11217 11218 11219 11220 11221 11222 11223 11224 11225 11226 11227 11228 11229 11230 11231 11232 11233 11234 11235 11236 11237 11238 11239 11240 11241 11242 11243 11244 11245 11246 11247 11248 11249 11250 11251 11252 11253 11254 11255 11256 11257 11258 11259 11260 11261 11262 11263 11264 11265 11266 11267 11268 11269 11270 11271 11272 11273 11274 11275 11276 11277 11278 11279 11280 11281 11282 11283 11284 11285 11286 11287 11288 11289 11290 11291 11292 11293 11294 11295 11296 11297 11298 11299 11300 11301 11302 11303 11304 11305 11306 11307 11308 11309 11310 11311 11312 11313 11314 11315 11316 11317 11318 11319 11320 11321 11322 11323 11324 11325 11326 11327 11328 11329 11330 11331 11332 11333 11334 11335 11336 11337 11338 11339 11340 11341 11342 11343 11344 11345 11346 11347 11348 11349 11350 11351 11352 11353 11354 11355 11356 11357 11358 11359 11360 11361 11362 11363 11364 11365 11366 11367 11368 11369 11370 11371 11372 11373 11374 11375 11376 11377 11378 11379 11380 11381 11382 11383 11384 11385 11386 11387 11388 11389 11390 11391 11392 11393 11394 11395 11396 11397 11398 11399 11400 11401 11402 11403 11404 11405 11406 11407 11408 11409 11410 11411 11412 11413 11414 11415 11416 11417 11418 11419 11420 11421 11422 11423 11424 11425 11426 11427 11428 11429 11430 11431 11432 11433 11434 11435 11436 11437 11438 11439 11440 11441 11442 11443 11444 11445 11446 11447 11448 11449 11450 11451 11452 11453 11454 11455 11456 11457 11458 11459 11460 11461 11462 11463 11464 11465 11466 11467 11468 11469 11470 11471 11472 11473 11474 11475 11476 11477 11478 11479 11480 11481 11482 11483 11484 11485 11486 11487 11488 11489 11490 11491 11492 11493 11494 11495 11496 11497 11498 11499 11500 11501 11502 11503 11504 11505 11506 11507 11508 11509 11510 11511 11512 11513 11514 11515 11516 11517 11518 11519 11520 11521 11522 11523 11524 11525 11526 11527 11528 11529 11530 11531 11532 11533 11534 11535 11536 11537 11538 11539 11540 11541 11542 11543 11544 11545 11546 11547 11548 11549 11550 11551 11552 11553 11554 11555 11556 11557 11558 11559 11560 11561 11562 11563 11564 11565 11566 11567 11568 11569 11570 11571 11572 11573 11574 11575 11576 11577 11578 11579 11580 11581 11582 11583 11584 11585 11586 11587 11588 11589 11590 11591 11592 11593 11594 11595 11596 11597 11598 11599 11600 11601 11602 11603 11604 11605 11606 11607 11608 11609 11610 11611 11612 11613 11614 11615 11616 11617 11618 11619 11620 11621 11622 11623 11624 11625 11626 11627 11628 11629 11630 11631 11632 11633 11634 11635 11636 11637 11638 11639 11640 11641 11642 11643 11644 11645 11646 11647 11648 11649 11650 11651 11652 11653 11654 11655 11656 11657 11658 11659 11660 11661 11662 11663 11664 11665 11666 11667 11668 11669 11670 11671 11672 11673 11674 11675 11676 11677 11678 11679 11680 11681 11682 11683 11684 11685 11686 11687 11688 11689 11690 11691 11692 11693 11694 11695 11696 11697 11698 11699 11700 11701 11702 11703 11704 11705 11706 11707 11708 11709 11710 11711 11712 11713 11714 11715 11716 11717 11718 11719 11720 11721 11722 11723 11724 11725 11726 11727 11728 11729 11730 11731 11732 11733 11734 11735 11736 11737 11738 11739 11740 11741 11742 11743 11744 11745 11746 11747 11748 11749 11750 11751 11752 11753 11754 11755 11756 11757 11758 11759 11760 11761 11762 11763 11764 11765 11766 11767 11768 11769 11770 11771 11772 11773 11774 11775 11776 11777 11778 11779 11780 11781 11782 11783 11784 11785 11786 11787 11788 11789 11790 11791 11792 11793 11794 11795 11796 11797 11798 11799 11800 11801 11802 11803 11804 11805 11806 11807 11808 11809 11810 11811 11812 11813 11814 11815 11816 11817 11818 11819 11820 11821 11822 11823 11824 11825 11826 11827 11828 11829 11830 11831 11832 11833 11834 11835 11836 11837 11838 11839 11840 11841 11842 11843 11844 11845 11846 11847 11848 11849 11850 11851 11852 11853 11854 11855 11856 11857 11858 11859 11860 11861 11862 11863 11864 11865 11866 11867 11868 11869 11870 11871 11872 11873 11874 11875 11876 11877 11878 11879 11880 11881 11882 11883 11884 11885 11886 11887 11888 11889 11890 11891 11892 11893 11894 11895 11896 11897 11898 11899 11900 11901 11902 11903 11904 11905 11906 11907 11908 11909 11910 11911 11912 11913 11914 11915 11916 11917 11918 11919 11920 11921 11922 11923 11924 11925 11926 11927 11928 11929 11930 11931 11932 11933 11934 11935 11936 11937 11938 11939 11940 11941 11942 11943 11944 11945 11946 11947 11948 11949 11950 11951 11952 11953 11954 11955 11956 11957 11958 11959 11960 11961 11962 11963 11964 11965 11966 11967 11968 11969 11970 11971 11972 11973 11974 11975 11976 11977 11978 11979 11980 11981 11982 11983 11984 11985 11986 11987 11988 11989 11990 11991 11992 11993 11994 11995 11996 11997 11998 11999 12000 12001 12002 12003 12004 12005 12006 12007 12008 12009 12010 12011 12012 12013 12014 12015 12016 12017 12018 12019 12020 12021 12022 12023 12024 12025 12026 12027 12028 12029 12030 12031 12032 12033 12034 12035 12036 12037 12038 12039 12040 12041 12042 12043 12044 12045 12046 12047 12048 12049 12050 12051 12052 12053 12054 12055 12056 12057 12058 12059 12060 12061 12062 12063 12064 12065 12066 12067 12068 12069 12070 12071 12072 12073 12074 12075 12076 12077 12078 12079 12080 12081 12082 12083 12084 12085 12086 12087 12088 12089 12090 12091 12092 12093 12094 12095 12096 12097 12098 12099 12100 12101 12102 12103 12104 12105 12106 12107 12108 12109 12110 12111 12112 12113 12114 12115 12116 12117 12118 12119 12120 12121 12122 12123 12124 12125 12126 12127 12128 12129 12130 12131 12132 12133 12134 12135 12136 12137 12138 12139 12140 12141 12142 12143 12144 12145 12146 12147 12148 12149 12150 12151 12152 12153 12154 12155 12156 12157 12158 12159 12160 12161 12162 12163 12164 12165 12166 12167 12168 12169 12170 12171 12172 12173 12174 12175 12176 12177 12178 12179 12180 12181 12182 12183 12184 12185 12186 12187 12188 12189 12190 12191 12192 12193 12194 12195 12196 12197 12198 12199 12200 12201 12202 12203 12204 12205 12206 12207 12208 12209 12210 12211 12212 12213 12214 12215 12216 12217 12218 12219 12220 12221 12222 12223 12224 12225 12226 12227 12228 12229 12230 12231 12232 12233 12234 12235 12236 12237 12238 12239 12240 12241 12242 12243 12244 12245 12246 12247 12248 12249 12250 12251 12252 12253 12254 12255 12256 12257 12258 12259 12260 12261 12262 12263 12264 12265 12266 12267 12268 12269 12270 12271 12272 12273 12274 12275 12276 12277 12278 12279 12280 12281 12282 12283 12284 12285 12286 12287 12288 12289 12290 12291 12292 12293 12294 12295 12296 12297 12298 12299 12300 12301 12302 12303 12304 12305 12306 12307 12308 12309 12310 12311 12312 12313 12314 12315 12316 12317 12318 12319 12320 12321 12322 12323 12324 12325 12326 12327 12328 12329 12330 12331 12332 12333 12334 12335 12336 12337 12338 12339 12340 12341 12342 12343 12344 12345 12346 12347 12348 12349 12350 12351 12352 12353 12354 12355 12356 12357 12358 12359 12360 12361 12362 12363 12364 12365 12366 12367 12368 12369 12370 12371 12372 12373 12374 12375 12376 12377 12378 12379 12380 12381 12382 12383 12384 12385 12386 12387 12388 12389 12390 12391 12392 12393 12394 12395 12396 12397 12398 12399 12400 12401 12402 12403 12404 12405 12406 12407 12408 12409 12410 12411 12412 12413 12414 12415 12416 12417 12418 12419 12420 12421 12422 12423 12424 12425 12426 12427 12428 12429 12430 12431 12432 12433 12434 12435 12436 12437 12438 12439 12440 12441 12442 12443 12444 12445 12446 12447 12448 12449 12450 12451 12452 12453 12454 12455 12456 12457 12458 12459 12460 12461 12462 12463 12464 12465 12466 12467 12468 12469 12470 12471 12472 12473 12474 12475 12476 12477 12478 12479 12480 12481 12482 12483 12484 12485 12486 12487 12488 12489 12490 12491 12492 12493 12494 12495 12496 12497 12498 12499 12500 12501 12502 12503 12504 12505 12506 12507 12508 12509 12510 12511 12512 12513 12514 12515 12516 12517 12518 12519 12520 12521 12522 12523 12524 12525 12526 12527 12528 12529 12530 12531 12532 12533 12534 12535 12536 12537 12538 12539 12540 12541 12542 12543 12544 12545 12546 12547 12548 12549 12550 12551 12552 12553 12554 12555 12556 12557 12558 12559 12560 12561 12562 12563 12564 12565 12566 12567 12568 12569 12570 12571 12572 12573 12574 12575 12576 12577 12578 12579 12580 12581 12582 12583 12584 12585 12586 12587 12588 12589 12590 12591 12592 12593 12594 12595 12596 12597 12598 12599 12600 12601 12602 12603 12604 12605 12606 12607 12608 12609 12610 12611 12612 12613 12614 12615 12616 12617 12618 12619 12620 12621 12622 12623 12624 12625 12626 12627 12628 12629 12630 12631 12632 12633 12634 12635 12636 12637 12638 12639 12640 12641 12642 12643 12644 12645 12646 12647 12648 12649 12650 12651 12652 12653 12654 12655 12656 12657 12658 12659 12660 12661 12662 12663 12664 12665 12666 12667 12668 12669 12670 12671 12672 12673 12674 12675 12676 12677 12678 12679 12680 12681 12682 12683 12684 12685 12686 12687 12688 12689 12690 12691 12692 12693 12694 12695 12696 12697 12698 12699 12700 12701 12702 12703 12704 12705 12706 12707 12708 12709 12710 12711 12712 12713 12714 12715 12716 12717 12718 12719 12720 12721 12722 12723 12724 12725 12726 12727 12728 12729 12730 12731 12732 12733 12734 12735 12736 12737 12738 12739 12740 12741 12742 12743 12744 12745 12746 12747 12748 12749 12750 12751 12752 12753 12754 12755 12756 12757 12758 12759 12760 12761 12762 12763 12764 12765 12766 12767 12768 12769 12770 12771 12772 12773 12774 12775 12776 12777 12778 12779 12780 12781 12782 12783 12784 12785 12786 12787 12788 12789 12790 12791 12792 12793 12794 12795 12796 12797 12798 12799 12800 12801 12802 12803 12804 12805 12806 12807 12808 12809 12810 12811 12812 12813 12814 12815 12816 12817 12818 12819 12820 12821 12822 12823 12824 12825 12826 12827 12828 12829 12830 12831 12832 12833 12834 12835 12836 12837 12838 12839 12840 12841 12842 12843 12844 12845 12846 12847 12848 12849 12850 12851 12852 12853 12854 12855 12856 12857 12858 12859 12860 12861 12862 12863 12864 12865 12866 12867 12868 12869 12870 12871 12872 12873 12874 12875 12876 12877 12878 12879 12880 12881 12882 12883 12884 12885 12886 12887 12888 12889 12890 12891 12892 12893 12894 12895 12896 12897 12898 12899 12900 12901 12902 12903 12904 12905 12906 12907 12908 12909 12910 12911 12912 12913 12914 12915 12916 12917 12918 12919 12920 12921 12922 12923 12924 12925 12926 12927 12928 12929 12930 12931 12932 12933 12934 12935 12936 12937 12938 12939 12940 12941 12942 12943 12944 12945 12946 12947 12948 12949 12950 12951 12952 12953 12954 12955 12956 12957 12958 12959 12960 12961 12962 12963 12964 12965 12966 12967 12968 12969 12970 12971 12972 12973 12974 12975 12976 12977 12978 12979 12980 12981 12982 12983 12984 12985 12986 12987 12988 12989 12990 12991 12992 12993 12994 12995 12996 12997 12998 12999 13000 13001 13002 13003 13004 13005 13006 13007 13008 13009 13010 13011 13012 13013 13014 13015 13016 13017 13018 13019 13020 13021 13022 13023 13024 13025 13026 13027 13028 13029 13030 13031 13032 13033 13034 13035 13036 13037 13038 13039 13040 13041 13042 13043 13044 13045 13046 13047 13048 13049 13050 13051 13052 13053 13054 13055 13056 13057 13058 13059 13060 13061 13062 13063 13064 13065 13066 13067 13068 13069 13070 13071 13072 13073 13074 13075 13076 13077 13078 13079 13080 13081 13082 13083 13084 13085 13086 13087 13088 13089 13090 13091 13092 13093 13094 13095 13096 13097 13098 13099 13100 13101 13102 13103 13104 13105 13106 13107 13108 13109 13110 13111 13112 13113 13114 13115 13116 13117 13118 13119 13120 13121 13122 13123 13124 13125 13126 13127 13128 13129 13130 13131 13132 13133 13134 13135 13136 13137 13138 13139 13140 13141 13142 13143 13144 13145 13146 13147 13148 13149 13150 13151 13152 13153 13154 13155 13156 13157 13158 13159 13160 13161 13162 13163 13164 13165 13166 13167 13168 13169 13170 13171 13172 13173 13174 13175 13176 13177 13178 13179 13180 13181 13182 13183 13184 13185 13186 13187 13188 13189 13190 13191 13192 13193 13194 13195 13196 13197 13198 13199 13200 13201 13202 13203 13204 13205 13206 13207 13208 13209 13210 13211 13212 13213 13214 13215 13216 13217 13218 13219 13220 13221 13222 13223 13224 13225 13226 13227 13228 13229 13230 13231 13232 13233 13234 13235 13236 13237 13238 13239 13240 13241 13242 13243 13244 13245 13246 13247 13248 13249 13250 13251 13252 13253 13254 13255 13256 13257 13258 13259 13260 13261 13262 13263 13264 13265 13266 13267 13268 13269 13270 13271 13272 13273 13274 13275 13276 13277 13278 13279 13280 13281 13282 13283 13284 13285 13286 13287 13288 13289 13290 13291 13292 13293 13294 13295 13296 13297 13298 13299 13300 13301 13302 13303 13304 13305 13306 13307 13308 13309 13310 13311 13312 13313 13314 13315 13316 13317 13318 13319 13320 13321 13322 13323 13324 13325 13326 13327 13328 13329 13330 13331 13332 13333 13334 13335 13336 13337 13338 13339 13340 13341 13342 13343 13344 13345 13346 13347 13348 13349 13350 13351 13352 13353 13354 13355 13356 13357 13358 13359 13360 13361 13362 13363 13364 13365 13366 13367 13368 13369 13370 13371 13372 13373 13374 13375 13376 13377 13378 13379 13380 13381 13382 13383 13384 13385 13386 13387 13388 13389 13390 13391 13392 13393 13394 13395 13396 13397 13398 13399 13400 13401 13402 13403 13404 13405 13406 13407 13408 13409 13410 13411 13412 13413 13414 13415 13416 13417 13418 13419 13420 13421 13422 13423 13424 13425 13426 13427 13428 13429 13430 13431 13432 13433 13434 13435 13436 13437 13438 13439 13440 13441 13442 13443 13444 13445 13446 13447 13448 13449 13450 13451 13452 13453 13454 13455 13456 13457 13458 13459 13460 13461 13462 13463 13464 13465 13466 13467 13468 13469 13470 13471 13472 13473 13474 13475 13476 13477 13478 13479 13480 13481 13482 13483 13484 13485 13486 13487 13488 13489 13490 13491 13492 13493 13494 13495 13496 13497 13498 13499 13500 13501 13502 13503 13504 13505 13506 13507 13508 13509 13510 13511 13512 13513 13514 13515 13516 13517 13518 13519 13520 13521 13522 13523 13524 13525 13526 13527 13528 13529 13530 13531 13532 13533 13534 13535 13536 13537 13538 13539 13540 13541 13542 13543 13544 13545 13546 13547 13548 13549 13550 13551 13552 13553 13554 13555 13556 13557 13558 13559 13560 13561 13562 13563 13564 13565 13566 13567 13568 13569 13570 13571 13572 13573 13574 13575 13576 13577 13578 13579 13580 13581 13582 13583 13584 13585 13586 13587 13588 13589 13590 13591 13592 13593 13594 13595 13596 13597 13598 13599 13600 13601 13602 13603 13604 13605 13606 13607 13608 13609 13610 13611 13612 13613 13614 13615 13616 13617 13618 13619 13620 13621 13622 13623 13624 13625 13626 13627 13628 13629 13630 13631 13632 13633 13634 13635 13636 13637 13638 13639 13640 13641 13642 13643 13644 13645 13646 13647 13648 13649 13650 13651 13652 13653 13654 13655 13656 13657 13658 13659 13660 13661 13662 13663 13664 13665 13666 13667 13668 13669 13670 13671 13672 13673 13674 13675 13676 13677 13678 13679 13680 13681 13682 13683 13684 13685 13686 13687 13688 13689 13690 13691 13692 13693 13694 13695 13696 13697 13698 13699 13700 13701 13702 13703 13704 13705 13706 13707 13708 13709 13710 13711 13712 13713 13714 13715 13716 13717 13718 13719 13720 13721 13722 13723 13724 13725 13726 13727 13728 13729 13730 13731 13732 13733 13734 13735 13736 13737 13738 13739 13740 13741 13742 13743 13744 13745 13746 13747 13748 13749 13750 13751 13752 13753 13754 13755 13756 13757 13758 13759 13760 13761 13762 13763 13764 13765 13766 13767 13768 13769 13770 13771 13772 13773 13774 13775 13776 13777 13778 13779 13780 13781 13782 13783 13784 13785 13786 13787 13788 13789 13790 13791 13792 13793 13794 13795 13796 13797 13798 13799 13800 13801 13802 13803 13804 13805 13806 13807 13808 13809 13810 13811 13812 13813 13814 13815 13816 13817 13818 13819 13820 13821 13822 13823 13824 13825 13826 13827 13828 13829 13830 13831 13832 13833 13834 13835 13836 13837 13838 13839 13840 13841 13842 13843 13844 13845 13846 13847 13848 13849 13850 13851 13852 13853 13854 13855 13856 13857 13858 13859 13860 13861 13862 13863 13864 13865 13866 13867 13868 13869 13870 13871 13872 13873 13874 13875 13876 13877 13878 13879 13880 13881 13882 13883 13884 13885 13886 13887 13888 13889 13890 13891 13892 13893 13894 13895 13896 13897 13898 13899 13900 13901 13902 13903 13904 13905 13906 13907 13908 13909 13910 13911 13912 13913 13914 13915 13916 13917 13918 13919 13920 13921 13922 13923 13924 13925 13926 13927 13928 13929 13930 13931 13932 13933 13934 13935 13936 13937 13938 13939 13940 13941 13942 13943 13944 13945 13946 13947 13948 13949 13950 13951 13952 13953 13954 13955 13956 13957 13958 13959 13960 13961 13962 13963 13964 13965 13966 13967 13968 13969 13970 13971 13972 13973 13974 13975 13976 13977 13978 13979 13980 13981 13982 13983 13984 13985 13986 13987 13988 13989 13990 13991 13992 13993 13994 13995 13996 13997 13998 13999 14000 14001 14002 14003 14004 14005 14006 14007 14008 14009 14010 14011 14012 14013 14014 14015 14016 14017 14018 14019 14020 14021 14022 14023 14024 14025 14026 14027 14028 14029 14030 14031 14032 14033 14034 14035 14036 14037 14038 14039 14040 14041 14042 14043 14044 14045 14046 14047 14048 14049 14050 14051 14052 14053 14054 14055 14056 14057 14058 14059 14060 14061 14062 14063 14064 14065 14066 14067 14068 14069 14070 14071 14072 14073 14074 14075 14076 14077 14078 14079 14080 14081 14082 14083 14084 14085 14086 14087 14088 14089 14090 14091 14092 14093 14094 14095 14096 14097 14098 14099 14100 14101 14102 14103 14104 14105 14106 14107 14108 14109 14110 14111 14112 14113 14114 14115 14116 14117 14118 14119 14120 14121 14122 14123 14124 14125 14126 14127 14128 14129 14130 14131 14132 14133 14134 14135 14136 14137 14138 14139 14140 14141 14142 14143 14144 14145 14146 14147 14148 14149 14150 14151 14152 14153 14154 14155 14156 14157 14158 14159 14160 14161 14162 14163 14164 14165 14166 14167 14168 14169 14170 14171 14172 14173 14174 14175 14176 14177 14178 14179 14180 14181 14182 14183 14184 14185 14186 14187 14188 14189 14190 14191 14192 14193 14194 14195 14196 14197 14198 14199 14200 14201 14202 14203 14204 14205 14206 14207 14208 14209 14210 14211 14212 14213 14214 14215 14216 14217 14218 14219 14220 14221 14222 14223 14224 14225 14226 14227 14228 14229 14230 14231 14232 14233 14234 14235 14236 14237 14238 14239 14240 14241 14242 14243 14244 14245 14246 14247 14248 14249 14250 14251 14252 14253 14254 14255 14256 14257 14258 14259 14260 14261 14262 14263 14264 14265 14266 14267 14268 14269 14270 14271 14272 14273 14274 14275 14276 14277 14278 14279 14280 14281 14282 14283 14284 14285 14286 14287 14288 14289 14290 14291 14292 14293 14294 14295 14296 14297 14298 14299 14300 14301 14302 14303 14304 14305 14306 14307 14308 14309 14310 14311 14312 14313 14314 14315 14316 14317 14318 14319 14320 14321 14322 14323 14324 14325 14326 14327 14328 14329 14330 14331 14332 14333 14334 14335 14336 14337 14338 14339 14340 14341 14342 14343 14344 14345 14346 14347 14348 14349 14350 14351 14352 14353 14354 14355 14356 14357 14358 14359 14360 14361 14362 14363 14364 14365 14366 14367 14368 14369 14370 14371 14372 14373 14374 14375 14376 14377 14378 14379 14380 14381 14382 14383 14384 14385 14386 14387 14388 14389 14390 14391 14392 14393 14394 14395 14396 14397 14398 14399 14400 14401 14402 14403 14404 14405 14406 14407 14408 14409 14410 14411 14412 14413 14414 14415 14416 14417 14418 14419 14420 14421 14422 14423 14424 14425 14426 14427 14428 14429 14430 14431 14432 14433 14434 14435 14436 14437 14438 14439 14440 14441 14442 14443 14444 14445 14446 14447 14448 14449 14450 14451 14452 14453 14454 14455 14456 14457 14458 14459 14460 14461 14462 14463 14464 14465 14466 14467 14468 14469 14470 14471 14472 14473 14474 14475 14476 14477 14478 14479 14480 14481 14482 14483 14484 14485 14486 14487 14488 14489 14490 14491 14492 14493 14494 14495 14496 14497 14498 14499 14500 14501 14502 14503 14504 14505 14506 14507 14508 14509 14510 14511 14512 14513 14514 14515 14516 14517 14518 14519 14520 14521 14522 14523 14524 14525 14526 14527 14528 14529 14530 14531 14532 14533 14534 14535 14536 14537 14538 14539 14540 14541 14542 14543 14544 14545 14546 14547 14548 14549 14550 14551 14552 14553 14554 14555 14556 14557 14558 14559 14560 14561 14562 14563 14564 14565 14566 14567 14568 14569 14570 14571 14572 14573 14574 14575 14576 14577 14578 14579 14580 14581 14582 14583 14584 14585 14586 14587 14588 14589 14590 14591 14592 14593 14594 14595 14596 14597 14598 14599 14600 14601 14602 14603 14604 14605 14606 14607 14608 14609 14610 14611 14612 14613 14614 14615 14616 14617 14618 14619 14620 14621 14622 14623 14624 14625 14626 14627 14628 14629 14630 14631 14632 14633 14634 14635 14636 14637 14638 14639 14640 14641 14642 14643 14644 14645 14646 14647 14648 14649 14650 14651 14652 14653 14654 14655 14656 14657 14658 14659 14660 14661 14662 14663 14664 14665 14666 14667 14668 14669 14670 14671 14672 14673 14674 14675 14676 14677 14678 14679 14680 14681 14682 14683 14684 14685 14686 14687 14688 14689 14690 14691 14692 14693 14694 14695 14696 14697 14698 14699 14700 14701 14702 14703 14704 14705 14706 14707 14708 14709 14710 14711 14712 14713 14714 14715 14716 14717 14718 14719 14720 14721 14722 14723 14724 14725 14726 14727 14728 14729 14730 14731 14732 14733 14734 14735 14736 14737 14738 14739 14740 14741 14742 14743 14744 14745 14746 14747 14748 14749 14750 14751 14752 14753 14754 14755 14756 14757 14758 14759 14760 14761 14762 14763 14764 14765 14766 14767 14768 14769 14770 14771 14772 14773 14774 14775 14776 14777 14778 14779 14780 14781 14782 14783 14784 14785 14786 14787 14788 14789 14790 14791 14792 14793 14794 14795 14796 14797 14798 14799 14800 14801 14802 14803 14804 14805 14806 14807 14808 14809 14810 14811 14812 14813 14814 14815 14816 14817 14818 14819 14820 14821 14822 14823 14824 14825 14826 14827 14828 14829 14830 14831 14832 14833 14834 14835 14836 14837 14838 14839 14840 14841 14842 14843 14844 14845 14846 14847 14848 14849 14850 14851 14852 14853 14854 14855 14856 14857 14858 14859 14860 14861 14862 14863 14864 14865 14866 14867 14868 14869 14870 14871 14872 14873 14874 14875 14876 14877 14878 14879 14880 14881 14882 14883 14884 14885 14886 14887 14888 14889 14890 14891 14892 14893 14894 14895 14896 14897 14898 14899 14900 14901 14902 14903 14904 14905 14906 14907 14908 14909 14910 14911 14912 14913 14914 14915 14916 14917 14918 14919 14920 14921 14922 14923 14924 14925 14926 14927 14928 14929 14930 14931 14932 14933 14934 14935 14936 14937 14938 14939 14940 14941 14942 14943 14944 14945 14946 14947 14948 14949 14950 14951 14952 14953 14954 14955 14956 14957 14958 14959 14960 14961 14962 14963 14964 14965 14966 14967 14968 14969 14970 14971 14972 14973 14974 14975 14976 14977 14978 14979 14980 14981 14982 14983 14984 14985 14986 14987 14988 14989 14990 14991 14992 14993 14994 14995 14996 14997 14998 14999 15000 15001 15002 15003 15004 15005 15006 15007 15008 15009 15010 15011 15012 15013 15014 15015 15016 15017 15018 15019 15020 15021 15022 15023 15024 15025 15026 15027 15028 15029 15030 15031 15032 15033 15034 15035 15036 15037 15038 15039 15040 15041 15042 15043 15044 15045 15046 15047 15048 15049 15050 15051 15052 15053 15054 15055 15056 15057 15058 15059 15060 15061 15062 15063 15064 15065 15066 15067 15068 15069 15070 15071 15072 15073 15074 15075 15076 15077 15078 15079 15080 15081 15082 15083 15084 15085 15086 15087 15088 15089 15090 15091 15092 15093 15094 15095 15096 15097 15098 15099 15100 15101 15102 15103 15104 15105 15106 15107 15108 15109 15110 15111 15112 15113 15114 15115 15116 15117 15118 15119 15120 15121 15122 15123 15124 15125 15126 15127 15128 15129 15130 15131 15132 15133 15134 15135 15136 15137 15138 15139 15140 15141 15142 15143 15144 15145 15146 15147 15148 15149 15150 15151 15152 15153 15154 15155 15156 15157 15158 15159 15160 15161 15162 15163 15164 15165 15166 15167 15168 15169 15170 15171 15172 15173 15174 15175 15176 15177 15178 15179 15180 15181 15182 15183 15184 15185 15186 15187 15188 15189 15190 15191 15192 15193 15194 15195 15196 15197 15198 15199 15200 15201 15202 15203 15204 15205 15206 15207 15208 15209 15210 15211 15212 15213 15214 15215 15216 15217 15218 15219 15220 15221 15222 15223 15224 15225 15226 15227 15228 15229 15230 15231 15232 15233 15234 15235 15236 15237 15238 15239 15240 15241 15242 15243 15244 15245 15246 15247 15248 15249 15250 15251 15252 15253 15254 15255 15256 15257 15258 15259 15260 15261 15262 15263 15264 15265 15266 15267 15268 15269 15270 15271 15272 15273 15274 15275 15276 15277 15278 15279 15280 15281 15282 15283 15284 15285 15286 15287 15288 15289 15290 15291 15292 15293 15294 15295 15296 15297 15298 15299 15300 15301 15302 15303 15304 15305 15306 15307 15308 15309 15310 15311 15312 15313 15314 15315 15316 15317 15318 15319 15320 15321 15322 15323 15324 15325 15326 15327 15328 15329 15330 15331 15332 15333 15334 15335 15336 15337 15338 15339 15340 15341 15342 15343 15344 15345 15346 15347 15348 15349 15350 15351 15352 15353 15354 15355 15356 15357 15358 15359 15360 15361 15362 15363 15364 15365 15366 15367 15368 15369 15370 15371 15372 15373 15374 15375 15376 15377 15378 15379 15380 15381 15382 15383 15384 15385 15386 15387 15388 15389 15390 15391 15392 15393 15394 15395 15396 15397 15398 15399 15400 15401 15402 15403 15404 15405 15406 15407 15408 15409 15410 15411 15412 15413 15414 15415 15416 15417 15418 15419 15420 15421 15422 15423 15424 15425 15426 15427 15428 15429 15430 15431 15432 15433 15434 15435 15436 15437 15438 15439 15440 15441 15442 15443 15444 15445 15446 15447 15448 15449 15450 15451 15452 15453 15454 15455 15456 15457 15458 15459 15460 15461 15462 15463 15464 15465 15466 15467 15468 15469 15470 15471 15472 15473 15474 15475 15476 15477 15478 15479 15480 15481 15482 15483 15484 15485 15486 15487 15488 15489 15490 15491 15492 15493 15494 15495 15496 15497 15498 15499 15500 15501 15502 15503 15504 15505 15506 15507 15508 15509 15510 15511 15512 15513 15514 15515 15516 15517 15518 15519 15520 15521 15522 15523 15524 15525 15526 15527 15528 15529 15530 15531 15532 15533 15534 15535 15536 15537 15538 15539 15540 15541 15542 15543 15544 15545 15546 15547 15548 15549 15550 15551 15552 15553 15554 15555 15556 15557 15558 15559 15560 15561 15562 15563 15564 15565 15566 15567 15568 15569 15570 15571 15572 15573 15574 15575 15576 15577 15578 15579 15580 15581 15582 15583 15584 15585 15586 15587 15588 15589 15590 15591 15592 15593 15594 15595 15596 15597 15598 15599 15600 15601 15602 15603 15604 15605 15606 15607 15608 15609 15610 15611 15612 15613 15614 15615 15616 15617 15618 15619 15620 15621 15622 15623 15624 15625 15626 15627 15628 15629 15630 15631 15632 15633 15634 15635 15636 15637 15638 15639 15640 15641 15642 15643 15644 15645 15646 15647 15648 15649 15650 15651 15652 15653 15654 15655 15656 15657 15658 15659 15660 15661 15662 15663 15664 15665 15666 15667 15668 15669 15670 15671 15672 15673 15674 15675 15676 15677 15678 15679 15680 15681 15682 15683 15684 15685 15686 15687 15688 15689 15690 15691 15692 15693 15694 15695 15696 15697 15698 15699 15700 15701 15702 15703 15704 15705 15706 15707 15708 15709 15710 15711 15712 15713 15714 15715 15716 15717 15718 15719 15720 15721 15722 15723 15724 15725 15726 15727 15728 15729 15730 15731 15732 15733 15734 15735 15736 15737 15738 15739 15740 15741 15742 15743 15744 15745 15746 15747 15748 15749 15750 15751 15752 15753 15754 15755 15756 15757 15758 15759 15760 15761 15762 15763 15764 15765 15766 15767 15768 15769 15770 15771 15772 15773 15774 15775 15776 15777 15778 15779 15780 15781 15782 15783 15784 15785 15786 15787 15788 15789 15790 15791 15792 15793 15794 15795 15796 15797 15798 15799 15800 15801 15802 15803 15804 15805 15806 15807 15808 15809 15810 15811 15812 15813 15814 15815 15816 15817 15818 15819 15820 15821 15822 15823 15824 15825 15826 15827 15828 15829 15830 15831 15832 15833 15834 15835 15836 15837 15838 15839 15840 15841 15842 15843 15844 15845 15846 15847 15848 15849 15850 15851 15852 15853 15854 15855 15856 15857 15858 15859 15860 15861 15862 15863 15864 15865 15866 15867 15868 15869 15870 15871 15872 15873 15874 15875 15876 15877 15878 15879 15880 15881 15882 15883 15884 15885 15886 15887 15888 15889 15890 15891 15892 15893 15894 15895 15896 15897 15898 15899 15900 15901 15902 15903 15904 15905 15906 15907 15908 15909 15910 15911 15912 15913 15914 15915 15916 15917 15918 15919 15920 15921 15922 15923 15924 15925 15926 15927 15928 15929 15930 15931 15932 15933 15934 15935 15936 15937 15938 15939 15940 15941 15942 15943 15944 15945 15946 15947 15948 15949 15950 15951 15952 15953 15954 15955 15956 15957 15958 15959 15960 15961 15962 15963 15964 15965 15966 15967 15968 15969 15970 15971 15972 15973 15974 15975 15976 15977 15978 15979 15980 15981 15982 15983 15984 15985 15986 15987 15988 15989 15990 15991 15992 15993 15994 15995 15996 15997 15998 15999 16000 16001 16002 16003 16004 16005 16006 16007 16008 16009 16010 16011 16012 16013 16014 16015 16016 16017 16018 16019 16020 16021 16022 16023 16024 16025 16026 16027 16028 16029 16030 16031 16032 16033 16034 16035 16036 16037 16038 16039 16040 16041 16042 16043 16044 16045 16046 16047 16048 16049 16050 16051 16052 16053 16054 16055 16056 16057 16058 16059 16060 16061 16062 16063 16064 16065 16066 16067 16068 16069 16070 16071 16072 16073 16074 16075 16076 16077 16078 16079 16080 16081 16082 16083 16084 16085 16086 16087 16088 16089 16090 16091 16092 16093 16094 16095 16096 16097 16098 16099 16100 16101 16102 16103 16104 16105 16106 16107 16108 16109 16110 16111 16112 16113 16114 16115 16116 16117 16118 16119 16120 16121 16122 16123 16124 16125 16126 16127 16128 16129 16130 16131 16132 16133 16134 16135 16136 16137 16138 16139 16140 16141 16142 16143 16144 16145 16146 16147 16148 16149 16150 16151 16152 16153 16154 16155 16156 16157 16158 16159 16160 16161 16162 16163 16164 16165 16166 16167 16168 16169 16170 16171 16172 16173 16174 16175 16176 16177 16178 16179 16180 16181 16182 16183 16184 16185 16186 16187 16188 16189 16190 16191 16192 16193 16194 16195 16196 16197 16198 16199 16200 16201 16202 16203 16204 16205 16206 16207 16208 16209 16210 16211 16212 16213 16214 16215 16216 16217 16218 16219 16220 16221 16222 16223 16224 16225 16226 16227 16228 16229 16230 16231 16232 16233 16234 16235 16236 16237 16238 16239 16240 16241 16242 16243 16244 16245 16246 16247 16248 16249 16250 16251 16252 16253 16254 16255 16256 16257 16258 16259 16260 16261 16262 16263 16264 16265 16266 16267 16268 16269 16270 16271 16272 16273 16274 16275 16276 16277 16278 16279 16280 16281 16282 16283 16284 16285 16286 16287 16288 16289 16290 16291 16292 16293 16294 16295 16296 16297 16298 16299 16300 16301 16302 16303 16304 16305 16306 16307 16308 16309 16310 16311 16312 16313 16314 16315 16316 16317 16318 16319 16320 16321 16322 16323 16324 16325 16326 16327 16328 16329 16330 16331 16332 16333 16334 16335 16336 16337 16338 16339 16340 16341 16342 16343 16344 16345 16346 16347 16348 16349 16350 16351 16352 16353 16354 16355 16356 16357 16358 16359 16360 16361 16362 16363 16364 16365 16366 16367 16368 16369 16370 16371 16372 16373 16374 16375 16376 16377 16378 16379 16380 16381 16382 16383 16384 16385 16386 16387 16388 16389 16390 16391 16392 16393 16394 16395 16396 16397 16398 16399 16400 16401 16402 16403 16404 16405 16406 16407 16408 16409 16410 16411 16412 16413 16414 16415 16416 16417 16418 16419 16420 16421 16422 16423 16424 16425 16426 16427 16428 16429 16430 16431 16432 16433 16434 16435 16436 16437 16438 16439 16440 16441 16442 16443 16444 16445 16446 16447 16448 16449 16450 16451 16452 16453 16454 16455 16456 16457 16458 16459 16460 16461 16462 16463 16464 16465 16466 16467 16468 16469 16470 16471 16472 16473 16474 16475 16476 16477 16478 16479 16480 16481 16482 16483 16484 16485 16486 16487 16488 16489 16490 16491 16492 16493 16494 16495 16496 16497 16498 16499 16500 16501 16502 16503 16504 16505 16506 16507 16508 16509 16510 16511 16512 16513 16514 16515 16516 16517 16518 16519 16520 16521 16522 16523 16524 16525 16526 16527 16528 16529 16530 16531 16532 16533 16534 16535 16536 16537 16538 16539 16540 16541 16542 16543 16544 16545 16546 16547 16548 16549 16550 16551 16552 16553 16554 16555 16556 16557 16558 16559 16560 16561 16562 16563 16564 16565 16566 16567 16568 16569 16570 16571 16572 16573 16574 16575 16576 16577 16578 16579 16580 16581 16582 16583 16584 16585 16586 16587 16588 16589 16590 16591 16592 16593 16594 16595 16596 16597 16598 16599 16600 16601 16602 16603 16604 16605 16606 16607 16608 16609 16610 16611 16612 16613 16614 16615 16616 16617 16618 16619 16620 16621 16622 16623 16624 16625 16626 16627 16628 16629 16630 16631 16632 16633 16634 16635 16636 16637 16638 16639 16640 16641 16642 16643 16644 16645 16646 16647 16648 16649 16650 16651 16652 16653 16654 16655 16656 16657 16658 16659 16660 16661 16662 16663 16664 16665 16666 16667 16668 16669 16670 16671 16672 16673 16674 16675 16676 16677 16678 16679 16680 16681 16682 16683 16684 16685 16686 16687 16688 16689 16690 16691 16692 16693 16694 16695 16696 16697 16698 16699 16700 16701 16702 16703 16704 16705 16706 16707 16708 16709 16710 16711 16712 16713 16714 16715 16716 16717 16718 16719 16720 16721 16722 16723 16724 16725 16726 16727 16728 16729 16730 16731 16732 16733 16734 16735 16736 16737 16738 16739 16740 16741 16742 16743 16744 16745 16746 16747 16748 16749 16750 16751 16752 16753 16754 16755 16756 16757 16758 16759 16760 16761 16762 16763 16764 16765 16766 16767 16768 16769 16770 16771 16772 16773 16774 16775 16776 16777 16778 16779 16780 16781 16782 16783 16784 16785 16786 16787 16788 16789 16790 16791 16792 16793 16794 16795 16796 16797 16798 16799 16800 16801 16802 16803 16804 16805 16806 16807 16808 16809 16810 16811 16812 16813 16814 16815 16816 16817 16818 16819 16820 16821 16822 16823 16824 16825 16826 16827 16828 16829 16830 16831 16832 16833 16834 16835 16836 16837 16838 16839 16840 16841 16842 16843 16844 16845 16846 16847 16848 16849 16850 16851 16852 16853 16854 16855 16856 16857 16858 16859 16860 16861 16862 16863 16864 16865 16866 16867 16868 16869 16870 16871 16872 16873 16874 16875 16876 16877 16878 16879 16880 16881 16882 16883 16884 16885 16886 16887 16888 16889 16890 16891 16892 16893 16894 16895 16896 16897 16898 16899 16900 16901 16902 16903 16904 16905 16906 16907 16908 16909 16910 16911 16912 16913 16914 16915 16916 16917 16918 16919 16920 16921 16922 16923 16924 16925 16926 16927 16928 16929 16930 16931 16932 16933 16934 16935 16936 16937 16938 16939 16940 16941 16942 16943 16944 16945 16946 16947 16948 16949 16950 16951 16952 16953 16954 16955 16956 16957 16958 16959 16960 16961 16962 16963 16964 16965 16966 16967 16968 16969 16970 16971 16972 16973 16974 16975 16976 16977 16978 16979 16980 16981 16982 16983 16984 16985 16986 16987 16988 16989 16990 16991 16992 16993 16994 16995 16996 16997 16998 16999 17000 17001 17002 17003 17004 17005 17006 17007 17008 17009 17010 17011 17012 17013 17014 17015 17016 17017 17018 17019 17020 17021 17022 17023 17024 17025 17026 17027 17028 17029 17030 17031 17032 17033 17034 17035 17036 17037 17038 17039 17040 17041 17042 17043 17044 17045 17046 17047 17048 17049 17050 17051 17052 17053 17054 17055 17056 17057 17058 17059 17060 17061 17062 17063 17064 17065 17066 17067 17068 17069 17070 17071 17072 17073 17074 17075 17076 17077 17078 17079 17080 17081 17082 17083 17084 17085 17086 17087 17088 17089 17090 17091 17092 17093 17094 17095 17096 17097 17098 17099 17100 17101 17102 17103 17104 17105 17106 17107 17108 17109 17110 17111 17112 17113 17114 17115 17116 17117 17118 17119 17120 17121 17122 17123 17124 17125 17126 17127 17128 17129 17130 17131 17132 17133 17134 17135 17136 17137 17138 17139 17140 17141 17142 17143 17144 17145 17146 17147 17148 17149 17150 17151 17152 17153 17154 17155 17156 17157 17158 17159 17160 17161 17162 17163 17164 17165 17166 17167 17168 17169 17170 17171 17172 17173 17174 17175 17176 17177 17178 17179 17180 17181 17182 17183 17184 17185 17186 17187 17188 17189 17190 17191 17192 17193 17194 17195 17196 17197 17198 17199 17200 17201 17202 17203 17204 17205 17206 17207 17208 17209 17210 17211 17212 17213 17214 17215 17216 17217 17218 17219 17220 17221 17222 17223 17224 17225 17226 17227 17228 17229 17230 17231 17232 17233 17234 17235 17236 17237 17238 17239 17240 17241 17242 17243 17244 17245 17246 17247 17248 17249 17250 17251 17252 17253 17254 17255 17256 17257 17258 17259 17260 17261 17262 17263 17264 17265 17266 17267 17268 17269 17270 17271 17272 17273 17274 17275 17276 17277 17278 17279 17280 17281 17282 17283 17284 17285 17286 17287 17288 17289 17290 17291 17292 17293 17294 17295 17296 17297 17298 17299 17300 17301 17302 17303 17304 17305 17306 17307 17308 17309 17310 17311 17312 17313 17314 17315 17316 17317 17318 17319 17320 17321 17322 17323 17324 17325 17326 17327 17328 17329 17330 17331 17332 17333 17334 17335 17336 17337 17338 17339 17340 17341 17342 17343 17344 17345 17346 17347 17348 17349 17350 17351 17352 17353 17354 17355 17356 17357 17358 17359 17360 17361 17362 17363 17364 17365 17366 17367 17368 17369 17370 17371 17372 17373 17374 17375 17376 17377 17378 17379 17380 17381 17382 17383 17384 17385 17386 17387 17388 17389 17390 17391 17392 17393 17394 17395 17396 17397 17398 17399 17400 17401 17402 17403 17404 17405 17406 17407 17408 17409 17410 17411 17412 17413 17414 17415 17416 17417 17418 17419 17420 17421 17422 17423 17424 17425 17426 17427 17428 17429 17430 17431 17432 17433 17434 17435 17436 17437 17438 17439 17440 17441 17442 17443 17444 17445 17446 17447 17448 17449 17450 17451 17452 17453 17454 17455 17456 17457 17458 17459 17460 17461 17462 17463 17464 17465 17466 17467 17468 17469 17470 17471 17472 17473 17474 17475 17476 17477 17478 17479 17480 17481 17482 17483 17484 17485 17486 17487 17488 17489 17490 17491 17492 17493 17494 17495 17496 17497 17498 17499 17500 17501 17502 17503 17504 17505 17506 17507 17508 17509 17510 17511 17512 17513 17514 17515 17516 17517 17518 17519 17520 17521 17522 17523 17524 17525 17526 17527 17528 17529 17530 17531 17532 17533 17534 17535 17536 17537 17538 17539 17540 17541 17542 17543 17544 17545 17546 17547 17548 17549 17550 17551 17552 17553 17554 17555 17556 17557 17558 17559 17560 17561 17562 17563 17564 17565 17566 17567 17568 17569 17570 17571 17572 17573 17574 17575 17576 17577 17578 17579 17580 17581 17582 17583 17584 17585 17586 17587 17588 17589 17590 17591 17592 17593 17594 17595 17596 17597 17598 17599 17600 17601 17602 17603 17604 17605 17606 17607 17608 17609 17610 17611 17612 17613 17614 17615 17616 17617 17618 17619 17620 17621 17622 17623 17624 17625 17626 17627 17628 17629 17630 17631 17632 17633 17634 17635 17636 17637 17638 17639 17640 17641 17642 17643 17644 17645 17646 17647 17648 17649 17650 17651 17652 17653 17654 17655 17656 17657 17658 17659 17660 17661 17662 17663 17664 17665 17666 17667 17668 17669 17670 17671 17672 17673 17674 17675 17676 17677 17678 17679 17680 17681 17682 17683 17684 17685 17686 17687 17688 17689 17690 17691 17692 17693 17694 17695 17696 17697 17698 17699 17700 17701 17702 17703 17704 17705 17706 17707 17708 17709 17710 17711 17712 17713 17714 17715 17716 17717 17718 17719 17720 17721 17722 17723 17724 17725 17726 17727 17728 17729 17730 17731 17732 17733 17734 17735 17736 17737 17738 17739 17740 17741 17742 17743 17744 17745 17746 17747 17748 17749 17750 17751 17752 17753 17754 17755 17756 17757 17758 17759 17760 17761 17762 17763 17764 17765 17766 17767 17768 17769 17770 17771 17772 17773 17774 17775 17776 17777 17778 17779 17780 17781 17782 17783 17784 17785 17786 17787 17788 17789 17790 17791 17792 17793 17794 17795 17796 17797 17798 17799 17800 17801 17802 17803 17804 17805 17806 17807 17808 17809 17810 17811 17812 17813 17814 17815 17816 17817 17818 17819 17820 17821 17822 17823 17824 17825 17826 17827 17828 17829 17830 17831 17832 17833 17834 17835 17836 17837 17838 17839 17840 17841 17842 17843 17844 17845 17846 17847 17848 17849 17850 17851 17852 17853 17854 17855 17856 17857 17858 17859 17860 17861 17862 17863 17864 17865 17866 17867 17868 17869 17870 17871 17872 17873 17874 17875 17876 17877 17878 17879 17880 17881 17882 17883 17884 17885 17886 17887 17888 17889 17890 17891 17892 17893 17894 17895 17896 17897 17898 17899 17900 17901 17902 17903 17904 17905 17906 17907 17908 17909 17910 17911 17912 17913 17914 17915 17916 17917 17918 17919 17920 17921 17922 17923 17924 17925 17926 17927 17928 17929 17930 17931 17932 17933 17934 17935 17936 17937 17938 17939 17940 17941 17942 17943 17944 17945 17946 17947 17948 17949 17950 17951 17952 17953 17954 17955 17956 17957 17958 17959 17960 17961 17962 17963 17964 17965 17966 17967 17968 17969 17970 17971 17972 17973 17974 17975 17976 17977 17978 17979 17980 17981 17982 17983 17984 17985 17986 17987 17988 17989 17990 17991 17992 17993 17994 17995 17996 17997 17998 17999 18000 18001 18002 18003 18004 18005 18006 18007 18008 18009 18010 18011 18012 18013 18014 18015 18016 18017 18018 18019 18020 18021 18022 18023 18024 18025 18026 18027 18028 18029 18030 18031 18032 18033 18034 18035 18036 18037 18038 18039 18040 18041 18042 18043 18044 18045 18046 18047 18048 18049 18050 18051 18052 18053 18054 18055 18056 18057 18058 18059 18060 18061 18062 18063 18064 18065 18066 18067 18068 18069 18070 18071 18072 18073 18074 18075 18076 18077 18078 18079 18080 18081 18082 18083 18084 18085 18086 18087 18088 18089 18090 18091 18092 18093 18094 18095 18096 18097 18098 18099 18100 18101 18102 18103 18104 18105 18106 18107 18108 18109 18110 18111 18112 18113 18114 18115 18116 18117 18118 18119 18120 18121 18122 18123 18124 18125 18126 18127 18128 18129 18130 18131 18132 18133 18134 18135 18136 18137 18138 18139 18140 18141 18142 18143 18144 18145 18146 18147 18148 18149 18150 18151 18152 18153 18154 18155 18156 18157 18158 18159 18160 18161 18162 18163 18164 18165 18166 18167 18168 18169 18170 18171 18172 18173 18174 18175 18176 18177 18178 18179 18180 18181 18182 18183 18184 18185 18186 18187 18188 18189 18190 18191 18192 18193 18194 18195 18196 18197 18198 18199 18200 18201 18202 18203 18204 18205 18206 18207 18208 18209 18210 18211 18212 18213 18214 18215 18216 18217 18218 18219 18220 18221 18222 18223 18224 18225 18226 18227 18228 18229 18230 18231 18232 18233 18234 18235 18236 18237 18238 18239 18240 18241 18242 18243 18244 18245 18246 18247 18248 18249 18250 18251 18252 18253 18254 18255 18256 18257 18258 18259 18260 18261 18262 18263 18264 18265 18266 18267 18268 18269 18270 18271 18272 18273 18274 18275 18276 18277 18278 18279 18280 18281 18282 18283 18284 18285 18286 18287 18288 18289 18290 18291 18292 18293 18294 18295 18296 18297 18298 18299 18300 18301 18302 18303 18304 18305 18306 18307 18308 18309 18310 18311 18312 18313 18314 18315 18316 18317 18318 18319 18320 18321 18322 18323 18324 18325 18326 18327 18328 18329 18330 18331 18332 18333 18334 18335 18336 18337 18338 18339 18340 18341 18342 18343 18344 18345 18346 18347 18348 18349 18350 18351 18352 18353 18354 18355 18356 18357 18358 18359 18360 18361 18362 18363 18364 18365 18366 18367 18368 18369 18370 18371 18372 18373 18374 18375 18376 18377 18378 18379 18380 18381 18382 18383 18384 18385 18386 18387 18388 18389 18390 18391 18392 18393 18394 18395 18396 18397 18398 18399 18400 18401 18402 18403 18404 18405 18406 18407 18408 18409 18410 18411 18412 18413 18414 18415 18416 18417 18418 18419 18420 18421 18422 18423 18424 18425 18426 18427 18428 18429 18430 18431 18432 18433 18434 18435 18436 18437 18438 18439 18440 18441 18442 18443 18444 18445 18446 18447 18448 18449 18450 18451 18452 18453 18454 18455 18456 18457 18458 18459 18460 18461 18462 18463 18464 18465 18466 18467 18468 18469 18470 18471 18472 18473 18474 18475 18476 18477 18478 18479 18480 18481 18482 18483 18484 18485 18486 18487 18488 18489 18490 18491 18492 18493 18494 18495 18496 18497 18498 18499 18500 18501 18502 18503 18504 18505 18506 18507 18508 18509 18510 18511 18512 18513 18514 18515 18516 18517 18518 18519 18520 18521 18522 18523 18524 18525 18526 18527 18528 18529 18530 18531 18532 18533 18534 18535 18536 18537 18538 18539 18540 18541 18542 18543 18544 18545 18546 18547 18548 18549 18550 18551 18552 18553 18554 18555 18556 18557 18558 18559 18560 18561 18562 18563 18564 18565 18566 18567 18568 18569 18570 18571 18572 18573 18574 18575 18576 18577 18578 18579 18580 18581 18582 18583 18584 18585 18586 18587 18588 18589 18590 18591 18592 18593 18594 18595 18596 18597 18598 18599 18600 18601 18602 18603 18604 18605 18606 18607 18608 18609 18610 18611 18612 18613 18614 18615 18616 18617 18618 18619 18620 18621 18622 18623 18624 18625 18626 18627 18628 18629 18630 18631 18632 18633 18634 18635 18636 18637 18638 18639 18640 18641 18642 18643 18644 18645 18646 18647 18648 18649 18650 18651 18652 18653 18654 18655 18656 18657 18658 18659 18660 18661 18662 18663 18664 18665 18666 18667 18668 18669 18670 18671 18672 18673 18674 18675 18676 18677 18678 18679 18680 18681 18682 18683 18684 18685 18686 18687 18688 18689 18690 18691 18692 18693 18694 18695 18696 18697 18698 18699 18700 18701 18702 18703 18704 18705 18706 18707 18708 18709 18710 18711 18712 18713 18714 18715 18716 18717 18718 18719 18720 18721 18722 18723 18724 18725 18726 18727 18728 18729 18730 18731 18732 18733 18734 18735 18736 18737 18738 18739 18740 18741 18742 18743 18744 18745 18746 18747 18748 18749 18750 18751 18752 18753 18754 18755 18756 18757 18758 18759 18760 18761 18762 18763 18764 18765 18766 18767 18768 18769 18770 18771 18772 18773 18774 18775 18776 18777 18778 18779 18780 18781 18782 18783 18784 18785 18786 18787 18788 18789 18790 18791 18792 18793 18794 18795 18796 18797 18798 18799 18800 18801 18802 18803 18804 18805 18806 18807 18808 18809 18810 18811 18812 18813 18814 18815 18816 18817 18818 18819 18820 18821 18822 18823 18824 18825 18826 18827 18828 18829 18830 18831 18832 18833 18834 18835 18836 18837 18838 18839 18840 18841 18842 18843 18844 18845 18846 18847 18848 18849 18850 18851 18852 18853 18854 18855 18856 18857 18858 18859 18860 18861 18862 18863 18864 18865 18866 18867 18868 18869 18870 18871 18872 18873 18874 18875 18876 18877 18878 18879 18880 18881 18882 18883 18884 18885 18886 18887 18888 18889 18890 18891 18892 18893 18894 18895 18896 18897 18898 18899 18900 18901 18902 18903 18904 18905 18906 18907 18908 18909 18910 18911 18912 18913 18914 18915 18916 18917 18918 18919 18920 18921 18922 18923 18924 18925 18926 18927 18928 18929 18930 18931 18932 18933 18934 18935 18936 18937 18938 18939 18940 18941 18942 18943 18944 18945 18946 18947 18948 18949 18950 18951 18952 18953 18954 18955 18956 18957 18958 18959 18960 18961 18962 18963 18964 18965 18966 18967 18968 18969 18970 18971 18972 18973 18974 18975 18976 18977 18978 18979 18980 18981 18982 18983 18984 18985 18986 18987 18988 18989 18990 18991 18992 18993 18994 18995 18996 18997 18998 18999 19000 19001 19002 19003 19004 19005 19006 19007 19008 19009 19010 19011 19012 19013 19014 19015 19016 19017 19018 19019 19020 19021 19022 19023 19024 19025 19026 19027 19028 19029 19030 19031 19032 19033 19034 19035 19036 19037 19038 19039 19040 19041 19042 19043 19044 19045 19046 19047 19048 19049 19050 19051 19052 19053 19054 19055 19056 19057 19058 19059 19060 19061 19062 19063 19064 19065 19066 19067 19068 19069 19070 19071 19072 19073 19074 19075 19076 19077 19078 19079 19080 19081 19082 19083 19084 19085 19086 19087 19088 19089 19090 19091 19092 19093 19094 19095 19096 19097 19098 19099 19100 19101 19102 19103 19104 19105 19106 19107 19108 19109 19110 19111 19112 19113 19114 19115 19116 19117 19118 19119 19120 19121 19122 19123 19124 19125 19126 19127 19128 19129 19130 19131 19132 19133 19134 19135 19136 19137 19138 19139 19140 19141 19142 19143 19144 19145 19146 19147 19148 19149 19150 19151 19152 19153 19154 19155 19156 19157 19158 19159 19160 19161 19162 19163 19164 19165 19166 19167 19168 19169 19170 19171 19172 19173 19174 19175 19176 19177 19178 19179 19180 19181 19182 19183 19184 19185 19186 19187 19188 19189 19190 19191 19192 19193 19194 19195 19196 19197 19198 19199 19200 19201 19202 19203 19204 19205 19206 19207 19208 19209 19210 19211 19212 19213 19214 19215 19216 19217 19218 19219 19220 19221 19222 19223 19224 19225 19226 19227 19228 19229 19230 19231 19232 19233 19234 19235 19236 19237 19238 19239 19240 19241 19242 19243 19244 19245 19246 19247 19248 19249 19250 19251 19252 19253 19254 19255 19256 19257 19258 19259 19260 19261 19262 19263 19264 19265 19266 19267 19268 19269 19270 19271 19272 19273 19274 19275 19276 19277 19278 19279 19280 19281 19282 19283 19284 19285 19286 19287 19288 19289 19290 19291 19292 19293 19294 19295 19296 19297 19298 19299 19300 19301 19302 19303 19304 19305 19306 19307 19308 19309 19310 19311 19312 19313 19314 19315 19316 19317 19318 19319 19320 19321 19322 19323 19324 19325 19326 19327 19328 19329 19330 19331 19332 19333 19334 19335 19336 19337 19338 19339 19340 19341 19342 19343 19344 19345 19346 19347 19348 19349 19350 19351 19352 19353 19354 19355 19356 19357 19358 19359 19360 19361 19362 19363 19364 19365 19366 19367 19368 19369 19370 19371 19372 19373 19374 19375 19376 19377 19378 19379 19380 19381 19382 19383 19384 19385 19386 19387 19388 19389 19390 19391 19392 19393 19394 19395 19396 19397 19398 19399 19400 19401 19402 19403 19404 19405 19406 19407 19408 19409 19410 19411 19412 19413 19414 19415 19416 19417 19418 19419 19420 19421 19422 19423 19424 19425 19426 19427 19428 19429 19430 19431 19432 19433 19434 19435 19436 19437 19438 19439 19440 19441 19442 19443 19444 19445 19446 19447 19448 19449 19450 19451 19452 19453 19454 19455 19456 19457 19458 19459 19460 19461 19462 19463 19464 19465 19466 19467 19468 19469 19470 19471 19472 19473 19474 19475 19476 19477 19478 19479 19480 19481 19482 19483 19484 19485 19486 19487 19488 19489 19490 19491 19492 19493 19494 19495 19496 19497 19498 19499 19500 19501 19502 19503 19504 19505 19506 19507 19508 19509 19510 19511 19512 19513 19514 19515 19516 19517 19518 19519 19520 19521 19522 19523 19524 19525 19526 19527 19528 19529 19530 19531 19532 19533 19534 19535 19536 19537 19538 19539 19540 19541 19542 19543 19544 19545 19546 19547 19548 19549 19550 19551 19552 19553 19554 19555 19556 19557 19558 19559 19560 19561 19562 19563 19564 19565 19566 19567 19568 19569 19570 19571 19572 19573 19574 19575 19576 19577 19578 19579 19580 19581 19582 19583 19584 19585 19586 19587 19588 19589 19590 19591 19592 19593 19594 19595 19596 19597 19598 19599 19600 19601 19602 19603 19604 19605 19606 19607 19608 19609 19610 19611 19612 19613 19614 19615 19616 19617 19618 19619 19620 19621 19622 19623 19624 19625 19626 19627 19628 19629 19630 19631 19632 19633 19634 19635 19636 19637 19638 19639 19640 19641 19642 19643 19644 19645 19646 19647 19648 19649 19650 19651 19652 19653 19654 19655 19656 19657 19658 19659 19660 19661 19662 19663 19664 19665 19666 19667 19668 19669 19670 19671 19672 19673 19674 19675 19676 19677 19678 19679 19680 19681 19682 19683 19684 19685 19686 19687 19688 19689 19690 19691 19692 19693 19694 19695 19696 19697 19698 19699 19700 19701 19702 19703 19704 19705 19706 19707 19708 19709 19710 19711 19712 19713 19714 19715 19716 19717 19718 19719 19720 19721 19722 19723 19724 19725 19726 19727 19728 19729 19730 19731 19732 19733 19734 19735 19736 19737 19738 19739 19740 19741 19742 19743 19744 19745 19746 19747 19748 19749 19750 19751 19752 19753 19754 19755 19756 19757 19758 19759 19760 19761 19762 19763 19764 19765 19766 19767 19768 19769 19770 19771 19772 19773 19774 19775 19776 19777 19778 19779 19780 19781 19782 19783 19784 19785 19786 19787 19788 19789 19790 19791 19792 19793 19794 19795 19796 19797 19798 19799 19800 19801 19802 19803 19804 19805 19806 19807 19808 19809 19810 19811 19812 19813 19814 19815 19816 19817 19818 19819 19820 19821 19822 19823 19824 19825 19826 19827 19828 19829 19830 19831 19832 19833 19834 19835 19836 19837 19838 19839 19840 19841 19842 19843 19844 19845 19846 19847 19848 19849 19850 19851 19852 19853 19854 19855 19856 19857 19858 19859 19860 19861 19862 19863 19864 19865 19866 19867 19868 19869 19870 19871 19872 19873 19874 19875 19876 19877 19878 19879 19880 19881 19882 19883 19884 19885 19886 19887 19888 19889 19890 19891 19892 19893 19894 19895 19896 19897 19898 19899 19900 19901 19902 19903 19904 19905 19906 19907 19908 19909 19910 19911 19912 19913 19914 19915 19916 19917 19918 19919 19920 19921 19922 19923 19924 19925 19926 19927 19928 19929 19930 19931 19932 19933 19934 19935 19936 19937 19938 19939 19940 19941 19942 19943 19944 19945 19946 19947 19948 19949 19950 19951 19952 19953 19954 19955 19956 19957 19958 19959 19960 19961 19962 19963 19964 19965 19966 19967 19968 19969 19970 19971 19972 19973 19974 19975 19976 19977 19978 19979 19980 19981 19982 19983 19984 19985 19986 19987 19988 19989 19990 19991 19992 19993 19994 19995 19996 19997 19998 19999 20000 20001 20002 20003 20004 20005 20006 20007 20008 20009 20010 20011 20012 20013 20014 20015 20016 20017 20018 20019 20020 20021 20022 20023 20024 20025 20026 20027 20028 20029 20030 20031 20032 20033 20034 20035 20036 20037 20038 20039 20040 20041 20042 20043 20044 20045 20046 20047 20048 20049 20050 20051 20052 20053 20054 20055 20056 20057 20058 20059 20060 20061 20062 20063 20064 20065 20066 20067 20068 20069 20070 20071 20072 20073 20074 20075 20076 20077 20078 20079 20080 20081 20082 20083 20084 20085 20086 20087 20088 20089 20090 20091 20092 20093 20094 20095 20096 20097 20098 20099 20100 20101 20102 20103 20104 20105 20106 20107 20108 20109 20110 20111 20112 20113 20114 20115 20116 20117 20118 20119 20120 20121 20122 20123 20124 20125 20126 20127 20128 20129 20130 20131 20132 20133 20134 20135 20136 20137 20138 20139 20140 20141 20142 20143 20144 20145 20146 20147 20148 20149 20150 20151 20152 20153 20154 20155 20156 20157 20158 20159 20160 20161 20162 20163 20164 20165 20166 20167 20168 20169 20170 20171 20172 20173 20174 20175 20176 20177 20178 20179 20180 20181 20182 20183 20184 20185 20186 20187 20188 20189 20190 20191 20192 20193 20194 20195 20196 20197 20198 20199 20200 20201 20202 20203 20204 20205 20206 20207 20208 20209 20210 20211 20212 20213 20214 20215 20216 20217 20218 20219 20220 20221 20222 20223 20224 20225 20226 20227 20228 20229 20230 20231 20232 20233 20234 20235 20236 20237 20238 20239 20240 20241 20242 20243 20244 20245 20246 20247 20248 20249 20250 20251 20252 20253 20254 20255 20256 20257 20258 20259 20260 20261 20262 20263 20264 20265 20266 20267 20268 20269 20270 20271 20272 20273 20274 20275 20276 20277 20278 20279 20280 20281 20282 20283 20284 20285 20286 20287 20288 20289 20290 20291 20292 20293 20294 20295 20296 20297 20298 20299 20300 20301 20302 20303 20304 20305 20306 20307 20308 20309 20310 20311 20312 20313 20314 20315 20316 20317 20318 20319 20320 20321 20322 20323 20324 20325 20326 20327 20328 20329 20330 20331 20332 20333 20334 20335 20336 20337 20338 20339 20340 20341 20342 20343 20344 20345 20346 20347 20348 20349 20350 20351 20352 20353 20354 20355 20356 20357 20358 20359 20360 20361 20362 20363 20364 20365 20366 20367 20368 20369 20370 20371 20372 20373 20374 20375 20376 20377 20378 20379 20380 20381 20382 20383 20384 20385 20386 20387 20388 20389 20390 20391 20392 20393 20394 20395 20396 20397 20398 20399 20400 20401 20402 20403 20404 20405 20406 20407 20408 20409 20410 20411 20412 20413 20414 20415 20416 20417 20418 20419 20420 20421 20422 20423 20424 20425 20426 20427 20428 20429 20430 20431 20432 20433 20434 20435 20436 20437 20438 20439 20440 20441 20442 20443 20444 20445 20446 20447 20448 20449 20450 20451 20452 20453 20454 20455 20456 20457 20458 20459 20460 20461 20462 20463 20464 20465 20466 20467 20468 20469 20470 20471 20472 20473 20474 20475 20476 20477 20478 20479 20480 20481 20482 20483 20484 20485 20486 20487 20488 20489 20490 20491 20492 20493 20494 20495 20496 20497 20498 20499 20500 20501 20502 20503 20504 20505 20506 20507 20508 20509 20510 20511 20512 20513 20514 20515 20516 20517 20518 20519 20520 20521 20522 20523 20524 20525 20526 20527 20528 20529 20530 20531 20532 20533 20534 20535 20536 20537 20538 20539 20540 20541 20542 20543 20544 20545 20546 20547 20548 20549 20550 20551 20552 20553 20554 20555 20556 20557 20558 20559 20560 20561 20562 20563 20564 20565 20566 20567 20568 20569 20570 20571 20572 20573 20574 20575 20576 20577 20578 20579 20580 20581 20582 20583 20584 20585 20586 20587 20588 20589 20590 20591 20592 20593 20594 20595 20596 20597 20598 20599 20600 20601 20602 20603 20604 20605 20606 20607 20608 20609 20610 20611 20612 20613 20614 20615 20616 20617 20618 20619 20620 20621 20622 20623 20624 20625 20626 20627 20628 20629 20630 20631 20632 20633 20634 20635 20636 20637 20638 20639 20640 20641 20642 20643 20644 20645 20646 20647 20648 20649 20650 20651 20652 20653 20654 20655 20656 20657 20658 20659 20660 20661 20662 20663 20664 20665 20666 20667 20668 20669 20670 20671 20672 20673 20674 20675 20676 20677 20678 20679 20680 20681 20682 20683 20684 20685 20686 20687 20688 20689 20690 20691 20692 20693 20694 20695 20696 20697 20698 20699 20700 20701 20702 20703 20704 20705 20706 20707 20708 20709 20710 20711 20712 20713 20714 20715 20716 20717 20718 20719 20720 20721 20722 20723 20724 20725 20726 20727 20728 20729 20730 20731 20732 20733 20734 20735 20736 20737 20738 20739 20740 20741 20742 20743 20744 20745 20746 20747 20748 20749 20750 20751 20752 20753 20754 20755 20756 20757 20758 20759 20760 20761 20762 20763 20764 20765 20766 20767 20768 20769 20770 20771 20772 20773 20774 20775 20776 20777 20778 20779 20780 20781 20782 20783 20784 20785 20786 20787 20788 20789 20790 20791 20792 20793 20794 20795 20796 20797 20798 20799 20800 20801 20802 20803 20804 20805 20806 20807 20808 20809 20810 20811 20812 20813 20814 20815 20816 20817 20818 20819 20820 20821 20822 20823 20824 20825 20826 20827 20828 20829 20830 20831 20832 20833 20834 20835 20836 20837 20838 20839 20840 20841 20842 20843 20844 20845 20846 20847 20848 20849 20850 20851 20852 20853 20854 20855 20856 20857 20858 20859 20860 20861 20862 20863 20864 20865 20866 20867 20868 20869 20870 20871 20872 20873 20874 20875 20876 20877 20878 20879 20880 20881 20882 20883 20884 20885 20886 20887 20888 20889 20890 20891 20892 20893 20894 20895 20896 20897 20898 20899 20900 20901 20902 20903 20904 20905 20906 20907 20908 20909 20910 20911 20912 20913 20914 20915 20916 20917 20918 20919 20920 20921 20922 20923 20924 20925 20926 20927 20928 20929 20930 20931 20932 20933 20934 20935 20936 20937 20938 20939 20940 20941 20942 20943 20944 20945 20946 20947 20948 20949 20950 20951 20952 20953 20954 20955 20956 20957 20958 20959 20960 20961 20962 20963 20964 20965 20966 20967 20968 20969 20970 20971 20972 20973 20974 20975 20976 20977 20978 20979 20980 20981 20982 20983 20984 20985 20986 20987 20988 20989 20990 20991 20992 20993 20994 20995 20996 20997 20998 20999 21000 21001 21002 21003 21004 21005 21006 21007 21008 21009 21010 21011 21012 21013 21014 21015 21016 21017 21018 21019 21020 21021 21022 21023 21024 21025 21026 21027 21028 21029 21030 21031 21032 21033 21034 21035 21036 21037 21038 21039 21040 21041 21042 21043 21044 21045 21046 21047 21048 21049 21050 21051 21052 21053 21054 21055 21056 21057 21058 21059 21060 21061 21062 21063 21064 21065 21066 21067 21068 21069 21070 21071 21072 21073 21074 21075 21076 21077 21078 21079 21080 21081 21082 21083 21084 21085 21086 21087 21088 21089 21090 21091 21092 21093 21094 21095 21096 21097 21098 21099 21100 21101 21102 21103 21104 21105 21106 21107 21108 21109 21110 21111 21112 21113 21114 21115 21116 21117 21118 21119 21120 21121 21122 21123 21124 21125 21126 21127 21128 21129 21130 21131 21132 21133 21134 21135 21136 21137 21138 21139 21140 21141 21142 21143 21144 21145 21146 21147 21148 21149 21150 21151 21152 21153 21154 21155 21156 21157 21158 21159 21160 21161 21162 21163 21164 21165 21166 21167 21168 21169 21170 21171 21172 21173 21174 21175 21176 21177 21178 21179 21180 21181 21182 21183 21184 21185 21186 21187 21188 21189 21190 21191 21192 21193 21194 21195 21196 21197 21198 21199 21200 21201 21202 21203 21204 21205 21206 21207 21208 21209 21210 21211 21212 21213 21214 21215 21216 21217 21218 21219 21220 21221 21222 21223 21224 21225 21226 21227 21228 21229 21230 21231 21232 21233 21234 21235 21236 21237 21238 21239 21240 21241 21242 21243 21244 21245 21246 21247 21248 21249 21250 21251 21252 21253 21254 21255 21256 21257 21258 21259 21260 21261 21262 21263 21264 21265 21266 21267 21268 21269 21270 21271 21272 21273 21274 21275 21276 21277 21278 21279 21280 21281 21282 21283 21284 21285 21286 21287 21288 21289 21290 21291 21292 21293 21294 21295 21296 21297 21298 21299 21300 21301 21302 21303 21304 21305 21306 21307 21308 21309 21310 21311 21312 21313 21314 21315 21316 21317 21318 21319 21320 21321 21322 21323 21324 21325 21326 21327 21328 21329 21330 21331 21332 21333 21334 21335 21336 21337 21338 21339 21340 21341 21342 21343 21344 21345 21346 21347 21348 21349 21350 21351 21352 21353 21354 21355 21356 21357 21358 21359 21360 21361 21362 21363 21364 21365 21366 21367 21368 21369 21370 21371 21372 21373 21374 21375 21376 21377 21378 21379 21380 21381 21382 21383 21384 21385 21386 21387 21388 21389 21390 21391 21392 21393 21394 21395 21396 21397 21398 21399 21400 21401 21402 21403 21404 21405 21406 21407 21408 21409 21410 21411 21412 21413 21414 21415 21416 21417 21418 21419 21420 21421 21422 21423 21424 21425 21426 21427 21428 21429 21430 21431 21432 21433 21434 21435 21436 21437 21438 21439 21440 21441 21442 21443 21444 21445 21446 21447 21448 21449 21450 21451 21452 21453 21454 21455 21456 21457 21458 21459 21460 21461 21462 21463 21464 21465 21466 21467 21468 21469 21470 21471 21472 21473 21474 21475 21476 21477 21478 21479 21480 21481 21482 21483 21484 21485 21486 21487 21488 21489 21490 21491 21492 21493 21494 21495 21496 21497 21498 21499 21500 21501 21502 21503 21504 21505 21506 21507 21508 21509 21510 21511 21512 21513 21514 21515 21516 21517 21518 21519 21520 21521 21522 21523 21524 21525 21526 21527 21528 21529 21530 21531 21532 21533 21534 21535 21536 21537 21538 21539 21540 21541 21542 21543 21544 21545 21546 21547 21548 21549 21550 21551 21552 21553 21554 21555 21556 21557 21558 21559 21560 21561 21562 21563 21564 21565 21566 21567 21568 21569 21570 21571 21572 21573 21574 21575 21576 21577 21578 21579 21580 21581 21582 21583 21584 21585 21586 21587 21588 21589 21590 21591 21592 21593 21594 21595 21596 21597 21598 21599 21600 21601 21602 21603 21604 21605 21606 21607 21608 21609 21610 21611 21612 21613 21614 21615 21616 21617 21618 21619 21620 21621 21622 21623 21624 21625 21626 21627 21628 21629 21630 21631 21632 21633 21634 21635 21636 21637 21638 21639 21640 21641 21642 21643 21644 21645 21646 21647 21648 21649 21650 21651 21652 21653 21654 21655 21656 21657 21658 21659 21660 21661 21662 21663 21664 21665 21666 21667 21668 21669 21670 21671 21672 21673 21674 21675 21676 21677 21678 21679 21680 21681 21682 21683 21684 21685 21686 21687 21688 21689 21690 21691 21692 21693 21694 21695 21696 21697 21698 21699 21700 21701 21702 21703 21704 21705 21706 21707 21708 21709 21710 21711 21712 21713 21714 21715 21716 21717 21718 21719 21720 21721 21722 21723 21724 21725 21726 21727 21728 21729 21730 21731 21732 21733 21734 21735 21736 21737 21738 21739 21740 21741 21742 21743 21744 21745 21746 21747 21748 21749 21750 21751 21752 21753 21754 21755 21756 21757 21758 21759 21760 21761 21762 21763 21764 21765 21766 21767 21768 21769 21770 21771 21772 21773 21774 21775 21776 21777 21778 21779 21780 21781 21782 21783 21784 21785 21786 21787 21788 21789 21790 21791 21792 21793 21794 21795 21796 21797 21798 21799 21800 21801 21802 21803 21804 21805 21806 21807 21808 21809 21810 21811 21812 21813 21814 21815 21816 21817 21818 21819 21820 21821 21822 21823 21824 21825 21826 21827 21828 21829 21830 21831 21832 21833 21834 21835 21836 21837 21838 21839 21840 21841 21842 21843 21844 21845 21846 21847 21848 21849 21850 21851 21852 21853 21854 21855 21856 21857 21858 21859 21860 21861 21862 21863 21864 21865 21866 21867 21868 21869 21870 21871 21872 21873 21874 21875 21876 21877 21878 21879 21880 21881 21882 21883 21884 21885 21886 21887 21888 21889 21890 21891 21892 21893 21894 21895 21896 21897 21898 21899 21900 21901 21902 21903 21904 21905 21906 21907 21908 21909 21910 21911 21912 21913 21914 21915 21916 21917 21918 21919 21920 21921 21922 21923 21924 21925 21926 21927 21928 21929 21930 21931 21932 21933 21934 21935 21936 21937 21938 21939 21940 21941 21942 21943 21944 21945 21946 21947 21948 21949 21950 21951 21952 21953 21954 21955 21956 21957 21958 21959 21960 21961 21962 21963 21964 21965 21966 21967 21968 21969 21970 21971 21972 21973 21974 21975 21976 21977 21978 21979 21980 21981 21982 21983 21984 21985 21986 21987 21988 21989 21990 21991 21992 21993 21994 21995 21996 21997 21998 21999 22000 22001 22002 22003 22004 22005 22006 22007 22008 22009 22010 22011 22012 22013 22014 22015 22016 22017 22018 22019 22020 22021 22022 22023 22024 22025 22026 22027 22028 22029 22030 22031 22032 22033 22034 22035 22036 22037 22038 22039 22040 22041 22042 22043 22044 22045 22046 22047 22048 22049 22050 22051 22052 22053 22054 22055 22056 22057 22058 22059 22060 22061 22062 22063 22064 22065 22066 22067 22068 22069 22070 22071 22072 22073 22074 22075 22076 22077 22078 22079 22080 22081 22082 22083 22084 22085 22086 22087 22088 22089 22090 22091 22092 22093 22094 22095 22096 22097 22098 22099 22100 22101 22102 22103 22104 22105 22106 22107 22108 22109 22110 22111 22112 22113 22114 22115 22116 22117 22118 22119 22120 22121 22122 22123 22124 22125 22126 22127 22128 22129 22130 22131 22132 22133 22134 22135 22136 22137 22138 22139 22140 22141 22142 22143 22144 22145 22146 22147 22148 22149 22150 22151 22152 22153 22154 22155 22156 22157 22158 22159 22160 22161 22162 22163 22164 22165 22166 22167 22168 22169 22170 22171 22172 22173 22174 22175 22176 22177 22178 22179 22180 22181 22182 22183 22184 22185 22186 22187 22188 22189 22190 22191 22192 22193 22194 22195 22196 22197 22198 22199 22200 22201 22202 22203 22204 22205 22206 22207 22208 22209 22210 22211 22212 22213 22214 22215 22216 22217 22218 22219 22220 22221 22222 22223 22224 22225 22226 22227 22228 22229 22230 22231 22232 22233 22234 22235 22236 22237 22238 22239 22240 22241 22242 22243 22244 22245 22246 22247 22248 22249 22250 22251 22252 22253 22254 22255 22256 22257 22258 22259 22260 22261 22262 22263 22264 22265 22266 22267 22268 22269 22270 22271 22272 22273 22274 22275 22276 22277 22278 22279 22280 22281 22282 22283 22284 22285 22286 22287 22288 22289 22290 22291 22292 22293 22294 22295 22296 22297 22298 22299 22300 22301 22302 22303 22304 22305 22306 22307 22308 22309 22310 22311 22312 22313 22314 22315 22316 22317 22318 22319 22320 22321 22322 22323 22324 22325 22326 22327 22328 22329 22330 22331 22332 22333 22334 22335 22336 22337 22338 22339 22340 22341 22342 22343 22344 22345 22346 22347 22348 22349 22350 22351 22352 22353 22354 22355 22356 22357 22358 22359 22360 22361 22362 22363 22364 22365 22366 22367 22368 22369 22370 22371 22372 22373 22374 22375 22376 22377 22378 22379 22380 22381 22382 22383 22384 22385 22386 22387 22388 22389 22390 22391 22392 22393 22394 22395 22396 22397 22398 22399 22400 22401 22402 22403 22404 22405 22406 22407 22408 22409 22410 22411 22412 22413 22414 22415 22416 22417 22418 22419 22420 22421 22422 22423 22424 22425 22426 22427 22428 22429 22430 22431 22432 22433 22434 22435 22436 22437 22438 22439 22440 22441 22442 22443 22444 22445 22446 22447 22448 22449 22450 22451 22452 22453 22454 22455 22456 22457 22458 22459 22460 22461 22462 22463 22464 22465 22466 22467 22468 22469 22470 22471 22472 22473 22474 22475 22476 22477 22478 22479 22480 22481 22482 22483 22484 22485 22486 22487 22488 22489 22490 22491 22492 22493 22494 22495 22496 22497 22498 22499 22500 22501 22502 22503 22504 22505 22506 22507 22508 22509 22510 22511 22512 22513 22514 22515 22516 22517 22518 22519 22520 22521 22522 22523 22524 22525 22526 22527 22528 22529 22530 22531 22532 22533 22534 22535 22536 22537 22538 22539 22540 22541 22542 22543 22544 22545 22546 22547 22548 22549 22550 22551 22552 22553 22554 22555 22556 22557 22558 22559 22560 22561 22562 22563 22564 22565 22566 22567 22568 22569 22570 22571 22572 22573 22574 22575 22576 22577 22578 22579 22580 22581 22582 22583 22584 22585 22586 22587 22588 22589 22590 22591 22592 22593 22594 22595 22596 22597 22598 22599 22600 22601 22602 22603 22604 22605 22606 22607 22608 22609 22610 22611 22612 22613 22614 22615 22616 22617 22618 22619 22620 22621 22622 22623 22624 22625 22626 22627 22628 22629 22630 22631 22632 22633 22634 22635 22636 22637 22638 22639 22640 22641 22642 22643 22644 22645 22646 22647 22648 22649 22650 22651 22652 22653 22654 22655 22656 22657 22658 22659 22660 22661 22662 22663 22664 22665 22666 22667 22668 22669 22670 22671 22672 22673 22674 22675 22676 22677 22678 22679 22680 22681 22682 22683 22684 22685 22686 22687 22688 22689 22690 22691 22692 22693 22694 22695 22696 22697 22698 22699 22700 22701 22702 22703 22704 22705 22706 22707 22708 22709 22710 22711 22712 22713 22714 22715 22716 22717 22718 22719 22720 22721 22722 22723 22724 22725 22726 22727 22728 22729 22730 22731 22732 22733 22734 22735 22736 22737 22738 22739 22740 22741 22742 22743 22744 22745 22746 22747 22748 22749 22750 22751 22752 22753 22754 22755 22756 22757 22758 22759 22760 22761 22762 22763 22764 22765 22766 22767 22768 22769 22770 22771 22772 22773 22774 22775 22776 22777 22778 22779 22780 22781 22782 22783 22784 22785 22786 22787 22788 22789 22790 22791 22792 22793 22794 22795 22796 22797 22798 22799 22800 22801 22802 22803 22804 22805 22806 22807 22808 22809 22810 22811 22812 22813 22814 22815 22816 22817 22818 22819 22820 22821 22822 22823 22824 22825 22826 22827 22828 22829 22830 22831 22832 22833 22834 22835 22836 22837 22838 22839 22840 22841 22842 22843 22844 22845 22846 22847 22848 22849 22850 22851 22852 22853 22854 22855 22856 22857 22858 22859 22860 22861 22862 22863 22864 22865 22866 22867 22868 22869 22870 22871 22872 22873 22874 22875 22876 22877 22878 22879 22880 22881 22882 22883 22884 22885 22886 22887 22888 22889 22890 22891 22892 22893 22894 22895 22896 22897 22898 22899 22900 22901 22902 22903 22904 22905 22906 22907 22908 22909 22910 22911 22912 22913 22914 22915 22916 22917 22918 22919 22920 22921 22922 22923 22924 22925 22926 22927 22928 22929 22930 22931 22932 22933 22934 22935 22936 22937 22938 22939 22940 22941 22942 22943 22944 22945 22946 22947 22948 22949 22950 22951 22952 22953 22954 22955 22956 22957 22958 22959 22960 22961 22962 22963 22964 22965 22966 22967 22968 22969 22970 22971 22972 22973 22974 22975 22976 22977 22978 22979 22980 22981 22982 22983 22984 22985 22986 22987 22988 22989 22990 22991 22992 22993 22994 22995 22996 22997 22998 22999 23000 23001 23002 23003 23004 23005 23006 23007 23008 23009 23010 23011 23012 23013 23014 23015 23016 23017 23018 23019 23020 23021 23022 23023 23024 23025 23026 23027 23028 23029 23030 23031 23032 23033 23034 23035 23036 23037 23038 23039 23040 23041 23042 23043 23044 23045 23046 23047 23048 23049 23050 23051 23052 23053 23054 23055 23056 23057 23058 23059 23060 23061 23062 23063 23064 23065 23066 23067 23068 23069 23070 23071 23072 23073 23074 23075 23076 23077 23078 23079 23080 23081 23082 23083 23084 23085 23086 23087 23088 23089 23090 23091 23092 23093 23094 23095 23096 23097 23098 23099 23100 23101 23102 23103 23104 23105 23106 23107 23108 23109 23110 23111 23112 23113 23114 23115 23116 23117 23118 23119 23120 23121 23122 23123 23124 23125 23126 23127 23128 23129 23130 23131 23132 23133 23134 23135 23136 23137 23138 23139 23140 23141 23142 23143 23144 23145 23146 23147 23148 23149 23150 23151 23152 23153 23154 23155 23156 23157 23158 23159 23160 23161 23162 23163 23164 23165 23166 23167 23168 23169 23170 23171 23172 23173 23174 23175 23176 23177 23178 23179 23180 23181 23182 23183 23184 23185 23186 23187 23188 23189 23190 23191 23192 23193 23194 23195 23196 23197 23198 23199 23200 23201 23202 23203 23204 23205 23206 23207 23208 23209 23210 23211 23212 23213 23214 23215 23216 23217 23218 23219 23220 23221 23222 23223 23224 23225 23226 23227 23228 23229 23230 23231 23232 23233 23234 23235 23236 23237 23238 23239 23240 23241 23242 23243 23244 23245 23246 23247 23248 23249 23250 23251 23252 23253 23254 23255 23256 23257 23258 23259 23260 23261 23262 23263 23264 23265 23266 23267 23268 23269 23270 23271 23272 23273 23274 23275 23276 23277 23278 23279 23280 23281 23282 23283 23284 23285 23286 23287 23288 23289 23290 23291 23292 23293 23294 23295 23296 23297 23298 23299 23300 23301 23302 23303 23304 23305 23306 23307 23308 23309 23310 23311 23312 23313 23314 23315 23316 23317 23318 23319 23320 23321 23322 23323 23324 23325 23326 23327 23328 23329 23330 23331 23332 23333 23334 23335 23336 23337 23338 23339 23340 23341 23342 23343 23344 23345 23346 23347 23348 23349 23350 23351 23352 23353 23354 23355 23356 23357 23358 23359 23360 23361 23362 23363 23364 23365 23366 23367 23368 23369 23370 23371 23372 23373 23374 23375 23376 23377 23378 23379 23380 23381 23382 23383 23384 23385 23386 23387 23388 23389 23390 23391 23392 23393 23394 23395 23396 23397 23398 23399 23400 23401 23402 23403 23404 23405 23406 23407 23408 23409 23410 23411 23412 23413 23414 23415 23416 23417 23418 23419 23420 23421 23422 23423 23424 23425 23426 23427 23428 23429 23430 23431 23432 23433 23434 23435 23436 23437 23438 23439 23440 23441 23442 23443 23444 23445 23446 23447 23448 23449 23450 23451 23452 23453 23454 23455 23456 23457 23458 23459 23460 23461 23462 23463 23464 23465 23466 23467 23468 23469 23470 23471 23472 23473 23474 23475 23476 23477 23478 23479 23480 23481 23482 23483 23484 23485 23486 23487 23488 23489 23490 23491 23492 23493 23494 23495 23496 23497 23498 23499 23500 23501 23502 23503 23504 23505 23506 23507 23508 23509 23510 23511 23512 23513 23514 23515 23516 23517 23518 23519 23520 23521 23522 23523 23524 23525 23526 23527 23528 23529 23530 23531 23532 23533 23534 23535 23536 23537 23538 23539 23540 23541 23542 23543 23544 23545 23546 23547 23548 23549 23550 23551 23552 23553 23554 23555 23556 23557 23558 23559 23560 23561 23562 23563 23564 23565 23566 23567 23568 23569 23570 23571 23572 23573 23574 23575 23576 23577 23578 23579 23580 23581 23582 23583 23584 23585 23586 23587 23588 23589 23590 23591 23592 23593 23594 23595 23596 23597 23598 23599 23600 23601 23602 23603 23604 23605 23606 23607 23608 23609 23610 23611 23612 23613 23614 23615 23616 23617 23618 23619 23620 23621 23622 23623 23624 23625 23626 23627 23628 23629 23630 23631 23632 23633 23634 23635 23636 23637 23638 23639 23640 23641 23642 23643 23644 23645 23646 23647 23648 23649 23650 23651 23652 23653 23654 23655 23656 23657 23658 23659 23660 23661 23662 23663 23664 23665 23666 23667 23668 23669 23670 23671 23672 23673 23674 23675 23676 23677 23678 23679 23680 23681 23682 23683 23684 23685 23686 23687 23688 23689 23690 23691 23692 23693 23694 23695 23696 23697 23698 23699 23700 23701 23702 23703 23704 23705 23706 23707 23708 23709 23710 23711 23712 23713 23714 23715 23716 23717 23718 23719 23720 23721 23722 23723 23724 23725 23726 23727 23728 23729 23730 23731 23732 23733 23734 23735 23736 23737 23738 23739 23740 23741 23742 23743 23744 23745 23746 23747 23748 23749 23750 23751 23752 23753 23754 23755 23756 23757 23758 23759 23760 23761 23762 23763 23764 23765 23766 23767 23768 23769 23770 23771 23772 23773 23774 23775 23776 23777 23778 23779 23780 23781 23782 23783 23784 23785 23786 23787 23788 23789 23790 23791 23792 23793 23794 23795 23796 23797 23798 23799 23800 23801 23802 23803 23804 23805 23806 23807 23808 23809 23810 23811 23812 23813 23814 23815 23816 23817 23818 23819 23820 23821 23822 23823 23824 23825 23826 23827 23828 23829 23830 23831 23832 23833 23834 23835 23836 23837 23838 23839 23840 23841 23842 23843 23844 23845 23846 23847 23848 23849 23850 23851 23852 23853 23854 23855 23856 23857 23858 23859 23860 23861 23862 23863 23864 23865 23866 23867 23868 23869 23870 23871 23872 23873 23874 23875 23876 23877 23878 23879 23880 23881 23882 23883 23884 23885 23886 23887 23888 23889 23890 23891 23892 23893 23894 23895 23896 23897 23898 23899 23900 23901 23902 23903 23904 23905 23906 23907 23908 23909 23910 23911 23912 23913 23914 23915 23916 23917 23918 23919 23920 23921 23922 23923 23924 23925 23926 23927 23928 23929 23930 23931 23932 23933 23934 23935 23936 23937 23938 23939 23940 23941 23942 23943 23944 23945 23946 23947 23948 23949 23950 23951 23952 23953 23954 23955 23956 23957 23958 23959 23960 23961 23962 23963 23964 23965 23966 23967 23968 23969 23970 23971 23972 23973 23974 23975 23976 23977 23978 23979 23980 23981 23982 23983 23984 23985 23986 23987 23988 23989 23990 23991 23992 23993 23994 23995 23996 23997 23998 23999 24000 24001 24002 24003 24004 24005 24006 24007 24008 24009 24010 24011 24012 24013 24014 24015 24016 24017 24018 24019 24020 24021 24022 24023 24024 24025 24026 24027 24028 24029 24030 24031 24032 24033 24034 24035 24036 24037 24038 24039 24040 24041 24042 24043 24044 24045 24046 24047 24048 24049 24050 24051 24052 24053 24054 24055 24056 24057 24058 24059 24060 24061 24062 24063 24064 24065 24066 24067 24068 24069 24070 24071 24072 24073 24074 24075 24076 24077 24078 24079 24080 24081 24082 24083 24084 24085 24086 24087 24088 24089 24090 24091 24092 24093 24094 24095 24096 24097 24098 24099 24100 24101 24102 24103 24104 24105 24106 24107 24108 24109 24110 24111 24112 24113 24114 24115 24116 24117 24118 24119 24120 24121 24122 24123 24124 24125 24126 24127 24128 24129 24130 24131 24132 24133 24134 24135 24136 24137 24138 24139 24140 24141 24142 24143 24144 24145 24146 24147 24148 24149 24150 24151 24152 24153 24154 24155 24156 24157 24158 24159 24160 24161 24162 24163 24164 24165 24166 24167 24168 24169 24170 24171 24172 24173 24174 24175 24176 24177 24178 24179 24180 24181 24182 24183 24184 24185 24186 24187 24188 24189 24190 24191 24192 24193 24194 24195 24196 24197 24198 24199 24200 24201 24202 24203 24204 24205 24206 24207 24208 24209 24210 24211 24212 24213 24214 24215 24216 24217 24218 24219 24220 24221 24222 24223 24224 24225 24226 24227 24228 24229 24230 24231 24232 24233 24234 24235 24236 24237 24238 24239 24240 24241 24242 24243 24244 24245 24246 24247 24248 24249 24250 24251 24252 24253 24254 24255 24256 24257 24258 24259 24260 24261 24262 24263 24264 24265 24266 24267 24268 24269 24270 24271 24272 24273 24274 24275 24276 24277 24278 24279 24280 24281 24282 24283 24284 24285 24286 24287 24288 24289 24290 24291 24292 24293 24294 24295 24296 24297 24298 24299 24300 24301 24302 24303 24304 24305 24306 24307 24308 24309 24310 24311 24312 24313 24314 24315 24316 24317 24318 24319 24320 24321 24322 24323 24324 24325 24326 24327 24328 24329 24330 24331 24332 24333 24334 24335 24336 24337 24338 24339 24340 24341 24342 24343 24344 24345 24346 24347 24348 24349 24350 24351 24352 24353 24354 24355 24356 24357 24358 24359 24360 24361 24362 24363 24364 24365 24366 24367 24368 24369 24370 24371 24372 24373 24374 24375 24376 24377 24378 24379 24380 24381 24382 24383 24384 24385 24386 24387 24388 24389 24390 24391 24392 24393 24394 24395 24396 24397 24398 24399 24400 24401 24402 24403 24404 24405 24406 24407 24408 24409 24410 24411 24412 24413 24414 24415 24416 24417 24418 24419 24420 24421 24422 24423 24424 24425 24426 24427 24428 24429 24430 24431 24432 24433 24434 24435 24436 24437 24438 24439 24440 24441 24442 24443 24444 24445 24446 24447 24448 24449 24450 24451 24452 24453 24454 24455 24456 24457 24458 24459 24460 24461 24462 24463 24464 24465 24466 24467 24468 24469 24470 24471 24472 24473 24474 24475 24476 24477 24478 24479 24480 24481 24482 24483 24484 24485 24486 24487 24488 24489 24490 24491 24492 24493 24494 24495 24496 24497 24498 24499 24500 24501 24502 24503 24504 24505 24506 24507 24508 24509 24510 24511 24512 24513 24514 24515 24516 24517 24518 24519 24520 24521 24522 24523 24524 24525 24526 24527 24528 24529 24530 24531 24532 24533 24534 24535 24536 24537 24538 24539 24540 24541 24542 24543 24544 24545 24546 24547 24548 24549 24550 24551 24552 24553 24554 24555 24556 24557 24558 24559 24560 24561 24562 24563 24564 24565 24566 24567 24568 24569 24570 24571 24572 24573 24574 24575 24576 24577 24578 24579 24580 24581 24582 24583 24584 24585 24586 24587 24588 24589 24590 24591 24592 24593 24594 24595 24596 24597 24598 24599 24600 24601 24602 24603 24604 24605 24606 24607 24608 24609 24610 24611 24612 24613 24614 24615 24616 24617 24618 24619 24620 24621 24622 24623 24624 24625 24626 24627 24628 24629 24630 24631 24632 24633 24634 24635 24636 24637 24638 24639 24640 24641 24642 24643 24644 24645 24646 24647 24648 24649 24650 24651 24652 24653 24654 24655 24656 24657 24658 24659 24660 24661 24662 24663 24664 24665 24666 24667 24668 24669 24670 24671 24672 24673 24674 24675 24676 24677 24678 24679 24680 24681 24682 24683 24684 24685 24686 24687 24688 24689 24690 24691 24692 24693 24694 24695 24696 24697 24698 24699 24700 24701 24702 24703 24704 24705 24706 24707 24708 24709 24710 24711 24712 24713 24714 24715 24716 24717 24718 24719 24720 24721 24722 24723 24724 24725 24726 24727 24728 24729 24730 24731 24732 24733 24734 24735 24736 24737 24738 24739 24740 24741 24742 24743 24744 24745 24746 24747 24748 24749 24750 24751 24752 24753 24754 24755 24756 24757 24758 24759 24760 24761 24762 24763 24764 24765 24766 24767 24768 24769 24770 24771 24772 24773 24774 24775 24776 24777 24778 24779 24780 24781 24782 24783 24784 24785 24786 24787 24788 24789 24790 24791 24792 24793 24794 24795 24796 24797 24798 24799 24800 24801 24802 24803 24804 24805 24806 24807 24808 24809 24810 24811 24812 24813 24814 24815 24816 24817 24818 24819 24820 24821 24822 24823 24824 24825 24826 24827 24828 24829 24830 24831 24832 24833 24834 24835 24836 24837 24838 24839 24840 24841 24842 24843 24844 24845 24846 24847 24848 24849 24850 24851 24852 24853 24854 24855 24856 24857 24858 24859 24860 24861 24862 24863 24864 24865 24866 24867 24868 24869 24870 24871 24872 24873 24874 24875 24876 24877 24878 24879 24880 24881 24882 24883 24884 24885 24886 24887 24888 24889 24890 24891 24892 24893 24894 24895 24896 24897 24898 24899 24900 24901 24902 24903 24904 24905 24906 24907 24908 24909 24910 24911 24912 24913 24914 24915 24916 24917 24918 24919 24920 24921 24922 24923 24924 24925 24926 24927 24928 24929 24930 24931 24932 24933 24934 24935 24936 24937 24938 24939 24940 24941 24942 24943 24944 24945 24946 24947 24948 24949 24950 24951 24952 24953 24954 24955 24956 24957 24958 24959 24960 24961 24962 24963 24964 24965 24966 24967 24968 24969 24970 24971 24972 24973 24974 24975 24976 24977 24978 24979 24980 24981 24982 24983 24984 24985 24986 24987 24988 24989 24990 24991 24992 24993 24994 24995 24996 24997 24998 24999 25000 25001 25002 25003 25004 25005 25006 25007 25008 25009 25010 25011 25012 25013 25014 25015 25016 25017 25018 25019 25020 25021 25022 25023 25024 25025 25026 25027 25028 25029 25030 25031 25032 25033 25034 25035 25036 25037 25038 25039 25040 25041 25042 25043 25044 25045 25046 25047 25048 25049 25050 25051 25052 25053 25054 25055 25056 25057 25058 25059 25060 25061 25062 25063 25064 25065 25066 25067 25068 25069 25070 25071 25072 25073 25074 25075 25076 25077 25078 25079 25080 25081 25082 25083 25084 25085 25086 25087 25088 25089 25090 25091 25092 25093 25094 25095 25096 25097 25098 25099 25100 25101 25102 25103 25104 25105 25106 25107 25108 25109 25110 25111 25112 25113 25114 25115 25116 25117 25118 25119 25120 25121 25122 25123 25124 25125 25126 25127 25128 25129 25130 25131 25132 25133 25134 25135 25136 25137 25138 25139 25140 25141 25142 25143 25144 25145 25146 25147 25148 25149 25150 25151 25152 25153 25154 25155 25156 25157 25158 25159 25160 25161 25162 25163 25164 25165 25166 25167 25168 25169 25170 25171 25172 25173 25174 25175 25176 25177 25178 25179 25180 25181 25182 25183 25184 25185 25186 25187 25188 25189 25190 25191 25192 25193 25194 25195 25196 25197 25198 25199 25200 25201 25202 25203 25204 25205 25206 25207 25208 25209 25210 25211 25212 25213 25214 25215 25216 25217 25218 25219 25220 25221 25222 25223 25224 25225 25226 25227 25228 25229 25230 25231 25232 25233 25234 25235 25236 25237 25238 25239 25240 25241 25242 25243 25244 25245 25246 25247 25248 25249 25250 25251 25252 25253 25254 25255 25256 25257 25258 25259 25260 25261 25262 25263 25264 25265 25266 25267 25268 25269 25270 25271 25272 25273 25274 25275 25276 25277 25278 25279 25280 25281 25282 25283 25284 25285 25286 25287 25288 25289 25290 25291 25292 25293 25294 25295 25296 25297 25298 25299 25300 25301 25302 25303 25304 25305 25306 25307 25308 25309 25310 25311 25312 25313 25314 25315 25316 25317 25318 25319 25320 25321 25322 25323 25324 25325 25326 25327 25328 25329 25330 25331 25332 25333 25334 25335 25336 25337 25338 25339 25340 25341 25342 25343 25344 25345 25346 25347 25348 25349 25350 25351 25352 25353 25354 25355 25356 25357 25358 25359 25360 25361 25362 25363 25364 25365 25366 25367 25368 25369 25370 25371 25372 25373 25374 25375 25376 25377 25378 25379 25380 25381 25382 25383 25384 25385 25386 25387 25388 25389 25390 25391 25392 25393 25394 25395 25396 25397 25398 25399 25400 25401 25402 25403 25404 25405 25406 25407 25408 25409 25410 25411 25412 25413 25414 25415 25416 25417 25418 25419 25420 25421 25422 25423 25424 25425 25426 25427 25428 25429 25430 25431 25432 25433 25434 25435 25436 25437 25438 25439 25440 25441 25442 25443 25444 25445 25446 25447 25448 25449 25450 25451 25452 25453 25454 25455 25456 25457 25458 25459 25460 25461 25462 25463 25464 25465 25466 25467 25468 25469 25470 25471 25472 25473 25474 25475 25476 25477 25478 25479 25480 25481 25482 25483 25484 25485 25486 25487 25488 25489 25490 25491 25492 25493 25494 25495 25496 25497 25498 25499 25500 25501 25502 25503 25504 25505 25506 25507 25508 25509 25510 25511 25512 25513 25514 25515 25516 25517 25518 25519 25520 25521 25522 25523 25524 25525 25526 25527 25528 25529 25530 25531 25532 25533 25534 25535 25536 25537 25538 25539 25540 25541 25542 25543 25544 25545 25546 25547 25548 25549 25550 25551 25552 25553 25554 25555 25556 25557 25558 25559 25560 25561 25562 25563 25564 25565 25566 25567 25568 25569 25570 25571 25572 25573 25574 25575 25576 25577 25578 25579 25580 25581 25582 25583 25584 25585 25586 25587 25588 25589 25590 25591 25592 25593 25594 25595 25596 25597 25598 25599 25600 25601 25602 25603 25604 25605 25606 25607 25608 25609 25610 25611 25612 25613 25614 25615 25616 25617 25618 25619 25620 25621 25622 25623 25624 25625 25626 25627 25628 25629 25630 25631 25632 25633 25634 25635 25636 25637 25638 25639 25640 25641 25642 25643 25644 25645 25646 25647 25648 25649 25650 25651 25652 25653 25654 25655 25656 25657 25658 25659 25660 25661 25662 25663 25664 25665 25666 25667 25668 25669 25670 25671 25672 25673 25674 25675 25676 25677 25678 25679 25680 25681 25682 25683 25684 25685 25686 25687 25688 25689 25690 25691 25692 25693 25694 25695 25696 25697 25698 25699 25700 25701 25702 25703 25704 25705 25706 25707 25708 25709 25710 25711 25712 25713 25714 25715 25716 25717 25718 25719 25720 25721 25722 25723 25724 25725 25726 25727 25728 25729 25730 25731 25732 25733 25734 25735 25736 25737 25738 25739 25740 25741 25742 25743 25744 25745 25746 25747 25748 25749 25750 25751 25752 25753 25754 25755 25756 25757 25758 25759 25760 25761 25762 25763 25764 25765 25766 25767 25768 25769 25770 25771 25772 25773 25774 25775 25776 25777 25778 25779 25780 25781 25782 25783 25784 25785 25786 25787 25788 25789 25790 25791 25792 25793 25794 25795 25796 25797 25798 25799 25800 25801 25802 25803 25804 25805 25806 25807 25808 25809 25810 25811 25812 25813 25814 25815 25816 25817 25818 25819 25820 25821 25822 25823 25824 25825 25826 25827 25828 25829 25830 25831 25832 25833 25834 25835 25836 25837 25838 25839 25840 25841 25842 25843 25844 25845 25846 25847 25848 25849 25850 25851 25852 25853 25854 25855 25856 25857 25858 25859 25860 25861 25862 25863 25864 25865 25866 25867 25868 25869 25870 25871 25872 25873 25874 25875 25876 25877 25878 25879 25880 25881 25882 25883 25884 25885 25886 25887 25888 25889 25890 25891 25892 25893 25894 25895 25896 25897 25898 25899 25900 25901 25902 25903 25904 25905 25906 25907 25908 25909 25910 25911 25912 25913 25914 25915 25916 25917 25918 25919 25920 25921 25922 25923 25924 25925 25926 25927 25928 25929 25930 25931 25932 25933 25934 25935 25936 25937 25938 25939 25940 25941 25942 25943 25944 25945 25946 25947 25948 25949 25950 25951 25952 25953 25954 25955 25956 25957 25958 25959 25960 25961 25962 25963 25964 25965 25966 25967 25968 25969 25970 25971 25972 25973 25974 25975 25976 25977 25978 25979 25980 25981 25982 25983 25984 25985 25986 25987 25988 25989 25990 25991 25992 25993 25994 25995 25996 25997 25998 25999 26000 26001 26002 26003 26004 26005 26006 26007 26008 26009 26010 26011 26012 26013 26014 26015 26016 26017 26018 26019 26020 26021 26022 26023 26024 26025 26026 26027 26028 26029 26030 26031 26032 26033 26034 26035 26036 26037 26038 26039 26040 26041 26042 26043 26044 26045 26046 26047 26048 26049 26050 26051 26052 26053 26054 26055 26056 26057 26058 26059 26060 26061 26062 26063 26064 26065 26066 26067 26068 26069 26070 26071 26072 26073 26074 26075 26076 26077 26078 26079 26080 26081 26082 26083 26084 26085 26086 26087 26088 26089 26090 26091 26092 26093 26094 26095 26096 26097 26098 26099 26100 26101 26102 26103 26104 26105 26106 26107 26108 26109 26110 26111 26112 26113 26114 26115 26116 26117 26118 26119 26120 26121 26122 26123 26124 26125 26126 26127 26128 26129 26130 26131 26132 26133 26134 26135 26136 26137 26138 26139 26140 26141 26142 26143 26144 26145 26146 26147 26148 26149 26150 26151 26152 26153 26154 26155 26156 26157 26158 26159 26160 26161 26162 26163 26164 26165 26166 26167 26168 26169 26170 26171 26172 26173 26174 26175 26176 26177 26178 26179 26180 26181 26182 26183 26184 26185 26186 26187 26188 26189 26190 26191 26192 26193 26194 26195 26196 26197 26198 26199 26200 26201 26202 26203 26204 26205 26206 26207 26208 26209 26210 26211 26212 26213 26214 26215 26216 26217 26218 26219 26220 26221 26222 26223 26224 26225 26226 26227 26228 26229 26230 26231 26232 26233 26234 26235 26236 26237 26238 26239 26240 26241 26242 26243 26244 26245 26246 26247 26248 26249 26250 26251 26252 26253 26254 26255 26256 26257 26258 26259 26260 26261 26262 26263 26264 26265 26266 26267 26268 26269 26270 26271 26272 26273 26274 26275 26276 26277 26278 26279 26280 26281 26282 26283 26284 26285 26286 26287 26288 26289 26290 26291 26292 26293 26294 26295 26296 26297 26298 26299 26300 26301 26302 26303 26304 26305 26306 26307 26308 26309 26310 26311 26312 26313 26314 26315 26316 26317 26318 26319 26320 26321 26322 26323 26324 26325 26326 26327 26328 26329 26330 26331 26332 26333 26334 26335 26336 26337 26338 26339 26340 26341 26342 26343 26344 26345 26346 26347 26348 26349 26350 26351 26352 26353 26354 26355 26356 26357 26358 26359 26360 26361 26362 26363 26364 26365 26366 26367 26368 26369 26370 26371 26372 26373 26374 26375 26376 26377 26378 26379 26380 26381 26382 26383 26384 26385 26386 26387 26388 26389 26390 26391 26392 26393 26394 26395 26396 26397 26398 26399 26400 26401 26402 26403 26404 26405 26406 26407 26408 26409 26410 26411 26412 26413 26414 26415 26416 26417 26418 26419 26420 26421 26422 26423 26424 26425 26426 26427 26428 26429 26430 26431 26432 26433 26434 26435 26436 26437 26438 26439 26440 26441 26442 26443 26444 26445 26446 26447 26448 26449 26450 26451 26452 26453 26454 26455 26456 26457 26458 26459 26460 26461 26462 26463 26464 26465 26466 26467 26468 26469 26470 26471 26472 26473 26474 26475 26476 26477 26478 26479 26480 26481 26482 26483 26484 26485 26486 26487 26488 26489 26490 26491 26492 26493 26494 26495 26496 26497 26498 26499 26500 26501 26502 26503 26504 26505 26506 26507 26508 26509 26510 26511 26512 26513 26514 26515 26516 26517 26518 26519 26520 26521 26522 26523 26524 26525 26526 26527 26528 26529 26530 26531 26532 26533 26534 26535 26536 26537 26538 26539 26540 26541 26542 26543 26544 26545 26546 26547 26548 26549 26550 26551 26552 26553 26554 26555 26556 26557 26558 26559 26560 26561 26562 26563 26564 26565 26566 26567 26568 26569 26570 26571 26572 26573 26574 26575 26576 26577 26578 26579 26580 26581 26582 26583 26584 26585 26586 26587 26588 26589 26590 26591 26592 26593 26594 26595 26596 26597 26598 26599 26600 26601 26602 26603 26604 26605 26606 26607 26608 26609 26610 26611 26612 26613 26614 26615 26616 26617 26618 26619 26620 26621 26622 26623 26624 26625 26626 26627 26628 26629 26630 26631 26632 26633 26634 26635 26636 26637 26638 26639 26640 26641 26642 26643 26644 26645 26646 26647 26648 26649 26650 26651 26652 26653 26654 26655 26656 26657 26658 26659 26660 26661 26662 26663 26664 26665 26666 26667 26668 26669 26670 26671 26672 26673 26674 26675 26676 26677 26678 26679 26680 26681 26682 26683 26684 26685 26686 26687 26688 26689 26690 26691 26692 26693 26694 26695 26696 26697 26698 26699 26700 26701 26702 26703 26704 26705 26706 26707 26708 26709 26710 26711 26712 26713 26714 26715 26716 26717 26718 26719 26720 26721 26722 26723 26724 26725 26726 26727 26728 26729 26730 26731 26732 26733 26734 26735 26736 26737 26738 26739 26740 26741 26742 26743 26744 26745 26746 26747 26748 26749 26750 26751 26752 26753 26754 26755 26756 26757 26758 26759 26760 26761 26762 26763 26764 26765 26766 26767 26768 26769 26770 26771 26772 26773 26774 26775 26776 26777 26778 26779 26780 26781 26782 26783 26784 26785 26786 26787 26788 26789 26790 26791 26792 26793 26794 26795 26796 26797 26798 26799 26800 26801 26802 26803 26804 26805 26806 26807 26808 26809 26810 26811 26812 26813 26814 26815 26816 26817 26818 26819 26820 26821 26822 26823 26824 26825 26826 26827 26828 26829 26830 26831 26832 26833 26834 26835 26836 26837 26838 26839 26840 26841 26842 26843 26844 26845 26846 26847 26848 26849 26850 26851 26852 26853 26854 26855 26856 26857 26858 26859 26860 26861 26862 26863 26864 26865 26866 26867 26868 26869 26870 26871 26872 26873 26874 26875 26876 26877 26878 26879 26880 26881 26882 26883 26884 26885 26886 26887 26888 26889 26890 26891 26892 26893 26894 26895 26896 26897 26898 26899 26900 26901 26902 26903 26904 26905 26906 26907 26908 26909 26910 26911 26912 26913 26914 26915 26916 26917 26918 26919 26920 26921 26922 26923 26924 26925 26926 26927 26928 26929 26930 26931 26932 26933 26934 26935 26936 26937 26938 26939 26940 26941 26942 26943 26944 26945 26946 26947 26948 26949 26950 26951 26952 26953 26954 26955 26956 26957 26958 26959 26960 26961 26962 26963 26964 26965 26966 26967 26968 26969 26970 26971 26972 26973 26974 26975 26976 26977 26978 26979 26980 26981 26982 26983 26984 26985 26986 26987 26988 26989 26990 26991 26992 26993 26994 26995 26996 26997 26998 26999 27000 27001 27002 27003 27004 27005 27006 27007 27008 27009 27010 27011 27012 27013 27014 27015 27016 27017 27018 27019 27020 27021 27022 27023 27024 27025 27026 27027 27028 27029 27030 27031 27032 27033 27034 27035 27036 27037 27038 27039 27040 27041 27042 27043 27044 27045 27046 27047 27048 27049 27050 27051 27052 27053 27054 27055 27056 27057 27058 27059 27060 27061 27062 27063 27064 27065 27066 27067 27068 27069 27070 27071 27072 27073 27074 27075 27076 27077 27078 27079 27080 27081 27082 27083 27084 27085 27086 27087 27088 27089 27090 27091 27092 27093 27094 27095 27096 27097 27098 27099 27100 27101 27102 27103 27104 27105 27106 27107 27108 27109 27110 27111 27112 27113 27114 27115 27116 27117 27118 27119 27120 27121 27122 27123 27124 27125 27126 27127 27128 27129 27130 27131 27132 27133 27134 27135 27136 27137 27138 27139 27140 27141 27142 27143 27144 27145 27146 27147 27148 27149 27150 27151 27152 27153 27154 27155 27156 27157 27158 27159 27160 27161 27162 27163 27164 27165 27166 27167 27168 27169 27170 27171 27172 27173 27174 27175 27176 27177 27178 27179 27180 27181 27182 27183 27184 27185 27186 27187 27188 27189 27190 27191 27192 27193 27194 27195 27196 27197 27198 27199 27200 27201 27202 27203 27204 27205 27206 27207 27208 27209 27210 27211 27212 27213 27214 27215 27216 27217 27218 27219 27220 27221 27222 27223 27224 27225 27226 27227 27228 27229 27230 27231 27232 27233 27234 27235 27236 27237 27238 27239 27240 27241 27242 27243 27244 27245 27246 27247 27248 27249 27250 27251 27252 27253 27254 27255 27256 27257 27258 27259 27260 27261 27262 27263 27264 27265 27266 27267 27268 27269 27270 27271 27272 27273 27274 27275 27276 27277 27278 27279 27280 27281 27282 27283 27284 27285 27286 27287 27288 27289 27290 27291 27292 27293 27294 27295 27296 27297 27298 27299 27300 27301 27302 27303 27304 27305 27306 27307 27308 27309 27310 27311 27312 27313 27314 27315 27316 27317 27318 27319 27320 27321 27322 27323 27324 27325 27326 27327 27328 27329 27330 27331 27332 27333 27334 27335 27336 27337 27338 27339 27340 27341 27342 27343 27344 27345 27346 27347 27348 27349 27350 27351 27352 27353 27354 27355 27356 27357 27358 27359 27360 27361 27362 27363 27364 27365 27366 27367 27368 27369 27370 27371 27372 27373 27374 27375 27376 27377 27378 27379 27380 27381 27382 27383 27384 27385 27386 27387 27388 27389 27390 27391 27392 27393 27394 27395 27396 27397 27398 27399 27400 27401 27402 27403 27404 27405 27406 27407 27408 27409 27410 27411 27412 27413 27414 27415 27416 27417 27418 27419 27420 27421 27422 27423 27424 27425 27426 27427 27428 27429 27430 27431 27432 27433 27434 27435 27436 27437 27438 27439 27440 27441 27442 27443 27444 27445 27446 27447 27448 27449 27450 27451 27452 27453 27454 27455 27456 27457 27458 27459 27460 27461 27462 27463 27464 27465 27466 27467 27468 27469 27470 27471 27472 27473 27474 27475 27476 27477 27478 27479 27480 27481 27482 27483 27484 27485 27486 27487 27488 27489 27490 27491 27492 27493 27494 27495 27496 27497 27498 27499 27500 27501 27502 27503 27504 27505 27506 27507 27508 27509 27510 27511 27512 27513 27514 27515 27516 27517 27518 27519 27520 27521 27522 27523 27524 27525 27526 27527 27528 27529 27530 27531 27532 27533 27534 27535 27536 27537 27538 27539 27540 27541 27542 27543 27544 27545 27546 27547 27548 27549 27550 27551 27552 27553 27554 27555 27556 27557 27558 27559 27560 27561 27562 27563 27564 27565 27566 27567 27568 27569 27570 27571 27572 27573 27574 27575 27576 27577 27578 27579 27580 27581 27582 27583 27584 27585 27586 27587 27588 27589 27590 27591 27592 27593 27594 27595 27596 27597 27598 27599 27600 27601 27602 27603 27604 27605 27606 27607 27608 27609 27610 27611 27612 27613 27614 27615 27616 27617 27618 27619 27620 27621 27622 27623 27624 27625 27626 27627 27628 27629 27630 27631 27632 27633 27634 27635 27636 27637 27638 27639 27640 27641 27642 27643 27644 27645 27646 27647 27648 27649 27650 27651 27652 27653 27654 27655 27656 27657 27658 27659 27660 27661 27662 27663 27664 27665 27666 27667 27668 27669 27670 27671 27672 27673 27674 27675 27676 27677 27678 27679 27680 27681 27682 27683 27684 27685 27686 27687 27688 27689 27690 27691 27692 27693 27694 27695 27696 27697 27698 27699 27700 27701 27702 27703 27704 27705 27706 27707 27708 27709 27710 27711 27712 27713 27714 27715 27716 27717 27718 27719 27720 27721 27722 27723 27724 27725 27726 27727 27728 27729 27730 27731 27732 27733 27734 27735 27736 27737 27738 27739 27740 27741 27742 27743 27744 27745 27746 27747 27748 27749 27750 27751 27752 27753 27754 27755 27756 27757 27758 27759 27760 27761 27762 27763 27764 27765 27766 27767 27768 27769 27770 27771 27772 27773 27774 27775 27776 27777 27778 27779 27780 27781 27782 27783 27784 27785 27786 27787 27788 27789 27790 27791 27792 27793 27794 27795 27796 27797 27798 27799 27800 27801 27802 27803 27804 27805 27806 27807 27808 27809 27810 27811 27812 27813 27814 27815 27816 27817 27818 27819 27820 27821 27822 27823 27824 27825 27826 27827 27828 27829 27830 27831 27832 27833 27834 27835 27836 27837 27838 27839 27840 27841 27842 27843 27844 27845 27846 27847 27848 27849 27850 27851 27852 27853 27854 27855 27856 27857 27858 27859 27860 27861 27862 27863 27864 27865 27866 27867 27868 27869 27870 27871 27872 27873 27874 27875 27876 27877 27878 27879 27880 27881 27882 27883 27884 27885 27886 27887 27888 27889 27890 27891 27892 27893 27894 27895 27896 27897 27898 27899 27900 27901 27902 27903 27904 27905 27906 27907 27908 27909 27910 27911 27912 27913 27914 27915 27916 27917 27918 27919 27920 27921 27922 27923 27924 27925 27926 27927 27928 27929 27930 27931 27932 27933 27934 27935 27936 27937 27938 27939 27940 27941 27942 27943 27944 27945 27946 27947 27948 27949 27950 27951 27952 27953 27954 27955 27956 27957 27958 27959 27960 27961 27962 27963 27964 27965 27966 27967 27968 27969 27970 27971 27972 27973 27974 27975 27976 27977 27978 27979 27980 27981 27982 27983 27984 27985 27986 27987 27988 27989 27990 27991 27992 27993 27994 27995 27996 27997 27998 27999 28000 28001 28002 28003 28004 28005 28006 28007 28008 28009 28010 28011 28012 28013 28014 28015 28016 28017 28018 28019 28020 28021 28022 28023 28024 28025 28026 28027 28028 28029 28030 28031 28032 28033 28034 28035 28036 28037 28038 28039 28040 28041 28042 28043 28044 28045 28046 28047 28048 28049 28050 28051 28052 28053 28054 28055 28056 28057 28058 28059 28060 28061 28062 28063 28064 28065 28066 28067 28068 28069 28070 28071 28072 28073 28074 28075 28076 28077 28078 28079 28080 28081 28082 28083 28084 28085 28086 28087 28088 28089 28090 28091 28092 28093 28094 28095 28096 28097 28098 28099 28100 28101 28102 28103 28104 28105 28106 28107 28108 28109 28110 28111 28112 28113 28114 28115 28116 28117 28118 28119 28120 28121 28122 28123 28124 28125 28126 28127 28128 28129 28130 28131 28132 28133 28134 28135 28136 28137 28138 28139 28140 28141 28142 28143 28144 28145 28146 28147 28148 28149 28150 28151 28152 28153 28154 28155 28156 28157 28158 28159 28160 28161 28162 28163 28164 28165 28166 28167 28168 28169 28170 28171 28172 28173 28174 28175 28176 28177 28178 28179 28180 28181 28182 28183 28184 28185 28186 28187 28188 28189 28190 28191 28192 28193 28194 28195 28196 28197 28198 28199 28200 28201 28202 28203 28204 28205 28206 28207 28208 28209 28210 28211 28212 28213 28214 28215 28216 28217 28218 28219 28220 28221 28222 28223 28224 28225 28226 28227 28228 28229 28230 28231 28232 28233 28234 28235 28236 28237 28238 28239 28240 28241 28242 28243 28244 28245 28246 28247 28248 28249 28250 28251 28252 28253 28254 28255 28256 28257 28258 28259 28260 28261 28262 28263 28264 28265 28266 28267 28268 28269 28270 28271 28272 28273 28274 28275 28276 28277 28278 28279 28280 28281 28282 28283 28284 28285 28286 28287 28288 28289 28290 28291 28292 28293 28294 28295 28296 28297 28298 28299 28300 28301 28302 28303 28304 28305 28306 28307 28308 28309 28310 28311 28312 28313 28314 28315 28316 28317 28318 28319 28320 28321 28322 28323 28324 28325 28326 28327 28328 28329 28330 28331 28332 28333 28334 28335 28336 28337 28338 28339 28340 28341 28342 28343 28344 28345 28346 28347 28348 28349 28350 28351 28352 28353 28354 28355 28356 28357 28358 28359 28360 28361 28362 28363 28364 28365 28366 28367 28368 28369 28370 28371 28372 28373 28374 28375 28376 28377 28378 28379 28380 28381 28382 28383 28384 28385 28386 28387 28388 28389 28390 28391 28392 28393 28394 28395 28396 28397 28398 28399 28400 28401 28402 28403 28404 28405 28406 28407 28408 28409 28410 28411 28412 28413 28414 28415 28416 28417 28418 28419 28420 28421 28422 28423 28424 28425 28426 28427 28428 28429 28430 28431 28432 28433 28434 28435 28436 28437 28438 28439 28440 28441 28442 28443 28444 28445 28446 28447 28448 28449 28450 28451 28452 28453 28454 28455 28456 28457 28458 28459 28460 28461 28462 28463 28464 28465 28466 28467 28468 28469 28470 28471 28472 28473 28474 28475 28476 28477 28478 28479 28480 28481 28482 28483 28484 28485 28486 28487 28488 28489 28490 28491 28492 28493 28494 28495 28496 28497 28498 28499 28500 28501 28502 28503 28504 28505 28506 28507 28508 28509 28510 28511 28512 28513 28514 28515 28516 28517 28518 28519 28520 28521 28522 28523 28524 28525 28526 28527 28528 28529 28530 28531 28532 28533 28534 28535 28536 28537 28538 28539 28540 28541 28542 28543 28544 28545 28546 28547 28548 28549 28550 28551 28552 28553 28554 28555 28556 28557 28558 28559 28560 28561 28562 28563 28564 28565 28566 28567 28568 28569 28570 28571 28572 28573 28574 28575 28576 28577 28578 28579 28580 28581 28582 28583 28584 28585 28586 28587 28588 28589 28590 28591 28592 28593 28594 28595 28596 28597 28598 28599 28600 28601 28602 28603 28604 28605 28606 28607 28608 28609 28610 28611 28612 28613 28614 28615 28616 28617 28618 28619 28620 28621 28622 28623 28624 28625 28626 28627 28628 28629 28630 28631 28632 28633 28634 28635 28636 28637 28638 28639 28640 28641 28642 28643 28644 28645 28646 28647 28648 28649 28650 28651 28652 28653 28654 28655 28656 28657 28658 28659 28660 28661 28662 28663 28664 28665 28666 28667 28668 28669 28670 28671 28672 28673 28674 28675 28676 28677 28678 28679 28680 28681 28682 28683 28684 28685 28686 28687 28688 28689 28690 28691 28692 28693 28694 28695 28696 28697 28698 28699 28700 28701 28702 28703 28704 28705 28706 28707 28708 28709 28710 28711 28712 28713 28714 28715 28716 28717 28718 28719 28720 28721 28722 28723 28724 28725 28726 28727 28728 28729 28730 28731 28732 28733 28734 28735 28736 28737 28738 28739 28740 28741 28742 28743 28744 28745 28746 28747 28748 28749 28750 28751 28752 28753 28754 28755 28756 28757 28758 28759 28760 28761 28762 28763 28764 28765 28766 28767 28768 28769 28770 28771 28772 28773 28774 28775 28776 28777 28778 28779 28780 28781 28782 28783 28784 28785 28786 28787 28788 28789 28790 28791 28792 28793 28794 28795 28796 28797 28798 28799 28800 28801 28802 28803 28804 28805 28806 28807 28808 28809 28810 28811 28812 28813 28814 28815 28816 28817 28818 28819 28820 28821 28822 28823 28824 28825 28826 28827 28828 28829 28830 28831 28832 28833 28834 28835 28836 28837 28838 28839 28840 28841 28842 28843 28844 28845 28846 28847 28848 28849 28850 28851 28852 28853 28854 28855 28856 28857 28858 28859 28860 28861 28862 28863 28864 28865 28866 28867 28868 28869 28870 28871 28872 28873 28874 28875 28876 28877 28878 28879 28880 28881 28882 28883 28884 28885 28886 28887 28888 28889 28890 28891 28892 28893 28894 28895 28896 28897 28898 28899 28900 28901 28902 28903 28904 28905 28906 28907 28908 28909 28910 28911 28912 28913 28914 28915 28916 28917 28918 28919 28920 28921 28922 28923 28924 28925 28926 28927 28928 28929 28930 28931 28932 28933 28934 28935 28936 28937 28938 28939 28940 28941 28942 28943 28944 28945 28946 28947 28948 28949 28950 28951 28952 28953 28954 28955 28956 28957 28958 28959 28960 28961 28962 28963 28964 28965 28966 28967 28968 28969 28970 28971 28972 28973 28974 28975 28976 28977 28978 28979 28980 28981 28982 28983 28984 28985 28986 28987 28988 28989 28990 28991 28992 28993 28994 28995 28996 28997 28998 28999 29000 29001 29002 29003 29004 29005 29006 29007 29008 29009 29010 29011 29012 29013 29014 29015 29016 29017 29018 29019 29020 29021 29022 29023 29024 29025 29026 29027 29028 29029 29030 29031 29032 29033 29034 29035 29036 29037 29038 29039 29040 29041 29042 29043 29044 29045 29046 29047 29048 29049 29050 29051 29052 29053 29054 29055 29056 29057 29058 29059 29060 29061 29062 29063 29064 29065 29066 29067 29068 29069 29070 29071 29072 29073 29074 29075 29076 29077 29078 29079 29080 29081 29082 29083 29084 29085 29086 29087 29088 29089 29090 29091 29092 29093 29094 29095 29096 29097 29098 29099 29100 29101 29102 29103 29104 29105 29106 29107 29108 29109 29110 29111 29112 29113 29114 29115 29116 29117 29118 29119 29120 29121 29122 29123 29124 29125 29126 29127 29128 29129 29130 29131 29132 29133 29134 29135 29136 29137 29138 29139 29140 29141 29142 29143 29144 29145 29146 29147 29148 29149 29150 29151 29152 29153 29154 29155 29156 29157 29158 29159 29160 29161 29162 29163 29164 29165 29166 29167 29168 29169 29170 29171 29172 29173 29174 29175 29176 29177 29178 29179 29180 29181 29182 29183 29184 29185 29186 29187 29188 29189 29190 29191 29192 29193 29194 29195 29196 29197 29198 29199 29200 29201 29202 29203 29204 29205 29206 29207 29208 29209 29210 29211 29212 29213 29214 29215 29216 29217 29218 29219 29220 29221 29222 29223 29224 29225 29226 29227 29228 29229 29230 29231 29232 29233 29234 29235 29236 29237 29238 29239 29240 29241 29242 29243 29244 29245 29246 29247 29248 29249 29250 29251 29252 29253 29254 29255 29256 29257 29258 29259 29260 29261 29262 29263 29264 29265 29266 29267 29268 29269 29270 29271 29272 29273 29274 29275 29276 29277 29278 29279 29280 29281 29282 29283 29284 29285 29286 29287 29288 29289 29290 29291 29292 29293 29294 29295 29296 29297 29298 29299 29300 29301 29302 29303 29304 29305 29306 29307 29308 29309 29310 29311 29312 29313 29314 29315 29316 29317 29318 29319 29320 29321 29322 29323 29324 29325 29326 29327 29328 29329 29330 29331 29332 29333 29334 29335 29336 29337 29338 29339 29340 29341 29342 29343 29344 29345 29346 29347 29348 29349 29350 29351 29352 29353 29354 29355 29356 29357 29358 29359 29360 29361 29362 29363 29364 29365 29366 29367 29368 29369 29370 29371 29372 29373 29374 29375 29376 29377 29378 29379 29380 29381 29382 29383 29384 29385 29386 29387 29388 29389 29390 29391 29392 29393 29394 29395 29396 29397 29398 29399 29400 29401 29402 29403 29404 29405 29406 29407 29408 29409 29410 29411 29412 29413 29414 29415 29416 29417 29418 29419 29420 29421 29422 29423 29424 29425 29426 29427 29428 29429 29430 29431 29432 29433 29434 29435 29436 29437 29438 29439 29440 29441 29442 29443 29444 29445 29446 29447 29448 29449 29450 29451 29452 29453 29454 29455 29456 29457 29458 29459 29460 29461 29462 29463 29464 29465 29466 29467 29468 29469 29470 29471 29472 29473 29474 29475 29476 29477 29478 29479 29480 29481 29482 29483 29484 29485 29486 29487 29488 29489 29490 29491 29492 29493 29494 29495 29496 29497 29498 29499 29500 29501 29502 29503 29504 29505 29506 29507 29508 29509 29510 29511 29512 29513 29514 29515 29516 29517 29518 29519 29520 29521 29522 29523 29524 29525 29526 29527 29528 29529 29530 29531 29532 29533 29534 29535 29536 29537 29538 29539 29540 29541 29542 29543 29544 29545 29546 29547 29548 29549 29550 29551 29552 29553 29554 29555 29556 29557 29558 29559 29560 29561 29562 29563 29564 29565 29566 29567 29568 29569 29570 29571 29572 29573 29574 29575 29576 29577 29578 29579 29580 29581 29582 29583 29584 29585 29586 29587 29588 29589 29590 29591 29592 29593 29594 29595 29596 29597 29598 29599 29600 29601 29602 29603 29604 29605 29606 29607 29608 29609 29610 29611 29612 29613 29614 29615 29616 29617 29618 29619 29620 29621 29622 29623 29624 29625 29626 29627 29628 29629 29630 29631 29632 29633 29634 29635 29636 29637 29638 29639 29640 29641 29642 29643 29644 29645 29646 29647 29648 29649 29650 29651 29652 29653 29654 29655 29656 29657 29658 29659 29660 29661 29662 29663 29664 29665 29666 29667 29668 29669 29670 29671 29672 29673 29674 29675 29676 29677 29678 29679 29680 29681 29682 29683 29684 29685 29686 29687 29688 29689 29690 29691 29692 29693 29694 29695 29696 29697 29698 29699 29700 29701 29702 29703 29704 29705 29706 29707 29708 29709 29710 29711 29712 29713 29714 29715 29716 29717 29718 29719 29720 29721 29722 29723 29724 29725 29726 29727 29728 29729 29730 29731 29732 29733 29734 29735 29736 29737 29738 29739 29740 29741 29742 29743 29744 29745 29746 29747 29748 29749 29750 29751 29752 29753 29754 29755 29756 29757 29758 29759 29760 29761 29762 29763 29764 29765 29766 29767 29768 29769 29770 29771 29772 29773 29774 29775 29776 29777 29778 29779 29780 29781 29782 29783 29784 29785 29786 29787 29788 29789 29790 29791 29792 29793 29794 29795 29796 29797 29798 29799 29800 29801 29802 29803 29804 29805 29806 29807 29808 29809 29810 29811 29812 29813 29814 29815 29816 29817 29818 29819 29820 29821 29822 29823 29824 29825 29826 29827 29828 29829 29830 29831 29832 29833 29834 29835 29836 29837 29838 29839 29840 29841 29842 29843 29844 29845 29846 29847 29848 29849 29850 29851 29852 29853 29854 29855 29856 29857 29858 29859 29860 29861 29862 29863 29864 29865 29866 29867 29868 29869 29870 29871 29872 29873 29874 29875 29876 29877 29878 29879 29880 29881 29882 29883 29884 29885 29886 29887 29888 29889 29890 29891 29892 29893 29894 29895 29896 29897 29898 29899 29900 29901 29902 29903 29904 29905 29906 29907 29908 29909 29910 29911 29912 29913 29914 29915 29916 29917 29918 29919 29920 29921 29922 29923 29924 29925 29926 29927 29928 29929 29930 29931 29932 29933 29934 29935 29936 29937 29938 29939 29940 29941 29942 29943 29944 29945 29946 29947 29948 29949 29950 29951 29952 29953 29954 29955 29956 29957 29958 29959 29960 29961 29962 29963 29964 29965 29966 29967 29968 29969 29970 29971 29972 29973 29974 29975 29976 29977 29978 29979 29980 29981 29982 29983 29984 29985 29986 29987 29988 29989 29990 29991 29992 29993 29994 29995 29996 29997 29998 29999 30000 30001 30002 30003 30004 30005 30006 30007 30008 30009 30010 30011 30012 30013 30014 30015 30016 30017 30018 30019 30020 30021 30022 30023 30024 30025 30026 30027 30028 30029 30030 30031 30032 30033 30034 30035 30036 30037 30038 30039 30040 30041 30042 30043 30044 30045 30046 30047 30048 30049 30050 30051 30052 30053 30054 30055 30056 30057 30058 30059 30060 30061 30062 30063 30064 30065 30066 30067 30068 30069 30070 30071 30072 30073 30074 30075 30076 30077 30078 30079 30080 30081 30082 30083 30084 30085 30086 30087 30088 30089 30090 30091 30092 30093 30094 30095 30096 30097 30098 30099 30100 30101 30102 30103 30104 30105 30106 30107 30108 30109 30110 30111 30112 30113 30114 30115 30116 30117 30118 30119 30120 30121 30122 30123 30124 30125 30126 30127 30128 30129 30130 30131 30132 30133 30134 30135 30136 30137 30138 30139 30140 30141 30142 30143 30144 30145 30146 30147 30148 30149 30150 30151 30152 30153 30154 30155 30156 30157 30158 30159 30160 30161 30162 30163 30164 30165 30166 30167 30168 30169 30170 30171 30172 30173 30174 30175 30176 30177 30178 30179 30180 30181 30182 30183 30184 30185 30186 30187 30188 30189 30190 30191 30192 30193 30194 30195 30196 30197 30198 30199 30200 30201 30202 30203 30204 30205 30206 30207 30208 30209 30210 30211 30212 30213 30214 30215 30216 30217 30218 30219 30220 30221 30222 30223 30224 30225 30226 30227 30228 30229 30230 30231 30232 30233 30234 30235 30236 30237 30238 30239 30240 30241 30242 30243 30244 30245 30246 30247 30248 30249 30250 30251 30252 30253 30254 30255 30256 30257 30258 30259 30260 30261 30262 30263 30264 30265 30266 30267 30268 30269 30270 30271 30272 30273 30274 30275 30276 30277 30278 30279 30280 30281 30282 30283 30284 30285 30286 30287 30288 30289 30290 30291 30292 30293 30294 30295 30296 30297 30298 30299 30300 30301 30302 30303 30304 30305 30306 30307 30308 30309 30310 30311 30312 30313 30314 30315 30316 30317 30318 30319 30320 30321 30322 30323 30324 30325 30326 30327 30328 30329 30330 30331 30332 30333 30334 30335 30336 30337 30338 30339 30340 30341 30342 30343 30344 30345 30346 30347 30348 30349 30350 30351 30352 30353 30354 30355 30356 30357 30358 30359 30360 30361 30362 30363 30364 30365 30366 30367 30368 30369 30370 30371 30372 30373 30374 30375 30376 30377 30378 30379 30380 30381 30382 30383 30384 30385 30386 30387 30388 30389 30390 30391 30392 30393 30394 30395 30396 30397 30398 30399 30400 30401 30402 30403 30404 30405 30406 30407 30408 30409 30410 30411 30412 30413 30414 30415 30416 30417 30418 30419 30420 30421 30422 30423 30424 30425 30426 30427 30428 30429 30430 30431 30432 30433 30434 30435 30436 30437 30438 30439 30440 30441 30442 30443 30444 30445 30446 30447 30448 30449 30450 30451 30452 30453 30454 30455 30456 30457 30458 30459 30460 30461 30462 30463 30464 30465 30466 30467 30468 30469 30470 30471 30472 30473 30474 30475 30476 30477 30478 30479 30480 30481 30482 30483 30484 30485 30486 30487 30488 30489 30490 30491 30492 30493 30494 30495 30496 30497 30498 30499 30500 30501 30502 30503 30504 30505 30506 30507 30508 30509 30510 30511 30512 30513 30514 30515 30516 30517 30518 30519 30520 30521 30522 30523 30524 30525 30526 30527 30528 30529 30530 30531 30532 30533 30534 30535 30536 30537 30538 30539 30540 30541 30542 30543 30544 30545 30546 30547 30548 30549 30550 30551 30552 30553 30554 30555 30556 30557 30558 30559 30560 30561 30562 30563 30564 30565 30566 30567 30568 30569 30570 30571 30572 30573 30574 30575 30576 30577 30578 30579 30580 30581 30582 30583 30584 30585 30586 30587 30588 30589 30590 30591 30592 30593 30594 30595 30596 30597 30598 30599 30600 30601 30602 30603 30604 30605 30606 30607 30608 30609 30610 30611 30612 30613 30614 30615 30616 30617 30618 30619 30620 30621 30622 30623 30624 30625 30626 30627 30628 30629 30630 30631 30632 30633 30634 30635 30636 30637 30638 30639 30640 30641 30642 30643 30644 30645 30646 30647 30648 30649 30650 30651 30652 30653 30654 30655 30656 30657 30658 30659 30660 30661 30662 30663 30664 30665 30666 30667 30668 30669 30670 30671 30672 30673 30674 30675 30676 30677 30678 30679 30680 30681 30682 30683 30684 30685 30686 30687 30688 30689 30690 30691 30692 30693 30694 30695 30696 30697 30698 30699 30700 30701 30702 30703 30704 30705 30706 30707 30708 30709 30710 30711 30712 30713 30714 30715 30716 30717 30718 30719 30720 30721 30722 30723 30724 30725 30726 30727 30728 30729 30730 30731 30732 30733 30734 30735 30736 30737 30738 30739 30740 30741 30742 30743 30744 30745 30746 30747 30748 30749 30750 30751 30752 30753 30754 30755 30756 30757 30758 30759 30760 30761 30762 30763 30764 30765 30766 30767 30768 30769 30770 30771 30772 30773 30774 30775 30776 30777 30778 30779 30780 30781 30782 30783 30784 30785 30786 30787 30788 30789 30790 30791 30792 30793 30794 30795 30796 30797 30798 30799 30800 30801 30802 30803 30804 30805 30806 30807 30808 30809 30810 30811 30812 30813 30814 30815 30816 30817 30818 30819 30820 30821 30822 30823 30824 30825 30826 30827 30828 30829 30830 30831 30832 30833 30834 30835 30836 30837 30838 30839 30840 30841 30842 30843 30844 30845 30846 30847 30848 30849 30850 30851 30852 30853 30854 30855 30856 30857 30858 30859 30860 30861 30862 30863 30864 30865 30866 30867 30868 30869 30870 30871 30872 30873 30874 30875 30876 30877 30878 30879 30880 30881 30882 30883 30884 30885 30886 30887 30888 30889 30890 30891 30892 30893 30894 30895 30896 30897 30898 30899 30900 30901 30902 30903 30904 30905 30906 30907 30908 30909 30910 30911 30912 30913 30914 30915 30916 30917 30918 30919 30920 30921 30922 30923 30924 30925 30926 30927 30928 30929 30930 30931 30932 30933 30934 30935 30936 30937 30938 30939 30940 30941 30942 30943 30944 30945 30946 30947 30948 30949 30950 30951 30952 30953 30954 30955 30956 30957 30958 30959 30960 30961 30962 30963 30964 30965 30966 30967 30968 30969 30970 30971 30972 30973 30974 30975 30976 30977 30978 30979 30980 30981 30982 30983 30984 30985 30986 30987 30988 30989 30990 30991 30992 30993 30994 30995 30996 30997 30998 30999 31000 31001 31002 31003 31004 31005 31006 31007 31008 31009 31010 31011 31012 31013 31014 31015 31016 31017 31018 31019 31020 31021 31022 31023 31024 31025 31026 31027 31028 31029 31030 31031 31032 31033 31034 31035 31036 31037 31038 31039 31040 31041 31042 31043 31044 31045 31046 31047 31048 31049 31050 31051 31052 31053 31054 31055 31056 31057 31058 31059 31060 31061 31062 31063 31064 31065 31066 31067 31068 31069 31070 31071 31072 31073 31074 31075 31076 31077 31078 31079 31080 31081 31082 31083 31084 31085 31086 31087 31088 31089 31090 31091 31092 31093 31094 31095 31096 31097 31098 31099 31100 31101 31102 31103 31104 31105 31106 31107 31108 31109 31110 31111 31112 31113 31114 31115 31116 31117 31118 31119 31120 31121 31122 31123 31124 31125 31126 31127 31128 31129 31130 31131 31132 31133 31134 31135 31136 31137 31138 31139 31140 31141 31142 31143 31144 31145 31146 31147 31148 31149 31150 31151 31152 31153 31154 31155 31156 31157 31158 31159 31160 31161 31162 31163 31164 31165 31166 31167 31168 31169 31170 31171 31172 31173 31174 31175 31176 31177 31178 31179 31180 31181 31182 31183 31184 31185 31186 31187 31188 31189 31190 31191 31192 31193 31194 31195 31196 31197 31198 31199 31200 31201 31202 31203 31204 31205 31206 31207 31208 31209 31210 31211 31212 31213 31214 31215 31216 31217 31218 31219 31220 31221 31222 31223 31224 31225 31226 31227 31228 31229 31230 31231 31232 31233 31234 31235 31236 31237 31238 31239 31240 31241 31242 31243 31244 31245 31246 31247 31248 31249 31250 31251 31252 31253 31254 31255 31256 31257 31258 31259 31260 31261 31262 31263 31264 31265 31266 31267 31268 31269 31270 31271 31272 31273 31274 31275 31276 31277 31278 31279 31280 31281 31282 31283 31284 31285 31286 31287 31288 31289 31290 31291 31292 31293 31294 31295 31296 31297 31298 31299 31300 31301 31302 31303 31304 31305 31306 31307 31308 31309 31310 31311 31312 31313 31314 31315 31316 31317 31318 31319 31320 31321 31322 31323 31324 31325 31326 31327 31328 31329 31330 31331 31332 31333 31334 31335 31336 31337 31338 31339 31340 31341 31342 31343 31344 31345 31346 31347 31348 31349 31350 31351 31352 31353 31354 31355 31356 31357 31358 31359 31360 31361 31362 31363 31364 31365 31366 31367 31368 31369 31370 31371 31372 31373 31374 31375 31376 31377 31378 31379 31380 31381 31382 31383 31384 31385 31386 31387 31388 31389 31390 31391 31392 31393 31394 31395 31396 31397 31398 31399 31400 31401 31402 31403 31404 31405 31406 31407 31408 31409 31410 31411 31412 31413 31414 31415 31416 31417 31418 31419 31420 31421 31422 31423 31424 31425 31426 31427 31428 31429 31430 31431 31432 31433 
</DataArray>
<DataArray type="UInt32" Name="offsets" format="ascii">
3 6 9 12 15 18 21 23 26 29 32 35 38 41 44 47 50 53 56 59 61 64 67 70 72 75 78 81 84 87 90 93 96 99 102 105 108 111 114 117 120 123 126 129 132 135 138 141 144 147 150 153 156 159 162 165 168 171 173 176 179 181 184 187 190 193 196 199 202 205 207 210 213 216 219 221 224 227 230 232 235 238 241 244 247 250 253 256 259 262 265 268 271 274 276 279 281 284 287 290 293 296 299 302 305 308 311 314 317 319 322 325 328 331 333 335 338 341 344 347 350 353 356 359 362 365 368 371 374 377 380 383 386 388 391 394 397 399 402 405 408 411 414 417 419 422 425 427 430 433 436 439 441 444 447 450 453 456 458 461 463 466 469 472 475 478 481 484 487 490 493 496 499 502 505 508 511 514 517 520 523 526 528 531 534 537 540 543 546 549 552 555 558 561 564 567 570 573 576 579 582 585 588 591 594 597 600 603 606 609 611 614 617 620 623 625 628 631 634 637 640 643 645 648 650 653 656 659 662 665 668 671 674 677 680 683 686 689 692 695 698 701 704 707 710 713 716 719 722 725 728 731 734 737 740 743 746 749 752 755 758 761 764 767 770 773 776 779 782 785 788 791 794 796 799 801 804 807 810 813 816 819 822 825 827 830 833 836 839 842 845 848 851 854 857 860 863 866 869 872 875 878 881 884 887 890 893 896 899 902 905 908 911 914 917 920 923 926 929 932 934 937 940 942 945 948 951 954 957 960 963 965 968 971 974 977 980 983 986 989 992 994 996 999 1002 1005 1007 1010 1013 1016 1019 1022 1025 1028 1031 1034 1037 1040 1043 1046 1049 1052 1055 1058 1061 1064 1067 1070 1073 1076 1079 1082 1085 1087 1090 1092 1095 1098 1101 1104 1107 1109 1112 1115 1118 1121 1123 1126 1129 1132 1135 1138 1141 1144 1146 1149 1151 1154 1157 1160 1163 1165 1168 1171 1173 1176 1179 1182 1185 1188 1191 1194 1196 1198 1201 1204 1206 1209 1212 1215 1217 1220 1223 1226 1229 1231 1234 1237 1240 1243 1245 1248 1250 1253 1255 1258 1260 1263 1266 1269 1272 1274 1277 1279 1282 1285 1288 1291 1293 1295 1298 1301 1303 1306 1309 1312 1315 1318 1321 1324 1326 1329 1332 1335 1338 1340 1343 1346 1349 1352 1354 1357 1360 1363 1366 1369 1372 1375 1378 1381 1383 1386 1388 1391 1394 1397 1400 1403 1406 1409 1412 1415 1418 1421 1424 1427 1430 1433 1436 1439 1442 1444 1447 1450 1453 1455 1458 1461 1464 1467 1470 1473 1475 1478 1481 1484 1487 1490 1493 1495 1498 1501 1504 1506 1509 1512 1514 1517 1520 1523 1526 1529 1532 1535 1538 1541 1544 1547 1549 1552 1555 1558 1561 1564 1567 1570 1573 1576 1579 1582 1585 1588 1590 1592 1595 1598 1601 1604 1606 1609 1612 1615 1618 1621 1624 1627 1630 1633 1636 1639 1642 1645 1648 1651 1654 1657 1660 1663 1666 1669 1672 1675 1678 1681 1684 1687 1690 1693 1696 1699 1702 1705 1708 1711 1714 1716 1719 1722 1725 1728 1730 1733 1736 1739 1742 1745 1748 1751 1754 1757 1760 1763 1766 1769 1772 1775 1778 1781 1784 1787 1790 1793 1796 1799 1802 1805 1808 1811 1814 1817 1820 1823 1826 1829 1832 1835 1838 1841 1844 1847 1850 1853 1856 1859 1862 1865 1868 1871 1874 1877 1880 1883 1886 1889 1892 1895 1898 1901 1904 1907 1910 1913 1916 1919 1922 1925 1928 1931 1934 1937 1940 1943 1946 1949 1951 1954 1957 1960 1963 1965 1968 1970 1973 1976 1979 1982 1985 1988 1991 1994 1997 2000 2003 2006 2009 2012 2015 2018 2021 2024 2027 2030 2033 2036 2039 2042 2045 2048 2051 2054 2057 2060 2063 2066 2069 2072 2075 2078 2081 2084 2086 2089 2092 2095 2098 2100 2103 2106 2109 2112 2115 2118 2121 2124 2127 2130 2133 2136 2138 2141 2143 2145 2148 2151 2154 2157 2160 2163 2165 2168 2170 2173 2176 2179 2182 2185 2188 2191 2194 2197 2200 2202 2205 2208 2211 2214 2217 2220 2223 2225 2228 2231 2234 2237 2240 2243 2246 2249 2252 2255 2258 2261 2264 2267 2269 2272 2275 2278 2281 2283 2286 2289 2292 2294 2297 2300 2303 2306 2309 2312 2315 2318 2321 2323 2326 2329 2332 2335 2338 2341 2344 2347 2350 2353 2356 2359 2362 2365 2368 2371 2374 2377 2380 2383 2386 2389 2392 2394 2397 2400 2403 2406 2409 2412 2415 2418 2421 2424 2427 2430 2433 2436 2439 2442 2445 2448 2451 2454 2457 2460 2463 2466 2468 2471 2474 2477 2480 2483 2486 2489 2492 2495 2497 2500 2503 2505 2508 2511 2514 2517 2520 2523 2526 2529 2532 2534 2537 2540 2542 2545 2548 2551 2554 2557 2560 2562 2565 2568 2571 2574 2577 2580 2583 2586 2588 2590 2593 2596 2599 2602 2605 2608 2611 2614 2617 2620 2622 2625 2628 2631 2634 2637 2639 2642 2645 2648 2651 2654 2657 2660 2662 2665 2668 2671 2674 2677 2680 2682 2685 2688 2690 2692 2695 2697 2699 2702 2705 2707 2710 2713 2715 2717 2720 2723 2726 2728 2731 2734 2737 2740 2743 2745 2748 2751 2754 2757 2760 2762 2765 2768 2771 2773 2775 2778 2781 2784 2787 2790 2793 2796 2799 2802 2804 2807 2810 2812 2815 2818 2821 2824 2827 2830 2833 2836 2839 2842 2845 2848 2851 2853 2855 2858 2861 2864 2867 2869 2871 2874 2877 2879 2881 2884 2887 2890 2893 2896 2899 2902 2905 2908 2911 2914 2917 2919 2922 2925 2927 2930 2933 2936 2938 2941 2944 2946 2949 2952 2955 2958 2961 2964 2966 2968 2970 2973 2976 2979 2982 2985 2988 2991 2993 2996 2999 3002 3005 3008 3011 3014 3017 3020 3023 3026 3029 3032 3035 3038 3041 3044 3047 3050 3053 3056 3059 3062 3065 3068 3071 3074 3077 3080 3083 3086 3089 3092 3095 3097 3100 3103 3106 3109 3111 3114 3117 3119 3121 3124 3127 3130 3132 3134 3137 3140 3143 3146 3149 3152 3155 3158 3161 3164 3166 3169 3172 3175 3178 3181 3184 3187 3189 3192 3195 3198 3201 3204 3207 3210 3212 3215 3218 3221 3223 3226 3228 3231 3234 3236 3239 3242 3245 3247 3249 3252 3255 3258 3261 3264 3267 3270 3273 3276 3279 3282 3285 3288 3291 3294 3297 3300 3303 3306 3309 3312 3315 3318 3321 3324 3327 3330 3333 3335 3338 3341 3344 3347 3349 3352 3355 3358 3361 3364 3367 3370 3373 3376 3379 3381 3384 3387 3390 3393 3396 3399 3402 3405 3408 3411 3414 3417 3420 3423 3425 3428 3431 3434 3437 3440 3443 3446 3449 3452 3454 3457 3460 3463 3466 3468 3471 3474 3477 3479 3482 3485 3488 3490 3493 3496 3499 3502 3505 3508 3511 3514 3517 3520 3523 3526 3529 3532 3535 3538 3541 3544 3547 3550 3553 3556 3559 3562 3564 3567 3570 3573 3576 3578 3581 3584 3587 3590 3593 3595 3598 3601 3604 3607 3610 3613 3615 3618 3621 3624 3626 3629 3632 3635 3637 3640 3642 3644 3647 3650 3653 3656 3659 3662 3665 3668 3671 3674 3677 3680 3683 3686 3689 3692 3695 3698 3701 3703 3706 3709 3712 3714 3717 3720 3723 3726 3729 3732 3735 3738 3741 3744 3747 3750 3753 3755 3757 3760 3763 3766 3769 3772 3775 3777 3780 3782 3784 3787 3790 3793 3795 3798 3801 3803 3805 3808 3811 3814 3817 3820 3822 3825 3828 3831 3834 3837 3840 3843 3845 3848 3851 3854 3857 3860 3862 3865 3868 3871 3874 3877 3880 3882 3885 3888 3891 3893 3896 3899 3902 3905 3908 3910 3912 3915 3918 3921 3924 3927 3929 3932 3934 3937 3940 3943 3946 3948 3951 3954 3957 3960 3963 3966 3969 3972 3975 3978 3981 3984 3987 3990 3993 3996 3999 4002 4005 4008 4011 4014 4017 4020 4023 4026 4029 4032 4035 4038 4041 4044 4046 4049 4051 4053 4056 4059 4062 4065 4068 4071 4074 4077 4079 4081 4084 4087 4090 4093 4095 4097 4100 4103 4105 4108 4111 4113 4116 4119 4121 4124 4127 4130 4132 4135 4138 4141 4143 4146 4149 4152 4155 4158 4160 4162 4165 4168 4171 4174 4177 4180 4183 4186 4189 4192 4194 4197 4199 4202 4205 4208 4211 4214 4216 4219 4222 4225 4227 4230 4232 4235 4238 4241 4244 4247 4250 4252 4255 4257 4260 4263 4266 4268 4270 4272 4274 4276 4279 4282 4285 4288 4291 4293 4296 4299 4302 4305 4308 4311 4314 4317 4320 4323 4325 4328 4331 4334 4337 4340 4342 4344 4347 4350 4353 4356 4358 4361 4364 4367 4370 4373 4376 4379 4382 4385 4388 4390 4393 4395 4398 4401 4404 4407 4410 4413 4416 4419 4422 4424 4426 4429 4431 4434 4437 4440 4443 4446 4449 4452 4455 4458 4460 4463 4466 4469 4471 4474 4477 4480 4483 4486 4489 4492 4494 4497 4500 4503 4506 4509 4512 4515 4518 4521 4524 4527 4530 4533 4536 4539 4542 4545 4548 4551 4553 4556 4559 4562 4565 4568 4571 4574 4577 4580 4582 4585 4588 4591 4594 4597 4600 4603 4606 4608 4611 4614 4617 4619 4622 4625 4628 4631 4634 4637 4640 4643 4646 4649 4652 4655 4658 4661 4664 4667 4670 4673 4676 4679 4682 4685 4688 4690 4693 4696 4699 4702 4705 4708 4711 4714 4717 4720 4723 4726 4728 4731 4734 4736 4738 4741 4743 4746 4749 4751 4754 4756 4759 4762 4765 4767 4770 4772 4774 4777 4780 4783 4785 4788 4791 4794 4797 4799 4802 4804 4807 4810 4812 4815 4818 4821 4824 4827 4830 4833 4836 4839 4842 4845 4848 4850 4852 4855 4858 4861 4864 4867 4870 4873 4876 4879 4882 4885 4888 4891 4893 4896 4899 4902 4905 4907 4910 4913 4916 4919 4922 4925 4928 4931 4934 4937 4940 4943 4946 4949 4952 4954 4957 4960 4963 4965 4968 4971 4974 4977 4980 4983 4986 4989 4992 4995 4998 5001 5004 5007 5010 5013 5016 5019 5022 5025 5028 5031 5034 5037 5039 5042 5045 5048 5051 5054 5057 5060 5062 5065 5068 5071 5074 5077 5080 5083 5086 5089 5092 5094 5097 5100 5103 5106 5109 5112 5115 5118 5121 5124 5127 5129 5132 5135 5138 5141 5144 5147 5150 5153 5156 5159 5162 5165 5168 5170 5173 5176 5179 5182 5185 5188 5191 5194 5197 5200 5203 5206 5209 5212 5215 5218 5221 5224 5227 5230 5233 5236 5239 5242 5245 5248 5251 5254 5257 5260 5263 5266 5269 5272 5275 5278 5281 5283 5286 5289 5292 5294 5297 5300 5303 5306 5309 5312 5314 5317 5320 5323 5326 5329 5332 5335 5338 5341 5344 5347 5350 5353 5356 5359 5362 5365 5368 5370 5373 5376 5378 5381 5384 5387 5390 5393 5396 5399 5402 5405 5408 5411 5414 5417 5419 5422 5425 5427 5430 5433 5436 5439 5442 5445 5448 5451 5454 5457 5460 5463 5466 5469 5472 5475 5478 5481 5484 5487 5490 5493 5496 5499 5502 5504 5506 5509 5512 5515 5518 5521 5524 5527 5530 5533 5536 5539 5542 5545 5548 5551 5554 5557 5560 5563 5566 5569 5572 5575 5578 5581 5584 5587 5590 5593 5595 5598 5600 5603 5606 5609 5611 5614 5616 5619 5622 5625 5628 5631 5634 5637 5640 5643 5646 5649 5652 5655 5658 5661 5664 5667 5670 5673 5676 5679 5682 5685 5688 5691 5694 5697 5700 5703 5706 5709 5712 5715 5718 5721 5724 5727 5730 5733 5735 5738 5741 5744 5747 5750 5753 5756 5759 5762 5765 5768 5771 5774 5777 5780 5783 5786 5789 5792 5795 5798 5801 5804 5807 5810 5812 5815 5818 5821 5824 5827 5830 5832 5835 5837 5839 5842 5845 5847 5850 5853 5856 5859 5862 5865 5868 5871 5874 5876 5879 5882 5885 5888 5891 5894 5897 5900 5903 5906 5909 5912 5915 5918 5921 5924 5927 5930 5933 5936 5938 5941 5944 5947 5950 5953 5956 5959 5962 5964 5967 5970 5973 5976 5978 5981 5984 5986 5989 5992 5995 5997 6000 6003 6006 6009 6012 6015 6017 6020 6023 6025 6028 6031 6034 6037 6040 6043 6046 6049 6051 6054 6057 6060 6063 6066 6069 6072 6075 6078 6081 6084 6087 6090 6093 6096 6099 6102 6105 6108 6111 6114 6117 6120 6123 6126 6129 6131 6134 6137 6140 6143 6146 6149 6152 6155 6158 6161 6164 6167 6170 6173 6176 6179 6182 6185 6188 6191 6194 6197 6200 6202 6205 6208 6211 6214 6217 6220 6223 6226 6229 6232 6234 6237 6240 6242 6245 6248 6251 6254 6257 6260 6263 6266 6269 6272 6275 6278 6281 6284 6287 6290 6293 6296 6299 6302 6305 6308 6311 6314 6317 6320 6323 6326 6329 6332 6335 6337 6340 6343 6346 6349 6352 6355 6357 6360 6362 6365 6368 6370 6373 6376 6379 6382 6385 6388 6391 6394 6397 6400 6403 6406 6409 6412 6415 6418 6421 6424 6426 6429 6431 6433 6436 6439 6442 6445 6448 6450 6453 6456 6459 6462 6465 6468 6471 6473 6476 6479 6481 6484 6487 6490 6493 6496 6499 6502 6504 6507 6510 6513 6516 6519 6522 6525 6528 6530 6533 6536 6539 6541 6543 6546 6549 6552 6554 6557 6560 6562 6565 6567 6570 6573 6576 6579 6581 6583 6586 6589 6592 6595 6598 6601 6604 6607 6609 6612 6614 6616 6619 6622 6625 6628 6631 6634 6637 6640 6643 6646 6649 6651 6654 6657 6660 6663 6666 6669 6672 6675 6677 6680 6683 6686 6688 6691 6694 6697 6700 6702 6704 6707 6710 6712 6715 6718 6721 6723 6726 6729 6732 6735 6737 6740 6742 6745 6747 6749 6752 6755 6757 6760 6763 6766 6769 6772 6774 6777 6780 6783 6786 6789 6791 6794 6796 6799 6802 6805 6808 6811 6814 6816 6819 6821 6824 6827 6830 6833 6836 6839 6842 6844 6847 6850 6853 6856 6859 6861 6864 6867 6870 6872 6874 6876 6879 6881 6884 6887 6890 6892 6894 6897 6899 6902 6905 6908 6911 6914 6917 6920 6923 6926 6929 6932 6935 6938 6941 6943 6946 6949 6952 6954 6956 6959 6962 6965 6968 6971 6974 6977 6980 6982 6985 6988 6991 6993 6996 6999 7001 7004 7007 7010 7012 7014 7017 7020 7023 7026 7029 7032 7034 7037 7040 7043 7046 7048 7051 7054 7057 7059 7062 7065 7068 7071 7073 7076 7079 7082 7085 7088 7091 7094 7097 7100 7103 7106 7108 7111 7114 7116 7119 7122 7124 7127 7129 7132 7135 7138 7141 7144 7147 7150 7153 7156 7158 7161 7164 7167 7170 7173 7176 7179 7182 7185 7188 7190 7193 7196 7199 7202 7205 7208 7211 7214 7217 7220 7223 7226 7228 7231 7234 7237 7240 7243 7246 7249 7252 7255 7258 7261 7264 7267 7270 7273 7276 7279 7282 7285 7288 7291 7294 7297 7300 7303 7306 7309 7312 7315 7318 7320 7323 7326 7328 7331 7333 7336 7339 7342 7345 7348 7351 7353 7356 7359 7362 7365 7368 7370 7373 7376 7378 7381 7384 7387 7389 7392 7395 7398 7401 7404 7407 7410 7413 7416 7419 7422 7425 7428 7431 7434 7437 7439 7442 7445 7448 7450 7453 7455 7457 7460 7463 7466 7469 7471 7474 7477 7480 7483 7486 7488 7491 7494 7497 7500 7503 7506 7509 7512 7515 7518 7521 7523 7526 7529 7532 7535 7538 7541 7544 7547 7550 7553 7556 7558 7561 7564 7567 7570 7572 7575 7578 7581 7584 7587 7590 7593 7596 7599 7602 7605 7608 7611 7614 7617 7620 7623 7626 7629 7632 7635 7638 7640 7643 7646 7649 7652 7655 7658 7661 7664 7667 7670 7673 7676 7679 7682 7685 7688 7691 7694 7696 7699 7702 7705 7707 7710 7713 7716 7719 7722 7725 7728 7731 7734 7737 7740 7743 7746 7749 7751 7754 7756 7759 7761 7764 7767 7770 7773 7776 7779 7782 7784 7787 7790 7793 7795 7798 7801 7804 7807 7810 7813 7816 7819 7822 7825 7828 7831 7834 7837 7840 7843 7846 7848 7851 7854 7857 7859 7862 7865 7867 7869 7872 7875 7878 7881 7883 7886 7889 7892 7895 7898 7901 7904 7907 7910 7913 7916 7919 7921 7924 7927 7930 7933 7936 7939 7942 7945 7948 7951 7953 7956 7958 7961 7964 7967 7969 7972 7974 7977 7980 7983 7985 7988 7991 7993 7996 7999 8002 8005 8007 8010 8013 8016 8019 8021 8024 8027 8030 8032 8034 8037 8039 8042 8044 8047 8050 8052 8055 8058 8061 8064 8067 8070 8073 8076 8079 8082 8084 8086 8089 8092 8095 8098 8101 8103 8106 8108 8111 8114 8116 8119 8122 8125 8127 8130 8132 8134 8137 8139 8142 8145 8147 8149 8152 8155 8157 8160 8163 8165 8168 8171 8174 8177 8180 8183 8186 8189 8191 8194 8197 8200 8203 8206 8208 8211 8214 8217 8220 8223 8226 8229 8232 8234 8236 8239 8242 8245 8247 8249 8252 8254 8257 8260 8263 8265 8268 8270 8273 8276 8279 8282 8284 8287 8289 8291 8294 8297 8300 8303 8306 8309 8312 8315 8317 8320 8323 8326 8329 8332 8335 8338 8341 8344 8346 8349 8352 8355 8358 8361 8364 8367 8370 8372 8375 8377 8380 8383 8386 8389 8391 8394 8397 8400 8403 8406 8409 8411 8414 8417 8420 8423 8426 8428 8431 8433 8436 8439 8442 8445 8448 8451 8454 8457 8460 8463 8465 8468 8471 8474 8477 8480 8483 8485 8488 8491 8494 8497 8500 8503 8506 8509 8512 8515 8518 8520 8523 8526 8529 8532 8535 8537 8539 8542 8545 8547 8550 8553 8556 8558 8561 8563 8566 8569 8572 8575 8578 8581 8584 8587 8590 8593 8596 8598 8600 8603 8606 8609 8612 8614 8617 8620 8623 8626 8628 8631 8634 8636 8639 8642 8645 8648 8651 8654 8657 8660 8663 8666 8669 8672 8675 8678 8681 8684 8686 8689 8692 8695 8698 8701 8703 8706 8709 8711 8714 8717 8720 8722 8725 8728 8731 8733 8736 8739 8742 8745 8748 8751 8754 8757 8760 8763 8766 8769 8772 8774 8777 8780 8783 8786 8788 8791 8794 8797 8800 8803 8806 8809 8812 8815 8817 8820 8823 8826 8828 8831 8834 8837 8840 8843 8845 8848 8851 8854 8857 8860 8863 8866 8869 8872 8875 8878 8881 8884 8887 8890 8893 8896 8899 8902 8905 8908 8911 8914 8917 8919 8922 8925 8928 8931 8934 8937 8940 8942 8945 8948 8951 8954 8957 8959 8962 8965 8968 8971 8974 8977 8980 8983 8986 8988 8991 8994 8996 8999 9002 9005 9008 9011 9014 9017 9020 9023 9026 9029 9031 9034 9037 9040 9043 9046 9049 9052 9055 9058 9060 9063 9066 9069 9072 9075 9078 9081 9083 9086 9089 9092 9095 9098 9101 9104 9107 9110 9113 9116 9119 9122 9125 9127 9130 9133 9136 9139 9142 9145 9148 9151 9154 9157 9159 9162 9165 9168 9171 9174 9177 9180 9183 9186 9189 9192 9195 9198 9201 9204 9207 9210 9213 9216 9219 9222 9225 9228 9230 9233 9236 9239 9242 9245 9248 9251 9254 9257 9260 9263 9266 9269 9272 9275 9278 9280 9283 9285 9288 9291 9294 9297 9299 9302 9305 9308 9311 9314 9317 9320 9323 9326 9329 9332 9335 9338 9341 9344 9347 9350 9353 9356 9359 9362 9365 9368 9371 9374 9377 9380 9383 9386 9389 9392 9395 9398 9400 9403 9406 9409 9412 9415 9418 9421 9424 9427 9430 9432 9435 9438 9441 9444 9447 9450 9453 9456 9459 9461 9464 9467 9470 9473 9476 9478 9481 9484 9487 9490 9492 9495 9498 9501 9504 9507 9510 9513 9516 9519 9521 9524 9527 9530 9533 9536 9539 9542 9545 9547 9550 9553 9556 9559 9562 9565 9568 9571 9574 9577 9580 9583 9586 9589 9592 9595 9598 9601 9604 9606 9609 9612 9614 9617 9620 9622 9625 9628 9631 9634 9637 9640 9643 9645 9648 9651 9654 9656 9659 9662 9665 9668 9671 9674 9677 9680 9683 9686 9688 9691 9694 9697 9700 9703 9705 9708 9710 9713 9716 9719 9722 9725 9728 9731 9733 9736 9738 9741 9744 9747 9750 9753 9756 9759 9762 9765 9768 9771 9774 9777 9779 9782 9785 9788 9791 9794 9797 9799 9802 9805 9807 9810 9813 9815 9818 9821 9824 9827 9830 9833 9836 9839 9842 9845 9848 9851 9854 9856 9859 9862 9865 9868 9871 9874 9877 9880 9883 9886 9888 9891 9893 9896 9899 9902 9905 9908 9911 9914 9917 9920 9923 9926 9929 9932 9934 9937 9939 9942 9945 9947 9950 9953 9956 9959 9962 9965 9967 9969 9972 9975 9978 9980 9983 9986 9989 9992 9995 9998 10001 10003 10006 10009 10012 10015 10018 10021 10024 10027 10030 10033 10036 10039 10042 10045 10048 10051 10054 10057 10060 10063 10066 10069 10072 10075 10078 10080 10083 10086 10089 10091 10094 10097 10100 10103 10106 10109 10112 10115 10118 10121 10124 10127 10130 10133 10136 10139 10142 10144 10147 10150 10153 10156 10159 10162 10165 10168 10171 10173 10176 10179 10182 10185 10188 10191 10194 10197 10200 10203 10206 10209 10211 10214 10217 10220 10223 10226 10229 10232 10235 10238 10241 10244 10246 10249 10252 10255 10258 10261 10264 10267 10270 10273 10276 10279 10282 10285 10288 10291 10293 10296 10299 10302 10305 10308 10311 10314 10316 10319 10322 10325 10328 10331 10334 10337 10340 10343 10346 10349 10352 10355 10358 10361 10364 10367 10370 10373 10376 10378 10381 10384 10387 10390 10393 10396 10398 10401 10404 10407 10410 10413 10416 10419 10422 10425 10428 10431 10434 10436 10439 10442 10445 10448 10451 10454 10457 10459 10462 10464 10466 10469 10472 10475 10478 10481 10484 10487 10490 10493 10496 10499 10502 10505 10508 10511 10514 10516 10519 10522 10525 10528 10531 10534 10537 10540 10543 10546 10548 10551 10554 10556 10559 10562 10565 10568 10571 10574 10577 10580 10583 10586 10589 10592 10595 10598 10601 10604 10607 10610 10612 10615 10618 10621 10624 10627 10630 10633 10636 10639 10642 10645 10648 10651 10654 10657 10660 10663 10666 10669 10672 10675 10678 10681 10683 10686 10689 10692 10695 10698 10701 10703 10706 10709 10711 10714 10717 10720 10723 10726 10729 10731 10734 10736 10738 10741 10743 10746 10749 10752 10755 10757 10759 10762 10764 10766 10769 10772 10774 10776 10778 10781 10784 10786 10789 10792 10795 10798 10801 10804 10807 10810 10813 10816 10819 10822 10825 10828 10830 10833 10836 10839 10841 10844 10847 10850 10852 10854 10857 10859 10862 10865 10868 10871 10874 10877 10879 10882 10885 10887 10890 10893 10896 10899 10901 10903 10906 10909 10912 10915 10918 10921 10924 10927 10930 10933 10936 10939 10942 10945 10948 10951 10954 10957 10960 10963 10966 10969 10971 10974 10977 10979 10982 10985 10988 10991 10994 10997 11000 11002 11005 11008 11011 11014 11016 11019 11022 11025 11028 11031 11033 11036 11038 11041 11044 11047 11050 11053 11055 11058 11061 11063 11066 11068 11071 11074 11077 11080 11083 11086 11088 11091 11093 11096 11099 11102 11105 11108 11111 11114 11117 11120 11123 11126 11129 11132 11134 11137 11139 11142 11145 11148 11151 11154 11157 11160 11163 11166 11169 11172 11175 11178 11181 11183 11185 11188 11191 11194 11197 11200 11203 11206 11208 11211 11214 11217 11220 11222 11225 11228 11231 11233 11236 11238 11241 11244 11247 11250 11253 11256 11258 11261 11263 11266 11268 11271 11273 11276 11278 11280 11282 11285 11288 11290 11293 11296 11299 11302 11305 11308 11310 11313 11316 11319 11321 11324 11327 11330 11332 11335 11338 11341 11344 11347 11350 11352 11355 11358 11360 11363 11366 11369 11372 11375 11377 11380 11382 11385 11388 11390 11393 11396 11399 11402 11405 11408 11411 11414 11417 11420 11423 11426 11429 11432 11435 11438 11440 11443 11446 11449 11452 11455 11458 11461 11464 11467 11470 11473 11476 11479 11482 11485 11488 11491 11494 11497 11500 11503 11506 11509 11512 11515 11518 11521 11524 11527 11530 11533 11536 11539 11542 11545 11548 11551 11554 11557 11559 11562 11565 11568 11571 11574 11577 11580 11583 11585 11587 11589 11591 11593 11596 11598 11601 11604 11607 11609 11612 11615 11618 11621 11623 11626 11628 11631 11634 11636 11639 11641 11644 11646 11649 11652 11655 11657 11660 11663 11666 11669 11671 11674 11677 11680 11682 11685 11688 11691 11694 11697 11700 11703 11706 11709 11711 11714 11717 11720 11723 11726 11728 11731 11734 11737 11740 11743 11745 11748 11751 11754 11757 11760 11763 11766 11769 11772 11775 11778 11781 11784 11787 11790 11793 11795 11798 11801 11804 11807 11810 11813 11816 11818 11820 11823 11826 11828 11831 11834 11837 11839 11841 11844 11847 11849 11852 11855 11857 11860 11863 11866 11869 11872 11875 11878 11881 11884 11887 11890 11893 11896 11899 11901 11903 11905 11908 11911 11914 11916 11919 11921 11924 11927 11930 11933 11936 11939 11941 11944 11947 11950 11952 11955 11958 11961 11963 11965 11968 11971 11973 11976 11979 11981 11984 11987 11989 11991 11994 11997 11999 12002 12005 12008 12011 12013 12015 12018 12020 12023 12025 12028 12031 12034 12037 12040 12043 12046 12049 12052 12055 12058 12061 12064 12067 12070 12073 12076 12079 12082 12085 12088 12091 12094 12097 12099 12102 12105 12108 12111 12114 12117 12120 12123 12126 12129 12132 12135 12138 12141 12144 12147 12150 12153 12156 12159 12162 12164 12167 12170 12173 12176 12179 12182 12185 12188 12190 12193 12196 12199 12202 12205 12208 12211 12214 12217 12220 12223 12226 12228 12231 12234 12237 12239 12242 12245 12248 12251 12253 12256 12259 12262 12264 12267 12270 12273 12276 12279 12282 12285 12288 12291 12294 12297 12300 12302 12305 12308 12311 12314 12317 12320 12323 12326 12329 12332 12334 12337 12340 12343 12346 12349 12352 12355 12358 12361 12364 12367 12369 12372 12375 12378 12380 12383 12386 12388 12391 12394 12397 12400 12403 12406 12409 12412 12415 12418 12421 12424 12427 12430 12432 12435 12437 12440 12443 12446 12449 12452 12455 12458 12461 12464 12467 12470 12473 12476 12479 12482 12485 12488 12491 12494 12497 12500 12502 12505 12508 12510 12513 12516 12519 12522 12525 12528 12531 12534 12537 12540 12543 12546 12549 12552 12555 12558 12561 12564 12567 12570 12573 12576 12578 12581 12584 12587 12590 12593 12596 12599 12602 12605 12608 12611 12613 12616 12619 12622 12625 12628 12631 12633 12636 12639 12641 12644 12647 12650 12652 12655 12657 12660 12663 12666 12669 12672 12674 12676 12679 12681 12684 12686 12689 12692 12694 12696 12699 12701 12704 12707 12710 12713 12716 12719 12722 12724 12727 12730 12732 12735 12738 12740 12742 12745 12748 12751 12754 12757 12759 12762 12765 12767 12769 12772 12775 12778 12781 12784 12787 12789 12792 12795 12798 12801 12804 12806 12809 12812 12815 12818 12821 12823 12826 12829 12831 12834 12837 12840 12843 12845 12848 12851 12854 12857 12860 12863 12866 12869 12872 12875 12878 12881 12884 12887 12890 12893 12896 12899 12901 12904 12907 12909 12912 12915 12918 12921 12924 12927 12930 12933 12936 12939 12942 12944 12947 12950 12953 12956 12959 12962 12965 12967 12970 12972 12975 12978 12981 12984 12986 12989 12992 12995 12998 13001 13004 13007 13010 13013 13016 13019 13022 13025 13027 13030 13033 13036 13039 13042 13045 13047 13050 13053 13056 13059 13062 13065 13068 13071 13074 13077 13080 13083 13086 13089 13092 13095 13098 13101 13104 13107 13110 13113 13115 13118 13121 13124 13127 13130 13133 13135 13138 13141 13144 13147 13150 13153 13155 13158 13161 13164 13167 13169 13172 13175 13178 13180 13183 13186 13188 13191 13194 13197 13200 13202 13205 13208 13211 13214 13217 13219 13222 13224 13227 13230 13233 13235 13237 13239 13242 13245 13248 13251 13254 13257 13260 13263 13266 13269 13272 13275 13278 13281 13284 13287 13290 13293 13296 13299 13302 13305 13308 13311 13314 13317 13320 13323 13326 13329 13332 13335 13338 13341 13344 13347 13350 13353 13356 13359 13362 13365 13368 13371 13374 13377 13380 13383 13386 13389 13392 13395 13398 13401 13404 13407 13410 13413 13416 13419 13422 13425 13428 13431 13434 13437 13440 13443 13446 13449 13452 13455 13458 13461 13463 13466 13469 13472 13475 13478 13481 13484 13487 13490 13493 13496 13499 13502 13505 13508 13511 13514 13517 13520 13523 13525 13528 13531 13534 13537 13540 13543 13546 13549 13552 13554 13557 13560 13562 13565 13568 13571 13574 13577 13580 13583 13585 13588 13591 13594 13597 13600 13603 13606 13609 13612 13614 13617 13620 13623 13626 13629 13632 13635 13638 13641 13644 13647 13650 13653 13655 13658 13661 13664 13666 13669 13672 13675 13678 13681 13684 13687 13690 13693 13696 13698 13701 13704 13707 13710 13713 13716 13719 13722 13725 13728 13731 13733 13736 13739 13742 13745 13747 13750 13753 13756 13759 13762 13764 13767 13770 13773 13775 13778 13781 13784 13787 13790 13793 13796 13799 13802 13805 13808 13811 13814 13817 13820 13823 13826 13829 13832 13835 13838 13840 13843 13846 13849 13851 13854 13857 13859 13862 13865 13868 13870 13873 13876 13879 13882 13885 13888 13891 13894 13897 13900 13902 13905 13907 13910 13913 13915 13918 13921 13924 13926 13929 13932 13935 13937 13939 13942 13945 13947 13950 13953 13956 13959 13962 13965 13968 13971 13974 13977 13980 13983 13986 13989 13992 13995 13998 14001 14004 14007 14009 14011 14014 14017 14020 14023 14026 14029 14032 14035 14038 14041 14044 14047 14050 14053 14056 14058 14061 14064 14067 14070 14073 14075 14078 14081 14084 14087 14090 14092 14095 14098 14101 14104 14107 14110 14113 14115 14118 14121 14124 14126 14129 14132 14135 14138 14141 14144 14147 14149 14152 14155 14158 14161 14164 14167 14170 14173 14176 14179 14182 14185 14188 14191 14194 14197 14200 14203 14206 14209 14212 14215 14218 14221 14224 14227 14230 14233 14235 14238 14241 14243 14245 14248 14251 14254 14257 14260 14263 14266 14269 14271 14274 14277 14280 14283 14286 14289 14292 14295 14298 14301 14304 14307 14310 14312 14315 14318 14320 14323 14326 14329 14332 14335 14338 14341 14344 14347 14350 14353 14356 14359 14362 14365 14368 14371 14374 14377 14380 14383 14386 14388 14391 14394 14397 14400 14403 14406 14408 14411 14414 14417 14420 14423 14426 14429 14432 14435 14438 14441 14444 14447 14450 14453 14456 14459 14462 14465 14468 14471 14474 14477 14480 14483 14486 14489 14492 14495 14498 14500 14503 14506 14508 14511 14514 14517 14520 14523 14526 14529 14531 14534 14537 14540 14543 14546 14549 14551 14554 14556 14559 14562 14565 14568 14571 14574 14577 14580 14582 14585 14588 14591 14593 14596 14599 14602 14605 14607 14610 14613 14616 14619 14622 14625 14627 14629 14631 14634 14637 14640 14643 14646 14649 14651 14654 14657 14660 14663 14666 14669 14672 14675 14678 14681 14684 14687 14690 14693 14696 14699 14702 14705 14708 14711 14714 14717 14720 14723 14726 14729 14732 14735 14738 14741 14744 14747 14750 14753 14756 14759 14762 14765 14768 14771 14774 14777 14780 14783 14786 14789 14792 14795 14798 14801 14804 14807 14810 14813 14816 14819 14822 14825 14828 14831 14834 14837 14840 14843 14846 14849 14852 14855 14858 14861 14864 14867 14870 14873 14876 14879 14882 14885 14888 14891 14894 14897 14900 14903 14906 14909 14912 14915 14918 14921 14924 14927 14930 14933 14936 14939 14942 14945 14948 14951 14954 14957 14960 14963 14966 14969 14972 14975 14978 14981 14984 14987 14990 14993 14996 14999 15002 15005 15008 15011 15014 15017 15020 15023 15026 15029 15031 15034 15037 15040 15042 15045 15048 15050 15052 15055 15058 15061 15064 15067 15070 15073 15075 15078 15081 15084 15087 15089 15092 15094 15097 15100 15103 15106 15109 15112 15115 15117 15120 15123 15126 15128 15131 15134 15137 15140 15142 15145 15148 15150 15153 15155 15158 15160 15163 15165 15168 15171 15174 15177 15180 15183 15186 15189 15192 15195 15198 15201 15204 15207 15210 15213 15216 15219 15222 15225 15228 15231 15234 15237 15239 15241 15244 15247 15249 15252 15255 15257 15260 15263 15266 15269 15272 15275 15278 15280 15282 15285 15288 15291 15294 15297 15300 15303 15306 15309 15312 15315 15318 15321 15324 15327 15329 15332 15334 15337 15340 15343 15346 15349 15352 15355 15357 15359 15362 15365 15368 15371 15374 15377 15380 15383 15386 15389 15392 15394 15397 15399 15402 15405 15408 15410 15412 15415 15418 15420 15423 15426 15429 15432 15435 15438 15441 15444 15447 15450 15453 15456 15459 15462 15465 15468 15471 15474 15477 15480 15483 15486 15488 15491 15494 15496 15499 15502 15505 15508 15511 15514 15517 15519 15522 15525 15528 15530 15533 15536 15539 15542 15545 15547 15550 15552 15555 15558 15561 15564 15567 15570 15573 15576 15579 15582 15584 15587 15589 15592 15595 15598 15601 15604 15607 15610 15612 15615 15618 15620 15623 15626 15629 15632 15635 15638 15641 15643 15646 15648 15651 15654 15656 15659 15661 15664 15667 15670 15673 15675 15678 15680 15683 15686 15689 15692 15695 15698 15700 15703 15705 15708 15710 15713 15716 15718 15721 15724 15727 15730 15733 15735 15738 15740 15743 15746 15749 15752 15754 15757 15759 15762 15765 15768 15771 15773 15776 15779 15782 15785 15788 15791 15794 15797 15800 15803 15806 15809 15812 15815 15818 15821 15824 15827 15830 15833 15836 15839 15841 15844 15847 15850 15853 15856 15859 15862 15865 15868 15871 15873 15876 15878 15881 15884 15887 15889 15892 15895 15898 15901 15904 15907 15910 15913 15916 15919 15921 15924 15926 15928 15931 15934 15937 15939 15942 15945 15947 15950 15953 15956 15959 15961 15963 15965 15968 15971 15974 15976 15979 15982 15985 15988 15991 15994 15997 16000 16003 16006 16009 16012 16015 16018 16021 16024 16026 16029 16032 16035 16038 16041 16044 16047 16049 16052 16055 16058 16061 16064 16067 16070 16073 16076 16079 16082 16085 16088 16090 16093 16096 16099 16102 16105 16107 16110 16113 16116 16119 16121 16124 16127 16130 16133 16136 16139 16142 16145 16148 16151 16154 16157 16160 16163 16166 16169 16172 16175 16178 16181 16184 16187 16190 16193 16196 16199 16202 16205 16208 16211 16214 16217 16220 16223 16226 16229 16232 16235 16238 16241 16244 16247 16250 16253 16256 16259 16262 16265 16268 16271 16274 16277 16280 16283 16286 16289 16292 16295 16298 16300 16303 16305 16307 16310 16313 16315 16318 16320 16323 16326 16329 16332 16335 16338 16340 16343 16346 16349 16352 16355 16358 16361 16364 16367 16370 16373 16376 16379 16382 16385 16388 16391 16394 16397 16400 16403 16405 16408 16411 16414 16417 16420 16423 16425 16428 16431 16434 16437 16440 16443 16446 16449 16452 16455 16458 16460 16463 16466 16469 16472 16475 16478 16481 16484 16487 16490 16493 16496 16499 16502 16505 16508 16511 16514 16517 16520 16523 16526 16529 16532 16535 16538 16541 16544 16547 16550 16553 16556 16559 16562 16564 16566 16569 16571 16574 16576 16579 16582 16585 16588 16591 16594 16597 16600 16602 16605 16608 16610 16613 16616 16618 16621 16624 16627 16630 16633 16636 16639 16642 16645 16648 16651 16654 16657 16659 16662 16664 16667 16670 16673 16675 16678 16680 16682 16684 16687 16690 16693 16695 16697 16700 16703 16706 16709 16712 16715 16718 16720 16723 16726 16729 16732 16734 16736 16739 16741 16744 16746 16749 16752 16755 16758 16761 16763 16765 16767 16770 16773 16776 16778 16781 16783 16785 16788 16790 16792 16795 16798 16801 16804 16807 16809 16812 16815 16817 16820 16823 16825 16827 16830 16833 16836 16839 16842 16844 16847 16850 16853 16856 16859 16861 16864 16867 16870 16873 16875 16878 16881 16884 16887 16889 16892 16895 16898 16901 16904 16906 16909 16912 16915 16917 16920 16923 16926 16929 16931 16934 16937 16939 16942 16944 16947 16949 16952 16954 16957 16960 16963 16966 16969 16972 16974 16977 16980 16983 16986 16989 16992 16995 16998 17000 17003 17006 17009 17011 17013 17016 17019 17022 17025 17028 17030 17033 17036 17039 17042 17045 17048 17050 17053 17056 17059 17062 17065 17068 17071 17074 17077 17080 17083 17086 17089 17092 17095 17098 17101 17104 17107 17110 17112 17115 17118 17121 17124 17127 17130 17133 17136 17139 17142 17145 17148 17151 17154 17157 17160 17163 17166 17169 17172 17175 17177 17180 17183 17186 17188 17191 17194 17197 17199 17202 17205 17208 17211 17214 17217 17220 17223 17225 17228 17231 17234 17237 17240 17243 17245 17248 17250 17253 17256 17258 17261 17264 17267 17269 17272 17275 17278 17280 17283 17286 17289 17292 17295 17297 17300 17303 17306 17308 17311 17314 17317 17320 17323 17326 17329 17332 17335 17338 17341 17344 17346 17349 17352 17355 17358 17360 17363 17366 17369 17372 17375 17378 17381 17384 17387 17390 17393 17395 17398 17401 17403 17406 17409 17412 17414 17417 17419 17422 17425 17428 17431 17434 17437 17440 17442 17445 17448 17451 17454 17457 17460 17463 17466 17469 17472 17475 17478 17481 17484 17487 17490 17493 17496 17499 17502 17505 17507 17510 17513 17516 17519 17521 17524 17527 17530 17532 17535 17538 17541 17544 17547 17550 17552 17555 17558 17561 17563 17566 17569 17572 17575 17578 17581 17584 17587 17590 17593 17596 17599 17601 17604 17607 17609 17611 17614 17617 17620 17622 17625 17628 17630 17633 17636 17639 17642 17644 17647 17650 17653 17656 17659 17661 17663 17666 17669 17672 17674 17677 17680 17683 17686 17689 17691 17694 17697 17700 17703 17706 17709 17712 17715 17718 17721 17724 17727 17730 17733 17736 17739 17742 17745 17748 17751 17754 17757 17760 17763 17766 17769 17772 17775 17778 17781 17784 17786 17789 17792 17795 17798 17801 17804 17807 17810 17813 17816 17819 17821 17824 17827 17830 17833 17836 17839 17842 17844 17847 17850 17853 17856 17859 17862 17864 17867 17870 17873 17876 17878 17881 17884 17887 17889 17892 17895 17898 17900 17903 17906 17909 17911 17914 17916 17919 17922 17925 17927 17929 17932 17934 17936 17939 17941 17944 17946 17949 17952 17955 17957 17960 17963 17966 17969 17972 17975 17978 17981 17984 17987 17989 17991 17994 17997 18000 18003 18006 18009 18011 18014 18016 18019 18022 18025 18027 18029 18032 18035 18038 18041 18044 18047 18049 18051 18053 18056 18059 18062 18065 18068 18071 18074 18077 18080 18083 18086 18089 18092 18095 18098 18101 18104 18107 18110 18113 18116 18118 18121 18124 18127 18130 18133 18136 18138 18140 18143 18146 18149 18152 18155 18158 18161 18164 18167 18170 18173 18176 18179 18182 18185 18188 18191 18194 18197 18199 18201 18204 18207 18210 18213 18215 18217 18220 18222 18224 18227 18230 18232 18235 18238 18240 18242 18244 18247 18250 18253 18256 18259 18262 18265 18268 18271 18273 18276 18279 18282 18285 18287 18290 18293 18295 18298 18301 18304 18307 18310 18312 18315 18318 18321 18323 18326 18329 18332 18335 18338 18341 18344 18347 18350 18353 18356 18359 18362 18364 18367 18370 18373 18376 18378 18381 18384 18387 18389 18392 18395 18398 18401 18404 18407 18410 18413 18416 18419 18422 18425 18427 18430 18432 18435 18438 18440 18443 18445 18448 18451 18454 18457 18460 18462 18465 18468 18471 18474 18477 18480 18483 18486 18489 18492 18495 18498 18501 18504 18507 18510 18513 18516 18519 18522 18525 18528 18531 18534 18537 18540 18543 18545 18548 18551 18554 18556 18559 18562 18565 18568 18571 18574 18577 18580 18582 18585 18588 18590 18593 18596 18599 18601 18604 18607 18610 18613 18616 18619 18622 18625 18628 18631 18634 18637 18640 18643 18646 18649 18652 18655 18658 18661 18664 18666 18669 18672 18674 18676 18679 18681 18684 18687 18689 18692 18695 18697 18700 18703 18706 18709 18712 18715 18718 18720 18723 18726 18729 18732 18735 18738 18741 18744 18747 18750 18752 18754 18757 18760 18763 18766 18769 18772 18775 18778 18781 18784 18787 18790 18793 18796 18799 18802 18805 18808 18811 18814 18817 18820 18823 18826 18829 18831 18834 18837 18840 18843 18846 18849 18852 18855 18858 18861 18863 18866 18869 18872 18875 18878 18881 18884 18887 18890 18893 18896 18899 18902 18905 18907 18909 18912 18915 18918 18921 18924 18927 18930 18933 18936 18939 18942 18945 18948 18951 18954 18957 18960 18963 18966 18969 18972 18975 18977 18979 18982 18985 18987 18989 18992 18995 18998 19001 19004 19007 19010 19013 19016 19019 19022 19024 19027 19030 19033 19036 19039 19042 19045 19048 19051 19053 19056 19059 19062 19065 19068 19071 19073 19076 19078 19081 19084 19087 19090 19092 19095 19097 19099 19102 19104 19106 19109 19112 19115 19118 19121 19124 19127 19130 19133 19136 19139 19142 19145 19148 19151 19154 19157 19159 19162 19165 19167 19170 19172 19175 19178 19181 19184 19187 19189 19192 19194 19197 19199 19202 19205 19207 19210 19212 19215 19218 19221 19224 19227 19230 19233 19236 19239 19241 19244 19247 19250 19253 19256 19259 19262 19265 19268 19271 19274 19277 19280 19283 19286 19289 19292 19295 19298 19301 19304 19306 19309 19312 19315 19318 19321 19324 19327 19330 19332 19335 19338 19341 19344 19347 19350 19353 19356 19358 19361 19364 19367 19370 19373 19376 19379 19382 19385 19388 19391 19393 19396 19399 19402 19405 19408 19410 19413 19416 19419 19422 19425 19428 19431 19433 19435 19438 19441 19444 19447 19450 19453 19456 19459 19462 19464 19467 19470 19473 19476 19479 19482 19485 19488 19491 19494 19496 19499 19502 19505 19508 19511 19514 19517 19520 19523 19526 19529 19531 19534 19537 19540 19543 19545 19548 19550 19552 19555 19558 19561 19564 19567 19570 19572 19575 19578 19581 19584 19586 19589 19592 19595 19598 19601 19604 19607 19610 19613 19615 19618 19620 19623 19626 19629 19632 19635 19638 19640 19643 19646 19648 19650 19653 19656 19658 19661 19663 19666 19668 19671 19674 19677 19680 19683 19685 19688 19691 19693 19696 19699 19702 19705 19708 19711 19713 19716 19719 19722 19724 19727 19729 19732 19735 19737 19740 19743 19746 19749 19752 19754 19757 19760 19763 19766 19769 19772 19775 19778 19781 19784 19787 19789 19791 19794 19797 19800 19803 19806 19809 19811 19814 19817 19820 19823 19826 19829 19832 19835 19838 19841 19844 19847 19850 19853 19856 19858 19861 19864 19866 19869 19872 19875 19878 19881 19884 19887 19890 19893 19896 19899 19902 19905 19908 19911 19914 19917 19920 19923 19926 19929 19932 19935 19938 19941 19944 19947 19950 19953 19956 19959 19962 19965 19968 19971 19974 19977 19980 19983 19986 19989 19992 19994 19997 20000 20003 20006 20009 20012 20015 20018 20021 20024 20027 20030 20033 20036 20039 20042 20045 20048 20051 20054 20057 20060 20063 20066 20068 20071 20074 20077 20080 20082 20085 20088 20091 20093 20096 20099 20102 20105 20108 20111 20114 20117 20120 20123 20126 20129 20132 20135 20138 20141 20144 20147 20150 20153 20156 20159 20162 20165 20168 20171 20174 20177 20180 20183 20186 20189 20192 20195 20198 20200 20203 20206 20209 20212 20215 20218 20221 20224 20226 20229 20232 20235 20238 20240 20243 20246 20249 20252 20255 20258 20261 20264 20267 20270 20273 20276 20279 20282 20285 20288 20291 20294 20297 20300 20303 20305 20308 20311 20314 20317 20319 20322 20325 20328 20331 20334 20337 20340 20343 20346 20349 20352 20355 20358 20361 20364 20366 20369 20371 20374 20377 20380 20383 20386 20389 20392 20395 20397 20400 20403 20406 20409 20412 20414 20417 20420 20423 20426 20429 20432 20435 20438 20441 20444 20447 20450 20453 20455 20458 20461 20463 20466 20469 20472 20474 20477 20480 20483 20486 20489 20492 20495 20497 20500 20503 20506 20509 20512 20515 20518 20521 20524 20527 20530 20533 20536 20539 20542 20545 20548 20551 20554 20557 20560 20563 20566 20569 20572 20575 20577 20580 20583 20586 20588 20591 20594 20597 20600 20603 20606 20609 20612 20615 20618 20621 20624 20627 20630 20633 20636 20639 20642 20645 20648 20651 20654 20657 20660 20663 20666 20669 20672 20675 20678 20681 20684 20687 20689 20692 20695 20698 20701 20704 20707 20710 20713 20716 20719 20722 20725 20728 20730 20733 20736 20739 20742 20745 20748 20751 20754 20757 20760 20762 20765 20768 20771 20774 20776 20779 20782 20785 20788 20791 20793 20796 20799 20802 20805 20808 20811 20814 20817 20820 20823 20826 20829 20832 20835 20838 20841 20844 20846 20849 20852 20855 20858 20861 20864 20867 20870 20873 20876 20879 20882 20885 20888 20891 20894 20897 20900 20903 20905 20908 20911 20914 20917 20920 20923 20926 20929 20931 20934 20937 20940 20943 20946 20948 20951 20954 20957 20960 20963 20966 20968 20971 20974 20977 20980 20983 20986 20989 20992 20995 20998 21001 21004 21007 21010 21013 21015 21017 21020 21023 21026 21029 21031 21034 21037 21040 21043 21045 21048 21051 21054 21057 21060 21063 21066 21069 21072 21075 21077 21080 21083 21085 21088 21090 21092 21095 21098 21101 21104 21106 21108 21111 21114 21117 21120 21123 21126 21129 21131 21134 21137 21140 21143 21145 21148 21151 21153 21156 21158 21160 21163 21166 21169 21171 21174 21177 21180 21182 21185 21188 21191 21194 21197 21200 21203 21206 21209 21212 21215 21218 21221 21223 21226 21228 21230 21233 21236 21239 21241 21244 21246 21249 21252 21254 21256 21259 21262 21265 21267 21269 21272 21275 21278 21281 21284 21287 21289 21292 21294 21297 21300 21303 21305 21308 21310 21313 21316 21319 21321 21324 21326 21329 21332 21335 21337 21340 21343 21345 21348 21351 21354 21356 21359 21362 21364 21367 21370 21373 21376 21379 21382 21385 21387 21389 21392 21395 21398 21401 21403 21406 21409 21412 21415 21418 21420 21423 21425 21428 21431 21434 21436 21438 21441 21444 21447 21450 21453 21456 21459 21462 21465 21467 21470 21473 21476 21479 21482 21484 21487 21490 21493 21496 21498 21501 21504 21507 21509 21512 21515 21518 21521 21523 21526 21529 21532 21535 21537 21540 21543 21546 21549 21552 21555 21558 21561 21564 21567 21570 21573 21576 21579 21582 21585 21588 21591 21594 21597 21599 21602 21605 21607 21610 21613 21615 21618 21620 21623 21626 21628 21630 21633 21636 21639 21642 21645 21648 21651 21654 21657 21659 21662 21665 21668 21671 21674 21677 21680 21683 21686 21689 21692 21695 21698 21701 21704 21707 21710 21713 21716 21719 21721 21724 21727 21730 21733 21736 21739 21742 21745 21748 21751 21754 21757 21760 21763 21766 21769 21771 21774 21777 21780 21783 21786 21789 21792 21795 21798 21800 21803 21806 21809 21812 21815 21818 21821 21824 21827 21830 21833 21836 21839 21842 21845 21848 21851 21853 21856 21859 21861 21864 21866 21869 21872 21875 21878 21881 21884 21887 21890 21893 21895 21898 21901 21904 21907 21910 21913 21916 21919 21921 21924 21927 21930 21933 21936 21939 21942 21945 21948 21951 21954 21957 21960 21963 21966 21969 21972 21975 21977 21980 21982 21985 21988 21991 21994 21996 21999 22002 22005 22008 22010 22013 22016 22019 22022 22025 22028 22031 22034 22037 22040 22043 22046 22049 22052 22055 22058 22060 22063 22066 22068 22070 22073 22076 22079 22082 22085 22088 22091 22093 22095 22098 22101 22104 22107 22109 22112 22115 22118 22121 22124 22127 22130 22133 22136 22139 22141 22144 22147 22150 22153 22156 22159 22162 22165 22167 22170 22173 22176 22179 22182 22185 22188 22191 22194 22196 22199 22202 22204 22207 22210 22212 22215 22218 22221 22224 22227 22230 22232 22235 22237 22240 22243 22246 22249 22251 22254 22257 22260 22262 22265 22268 22271 22274 22277 22279 22282 22285 22288 22291 22294 22297 22300 22303 22306 22308 22311 22314 22316 22319 22322 22325 22328 22331 22334 22337 22340 22343 22346 22349 22352 22355 22358 22361 22364 22367 22370 22373 22376 22378 22381 22384 22387 22390 22393 22396 22399 22402 22405 22408 22411 22413 22416 22419 22422 22425 22428 22431 22434 22437 22440 22442 22445 22448 22451 22454 22457 22460 22463 22466 22469 22472 22475 22478 22481 22484 22487 22490 22493 22496 22498 22501 22504 22507 22509 22511 22514 22517 22520 22523 22525 22527 22530 22533 22535 22538 22541 22544 22547 22550 22553 22555 22558 22561 22564 22567 22570 22573 22576 22579 22582 22585 22588 22591 22594 22597 22600 22603 22606 22609 22612 22615 22617 22620 22623 22626 22629 22632 22635 22638 22641 22644 22647 22649 22652 22654 22657 22660 22663 22666 22669 22672 22674 22677 22680 22683 22686 22689 22691 22694 22697 22700 22702 22705 22708 22711 22714 22716 22719 22722 22725 22727 22730 22733 22736 22739 22742 22745 22748 22751 22754 22757 22760 22763 22765 22768 22771 22774 22777 22780 22783 22785 22787 22790 22793 22796 22799 22802 22805 22808 22810 22813 22815 22818 22821 22823 22826 22829 22832 22835 22838 22841 22844 22847 22850 22853 22856 22859 22862 22865 22868 22871 22874 22877 22880 22882 22885 22888 22891 22894 22897 22900 22902 22905 22908 22911 22914 22917 22920 22923 22926 22929 22932 22935 22937 22940 22943 22946 22949 22951 22954 22957 22960 22962 22965 22968 22971 22974 22976 22979 22982 22984 22986 22989 22992 22995 22998 23001 23003 23006 23009 23012 23015 23018 23020 23022 23024 23027 23030 23033 23036 23039 23041 23043 23046 23048 23050 23053 23055 23058 23061 23064 23067 23070 23073 23076 23079 23082 23085 23088 23090 23093 23096 23099 23102 23104 23107 23110 23113 23115 23118 23120 23123 23125 23127 23130 23133 23136 23138 23141 23143 23145 23147 23150 23153 23156 23158 23161 23163 23166 23168 23171 23174 23177 23179 23182 23185 23188 23191 23194 23197 23200 23203 23206 23209 23212 23215 23218 23221 23224 23227 23230 23233 23236 23239 23242 23245 23248 23251 23254 23257 23260 23263 23265 23268 23271 23274 23277 23280 23283 23285 23288 23291 23294 23297 23300 23303 23306 23309 23312 23315 23318 23321 23324 23327 23330 23333 23336 23339 23342 23345 23348 23351 23354 23357 23360 23363 23366 23369 23372 23375 23378 23381 23384 23387 23390 23393 23396 23399 23402 23405 23408 23411 23414 23417 23420 23423 23426 23429 23432 23435 23437 23440 23443 23446 23449 23452 23455 23458 23461 23464 23467 23470 23473 23476 23479 23482 23485 23488 23491 23494 23497 23500 23503 23506 23509 23511 23513 23516 23519 23522 23525 23528 23531 23534 23537 23540 23543 23546 23549 23552 23555 23558 23561 23564 23567 23570 23573 23576 23579 23582 23584 23587 23590 23593 23596 23599 23602 23605 23608 23611 23614 23617 23620 23623 23626 23629 23632 23634 23636 23639 23642 23645 23648 23651 23653 23655 23657 23660 23663 23666 23668 23670 23673 23676 23679 23682 23685 23688 23691 23694 23697 23700 23703 23706 23709 23712 23715 23718 23720 23723 23725 23728 23731 23733 23736 23739 23742 23745 23748 23751 23754 23757 23760 23763 23766 23769 23772 23775 23778 23781 23784 23787 23790 23793 23796 23799 23802 23805 23808 23811 23814 23817 23820 23823 23826 23829 23832 23835 23838 23840 23843 23846 23849 23852 23855 23858 23861 23864 23867 23870 23873 23876 23879 23882 23885 23887 23890 23893 23896 23899 23902 23905 23908 23911 23914 23917 23920 23923 23926 23929 23931 23934 23937 23940 23943 23946 23949 23952 23955 23958 23961 23964 23967 23970 23973 23976 23979 23982 23985 23988 23991 23994 23997 24000 24003 24006 24009 24012 24015 24018 24021 24024 24026 24029 24032 24035 24038 24041 24044 24046 24049 24052 24055 24058 24061 24064 24067 24070 24072 24075 24077 24080 24083 24086 24089 24092 24095 24098 24101 24103 24106 24109 24112 24115 24118 24121 24124 24127 24130 24133 24136 24139 24142 24145 24148 24151 24154 24157 24160 24163 24166 24169 24172 24175 24178 24181 24184 24187 24190 24193 24195 24198 24201 24204 24207 24210 24213 24216 24219 24222 24225 24228 24231 24234 24236 24238 24241 24244 24246 24248 24251 24254 24257 24260 24263 24265 24268 24271 24274 24277 24280 24283 24285 24288 24291 24294 24297 24300 24302 24305 24307 24310 24312 24315 24318 24320 24323 24326 24329 24332 24335 24338 24341 24343 24346 24348 24351 24354 24356 24359 24362 24365 24368 24370 24373 24376 24379 24381 24384 24387 24390 24393 24396 24398 24401 24403 24406 24409 24411 24414 24417 24420 24422 24425 24427 24430 24433 24436 24439 24442 24445 24448 24450 24453 24456 24458 24460 24463 24465 24467 24470 24473 24476 24478 24481 24483 24485 24487 24490 24493 24496 24499 24502 24504 24507 24510 24513 24516 24519 24522 24524 24527 24530 24533 24535 24538 24540 24543 24546 24549 24552 24555 24558 24561 24564 24567 24570 24573 24576 24579 24582 24585 24588 24591 24593 24596 24599 24601 24604 24607 24610 24613 24616 24619 24622 24625 24628 24630 24633 24636 24639 24642 24645 24648 24651 24654 24656 24659 24662 24665 24667 24670 24672 24675 24678 24680 24683 24686 24689 24692 24694 24697 24700 24703 24706 24709 24712 24715 24717 24720 24722 24725 24728 24731 24734 24737 24740 24743 24745 24748 24751 24754 24756 24759 24761 24764 24767 24769 24771 24774 24777 24780 24783 24786 24788 24791 24794 24797 24800 24803 24806 24809 24812 24815 24818 24821 24824 24827 24830 24833 24836 24839 24842 24844 24846 24849 24852 24855 24858 24861 24864 24866 24869 24872 24874 24876 24879 24882 24884 24887 24889 24892 24895 24897 24900 24903 24906 24908 24911 24914 24916 24919 24922 24925 24928 24930 24933 24936 24939 24942 24945 24948 24950 24953 24956 24959 24962 24964 24966 24969 24971 24973 24976 24979 24982 24985 24988 24991 24994 24997 25000 25003 25006 25009 25012 25015 25018 25021 25024 25027 25030 25033 25036 25039 25042 25045 25048 25051 25054 25057 25060 25063 25065 25068 25071 25073 25076 25079 25082 25085 25088 25091 25094 25097 25100 25103 25105 25108 25111 25114 25117 25120 25123 25126 25129 25131 25134 25137 25140 25143 25146 25149 25152 25154 25157 25160 25163 25165 25168 25171 25174 25176 25179 25181 25184 25187 25190 25193 25196 25199 25201 25204 25206 25209 25212 25215 25217 25220 25223 25226 25229 25232 25235 25238 25241 25244 25247 25250 25253 25256 25259 25262 25265 25268 25271 25273 25275 25277 25280 25282 25285 25288 25291 25294 25297 25300 25302 25305 25307 25310 25313 25316 25319 25321 25324 25327 25329 25331 25334 25337 25340 25343 25346 25348 25351 25353 25356 25359 25362 25364 25367 25370 25372 25374 25377 25380 25383 25386 25388 25391 25394 25396 25399 25402 25405 25407 25410 25413 25416 25418 25421 25423 25426 25429 25432 25435 25438 25441 25444 25447 25449 25452 25455 25458 25461 25464 25467 25470 25473 25475 25478 25481 25484 25487 25489 25492 25494 25497 25500 25502 25505 25508 25510 25513 25516 25519 25522 25524 25527 25530 25533 25536 25539 25542 25545 25548 25551 25554 25557 25560 25563 25566 25569 25572 25575 25578 25581 25584 25587 25590 25592 25595 25598 25601 25604 25607 25610 25613 25616 25619 25622 25625 25628 25631 25634 25637 25640 25643 25646 25649 25652 25655 25658 25661 25664 25667 25670 25673 25676 25679 25682 25685 25688 25690 25693 25695 25697 25700 25703 25706 25709 25712 25715 25718 25720 25723 25726 25729 25732 25735 25738 25740 25743 25746 25749 25751 25754 25757 25760 25763 25766 25769 25772 25775 25778 25781 25784 25786 25789 25792 25794 25797 25800 25803 25806 25808 25811 25814 25816 25819 25822 25825 25828 25831 25834 25837 25839 25842 25845 25848 25851 25854 25857 25860 25863 25866 25869 25872 25874 25877 25880 25883 25886 25889 25892 25895 25898 25901 25904 25907 25910 25913 25915 25918 25921 25924 25926 25929 25932 25935 25938 25941 25944 25947 25950 25953 25956 25959 25962 25965 25968 25971 25974 25977 25980 25983 25986 25989 25992 25995 25998 26001 26004 26007 26010 26013 26016 26019 26022 26025 26028 26031 26033 26036 26039 26042 26045 26048 26050 26053 26056 26058 26061 26064 26067 26069 26071 26074 26077 26080 26083 26086 26089 26091 26094 26097 26100 26103 26106 26109 26112 26115 26118 26121 26124 26127 26130 26133 26136 26139 26142 26145 26148 26151 26154 26157 26160 26163 26165 26168 26171 26174 26177 26180 26183 26185 26188 26191 26193 26196 26199 26202 26205 26208 26211 26213 26216 26218 26221 26224 26227 26229 26232 26235 26237 26240 26243 26246 26249 26251 26254 26257 26260 26262 26265 26268 26270 26272 26275 26278 26280 26283 26286 26288 26290 26293 26295 26298 26301 26304 26306 26308 26310 26313 26316 26319 26321 26324 26327 26330 26332 26335 26338 26341 26344 26346 26349 26352 26355 26358 26361 26364 26367 26370 26373 26376 26379 26382 26385 26388 26390 26393 26395 26398 26401 26404 26407 26410 26412 26415 26418 26421 26424 26427 26430 26433 26435 26437 26440 26443 26446 26449 26452 26455 26458 26460 26463 26465 26467 26469 26472 26475 26478 26481 26484 26487 26490 26492 26495 26498 26500 26503 26505 26508 26510 26513 26516 26518 26521 26524 26527 26530 26533 26536 26539 26542 26545 26548 26551 26554 26557 26560 26563 26565 26568 26571 26574 26577 26580 26583 26586 26589 26592 26595 26598 26600 26603 26606 26609 26612 26614 26617 26620 26623 26626 26629 26632 26635 26638 26641 26644 26646 26649 26652 26654 26657 26660 26662 26665 26668 26671 26674 26676 26679 26682 26685 26687 26689 26692 26695 26698 26701 26704 26707 26709 26712 26715 26718 26721 26724 26727 26730 26733 26736 26739 26742 26745 26748 26751 26754 26756 26759 26762 26765 26767 26770 26773 26776 26779 26782 26785 26788 26790 26793 26796 26799 26802 26804 26806 26809 26812 26815 26818 26821 26824 26827 26830 26833 26836 26839 26842 26845 26848 26850 26853 26856 26859 26861 26864 26867 26870 26873 26876 26878 26881 26883 26886 26889 26892 26895 26898 26901 26904 26907 26909 26911 26914 26916 26918 26921 26924 26927 26930 26933 26935 26937 26939 26942 26944 26947 26949 26952 26955 26957 26960 26963 26966 26969 26972 26975 26978 26981 26984 26987 26990 26993 26996 26999 27002 27005 27008 27011 27014 27017 27019 27022 27025 27028 27031 27034 27037 27040 27043 27046 27049 27052 27055 27058 27061 27063 27066 27069 27072 27075 27078 27081 27084 27087 27090 27093 27096 27099 27102 27105 27108 27111 27113 27116 27119 27122 27125 27127 27130 27133 27136 27139 27142 27145 27148 27150 27153 27155 27158 27161 27163 27166 27169 27172 27175 27177 27180 27182 27185 27188 27190 27193 27196 27199 27202 27205 27208 27211 27214 27217 27220 27223 27226 27229 27232 27234 27237 27240 27243 27246 27249 27252 27255 27258 27261 27264 27267 27270 27273 27275 27278 27281 27284 27286 27289 27291 27294 27297 27299 27302 27305 27308 27310 27313 27316 27319 27322 27325 27328 27331 27334 27337 27340 27343 27346 27349 27352 27355 27358 27360 27363 27366 27369 27372 27374 27377 27380 27382 27385 27388 27391 27394 27397 27400 27403 27405 27408 27411 27414 27417 27420 27423 27426 27429 27432 27435 27438 27441 27444 27447 27450 27453 27456 27459 27462 27465 27468 27471 27473 27476 27479 27482 27484 27487 27490 27493 27496 27499 27502 27505 27508 27511 27514 27517 27520 27523 27526 27529 27532 27534 27537 27540 27543 27546 27549 27552 27555 27558 27561 27564 27567 27570 27573 27575 27578 27581 27584 27587 27590 27593 27596 27599 27602 27605 27608 27610 27613 27616 27619 27622 27625 27628 27631 27633 27636 27639 27642 27645 27647 27649 27652 27655 27658 27661 27664 27667 27670 27673 27676 27679 27682 27685 27688 27691 27694 27697 27700 27703 27706 27709 27712 27715 27718 27720 27723 27726 27729 27732 27735 27738 27741 27743 27746 27748 27751 27754 27757 27759 27762 27765 27768 27771 27774 27776 27779 27782 27785 27787 27790 27793 27796 27798 27801 27804 27807 27810 27813 27816 27819 27822 27825 27827 27830 27833 27836 27839 27842 27845 27848 27851 27854 27857 27860 27863 27866 27869 27872 27875 27877 27880 27883 27886 27889 27891 27894 27897 27900 27902 27905 27907 27909 27912 27915 27918 27921 27924 27927 27930 27933 27936 27939 27942 27945 27948 27951 27954 27957 27960 27963 27966 27969 27972 27975 27978 27981 27984 27986 27989 27992 27995 27997 28000 28002 28005 28007 28010 28013 28015 28018 28021 28024 28026 28029 28032 28035 28038 28041 28044 28047 28049 28052 28055 28057 28059 28061 28064 28067 28069 28072 28075 28078 28081 28083 28085 28088 28090 28093 28096 28099 28102 28105 28107 28110 28113 28116 28119 28122 28124 28127 28130 28133 28135 28138 28141 28144 28147 28150 28153 28156 28159 28162 28165 28167 28170 28173 28176 28179 28181 28183 28186 28189 28192 28195 28197 28200 28202 28205 28207 28210 28213 28216 28219 28222 28225 28228 28231 28234 28237 28240 28243 28246 28249 28252 28255 28257 28260 28263 28266 28269 28272 28275 28278 28281 28283 28286 28289 28292 28294 28297 28300 28303 28306 28309 28311 28314 28317 28319 28322 28325 28328 28331 28334 28336 28339 28342 28344 28347 28350 28352 28354 28356 28359 28361 28364 28367 28370 28372 28375 28378 28381 28384 28387 28390 28393 28396 28399 28402 28405 28408 28410 28413 28415 28418 28421 28424 28427 28430 28433 28436 28439 28442 28445 28448 28451 28454 28457 28460 28463 28466 28468 28471 28474 28477 28480 28483 28486 28488 28491 28494 28496 28499 28502 28505 28508 28511 28514 28517 28520 28523 28525 28527 28530 28533 28536 28539 28542 28545 28547 28550 28553 28555 28558 28561 28564 28567 28570 28573 28576 28579 28582 28585 28588 28591 28594 28597 28600 28603 28605 28608 28610 28613 28616 28619 28622 28625 28628 28631 28634 28637 28640 28642 28645 28648 28651 28654 28657 28659 28662 28665 28668 28671 28674 28677 28680 28683 28686 28689 28692 28695 28698 28701 28704 28707 28709 28712 28715 28718 28721 28724 28727 28730 28733 28736 28738 28741 28744 28747 28750 28753 28756 28759 28761 28764 28766 28769 28772 28775 28778 28781 28783 28786 28788 28791 28794 28796 28799 28802 28805 28808 28811 28814 28817 28820 28823 28826 28829 28831 28834 28837 28840 28843 28845 28848 28851 28854 28857 28860 28863 28866 28869 28872 28875 28878 28881 28883 28886 28889 28891 28894 28897 28900 28903 28906 28909 28912 28915 28918 28921 28923 28926 28928 28931 28934 28937 28940 28943 28945 28948 28951 28954 28957 28960 28963 28966 28969 28972 28975 28977 28979 28982 28985 28988 28991 28994 28996 28999 29002 29005 29007 29010 29013 29016 29019 29022 29025 29027 29030 29033 29036 29039 29042 29045 29048 29051 29053 29056 29059 29062 29065 29068 29071 29074 29077 29080 29083 29086 29089 29092 29095 29098 29100 29103 29106 29109 29112 29115 29117 29120 29123 29126 29129 29131 29134 29137 29140 29142 29145 29148 29150 29153 29156 29159 29162 29165 29168 29171 29174 29177 29180 29183 29186 29189 29192 29195 29198 29201 29204 29207 29210 29213 29216 29219 29221 29224 29227 29230 29233 29236 29239 29242 29244 29247 29250 29253 29256 29259 29262 29265 29268 29271 29274 29277 29280 29283 29286 29289 29292 29295 29298 29301 29304 29307 29310 29313 29316 29319 29322 29325 29328 29331 29334 29337 29340 29343 29346 29349 29352 29355 29357 29360 29363 29366 29369 29372 29375 29378 29381 29383 29386 29389 29392 29395 29398 29401 29404 29407 29410 29413 29416 29419 29422 29425 29427 29430 29433 29435 29438 29440 29442 29444 29447 29450 29453 29456 29458 29461 29464 29467 29470 29473 29476 29479 29482 29485 29488 29491 29494 29497 29500 29503 29506 29509 29512 29515 29518 29521 29524 29527 29530 29533 29536 29539 29542 29545 29548 29551 29554 29557 29560 29563 29566 29569 29572 29575 29578 29581 29584 29587 29589 29592 29595 29597 29600 29603 29606 29609 29612 29614 29617 29620 29623 29626 29628 29630 29633 29635 29638 29641 29644 29646 29649 29652 29655 29658 29661 29664 29667 29670 29673 29676 29679 29682 29685 29688 29691 29694 29697 29700 29703 29706 29709 29712 29715 29718 29721 29724 29727 29730 29733 29736 29738 29741 29744 29747 29750 29753 29756 29758 29761 29764 29767 29769 29772 29775 29778 29781 29784 29787 29790 29793 29796 29799 29802 29805 29808 29810 29813 29816 29819 29822 29825 29828 29831 29834 29837 29840 29843 29846 29849 29852 29855 29858 29861 29864 29867 29870 29873 29876 29879 29882 29885 29887 29889 29892 29895 29898 29900 29903 29905 29908 29911 29914 29916 29919 29922 29925 29927 29929 29932 29935 29937 29940 29943 29946 29949 29952 29955 29958 29961 29964 29967 29970 29972 29975 29978 29981 29984 29987 29990 29993 29996 29998 30001 30004 30007 30010 30013 30016 30019 30022 30025 30028 30031 30034 30037 30039 30041 30044 30047 30050 30053 30056 30059 30062 30064 30067 30070 30073 30076 30078 30081 30084 30087 30090 30093 30096 30099 30102 30105 30108 30111 30113 30116 30118 30120 30122 30125 30128 30131 30133 30136 30139 30142 30145 30147 30150 30153 30156 30159 30162 30165 30168 30171 30174 30177 30180 30183 30186 30189 30192 30195 30198 30201 30204 30207 30210 30213 30216 30219 30222 30225 30228 30231 30233 30236 30239 30242 30245 30248 30251 30253 30256 30258 30260 30263 30266 30269 30272 30275 30278 30281 30283 30286 30289 30292 30295 30298 30301 30304 30307 30310 30313 30316 30319 30322 30325 30328 30331 30334 30337 30340 30343 30346 30349 30352 30355 30358 30361 30364 30367 30370 30373 30376 30379 30382 30385 30388 30391 30394 30397 30400 30403 30406 30409 30412 30415 30418 30421 30424 30427 30430 30433 30436 30439 30442 30445 30448 30451 30454 30457 30460 30463 30466 30469 30472 30475 30478 30481 30484 30487 30490 30493 30496 30499 30502 30505 30508 30511 30514 30517 30520 30523 30526 30529 30532 30535 30538 30541 30544 30547 30550 30553 30556 30559 30562 30565 30568 30571 30574 30577 30580 30583 30586 30589 30592 30595 30598 30601 30604 30607 30610 30613 30616 30619 30622 30625 30628 30631 30634 30637 30640 30643 30646 30649 30651 30653 30656 30658 30660 30663 30666 30668 30671 30674 30676 30679 30682 30685 30688 30691 30694 30697 30700 30703 30706 30709 30712 30715 30718 30720 30722 30725 30727 30729 30732 30735 30738 30741 30744 30747 30750 30753 30756 30759 30761 30764 30767 30770 30773 30776 30779 30781 30784 30787 30790 30793 30796 30799 30802 30805 30808 30811 30813 30816 30819 30821 30824 30827 30830 30833 30836 30839 30842 30845 30848 30851 30854 30857 30860 30863 30866 30869 30872 30875 30878 30881 30884 30887 30890 30893 30896 30899 30901 30904 30907 30910 30913 30916 30919 30922 30925 30928 30931 30934 30937 30940 30943 30946 30949 30952 30954 30957 30960 30963 30965 30968 30971 30974 30977 30980 30983 30985 30988 30991 30994 30997 31000 31003 31006 31009 31011 31014 31017 31020 31023 31025 31028 31030 31033 31035 31038 31041 31044 31047 31050 31052 31055 31058 31061 31063 31066 31068 31071 31074 31077 31080 31083 31086 31089 31092 31095 31098 31101 31104 31106 31109 31112 31115 31118 31121 31124 31127 31130 31133 31136 31139 31142 31145 31148 31151 31154 31157 31160 31163 31166 31169 31172 31175 31178 31181 31184 31187 31190 31193 31196 31199 31202 31205 31208 31211 31214 31216 31219 31222 31225 31228 31231 31234 31236 31239 31242 31245 31248 31251 31254 31257 31260 31262 31264 31267 31270 31273 31276 31279 31281 31283 31286 31289 31292 31295 31298 31301 31304 31307 31310 31312 31315 31318 31321 31324 31326 31329 31332 31335 31338 31341 31343 31346 31349 31352 31355 31358 31361 31364 31367 31370 31373 31376 31379 31382 31385 31387 31390 31393 31396 31399 31402 31405 31408 31411 31414 31417 31420 31423 31426 31428 31431 31434 
</DataArray>
<DataArray type="UInt32" Name="types" format="ascii">
5 5 5 5 5 5 5 3 5 5 5 5 5 5 5 5 5 5 5 5 3 5 5 5 3 5 5 5 5 5 5 5 5 5 5 5 5 5 5 5 5 5 5 5 5 5 5 5 5 5 5 5 5 5 5 5 5 5 3 5 5 3 5 5 5 5 5 5 5 5 3 5 5 5 5 3 5 5 5 3 5 5 5 5 5 5 5 5 5 5 5 5 5 5 3 5 3 5 5 5 5 5 5 5 5 5 5 5 5 3 5 5 5 5 3 3 5 5 5 5 5 5 5 5 5 5 5 5 5 5 5 5 5 3 5 5 5 3 5 5 5 5 5 5 3 5 5 3 5 5 5 5 3 5 5 5 5 5 3 5 3 5 5 5 5 5 5 5 5 5 5 5 5 5 5 5 5 5 5 5 5 5 3 5 5 5 5 5 5 5 5 5 5 5 5 5 5 5 5 5 5 5 5 5 5 5 5 5 5 5 3 5 5 5 5 3 5 5 5 5 5 5 3 5 3 5 5 5 5 5 5 5 5 5 5 5 5 5 5 5 5 5 5 5 5 5 5 5 5 5 5 5 5 5 5 5 5 5 5 5 5 5 5 5 5 5 5 5 5 5 5 5 5 3 5 3 5 5 5 5 5 5 5 5 3 5 5 5 5 5 5 5 5 5 5 5 5 5 5 5 5 5 5 5 5 5 5 5 5 5 5 5 5 5 5 5 5 5 5 5 3 5 5 3 5 5 5 5 5 5 5 3 5 5 5 5 5 5 5 5 5 3 3 5 5 5 3 5 5 5 5 5 5 5 5 5 5 5 5 5 5 5 5 5 5 5 5 5 5 5 5 5 5 3 5 3 5 5 5 5 5 3 5 5 5 5 3 5 5 5 5 5 5 5 3 5 3 5 5 5 5 3 5 5 3 5 5 5 5 5 5 5 3 3 5 5 3 5 5 5 3 5 5 5 5 3 5 5 5 5 3 5 3 5 3 5 3 5 5 5 5 3 5 3 5 5 5 5 3 3 5 5 3 5 5 5 5 5 5 5 3 5 5 5 5 3 5 5 5 5 3 5 5 5 5 5 5 5 5 5 3 5 3 5 5 5 5 5 5 5 5 5 5 5 5 5 5 5 5 5 5 3 5 5 5 3 5 5 5 5 5 5 3 5 5 5 5 5 5 3 5 5 5 3 5 5 3 5 5 5 5 5 5 5 5 5 5 5 3 5 5 5 5 5 5 5 5 5 5 5 5 5 3 3 5 5 5 5 3 5 5 5 5 5 5 5 5 5 5 5 5 5 5 5 5 5 5 5 5 5 5 5 5 5 5 5 5 5 5 5 5 5 5 5 5 3 5 5 5 5 3 5 5 5 5 5 5 5 5 5 5 5 5 5 5 5 5 5 5 5 5 5 5 5 5 5 5 5 5 5 5 5 5 5 5 5 5 5 5 5 5 5 5 5 5 5 5 5 5 5 5 5 5 5 5 5 5 5 5 5 5 5 5 5 5 5 5 5 5 5 5 5 5 5 3 5 5 5 5 3 5 3 5 5 5 5 5 5 5 5 5 5 5 5 5 5 5 5 5 5 5 5 5 5 5 5 5 5 5 5 5 5 5 5 5 5 5 5 5 5 3 5 5 5 5 3 5 5 5 5 5 5 5 5 5 5 5 5 3 5 3 3 5 5 5 5 5 5 3 5 3 5 5 5 5 5 5 5 5 5 5 3 5 5 5 5 5 5 5 3 5 5 5 5 5 5 5 5 5 5 5 5 5 5 3 5 5 5 5 3 5 5 5 3 5 5 5 5 5 5 5 5 5 3 5 5 5 5 5 5 5 5 5 5 5 5 5 5 5 5 5 5 5 5 5 5 5 3 5 5 5 5 5 5 5 5 5 5 5 5 5 5 5 5 5 5 5 5 5 5 5 5 3 5 5 5 5 5 5 5 5 5 3 5 5 3 5 5 5 5 5 5 5 5 5 3 5 5 3 5 5 5 5 5 5 3 5 5 5 5 5 5 5 5 3 3 5 5 5 5 5 5 5 5 5 5 3 5 5 5 5 5 3 5 5 5 5 5 5 5 3 5 5 5 5 5 5 3 5 5 3 3 5 3 3 5 5 3 5 5 3 3 5 5 5 3 5 5 5 5 5 3 5 5 5 5 5 3 5 5 5 3 3 5 5 5 5 5 5 5 5 5 3 5 5 3 5 5 5 5 5 5 5 5 5 5 5 5 5 3 3 5 5 5 5 3 3 5 5 3 3 5 5 5 5 5 5 5 5 5 5 5 5 3 5 5 3 5 5 5 3 5 5 3 5 5 5 5 5 5 3 3 3 5 5 5 5 5 5 5 3 5 5 5 5 5 5 5 5 5 5 5 5 5 5 5 5 5 5 5 5 5 5 5 5 5 5 5 5 5 5 5 5 5 5 3 5 5 5 5 3 5 5 3 3 5 5 5 3 3 5 5 5 5 5 5 5 5 5 5 3 5 5 5 5 5 5 5 3 5 5 5 5 5 5 5 3 5 5 5 3 5 3 5 5 3 5 5 5 3 3 5 5 5 5 5 5 5 5 5 5 5 5 5 5 5 5 5 5 5 5 5 5 5 5 5 5 5 5 3 5 5 5 5 3 5 5 5 5 5 5 5 5 5 5 3 5 5 5 5 5 5 5 5 5 5 5 5 5 5 3 5 5 5 5 5 5 5 5 5 3 5 5 5 5 3 5 5 5 3 5 5 5 3 5 5 5 5 5 5 5 5 5 5 5 5 5 5 5 5 5 5 5 5 5 5 5 5 3 5 5 5 5 3 5 5 5 5 5 3 5 5 5 5 5 5 3 5 5 5 3 5 5 5 3 5 3 3 5 5 5 5 5 5 5 5 5 5 5 5 5 5 5 5 5 5 5 3 5 5 5 3 5 5 5 5 5 5 5 5 5 5 5 5 5 3 3 5 5 5 5 5 5 3 5 3 3 5 5 5 3 5 5 3 3 5 5 5 5 5 3 5 5 5 5 5 5 5 3 5 5 5 5 5 3 5 5 5 5 5 5 3 5 5 5 3 5 5 5 5 5 3 3 5 5 5 5 5 3 5 3 5 5 5 5 3 5 5 5 5 5 5 5 5 5 5 5 5 5 5 5 5 5 5 5 5 5 5 5 5 5 5 5 5 5 5 5 5 3 5 3 3 5 5 5 5 5 5 5 5 3 3 5 5 5 5 3 3 5 5 3 5 5 3 5 5 3 5 5 5 3 5 5 5 3 5 5 5 5 5 3 3 5 5 5 5 5 5 5 5 5 5 3 5 3 5 5 5 5 5 3 5 5 5 3 5 3 5 5 5 5 5 5 3 5 3 5 5 5 3 3 3 3 3 5 5 5 5 5 3 5 5 5 5 5 5 5 5 5 5 3 5 5 5 5 5 3 3 5 5 5 5 3 5 5 5 5 5 5 5 5 5 5 3 5 3 5 5 5 5 5 5 5 5 5 3 3 5 3 5 5 5 5 5 5 5 5 5 3 5 5 5 3 5 5 5 5 5 5 5 3 5 5 5 5 5 5 5 5 5 5 5 5 5 5 5 5 5 5 5 3 5 5 5 5 5 5 5 5 5 3 5 5 5 5 5 5 5 5 3 5 5 5 3 5 5 5 5 5 5 5 5 5 5 5 5 5 5 5 5 5 5 5 5 5 5 5 3 5 5 5 5 5 5 5 5 5 5 5 5 3 5 5 3 3 5 3 5 5 3 5 3 5 5 5 3 5 3 3 5 5 5 3 5 5 5 5 3 5 3 5 5 3 5 5 5 5 5 5 5 5 5 5 5 5 3 3 5 5 5 5 5 5 5 5 5 5 5 5 5 3 5 5 5 5 3 5 5 5 5 5 5 5 5 5 5 5 5 5 5 5 3 5 5 5 3 5 5 5 5 5 5 5 5 5 5 5 5 5 5 5 5 5 5 5 5 5 5 5 5 3 5 5 5 5 5 5 5 3 5 5 5 5 5 5 5 5 5 5 3 5 5 5 5 5 5 5 5 5 5 5 3 5 5 5 5 5 5 5 5 5 5 5 5 5 3 5 5 5 5 5 5 5 5 5 5 5 5 5 5 5 5 5 5 5 5 5 5 5 5 5 5 5 5 5 5 5 5 5 5 5 5 5 3 5 5 5 3 5 5 5 5 5 5 3 5 5 5 5 5 5 5 5 5 5 5 5 5 5 5 5 5 5 3 5 5 3 5 5 5 5 5 5 5 5 5 5 5 5 5 3 5 5 3 5 5 5 5 5 5 5 5 5 5 5 5 5 5 5 5 5 5 5 5 5 5 5 5 5 3 3 5 5 5 5 5 5 5 5 5 5 5 5 5 5 5 5 5 5 5 5 5 5 5 5 5 5 5 5 5 3 5 3 5 5 5 3 5 3 5 5 5 5 5 5 5 5 5 5 5 5 5 5 5 5 5 5 5 5 5 5 5 5 5 5 5 5 5 5 5 5 5 5 5 5 5 5 5 3 5 5 5 5 5 5 5 5 5 5 5 5 5 5 5 5 5 5 5 5 5 5 5 5 5 3 5 5 5 5 5 5 3 5 3 3 5 5 3 5 5 5 5 5 5 5 5 5 3 5 5 5 5 5 5 5 5 5 5 5 5 5 5 5 5 5 5 5 5 3 5 5 5 5 5 5 5 5 3 5 5 5 5 3 5 5 3 5 5 5 3 5 5 5 5 5 5 3 5 5 3 5 5 5 5 5 5 5 5 3 5 5 5 5 5 5 5 5 5 5 5 5 5 5 5 5 5 5 5 5 5 5 5 5 5 5 3 5 5 5 5 5 5 5 5 5 5 5 5 5 5 5 5 5 5 5 5 5 5 5 3 5 5 5 5 5 5 5 5 5 5 3 5 5 3 5 5 5 5 5 5 5 5 5 5 5 5 5 5 5 5 5 5 5 5 5 5 5 5 5 5 5 5 5 5 5 3 5 5 5 5 5 5 3 5 3 5 5 3 5 5 5 5 5 5 5 5 5 5 5 5 5 5 5 5 5 5 3 5 3 3 5 5 5 5 5 3 5 5 5 5 5 5 5 3 5 5 3 5 5 5 5 5 5 5 3 5 5 5 5 5 5 5 5 3 5 5 5 3 3 5 5 5 3 5 5 3 5 3 5 5 5 5 3 3 5 5 5 5 5 5 5 5 3 5 3 3 5 5 5 5 5 5 5 5 5 5 5 3 5 5 5 5 5 5 5 5 3 5 5 5 3 5 5 5 5 3 3 5 5 3 5 5 5 3 5 5 5 5 3 5 3 5 3 3 5 5 3 5 5 5 5 5 3 5 5 5 5 5 3 5 3 5 5 5 5 5 5 3 5 3 5 5 5 5 5 5 5 3 5 5 5 5 5 3 5 5 5 3 3 3 5 3 5 5 5 3 3 5 3 5 5 5 5 5 5 5 5 5 5 5 5 5 5 3 5 5 5 3 3 5 5 5 5 5 5 5 5 3 5 5 5 3 5 5 3 5 5 5 3 3 5 5 5 5 5 5 3 5 5 5 5 3 5 5 5 3 5 5 5 5 3 5 5 5 5 5 5 5 5 5 5 5 3 5 5 3 5 5 3 5 3 5 5 5 5 5 5 5 5 5 3 5 5 5 5 5 5 5 5 5 5 3 5 5 5 5 5 5 5 5 5 5 5 5 3 5 5 5 5 5 5 5 5 5 5 5 5 5 5 5 5 5 5 5 5 5 5 5 5 5 5 5 5 5 5 3 5 5 3 5 3 5 5 5 5 5 5 3 5 5 5 5 5 3 5 5 3 5 5 5 3 5 5 5 5 5 5 5 5 5 5 5 5 5 5 5 5 3 5 5 5 3 5 3 3 5 5 5 5 3 5 5 5 5 5 3 5 5 5 5 5 5 5 5 5 5 5 3 5 5 5 5 5 5 5 5 5 5 5 3 5 5 5 5 3 5 5 5 5 5 5 5 5 5 5 5 5 5 5 5 5 5 5 5 5 5 5 3 5 5 5 5 5 5 5 5 5 5 5 5 5 5 5 5 5 5 3 5 5 5 3 5 5 5 5 5 5 5 5 5 5 5 5 5 5 3 5 3 5 3 5 5 5 5 5 5 5 3 5 5 5 3 5 5 5 5 5 5 5 5 5 5 5 5 5 5 5 5 5 3 5 5 5 3 5 5 3 3 5 5 5 5 3 5 5 5 5 5 5 5 5 5 5 5 5 3 5 5 5 5 5 5 5 5 5 5 3 5 3 5 5 5 3 5 3 5 5 5 3 5 5 3 5 5 5 5 3 5 5 5 5 3 5 5 5 3 3 5 3 5 3 5 5 3 5 5 5 5 5 5 5 5 5 5 3 3 5 5 5 5 5 3 5 3 5 5 3 5 5 5 3 5 3 3 5 3 5 5 3 3 5 5 3 5 5 3 5 5 5 5 5 5 5 5 3 5 5 5 5 5 3 5 5 5 5 5 5 5 5 3 3 5 5 5 3 3 5 3 5 5 5 3 5 3 5 5 5 5 3 5 3 3 5 5 5 5 5 5 5 5 3 5 5 5 5 5 5 5 5 5 3 5 5 5 5 5 5 5 5 3 5 3 5 5 5 5 3 5 5 5 5 5 5 3 5 5 5 5 5 3 5 3 5 5 5 5 5 5 5 5 5 5 3 5 5 5 5 5 5 3 5 5 5 5 5 5 5 5 5 5 5 3 5 5 5 5 5 3 3 5 5 3 5 5 5 3 5 3 5 5 5 5 5 5 5 5 5 5 5 3 3 5 5 5 5 3 5 5 5 5 3 5 5 3 5 5 5 5 5 5 5 5 5 5 5 5 5 5 5 5 3 5 5 5 5 5 3 5 5 3 5 5 5 3 5 5 5 3 5 5 5 5 5 5 5 5 5 5 5 5 5 3 5 5 5 5 3 5 5 5 5 5 5 5 5 5 3 5 5 5 3 5 5 5 5 5 3 5 5 5 5 5 5 5 5 5 5 5 5 5 5 5 5 5 5 5 5 5 5 5 5 3 5 5 5 5 5 5 5 3 5 5 5 5 5 3 5 5 5 5 5 5 5 5 5 3 5 5 3 5 5 5 5 5 5 5 5 5 5 5 3 5 5 5 5 5 5 5 5 5 3 5 5 5 5 5 5 5 3 5 5 5 5 5 5 5 5 5 5 5 5 5 5 3 5 5 5 5 5 5 5 5 5 5 3 5 5 5 5 5 5 5 5 5 5 5 5 5 5 5 5 5 5 5 5 5 5 5 3 5 5 5 5 5 5 5 5 5 5 5 5 5 5 5 5 3 5 3 5 5 5 5 3 5 5 5 5 5 5 5 5 5 5 5 5 5 5 5 5 5 5 5 5 5 5 5 5 5 5 5 5 5 5 5 5 5 3 5 5 5 5 5 5 5 5 5 5 3 5 5 5 5 5 5 5 5 5 3 5 5 5 5 5 3 5 5 5 5 3 5 5 5 5 5 5 5 5 5 3 5 5 5 5 5 5 5 5 3 5 5 5 5 5 5 5 5 5 5 5 5 5 5 5 5 5 5 5 3 5 5 3 5 5 3 5 5 5 5 5 5 5 3 5 5 5 3 5 5 5 5 5 5 5 5 5 5 3 5 5 5 5 5 3 5 3 5 5 5 5 5 5 5 3 5 3 5 5 5 5 5 5 5 5 5 5 5 5 5 3 5 5 5 5 5 5 3 5 5 3 5 5 3 5 5 5 5 5 5 5 5 5 5 5 5 5 3 5 5 5 5 5 5 5 5 5 5 3 5 3 5 5 5 5 5 5 5 5 5 5 5 5 5 3 5 3 5 5 3 5 5 5 5 5 5 3 3 5 5 5 3 5 5 5 5 5 5 5 3 5 5 5 5 5 5 5 5 5 5 5 5 5 5 5 5 5 5 5 5 5 5 5 5 5 3 5 5 5 3 5 5 5 5 5 5 5 5 5 5 5 5 5 5 5 5 5 3 5 5 5 5 5 5 5 5 5 3 5 5 5 5 5 5 5 5 5 5 5 5 3 5 5 5 5 5 5 5 5 5 5 5 3 5 5 5 5 5 5 5 5 5 5 5 5 5 5 5 3 5 5 5 5 5 5 5 3 5 5 5 5 5 5 5 5 5 5 5 5 5 5 5 5 5 5 5 5 3 5 5 5 5 5 5 3 5 5 5 5 5 5 5 5 5 5 5 5 3 5 5 5 5 5 5 5 3 5 3 3 5 5 5 5 5 5 5 5 5 5 5 5 5 5 5 5 3 5 5 5 5 5 5 5 5 5 5 3 5 5 3 5 5 5 5 5 5 5 5 5 5 5 5 5 5 5 5 5 5 3 5 5 5 5 5 5 5 5 5 5 5 5 5 5 5 5 5 5 5 5 5 5 5 3 5 5 5 5 5 5 3 5 5 3 5 5 5 5 5 5 3 5 3 3 5 3 5 5 5 5 3 3 5 3 3 5 5 3 3 3 5 5 3 5 5 5 5 5 5 5 5 5 5 5 5 5 5 3 5 5 5 3 5 5 5 3 3 5 3 5 5 5 5 5 5 3 5 5 3 5 5 5 5 3 3 5 5 5 5 5 5 5 5 5 5 5 5 5 5 5 5 5 5 5 5 5 5 3 5 5 3 5 5 5 5 5 5 5 3 5 5 5 5 3 5 5 5 5 5 3 5 3 5 5 5 5 5 3 5 5 3 5 3 5 5 5 5 5 5 3 5 3 5 5 5 5 5 5 5 5 5 5 5 5 5 3 5 3 5 5 5 5 5 5 5 5 5 5 5 5 5 5 3 3 5 5 5 5 5 5 5 3 5 5 5 5 3 5 5 5 3 5 3 5 5 5 5 5 5 3 5 3 5 3 5 3 5 3 3 3 5 5 3 5 5 5 5 5 5 3 5 5 5 3 5 5 5 3 5 5 5 5 5 5 3 5 5 3 5 5 5 5 5 3 5 3 5 5 3 5 5 5 5 5 5 5 5 5 5 5 5 5 5 5 5 3 5 5 5 5 5 5 5 5 5 5 5 5 5 5 5 5 5 5 5 5 5 5 5 5 5 5 5 5 5 5 5 5 5 5 5 5 5 5 5 3 5 5 5 5 5 5 5 5 3 3 3 3 3 5 3 5 5 5 3 5 5 5 5 3 5 3 5 5 3 5 3 5 3 5 5 5 3 5 5 5 5 3 5 5 5 3 5 5 5 5 5 5 5 5 5 3 5 5 5 5 5 3 5 5 5 5 5 3 5 5 5 5 5 5 5 5 5 5 5 5 5 5 5 5 3 5 5 5 5 5 5 5 3 3 5 5 3 5 5 5 3 3 5 5 3 5 5 3 5 5 5 5 5 5 5 5 5 5 5 5 5 5 3 3 3 5 5 5 3 5 3 5 5 5 5 5 5 3 5 5 5 3 5 5 5 3 3 5 5 3 5 5 3 5 5 3 3 5 5 3 5 5 5 5 3 3 5 3 5 3 5 5 5 5 5 5 5 5 5 5 5 5 5 5 5 5 5 5 5 5 5 5 5 5 3 5 5 5 5 5 5 5 5 5 5 5 5 5 5 5 5 5 5 5 5 5 3 5 5 5 5 5 5 5 5 3 5 5 5 5 5 5 5 5 5 5 5 5 3 5 5 5 3 5 5 5 5 3 5 5 5 3 5 5 5 5 5 5 5 5 5 5 5 5 3 5 5 5 5 5 5 5 5 5 5 3 5 5 5 5 5 5 5 5 5 5 5 3 5 5 5 3 5 5 3 5 5 5 5 5 5 5 5 5 5 5 5 5 5 3 5 3 5 5 5 5 5 5 5 5 5 5 5 5 5 5 5 5 5 5 5 5 5 3 5 5 3 5 5 5 5 5 5 5 5 5 5 5 5 5 5 5 5 5 5 5 5 5 5 3 5 5 5 5 5 5 5 5 5 5 5 3 5 5 5 5 5 5 3 5 5 3 5 5 5 3 5 3 5 5 5 5 5 3 3 5 3 5 3 5 5 3 3 5 3 5 5 5 5 5 5 5 3 5 5 3 5 5 3 3 5 5 5 5 5 3 5 5 3 3 5 5 5 5 5 5 3 5 5 5 5 5 3 5 5 5 5 5 3 5 5 3 5 5 5 5 3 5 5 5 5 5 5 5 5 5 5 5 5 5 5 5 5 5 5 3 5 5 3 5 5 5 5 5 5 5 5 5 5 5 3 5 5 5 5 5 5 5 3 5 3 5 5 5 5 3 5 5 5 5 5 5 5 5 5 5 5 5 5 3 5 5 5 5 5 5 3 5 5 5 5 5 5 5 5 5 5 5 5 5 5 5 5 5 5 5 5 5 5 3 5 5 5 5 5 5 3 5 5 5 5 5 5 3 5 5 5 5 3 5 5 5 3 5 5 3 5 5 5 5 3 5 5 5 5 5 3 5 3 5 5 5 3 3 3 5 5 5 5 5 5 5 5 5 5 5 5 5 5 5 5 5 5 5 5 5 5 5 5 5 5 5 5 5 5 5 5 5 5 5 5 5 5 5 5 5 5 5 5 5 5 5 5 5 5 5 5 5 5 5 5 5 5 5 5 5 5 5 5 5 5 5 5 5 5 5 5 5 5 3 5 5 5 5 5 5 5 5 5 5 5 5 5 5 5 5 5 5 5 5 3 5 5 5 5 5 5 5 5 5 3 5 5 3 5 5 5 5 5 5 5 3 5 5 5 5 5 5 5 5 5 3 5 5 5 5 5 5 5 5 5 5 5 5 5 3 5 5 5 3 5 5 5 5 5 5 5 5 5 5 3 5 5 5 5 5 5 5 5 5 5 5 3 5 5 5 5 3 5 5 5 5 5 3 5 5 5 3 5 5 5 5 5 5 5 5 5 5 5 5 5 5 5 5 5 5 5 5 5 3 5 5 5 3 5 5 3 5 5 5 3 5 5 5 5 5 5 5 5 5 5 3 5 3 5 5 3 5 5 5 3 5 5 5 3 3 5 5 3 5 5 5 5 5 5 5 5 5 5 5 5 5 5 5 5 5 5 5 5 3 3 5 5 5 5 5 5 5 5 5 5 5 5 5 5 5 3 5 5 5 5 5 3 5 5 5 5 5 3 5 5 5 5 5 5 5 3 5 5 5 3 5 5 5 5 5 5 5 3 5 5 5 5 5 5 5 5 5 5 5 5 5 5 5 5 5 5 5 5 5 5 5 5 5 5 5 5 3 5 5 3 3 5 5 5 5 5 5 5 5 3 5 5 5 5 5 5 5 5 5 5 5 5 5 3 5 5 3 5 5 5 5 5 5 5 5 5 5 5 5 5 5 5 5 5 5 5 5 5 5 3 5 5 5 5 5 5 3 5 5 5 5 5 5 5 5 5 5 5 5 5 5 5 5 5 5 5 5 5 5 5 5 5 5 5 5 5 5 3 5 5 3 5 5 5 5 5 5 5 3 5 5 5 5 5 5 3 5 3 5 5 5 5 5 5 5 5 3 5 5 5 3 5 5 5 5 3 5 5 5 5 5 5 3 3 3 5 5 5 5 5 5 3 5 5 5 5 5 5 5 5 5 5 5 5 5 5 5 5 5 5 5 5 5 5 5 5 5 5 5 5 5 5 5 5 5 5 5 5 5 5 5 5 5 5 5 5 5 5 5 5 5 5 5 5 5 5 5 5 5 5 5 5 5 5 5 5 5 5 5 5 5 5 5 5 5 5 5 5 5 5 5 5 5 5 5 5 5 5 5 5 5 5 5 5 5 5 5 5 5 5 5 5 5 5 5 5 5 5 5 5 5 5 5 5 5 5 5 5 5 5 5 5 5 5 5 5 5 5 3 5 5 5 3 5 5 3 3 5 5 5 5 5 5 5 3 5 5 5 5 3 5 3 5 5 5 5 5 5 5 3 5 5 5 3 5 5 5 5 3 5 5 3 5 3 5 3 5 3 5 5 5 5 5 5 5 5 5 5 5 5 5 5 5 5 5 5 5 5 5 5 5 5 3 3 5 5 3 5 5 3 5 5 5 5 5 5 5 3 3 5 5 5 5 5 5 5 5 5 5 5 5 5 5 5 3 5 3 5 5 5 5 5 5 5 3 3 5 5 5 5 5 5 5 5 5 5 5 3 5 3 5 5 5 3 3 5 5 3 5 5 5 5 5 5 5 5 5 5 5 5 5 5 5 5 5 5 5 5 5 5 3 5 5 3 5 5 5 5 5 5 5 3 5 5 5 3 5 5 5 5 5 3 5 3 5 5 5 5 5 5 5 5 5 5 3 5 3 5 5 5 5 5 5 5 3 5 5 3 5 5 5 5 5 5 5 3 5 3 5 5 3 5 3 5 5 5 5 3 5 3 5 5 5 5 5 5 3 5 3 5 3 5 5 3 5 5 5 5 5 3 5 3 5 5 5 5 3 5 3 5 5 5 5 3 5 5 5 5 5 5 5 5 5 5 5 5 5 5 5 5 5 5 5 5 5 5 3 5 5 5 5 5 5 5 5 5 5 3 5 3 5 5 5 3 5 5 5 5 5 5 5 5 5 5 3 5 3 3 5 5 5 3 5 5 3 5 5 5 5 3 3 3 5 5 5 3 5 5 5 5 5 5 5 5 5 5 5 5 5 5 5 5 3 5 5 5 5 5 5 5 3 5 5 5 5 5 5 5 5 5 5 5 5 5 3 5 5 5 5 5 3 5 5 5 5 3 5 5 5 5 5 5 5 5 5 5 5 5 5 5 5 5 5 5 5 5 5 5 5 5 5 5 5 5 5 5 5 5 5 5 5 5 5 5 5 5 5 5 5 5 5 5 5 5 5 5 5 5 5 5 5 5 5 5 5 3 5 3 3 5 5 3 5 3 5 5 5 5 5 5 3 5 5 5 5 5 5 5 5 5 5 5 5 5 5 5 5 5 5 5 5 5 3 5 5 5 5 5 5 3 5 5 5 5 5 5 5 5 5 5 5 3 5 5 5 5 5 5 5 5 5 5 5 5 5 5 5 5 5 5 5 5 5 5 5 5 5 5 5 5 5 5 5 5 5 5 3 3 5 3 5 3 5 5 5 5 5 5 5 5 3 5 5 3 5 5 3 5 5 5 5 5 5 5 5 5 5 5 5 5 3 5 3 5 5 5 3 5 3 3 3 5 5 5 3 3 5 5 5 5 5 5 5 3 5 5 5 5 3 3 5 3 5 3 5 5 5 5 5 3 3 3 5 5 5 3 5 3 3 5 3 3 5 5 5 5 5 3 5 5 3 5 5 3 3 5 5 5 5 5 3 5 5 5 5 5 3 5 5 5 5 3 5 5 5 5 3 5 5 5 5 5 3 5 5 5 3 5 5 5 5 3 5 5 3 5 3 5 3 5 3 5 5 5 5 5 5 3 5 5 5 5 5 5 5 5 3 5 5 5 3 3 5 5 5 5 5 3 5 5 5 5 5 5 3 5 5 5 5 5 5 5 5 5 5 5 5 5 5 5 5 5 5 5 5 3 5 5 5 5 5 5 5 5 5 5 5 5 5 5 5 5 5 5 5 5 5 3 5 5 5 3 5 5 5 3 5 5 5 5 5 5 5 5 3 5 5 5 5 5 5 3 5 3 5 5 3 5 5 5 3 5 5 5 3 5 5 5 5 5 3 5 5 5 3 5 5 5 5 5 5 5 5 5 5 5 5 3 5 5 5 5 3 5 5 5 5 5 5 5 5 5 5 5 3 5 5 3 5 5 5 3 5 3 5 5 5 5 5 5 5 3 5 5 5 5 5 5 5 5 5 5 5 5 5 5 5 5 5 5 5 5 5 3 5 5 5 5 3 5 5 5 3 5 5 5 5 5 5 3 5 5 5 3 5 5 5 5 5 5 5 5 5 5 5 5 3 5 5 3 3 5 5 5 3 5 5 3 5 5 5 5 3 5 5 5 5 5 3 3 5 5 5 3 5 5 5 5 5 3 5 5 5 5 5 5 5 5 5 5 5 5 5 5 5 5 5 5 5 5 5 5 5 5 5 5 5 5 5 5 5 3 5 5 5 5 5 5 5 5 5 5 5 3 5 5 5 5 5 5 5 3 5 5 5 5 5 5 3 5 5 5 5 3 5 5 5 3 5 5 5 3 5 5 5 3 5 3 5 5 5 3 3 5 3 3 5 3 5 3 5 5 5 3 5 5 5 5 5 5 5 5 5 5 3 3 5 5 5 5 5 5 3 5 3 5 5 5 3 3 5 5 5 5 5 5 3 3 3 5 5 5 5 5 5 5 5 5 5 5 5 5 5 5 5 5 5 5 5 5 3 5 5 5 5 5 5 3 3 5 5 5 5 5 5 5 5 5 5 5 5 5 5 5 5 5 5 5 3 3 5 5 5 5 3 3 5 3 3 5 5 3 5 5 3 3 3 5 5 5 5 5 5 5 5 5 3 5 5 5 5 3 5 5 3 5 5 5 5 5 3 5 5 5 3 5 5 5 5 5 5 5 5 5 5 5 5 5 3 5 5 5 5 3 5 5 5 3 5 5 5 5 5 5 5 5 5 5 5 5 3 5 3 5 5 3 5 3 5 5 5 5 5 3 5 5 5 5 5 5 5 5 5 5 5 5 5 5 5 5 5 5 5 5 5 5 5 5 5 5 5 3 5 5 5 3 5 5 5 5 5 5 5 5 3 5 5 3 5 5 5 3 5 5 5 5 5 5 5 5 5 5 5 5 5 5 5 5 5 5 5 5 5 3 5 5 3 3 5 3 5 5 3 5 5 3 5 5 5 5 5 5 5 3 5 5 5 5 5 5 5 5 5 5 3 3 5 5 5 5 5 5 5 5 5 5 5 5 5 5 5 5 5 5 5 5 5 5 5 5 5 3 5 5 5 5 5 5 5 5 5 5 3 5 5 5 5 5 5 5 5 5 5 5 5 5 5 3 3 5 5 5 5 5 5 5 5 5 5 5 5 5 5 5 5 5 5 5 5 5 5 3 3 5 5 3 3 5 5 5 5 5 5 5 5 5 5 5 3 5 5 5 5 5 5 5 5 5 3 5 5 5 5 5 5 3 5 3 5 5 5 5 3 5 3 3 5 3 3 5 5 5 5 5 5 5 5 5 5 5 5 5 5 5 5 5 3 5 5 3 5 3 5 5 5 5 5 3 5 3 5 3 5 5 3 5 3 5 5 5 5 5 5 5 5 5 3 5 5 5 5 5 5 5 5 5 5 5 5 5 5 5 5 5 5 5 5 5 3 5 5 5 5 5 5 5 5 3 5 5 5 5 5 5 5 5 3 5 5 5 5 5 5 5 5 5 5 5 3 5 5 5 5 5 3 5 5 5 5 5 5 5 3 3 5 5 5 5 5 5 5 5 5 3 5 5 5 5 5 5 5 5 5 5 3 5 5 5 5 5 5 5 5 5 5 5 3 5 5 5 5 3 5 3 3 5 5 5 5 5 5 3 5 5 5 5 3 5 5 5 5 5 5 5 5 5 3 5 3 5 5 5 5 5 5 3 5 5 3 3 5 5 3 5 3 5 3 5 5 5 5 5 3 5 5 3 5 5 5 5 5 5 3 5 5 5 3 5 3 5 5 3 5 5 5 5 5 3 5 5 5 5 5 5 5 5 5 5 5 3 3 5 5 5 5 5 5 3 5 5 5 5 5 5 5 5 5 5 5 5 5 5 5 3 5 5 3 5 5 5 5 5 5 5 5 5 5 5 5 5 5 5 5 5 5 5 5 5 5 5 5 5 5 5 5 5 5 5 5 5 5 5 5 5 5 5 5 5 5 3 5 5 5 5 5 5 5 5 5 5 5 5 5 5 5 5 5 5 5 5 5 5 5 5 3 5 5 5 5 3 5 5 5 3 5 5 5 5 5 5 5 5 5 5 5 5 5 5 5 5 5 5 5 5 5 5 5 5 5 5 5 5 5 5 5 5 5 5 5 3 5 5 5 5 5 5 5 5 3 5 5 5 5 3 5 5 5 5 5 5 5 5 5 5 5 5 5 5 5 5 5 5 5 5 5 3 5 5 5 5 3 5 5 5 5 5 5 5 5 5 5 5 5 5 5 5 3 5 3 5 5 5 5 5 5 5 5 3 5 5 5 5 5 3 5 5 5 5 5 5 5 5 5 5 5 5 5 3 5 5 3 5 5 5 3 5 5 5 5 5 5 5 3 5 5 5 5 5 5 5 5 5 5 5 5 5 5 5 5 5 5 5 5 5 5 5 5 5 5 3 5 5 5 3 5 5 5 5 5 5 5 5 5 5 5 5 5 5 5 5 5 5 5 5 5 5 5 5 5 5 5 5 5 5 5 5 5 3 5 5 5 5 5 5 5 5 5 5 5 5 5 3 5 5 5 5 5 5 5 5 5 5 3 5 5 5 5 3 5 5 5 5 5 3 5 5 5 5 5 5 5 5 5 5 5 5 5 5 5 5 5 3 5 5 5 5 5 5 5 5 5 5 5 5 5 5 5 5 5 5 5 3 5 5 5 5 5 5 5 5 3 5 5 5 5 5 3 5 5 5 5 5 5 3 5 5 5 5 5 5 5 5 5 5 5 5 5 5 5 3 3 5 5 5 5 3 5 5 5 5 3 5 5 5 5 5 5 5 5 5 5 3 5 5 3 5 3 3 5 5 5 5 3 3 5 5 5 5 5 5 5 3 5 5 5 5 3 5 5 3 5 3 3 5 5 5 3 5 5 5 3 5 5 5 5 5 5 5 5 5 5 5 5 5 3 5 3 3 5 5 5 3 5 3 5 5 3 3 5 5 5 3 3 5 5 5 5 5 5 3 5 3 5 5 5 3 5 3 5 5 5 3 5 3 5 5 5 3 5 5 3 5 5 5 3 5 5 3 5 5 5 5 5 5 5 3 3 5 5 5 5 3 5 5 5 5 5 3 5 3 5 5 5 3 3 5 5 5 5 5 5 5 5 5 3 5 5 5 5 5 3 5 5 5 5 3 5 5 5 3 5 5 5 5 3 5 5 5 5 3 5 5 5 5 5 5 5 5 5 5 5 5 5 5 5 5 5 5 5 5 3 5 5 3 5 5 3 5 3 5 5 3 3 5 5 5 5 5 5 5 5 5 3 5 5 5 5 5 5 5 5 5 5 5 5 5 5 5 5 5 5 5 5 3 5 5 5 5 5 5 5 5 5 5 5 5 5 5 5 5 3 5 5 5 5 5 5 5 5 5 3 5 5 5 5 5 5 5 5 5 5 5 5 5 5 5 5 5 3 5 5 3 5 3 5 5 5 5 5 5 5 5 5 3 5 5 5 5 5 5 5 5 3 5 5 5 5 5 5 5 5 5 5 5 5 5 5 5 5 5 5 3 5 3 5 5 5 5 3 5 5 5 5 3 5 5 5 5 5 5 5 5 5 5 5 5 5 5 5 5 3 5 5 3 3 5 5 5 5 5 5 5 3 3 5 5 5 5 3 5 5 5 5 5 5 5 5 5 5 3 5 5 5 5 5 5 5 5 3 5 5 5 5 5 5 5 5 5 3 5 5 3 5 5 3 5 5 5 5 5 5 3 5 3 5 5 5 5 3 5 5 5 3 5 5 5 5 5 3 5 5 5 5 5 5 5 5 5 3 5 5 3 5 5 5 5 5 5 5 5 5 5 5 5 5 5 5 5 5 5 5 5 3 5 5 5 5 5 5 5 5 5 5 5 3 5 5 5 5 5 5 5 5 5 3 5 5 5 5 5 5 5 5 5 5 5 5 5 5 5 5 5 5 3 5 5 5 3 3 5 5 5 5 3 3 5 5 3 5 5 5 5 5 5 3 5 5 5 5 5 5 5 5 5 5 5 5 5 5 5 5 5 5 5 5 3 5 5 5 5 5 5 5 5 5 5 3 5 3 5 5 5 5 5 5 3 5 5 5 5 5 3 5 5 5 3 5 5 5 5 3 5 5 5 3 5 5 5 5 5 5 5 5 5 5 5 5 3 5 5 5 5 5 5 3 3 5 5 5 5 5 5 5 3 5 3 5 5 3 5 5 5 5 5 5 5 5 5 5 5 5 5 5 5 5 5 5 5 3 5 5 5 5 5 5 3 5 5 5 5 5 5 5 5 5 5 5 3 5 5 5 5 3 5 5 5 3 5 5 5 5 3 5 5 3 3 5 5 5 5 5 3 5 5 5 5 5 3 3 3 5 5 5 5 5 3 3 5 3 3 5 3 5 5 5 5 5 5 5 5 5 5 5 3 5 5 5 5 3 5 5 5 3 5 3 5 3 3 5 5 5 3 5 3 3 3 5 5 5 3 5 3 5 3 5 5 5 3 5 5 5 5 5 5 5 5 5 5 5 5 5 5 5 5 5 5 5 5 5 5 5 5 5 5 5 5 3 5 5 5 5 5 5 3 5 5 5 5 5 5 5 5 5 5 5 5 5 5 5 5 5 5 5 5 5 5 5 5 5 5 5 5 5 5 5 5 5 5 5 5 5 5 5 5 5 5 5 5 5 5 5 5 5 5 3 5 5 5 5 5 5 5 5 5 5 5 5 5 5 5 5 5 5 5 5 5 5 5 5 3 3 5 5 5 5 5 5 5 5 5 5 5 5 5 5 5 5 5 5 5 5 5 5 5 3 5 5 5 5 5 5 5 5 5 5 5 5 5 5 5 5 3 3 5 5 5 5 5 3 3 3 5 5 5 3 3 5 5 5 5 5 5 5 5 5 5 5 5 5 5 5 5 3 5 3 5 5 3 5 5 5 5 5 5 5 5 5 5 5 5 5 5 5 5 5 5 5 5 5 5 5 5 5 5 5 5 5 5 5 5 5 5 5 3 5 5 5 5 5 5 5 5 5 5 5 5 5 5 5 3 5 5 5 5 5 5 5 5 5 5 5 5 5 5 3 5 5 5 5 5 5 5 5 5 5 5 5 5 5 5 5 5 5 5 5 5 5 5 5 5 5 5 5 5 5 5 3 5 5 5 5 5 5 3 5 5 5 5 5 5 5 5 3 5 3 5 5 5 5 5 5 5 5 3 5 5 5 5 5 5 5 5 5 5 5 5 5 5 5 5 5 5 5 5 5 5 5 5 5 5 5 5 5 5 3 5 5 5 5 5 5 5 5 5 5 5 5 5 3 3 5 5 3 3 5 5 5 5 5 3 5 5 5 5 5 5 3 5 5 5 5 5 3 5 3 5 3 5 5 3 5 5 5 5 5 5 5 3 5 3 5 5 3 5 5 5 5 3 5 5 5 3 5 5 5 5 5 3 5 3 5 5 3 5 5 5 3 5 3 5 5 5 5 5 5 5 3 5 5 3 3 5 3 3 5 5 5 3 5 3 3 3 5 5 5 5 5 3 5 5 5 5 5 5 3 5 5 5 3 5 3 5 5 5 5 5 5 5 5 5 5 5 5 5 5 5 5 5 3 5 5 3 5 5 5 5 5 5 5 5 5 3 5 5 5 5 5 5 5 5 3 5 5 5 3 5 3 5 5 3 5 5 5 5 3 5 5 5 5 5 5 5 3 5 3 5 5 5 5 5 5 5 3 5 5 5 3 5 3 5 5 3 3 5 5 5 5 5 3 5 5 5 5 5 5 5 5 5 5 5 5 5 5 5 5 5 5 3 3 5 5 5 5 5 5 3 5 5 3 3 5 5 3 5 3 5 5 3 5 5 5 3 5 5 3 5 5 5 5 3 5 5 5 5 5 5 3 5 5 5 5 3 3 5 3 3 5 5 5 5 5 5 5 5 5 5 5 5 5 5 5 5 5 5 5 5 5 5 5 5 5 5 5 5 5 5 3 5 5 3 5 5 5 5 5 5 5 5 5 5 3 5 5 5 5 5 5 5 5 3 5 5 5 5 5 5 5 3 5 5 5 3 5 5 5 3 5 3 5 5 5 5 5 5 3 5 3 5 5 5 3 5 5 5 5 5 5 5 5 5 5 5 5 5 5 5 5 5 5 3 3 3 5 3 5 5 5 5 5 5 3 5 3 5 5 5 5 3 5 5 3 3 5 5 5 5 5 3 5 3 5 5 5 3 5 5 3 3 5 5 5 5 3 5 5 3 5 5 5 3 5 5 5 3 5 3 5 5 5 5 5 5 5 5 3 5 5 5 5 5 5 5 5 3 5 5 5 5 3 5 3 5 5 3 5 5 3 5 5 5 5 3 5 5 5 5 5 5 5 5 5 5 5 5 5 5 5 5 5 5 5 5 5 5 3 5 5 5 5 5 5 5 5 5 5 5 5 5 5 5 5 5 5 5 5 5 5 5 5 5 5 5 5 5 5 5 5 3 5 3 3 5 5 5 5 5 5 5 3 5 5 5 5 5 5 3 5 5 5 3 5 5 5 5 5 5 5 5 5 5 5 3 5 5 3 5 5 5 5 3 5 5 3 5 5 5 5 5 5 5 3 5 5 5 5 5 5 5 5 5 5 5 3 5 5 5 5 5 5 5 5 5 5 5 5 5 3 5 5 5 3 5 5 5 5 5 5 5 5 5 5 5 5 5 5 5 5 5 5 5 5 5 5 5 5 5 5 5 5 5 5 5 5 5 5 5 3 5 5 5 5 5 3 5 5 3 5 5 5 3 3 5 5 5 5 5 5 3 5 5 5 5 5 5 5 5 5 5 5 5 5 5 5 5 5 5 5 5 5 5 5 5 3 5 5 5 5 5 5 3 5 5 3 5 5 5 5 5 5 3 5 3 5 5 5 3 5 5 3 5 5 5 5 3 5 5 5 3 5 5 3 3 5 5 3 5 5 3 3 5 3 5 5 5 3 3 3 5 5 5 3 5 5 5 3 5 5 5 5 3 5 5 5 5 5 5 5 5 5 5 5 5 5 5 3 5 3 5 5 5 5 5 3 5 5 5 5 5 5 5 3 3 5 5 5 5 5 5 5 3 5 3 3 3 5 5 5 5 5 5 5 3 5 5 3 5 3 5 3 5 5 3 5 5 5 5 5 5 5 5 5 5 5 5 5 5 5 3 5 5 5 5 5 5 5 5 5 5 5 3 5 5 5 5 3 5 5 5 5 5 5 5 5 5 5 3 5 5 3 5 5 3 5 5 5 5 3 5 5 5 3 3 5 5 5 5 5 5 3 5 5 5 5 5 5 5 5 5 5 5 5 5 5 5 3 5 5 5 3 5 5 5 5 5 5 5 3 5 5 5 5 3 3 5 5 5 5 5 5 5 5 5 5 5 5 5 5 3 5 5 5 3 5 5 5 5 5 3 5 3 5 5 5 5 5 5 5 5 3 3 5 3 3 5 5 5 5 5 3 3 3 5 3 5 3 5 5 3 5 5 5 5 5 5 5 5 5 5 5 5 5 5 5 5 5 5 5 5 3 5 5 5 5 5 5 5 5 5 5 5 5 5 5 3 5 5 5 5 5 5 5 5 5 5 5 5 5 5 5 5 3 5 5 5 5 3 5 5 5 5 5 5 5 3 5 3 5 5 3 5 5 5 5 3 5 3 5 5 3 5 5 5 5 5 5 5 5 5 5 5 5 5 5 3 5 5 5 5 5 5 5 5 5 5 5 5 5 3 5 5 5 3 5 3 5 5 3 5 5 5 3 5 5 5 5 5 5 5 5 5 5 5 5 5 5 5 5 3 5 5 5 5 3 5 5 3 5 5 5 5 5 5 5 3 5 5 5 5 5 5 5 5 5 5 5 5 5 5 5 5 5 5 5 5 5 5 3 5 5 5 3 5 5 5 5 5 5 5 5 5 5 5 5 5 5 5 5 3 5 5 5 5 5 5 5 5 5 5 5 5 5 3 5 5 5 5 5 5 5 5 5 5 5 3 5 5 5 5 5 5 5 3 5 5 5 5 3 3 5 5 5 5 5 5 5 5 5 5 5 5 5 5 5 5 5 5 5 5 5 5 5 3 5 5 5 5 5 5 5 3 5 3 5 5 5 3 5 5 5 5 5 3 5 5 5 3 5 5 5 3 5 5 5 5 5 5 5 5 5 3 5 5 5 5 5 5 5 5 5 5 5 5 5 5 5 5 3 5 5 5 5 3 5 5 5 3 5 3 3 5 5 5 5 5 5 5 5 5 5 5 5 5 5 5 5 5 5 5 5 5 5 5 5 5 3 5 5 5 3 5 3 5 3 5 5 3 5 5 5 3 5 5 5 5 5 5 5 3 5 5 3 3 3 5 5 3 5 5 5 5 3 3 5 3 5 5 5 5 5 3 5 5 5 5 5 3 5 5 5 3 5 5 5 5 5 5 5 5 5 5 3 5 5 5 5 3 3 5 5 5 5 3 5 3 5 3 5 5 5 5 5 5 5 5 5 5 5 5 5 5 5 5 3 5 5 5 5 5 5 5 5 3 5 5 5 3 5 5 5 5 5 3 5 5 3 5 5 5 5 5 3 5 5 3 5 5 3 3 3 5 3 5 5 5 3 5 5 5 5 5 5 5 5 5 5 5 5 3 5 3 5 5 5 5 5 5 5 5 5 5 5 5 5 5 5 5 5 3 5 5 5 5 5 5 3 5 5 3 5 5 5 5 5 5 5 5 5 3 3 5 5 5 5 5 5 3 5 5 3 5 5 5 5 5 5 5 5 5 5 5 5 5 5 5 5 3 5 3 5 5 5 5 5 5 5 5 5 5 3 5 5 5 5 5 3 5 5 5 5 5 5 5 5 5 5 5 5 5 5 5 5 3 5 5 5 5 5 5 5 5 5 3 5 5 5 5 5 5 5 3 5 3 5 5 5 5 5 3 5 3 5 5 3 5 5 5 5 5 5 5 5 5 5 5 3 5 5 5 5 3 5 5 5 5 5 5 5 5 5 5 5 5 3 5 5 3 5 5 5 5 5 5 5 5 5 5 3 5 3 5 5 5 5 5 3 5 5 5 5 5 5 5 5 5 5 3 3 5 5 5 5 5 3 5 5 5 3 5 5 5 5 5 5 3 5 5 5 5 5 5 5 5 3 5 5 5 5 5 5 5 5 5 5 5 5 5 5 5 3 5 5 5 5 5 3 5 5 5 5 3 5 5 5 3 5 5 3 5 5 5 5 5 5 5 5 5 5 5 5 5 5 5 5 5 5 5 5 5 5 5 3 5 5 5 5 5 5 5 3 5 5 5 5 5 5 5 5 5 5 5 5 5 5 5 5 5 5 5 5 5 5 5 5 5 5 5 5 5 5 5 5 5 5 5 5 5 3 5 5 5 5 5 5 5 5 3 5 5 5 5 5 5 5 5 5 5 5 5 5 5 3 5 5 3 5 3 3 3 5 5 5 5 3 5 5 5 5 5 5 5 5 5 5 5 5 5 5 5 5 5 5 5 5 5 5 5 5 5 5 5 5 5 5 5 5 5 5 5 5 5 5 5 5 5 5 5 3 5 5 3 5 5 5 5 5 3 5 5 5 5 3 3 5 3 5 5 5 3 5 5 5 5 5 5 5 5 5 5 5 5 5 5 5 5 5 5 5 5 5 5 5 5 5 5 5 5 5 5 3 5 5 5 5 5 5 3 5 5 5 3 5 5 5 5 5 5 5 5 5 5 5 5 5 3 5 5 5 5 5 5 5 5 5 5 5 5 5 5 5 5 5 5 5 5 5 5 5 5 5 3 3 5 5 5 3 5 3 5 5 5 3 5 5 5 3 3 5 5 3 5 5 5 5 5 5 5 5 5 5 5 3 5 5 5 5 5 5 5 5 3 5 5 5 5 5 5 5 5 5 5 5 5 5 3 3 5 5 5 5 5 5 5 3 5 5 5 5 3 5 5 5 5 5 5 5 5 5 5 5 3 5 3 3 3 5 5 5 3 5 5 5 5 3 5 5 5 5 5 5 5 5 5 5 5 5 5 5 5 5 5 5 5 5 5 5 5 5 5 5 5 5 3 5 5 5 5 5 5 3 5 3 3 5 5 5 5 5 5 5 3 5 5 5 5 5 5 5 5 5 5 5 5 5 5 5 5 5 5 5 5 5 5 5 5 5 5 5 5 5 5 5 5 5 5 5 5 5 5 5 5 5 5 5 5 5 5 5 5 5 5 5 5 5 5 5 5 5 5 5 5 5 5 5 5 5 5 5 5 5 5 5 5 5 5 5 5 5 5 5 5 5 5 5 5 5 5 5 5 5 5 5 5 5 5 5 5 5 5 5 5 5 5 5 5 5 5 5 5 5 5 5 5 5 5 5 5 5 5 5 5 5 5 3 3 5 3 3 5 5 3 5 5 3 5 5 5 5 5 5 5 5 5 5 5 5 5 5 3 3 5 3 3 5 5 5 5 5 5 5 5 5 5 3 5 5 5 5 5 5 3 5 5 5 5 5 5 5 5 5 5 3 5 5 3 5 5 5 5 5 5 5 5 5 5 5 5 5 5 5 5 5 5 5 5 5 5 5 5 5 5 3 5 5 5 5 5 5 5 5 5 5 5 5 5 5 5 5 5 3 5 5 5 3 5 5 5 5 5 5 3 5 5 5 5 5 5 5 5 3 5 5 5 5 3 5 3 5 3 5 5 5 5 5 3 5 5 5 3 5 3 5 5 5 5 5 5 5 5 5 5 5 5 3 5 5 5 5 5 5 5 5 5 5 5 5 5 5 5 5 5 5 5 5 5 5 5 5 5 5 5 5 5 5 5 5 5 5 5 5 3 5 5 5 5 5 5 3 5 5 5 5 5 5 5 5 3 3 5 5 5 5 5 3 3 5 5 5 5 5 5 5 5 5 3 5 5 5 5 3 5 5 5 5 5 3 5 5 5 5 5 5 5 5 5 5 5 5 5 5 3 5 5 5 5 5 5 5 5 5 5 5 5 5 3 5 5 
</DataArray>
</Cells>
<PointData Scalars="" Vectors="displacement," Tensors="">
<DataArray type="Float64" Name="displacement" NumberOfComponents="3" format="ascii">
0.034996748376253509 6.0047263967637907e-07 0 0.031914801177467131 0.00019218066660970715 0 0.033316834477296137 0.00013097965200980417 0 0.034996748376253509 6.0047263967637907e-07 0 0.034996233536534291 2.030578962355861e-07 0 0.033316834477296137 0.00013097965200980417 0 0.034996748376253509 6.0047263967637907e-07 0 0.031914801177467131 0.00019218066660970715 0 0.029083073734197957 0.00018060889557727628 0 0.034996233536534291 2.030578962355861e-07 0 0.033269734566307843 3.0286825986747994e-05 0 0.033316834477296137 0.00013097965200980417 0 0.034996233536534291 2.030578962355861e-07 0 0.034321020639290253 4.1109644950493398e-05 0 0.034999067597705644 2.7860204587414512e-07 0 0.034996233536534291 2.030578962355861e-07 0 0.034321020639290253 4.1109644950493398e-05 0 0.033269734566307843 3.0286825986747994e-05 0 0.034321020639290253 4.1109644950493398e-05 0 0.033907294411610583 -3.8865171875063438e-05 0 0.033269734566307843 3.0286825986747994e-05 0 0.033124114623210667 7.552530309974385e-05 0 0.032743231045096986 -4.4671711668275559e-05 0 0.033269734566307843 3.0286825986747994e-05 0 0.03213661034558616 8.7286467064559396e-05 0 0.031921692544460312 5.0248729482843669e-05 0 0.033907294411610583 -3.8865171875063438e-05 0 0.033269734566307843 3.0286825986747994e-05 0 0.033545013605652346 -0.00027257763021334313 0 0.033907294411610583 -3.8865171875063438e-05 0 0.033545013605652346 -0.00027257763021334313 0 0.033756390217996354 -7.59737480233747e-05 0 0.033269734566307843 3.0286825986747994e-05 0 0.033316834477296137 0.00013097965200980417 0 0.03213661034558616 8.7286467064559396e-05 0 0.031914801177467131 0.00019218066660970715 0 0.033316834477296137 0.00013097965200980417 0 0.03213661034558616 8.7286467064559396e-05 0 0.031914801177467131 0.00019218066660970715 0 0.03213661034558616 8.7286467064559396e-05 0 0.03074439326691137 0.00013963312080473865 0 0.03213661034558616 8.7286467064559396e-05 0 0.03074439326691137 0.00013963312080473865 0 0.031335543976449297 6.6988284041737182e-05 0 0.03074439326691137 0.00013963312080473865 0 0.031335543976449297 6.6988284041737182e-05 0 0.030681002802795353 -2.9517847639001139e-05 0 0.033545013605652346 -0.00027257763021334313 0 0.033756390217996354 -7.59737480233747e-05 0 0.033681742755377178 -0.00034719462469400231 0 0.03213661034558616 8.7286467064559396e-05 0 0.031921692544460312 5.0248729482843669e-05 0 0.031335543976449297 6.6988284041737182e-05 0 0.031335543976449297 6.6988284041737182e-05 0 0.031125766607764369 -2.8568599177010683e-06 0 0.030968901090320852 -2.9366613001238491e-05 0 0.031921692544460312 5.0248729482843669e-05 0 0.031335543976449297 6.6988284041737182e-05 0 0.031125766607764369 -2.8568599177010683e-06 0 0.032743231045096986 -4.4671711668275559e-05 0 0.032354183570681205 -0.00015889410886366583 0 0.033545013605652346 -0.00027257763021334313 0 0.033593799448231355 -0.00038213824677704803 0 0.033681742755377178 -0.00034719462469400231 0 0.031125766607764369 -2.8568599177010683e-06 0 0.030807688704851767 -0.00013804664350734486 0 0.030663131364819293 -0.00027167090001465499 0 0.033593799448231355 -0.00038213824677704803 0 0.033583881177755535 -0.00043114080184071464 0 0.033601196402143756 -0.00042755255363692438 0 0.032354183570681205 -0.00015889410886366583 0 0.032173532950186844 -0.00034168253800189412 0 0.031125766607764369 -2.8568599177010683e-06 0 0.030807688704851767 -0.00013804664350734486 0 0.030968901090320852 -2.9366613001238491e-05 0 0.031335543976449297 6.6988284041737182e-05 0 0.030968901090320852 -2.9366613001238491e-05 0 0.030681002802795353 -2.9517847639001139e-05 0 0.030968901090320852 -2.9366613001238491e-05 0 0.030639087009771769 -0.00015713697273118571 0 0.030681002802795353 -2.9517847639001139e-05 0 0.030807688704851767 -0.00013804664350734486 0 0.030639087009771769 -0.00015713697273118571 0 0.030557630980744842 -0.00029432415579368622 0 0.030807688704851767 -0.00013804664350734486 0 0.030968901090320852 -2.9366613001238491e-05 0 0.030639087009771769 -0.00015713697273118571 0 0.030639087009771769 -0.00015713697273118571 0 0.03022746293448857 -0.00042549180003234339 0 0.030557630980744842 -0.00029432415579368622 0 0.03022746293448857 -0.00042549180003234339 0 0.030557630980744842 -0.00029432415579368622 0 0.030262494660993445 -0.0005510166462173472 0 0.030663131364819293 -0.00027167090001465499 0 0.030310527383827286 -0.00067192119343327961 0 0.030392688242522378 -0.0004911714536962804 0 0.030807688704851767 -0.00013804664350734486 0 0.030557630980744842 -0.00029432415579368622 0 0.030663131364819293 -0.00027167090001465499 0 0.030557630980744842 -0.00029432415579368622 0 0.030392688242522378 -0.0004911714536962804 0 0.030262494660993445 -0.0005510166462173472 0 0.030557630980744842 -0.00029432415579368622 0 0.030663131364819293 -0.00027167090001465499 0 0.030392688242522378 -0.0004911714536962804 0 0.03074439326691137 0.00013963312080473865 0 0.030051984287282077 -0.00017627303523122309 0 0.029695943530742442 1.2887431995021869e-06 0 0.030639087009771769 -0.00015713697273118571 0 0.030681002802795353 -2.9517847639001139e-05 0 0.030051984287282077 -0.00017627303523122309 0 0.03074439326691137 0.00013963312080473865 0 0.030681002802795353 -2.9517847639001139e-05 0 0.030051984287282077 -0.00017627303523122309 0 0.03022746293448857 -0.00042549180003234339 0 0.030051984287282077 -0.00017627303523122309 0 0.029856322180539158 -0.00057929350157299216 0 0.030639087009771769 -0.00015713697273118571 0 0.03022746293448857 -0.00042549180003234339 0 0.030051984287282077 -0.00017627303523122309 0 0.030051984287282077 -0.00017627303523122309 0 0.028894643887785863 -0.00012526568921011818 0 0.029695943530742442 1.2887431995021869e-06 0 0.034996748376253509 6.0047263967637907e-07 0 0.029083073734197957 0.00018060889557727628 0 0.026604273472638214 2.5180875620953733e-07 0 0.028894643887785863 -0.00012526568921011818 0 0.029695943530742442 1.2887431995021869e-06 0 0.029083073734197957 0.00018060889557727628 0 0.028894643887785863 -0.00012526568921011818 0 0.029083073734197957 0.00018060889557727628 0 0.026432955075598598 -0.00029560251382638227 0 0.03074439326691137 0.00013963312080473865 0 0.029695943530742442 1.2887431995021869e-06 0 0.029083073734197957 0.00018060889557727628 0 0.029083073734197957 0.00018060889557727628 0 0.026604273472638214 2.5180875620953733e-07 0 0.026432955075598598 -0.00029560251382638227 0 0.031914801177467131 0.00019218066660970715 0 0.03074439326691137 0.00013963312080473865 0 0.029083073734197957 0.00018060889557727628 0 0.034797584669317767 0.00016563007151564494 0 0.03465101190519386 0.00042495988437099243 0 0.034483864442472756 0.00015292004687348146 0 0.034831791391037543 0.00019660842330091328 0 0.034797584669317767 0.00016563007151564494 0 0.03465101190519386 0.00042495988437099243 0 0.034831791391037543 0.00019660842330091328 0 0.034797584669317767 0.00016563007151564494 0 0.03486727632174829 0.0001283073021478962 0 0.034797584669317767 0.00016563007151564494 0 0.034881530820753445 8.260171598095545e-05 0 0.03486727632174829 0.0001283073021478962 0 0.034797584669317767 0.00016563007151564494 0 0.034826994120431741 4.397021605604392e-05 0 0.034881530820753445 8.260171598095545e-05 0 0.034797584669317767 0.00016563007151564494 0 0.034826994120431741 4.397021605604392e-05 0 0.034483864442472756 0.00015292004687348146 0 0.034826994120431741 4.397021605604392e-05 0 0.034999790688240884 8.1054815691264582e-09 0 0.034775722340616273 5.1076141226749801e-05 0 0.034826994120431741 4.397021605604392e-05 0 0.034999790688240884 8.1054815691264582e-09 0 0.034999862753901295 1.0558054395505294e-08 0 0.034826994120431741 4.397021605604392e-05 0 0.034999862753901295 1.0558054395505294e-08 0 0.034881530820753445 8.260171598095545e-05 0 0.034881530820753445 8.260171598095545e-05 0 0.034922580219473788 5.5484534986533555e-05 0 0.034891820044283053 0.00010062323040344006 0 0.034946376917740725 1.3544659110610711e-05 0 0.034910629518606323 9.2971676329381915e-06 0 0.035000202563760852 -1.2059138423578797e-07 0 0.034970526056380326 -1.4482707077789814e-05 0 0.034917775379124043 1.290798962705426e-07 0 0.034999862753901295 1.0558054395505294e-08 0 0.034881530820753445 8.260171598095545e-05 0 0.034922580219473788 5.5484534986533555e-05 0 0.034999970210372315 1.630385532829432e-09 0 0.034946376917740725 1.3544659110610711e-05 0 0.03492699912912154 -8.4033456114992807e-05 0 0.03488250885047791 -7.061687450049867e-05 0 0.034917775379124043 1.290798962705426e-07 0 0.034970526056380326 -1.4482707077789814e-05 0 0.03492699912912154 -8.4033456114992807e-05 0 0.034917775379124043 1.290798962705426e-07 0 0.034881530820753445 8.260171598095545e-05 0 0.034891820044283053 0.00010062323040344006 0 0.03486727632174829 0.0001283073021478962 0 0.034891820044283053 0.00010062323040344006 0 0.03486727632174829 0.0001283073021478962 0 0.034873358848479731 8.3843515520037144e-05 0 0.034831791391037543 0.00019660842330091328 0 0.034873358848479731 8.3843515520037144e-05 0 0.034841364331147574 0.00015262873475636507 0 0.034831791391037543 0.00019660842330091328 0 0.03486727632174829 0.0001283073021478962 0 0.034873358848479731 8.3843515520037144e-05 0 0.034861140809493041 8.1079608746352413e-05 0 0.034873358848479731 8.3843515520037144e-05 0 0.034841364331147574 0.00015262873475636507 0 0.03492699912912154 -8.4033456114992807e-05 0 0.034903627872761335 -0.00011756772316471555 0 0.034875089547005522 -1.6308410208119589e-05 0 0.034910629518606323 9.2971676329381915e-06 0 0.034884626875374622 -7.941376335513917e-06 0 0.034891820044283053 0.00010062323040344006 0 0.034873358848479731 8.3843515520037144e-05 0 0.034875089547005522 -1.6308410208119589e-05 0 0.034861140809493041 8.1079608746352413e-05 0 0.034875089547005522 -1.6308410208119589e-05 0 0.034868067844315245 0.00012319645359061573 0 0.034861140809493041 8.1079608746352413e-05 0 0.034873358848479731 8.3843515520037144e-05 0 0.034875089547005522 -1.6308410208119589e-05 0 0.035000202563760852 -1.2059138423578797e-07 0 0.034917775379124043 1.290798962705426e-07 0 0.034999067597705644 2.7860204587414512e-07 0 0.03496928347697472 -8.2454330694126292e-05 0 0.033799092326978183 -3.3960416301501742e-05 0 0.034903627872761335 -0.00011756772316471555 0 0.034559584303081321 -0.00032651152659748234 0 0.034811738451680015 -0.00048160023023126097 0 0.034903627872761335 -0.00011756772316471555 0 0.034875089547005522 -1.6308410208119589e-05 0 0.03496762893690409 0.00012606541808914324 0 0.034903627872761335 -0.00011756772316471555 0 0.034559584303081321 -0.00032651152659748234 0 0.034715889689847824 -0.00013667367187841512 0 0.033753543555798925 -0.00013626546733843984 0 0.033799092326978183 -3.3960416301501742e-05 0 0.032931998556359608 -8.5566825825955542e-06 0 0.033072445735783405 0.00017285345411432112 0 0.032777387105521125 0.00018640967698092922 0 0.034559584303081321 -0.00032651152659748234 0 0.034715889689847824 -0.00013667367187841512 0 0.034087771306923843 -0.00015200445355009431 0 0.034715889689847824 -0.00013667367187841512 0 0.034776954271617568 -1.0149010535841883e-05 0 0.034087771306923843 -0.00015200445355009431 0 0.034715889689847824 -0.00013667367187841512 0 0.03488250885047791 -7.061687450049867e-05 0 0.034776954271617568 -1.0149010535841883e-05 0 0.03492699912912154 -8.4033456114992807e-05 0 0.034903627872761335 -0.00011756772316471555 0 0.03488250885047791 -7.061687450049867e-05 0 0.034903627872761335 -0.00011756772316471555 0 0.034715889689847824 -0.00013667367187841512 0 0.03488250885047791 -7.061687450049867e-05 0 0.034917775379124043 1.290798962705426e-07 0 0.034776954271617568 -1.0149010535841883e-05 0 0.034999067597705644 2.7860204587414512e-07 0 0.03488250885047791 -7.061687450049867e-05 0 0.034917775379124043 1.290798962705426e-07 0 0.034776954271617568 -1.0149010535841883e-05 0 0.034776954271617568 -1.0149010535841883e-05 0 0.034999067597705644 2.7860204587414512e-07 0 0.034087771306923843 -0.00015200445355009431 0 0.034321020639290253 4.1109644950493398e-05 0 0.034999067597705644 2.7860204587414512e-07 0 0.034087771306923843 -0.00015200445355009431 0 0.034321020639290253 4.1109644950493398e-05 0 0.033907294411610583 -3.8865171875063438e-05 0 0.034087771306923843 -0.00015200445355009431 0 0.033907294411610583 -3.8865171875063438e-05 0 0.034087771306923843 -0.00015200445355009431 0 0.033756390217996354 -7.59737480233747e-05 0 0.034087771306923843 -0.00015200445355009431 0 0.033756390217996354 -7.59737480233747e-05 0 0.033072445735783405 0.00017285345411432112 0 0.032931998556359608 -8.5566825825955542e-06 0 0.034087771306923843 -0.00015200445355009431 0 0.033072445735783405 0.00017285345411432112 0 0.033753543555798925 -0.00013626546733843984 0 0.033982018405359471 -0.00014379749595295612 0 0.033756390217996354 -7.59737480233747e-05 0 0.032924260508805425 0.00027142484438555305 0 0.033072445735783405 0.00017285345411432112 0 0.033661082695617107 -0.00011055425595595839 0 0.033213638584455266 -5.1522587389695835e-05 0 0.033756390217996354 -7.59737480233747e-05 0 0.032924260508805425 0.00027142484438555305 0 0.032752232974085881 0.00035603024024731707 0 0.033072445735783405 0.00017285345411432112 0 0.032622112054042605 0.00033083532003282438 0 0.032673573086716361 0.00030013975533579586 0 0.032924260508805425 0.00027142484438555305 0 0.033072445735783405 0.00017285345411432112 0 0.032622112054042605 0.00033083532003282438 0 0.032924260508805425 0.00027142484438555305 0 0.032622112054042605 0.00033083532003282438 0 0.032561683421081011 0.00032731868605652751 0 0.032622112054042605 0.00033083532003282438 0 0.032491934407604596 0.00031466987551847841 0 0.032673573086716361 0.00030013975533579586 0 0.032622112054042605 0.00033083532003282438 0 0.032381136538443024 0.00028657174809695619 0 0.032491934407604596 0.00031466987551847841 0 0.032622112054042605 0.00033083532003282438 0 0.032561683421081011 0.00032731868605652751 0 0.032358635267573217 0.00028837132848576685 0 0.032622112054042605 0.00033083532003282438 0 0.032358635267573217 0.00028837132848576685 0 0.032381136538443024 0.00028657174809695619 0 0.032561683421081011 0.00032731868605652751 0 0.03209352088711899 0.00022288501307083533 0 0.032358635267573217 0.00028837132848576685 0 0.032561683421081011 0.00032731868605652751 0 0.032752232974085881 0.00035603024024731707 0 0.03209352088711899 0.00022288501307083533 0 0.033593799448231355 -0.00038213824677704803 0 0.033681742755377178 -0.00034719462469400231 0 0.033601196402143756 -0.00042755255363692438 0 0.032924260508805425 0.00027142484438555305 0 0.032561683421081011 0.00032731868605652751 0 0.032752232974085881 0.00035603024024731707 0 0.033213638584455266 -5.1522587389695835e-05 0 0.032766130122192996 -0.00017760822079000669 0 0.032752232974085881 0.00035603024024731707 0 0.03209352088711899 0.00022288501307083533 0 0.031718217267037489 0.00013168130172883886 0 0.03209352088711899 0.00022288501307083533 0 0.031718217267037489 0.00013168130172883886 0 0.03195487809470543 0.00012155627559156407 0 0.033583881177755535 -0.00043114080184071464 0 0.033601196402143756 -0.00042755255363692438 0 0.033528350026413301 -0.00044112852394135899 0 0.031718217267037489 0.00013168130172883886 0 0.031409406624531226 -0.00018886142355648957 0 0.030835173446501288 -0.00051479969044108563 0 0.032766130122192996 -0.00017760822079000669 0 0.031334828027827312 -0.00057858556393999209 0 0.032173532950186844 -0.00034168253800189412 0 0.031334828027827312 -0.00057858556393999209 0 0.031718217267037489 0.00013168130172883886 0 0.031687384394909077 -1.4804225376159781e-05 0 0.03195487809470543 0.00012155627559156407 0 0.031718217267037489 0.00013168130172883886 0 0.031687384394909077 -1.4804225376159781e-05 0 0.031409406624531226 -0.00018886142355648957 0 0.032027605687807936 7.9589641989393273e-05 0 0.032275193332012612 0.00021275958710848685 0 0.032120520004893904 -0.00011769578923968191 0 0.031687384394909077 -1.4804225376159781e-05 0 0.031409406624531226 -0.00018886142355648957 0 0.031681403854384373 -0.0001339540075534335 0 0.031409406624531226 -0.00018886142355648957 0 0.031681403854384373 -0.0001339540075534335 0 0.031134132463853027 -0.00043598283543183001 0 0.031681403854384373 -0.0001339540075534335 0 0.032027605687807936 7.9589641989393273e-05 0 0.03195487809470543 0.00012155627559156407 0 0.031687384394909077 -1.4804225376159781e-05 0 0.031681403854384373 -0.0001339540075534335 0 0.03195487809470543 0.00012155627559156407 0 0.031681403854384373 -0.0001339540075534335 0 0.032027605687807936 7.9589641989393273e-05 0 0.032120520004893904 -0.00011769578923968191 0 0.032027605687807936 7.9589641989393273e-05 0 0.032275193332012612 0.00021275958710848685 0 0.032183179111911174 0.00021655574199331757 0 0.03209352088711899 0.00022288501307083533 0 0.03195487809470543 0.00012155627559156407 0 0.032183179111911174 0.00021655574199331757 0 0.032027605687807936 7.9589641989393273e-05 0 0.03195487809470543 0.00012155627559156407 0 0.032183179111911174 0.00021655574199331757 0 0.03209352088711899 0.00022288501307083533 0 0.032183179111911174 0.00021655574199331757 0 0.032358635267573217 0.00028837132848576685 0 0.032183179111911174 0.00021655574199331757 0 0.032358635267573217 0.00028837132848576685 0 0.032381136538443024 0.00028657174809695619 0 0.032275193332012612 0.00021275958710848685 0 0.032381136538443024 0.00028657174809695619 0 0.032491934407604596 0.00031466987551847841 0 0.032275193332012612 0.00021275958710848685 0 0.032183179111911174 0.00021655574199331757 0 0.032381136538443024 0.00028657174809695619 0 0.032275193332012612 0.00021275958710848685 0 0.032497616274448513 0.00029675885976282424 0 0.032120520004893904 -0.00011769578923968191 0 0.029516374114558774 -0.00069139798035819605 0 0.029463122350749521 -0.0010393621625655689 0 0.029628725753695552 -0.00089680385853730142 0 0.031188739954104545 -0.00030836912740480243 0 0.030775954094035596 -0.00053037646610585383 0 0.03252039956881142 0.00031905056713142567 0 0.032497616274448513 0.00029675885976282424 0 0.032491934407604596 0.00031466987551847841 0 0.032275193332012612 0.00021275958710848685 0 0.032497616274448513 0.00029675885976282424 0 0.032491934407604596 0.00031466987551847841 0 0.032558345557640832 0.00031094909212779544 0 0.032497616274448513 0.00029675885976282424 0 0.032120520004893904 -0.00011769578923968191 0 0.031188739954104545 -0.00030836912740480243 0 0.03142387742678162 -0.0002131003344313745 0 0.029463122350749521 -0.0010393621625655689 0 0.029628725753695552 -0.00089680385853730142 0 0.029599474789407002 -0.0012311225995764433 0 0.029628725753695552 -0.00089680385853730142 0 0.0298363866506225 -0.00097243444505462791 0 0.029599474789407002 -0.0012311225995764433 0 0.029516374114558774 -0.00069139798035819605 0 0.029628725753695552 -0.00089680385853730142 0 0.029773297420997526 -0.00075832906947539784 0 0.029516374114558774 -0.00069139798035819605 0 0.029773297420997526 -0.00075832906947539784 0 0.029948210977979933 -0.0004694118173409364 0 0.029628725753695552 -0.00089680385853730142 0 0.029773297420997526 -0.00075832906947539784 0 0.0298363866506225 -0.00097243444505462791 0 0.032148881009169857 -0.00038120889490341798 0 0.032226062640898577 -0.00016373833142835793 0 0.032366268053607372 -0.00029950059135550869 0 0.031188739954104545 -0.00030836912740480243 0 0.031888420036730064 -0.00039362597270711466 0 0.03252039956881142 0.00031905056713142567 0 0.032673573086716361 0.00030013975533579586 0 0.032619019392091671 0.00022713887765968835 0 0.03252039956881142 0.00031905056713142567 0 0.032491934407604596 0.00031466987551847841 0 0.032673573086716361 0.00030013975533579586 0 0.031188739954104545 -0.00030836912740480243 0 0.033799092326978183 -3.3960416301501742e-05 0 0.032673573086716361 0.00030013975533579586 0 0.032777387105521125 0.00018640967698092922 0 0.032619019392091671 0.00022713887765968835 0 0.033072445735783405 0.00017285345411432112 0 0.032673573086716361 0.00030013975533579586 0 0.032777387105521125 0.00018640967698092922 0 0.032931998556359608 -8.5566825825955542e-06 0 0.032777387105521125 0.00018640967698092922 0 0.032619019392091671 0.00022713887765968835 0 0.03496762893690409 0.00012606541808914324 0 0.034868067844315245 0.00012319645359061573 0 0.034835051749425722 0.00021463924041311989 0 0.033799092326978183 -3.3960416301501742e-05 0 0.031888420036730064 -0.00039362597270711466 0 0.034875089547005522 -1.6308410208119589e-05 0 0.03496762893690409 0.00012606541808914324 0 0.034868067844315245 0.00012319645359061573 0 0.034868067844315245 0.00012319645359061573 0 0.034841364331147574 0.00015262873475636507 0 0.034835051749425722 0.00021463924041311989 0 0.034861140809493041 8.1079608746352413e-05 0 0.034868067844315245 0.00012319645359061573 0 0.034841364331147574 0.00015262873475636507 0 0.034831791391037543 0.00019660842330091328 0 0.034841364331147574 0.00015262873475636507 0 0.034795918276467323 0.00024671721514344714 0 0.034841364331147574 0.00015262873475636507 0 0.034835051749425722 0.00021463924041311989 0 0.034795918276467323 0.00024671721514344714 0 0.031888420036730064 -0.00039362597270711466 0 0.032821350022876838 0.00026083480563553809 0 0.02976091498505436 -0.00024100428538781658 0 0.030124489034349878 -0.00058431907125342983 0 0.030652525702937722 0.00014050149441636889 0 0.031888420036730064 -0.00039362597270711466 0 0.029908391259715332 -0.00014245349729797351 0 0.029773297420997526 -0.00075832906947539784 0 0.029948210977979933 -0.0004694118173409364 0 0.029960920823918793 -0.00072520020691127615 0 0.029960920823918793 -0.00072520020691127615 0 0.0298363866506225 -0.00097243444505462791 0 0.03014897505826768 -0.00087100045340395146 0 0.029948210977979933 -0.0004694118173409364 0 0.029960920823918793 -0.00072520020691127615 0 0.030124489034349878 -0.00058431907125342983 0 0.029773297420997526 -0.00075832906947539784 0 0.029960920823918793 -0.00072520020691127615 0 0.0298363866506225 -0.00097243444505462791 0 0.0298363866506225 -0.00097243444505462791 0 0.030194395711833751 -0.0011359195412302358 0 0.029844952336846989 -0.0012139779730857704 0 0.0298363866506225 -0.00097243444505462791 0 0.030194395711833751 -0.0011359195412302358 0 0.03014897505826768 -0.00087100045340395146 0 0.030194395711833751 -0.0011359195412302358 0 0.03014897505826768 -0.00087100045340395146 0 0.030515235522535 -0.00086960342024237794 0 0.030124489034349878 -0.00058431907125342983 0 0.030515235522535 -0.00086960342024237794 0 0.030940035248550206 -0.00041083912209167556 0 0.03014897505826768 -0.00087100045340395146 0 0.030124489034349878 -0.00058431907125342983 0 0.030515235522535 -0.00086960342024237794 0 0.029960920823918793 -0.00072520020691127615 0 0.03014897505826768 -0.00087100045340395146 0 0.030124489034349878 -0.00058431907125342983 0 0.030515235522535 -0.00086960342024237794 0 0.031124436539732177 -0.00078186872553999334 0 0.030940035248550206 -0.00041083912209167556 0 0.030515235522535 -0.00086960342024237794 0 0.03079799739909618 -0.0012057798292193043 0 0.031124436539732177 -0.00078186872553999334 0 0.030194395711833751 -0.0011359195412302358 0 0.030515235522535 -0.00086960342024237794 0 0.03079799739909618 -0.0012057798292193043 0 0.03079799739909618 -0.0012057798292193043 0 0.030991057612248907 -0.001652771080093509 0 0.031742061049128543 -0.0010268100814071039 0 0.03079799739909618 -0.0012057798292193043 0 0.031124436539732177 -0.00078186872553999334 0 0.031742061049128543 -0.0010268100814071039 0 0.031124436539732177 -0.00078186872553999334 0 0.031720750264490949 -0.00041520441050517658 0 0.030940035248550206 -0.00041083912209167556 0 0.031124436539732177 -0.00078186872553999334 0 0.031720750264490949 -0.00041520441050517658 0 0.031742061049128543 -0.0010268100814071039 0 0.031720750264490949 -0.00041520441050517658 0 0.030940035248550206 -0.00041083912209167556 0 0.031967354088773561 0.00047004898746920171 0 0.030940035248550206 -0.00041083912209167556 0 0.030652525702937722 0.00014050149441636889 0 0.031967354088773561 0.00047004898746920171 0 0.030124489034349878 -0.00058431907125342983 0 0.030940035248550206 -0.00041083912209167556 0 0.030652525702937722 0.00014050149441636889 0 0.034831791391037543 0.00019660842330091328 0 0.034795918276467323 0.00024671721514344714 0 0.03465101190519386 0.00042495988437099243 0 0.032821350022876838 0.00026083480563553809 0 0.033263432972101339 0.00040113142643248925 0 0.030154351926636205 -0.0014470944965194574 0 0.030099006699786695 -0.0014286112320811215 0 0.029720531858771011 -0.0014526168400120435 0 0.030154351926636205 -0.0014470944965194574 0 0.029720531858771011 -0.0014526168400120435 0 0.029908829487166173 -0.001504997065354941 0 0.030154351926636205 -0.0014470944965194574 0 0.030099006699786695 -0.0014286112320811215 0 0.030467481593718426 -0.0014686620757729592 0 0.030467481593718426 -0.0014686620757729592 0 0.03043935353958966 -0.0014196342917402018 0 0.030991057612248907 -0.001652771080093509 0 0.03079799739909618 -0.0012057798292193043 0 0.03043935353958966 -0.0014196342917402018 0 0.030991057612248907 -0.001652771080093509 0 0.030194395711833751 -0.0011359195412302358 0 0.03079799739909618 -0.0012057798292193043 0 0.03043935353958966 -0.0014196342917402018 0 0.030099006699786695 -0.0014286112320811215 0 0.030467481593718426 -0.0014686620757729592 0 0.03043935353958966 -0.0014196342917402018 0 0.030099006699786695 -0.0014286112320811215 0 0.03043935353958966 -0.0014196342917402018 0 0.029998908942099219 -0.001345943518327792 0 0.030099006699786695 -0.0014286112320811215 0 0.029998908942099219 -0.001345943518327792 0 0.029706852618898019 -0.0013791761058077792 0 0.030194395711833751 -0.0011359195412302358 0 0.03043935353958966 -0.0014196342917402018 0 0.029998908942099219 -0.001345943518327792 0 0.030194395711833751 -0.0011359195412302358 0 0.029998908942099219 -0.001345943518327792 0 0.029844952336846989 -0.0012139779730857704 0 0.029998908942099219 -0.001345943518327792 0 0.029844952336846989 -0.0012139779730857704 0 0.029696645016728987 -0.0013112305667408639 0 0.029998908942099219 -0.001345943518327792 0 0.029696645016728987 -0.0013112305667408639 0 0.029706852618898019 -0.0013791761058077792 0 0.030099006699786695 -0.0014286112320811215 0 0.029706852618898019 -0.0013791761058077792 0 0.029720531858771011 -0.0014526168400120435 0 0.029720531858771011 -0.0014526168400120435 0 0.029375014782020592 -0.0013850421150722004 0 0.029358460228317347 -0.0014919484174043068 0 0.029706852618898019 -0.0013791761058077792 0 0.029720531858771011 -0.0014526168400120435 0 0.029375014782020592 -0.0013850421150722004 0 0.029375014782020592 -0.0013850421150722004 0 0.029197819572499051 -0.0013540071873585483 0 0.029408308130919127 -0.0012815569914221131 0 0.029197819572499051 -0.0013540071873585483 0 0.029408308130919127 -0.0012815569914221131 0 0.02934350074739055 -0.0012572544981419656 0 0.029408308130919127 -0.0012815569914221131 0 0.0295102878702958 -0.001327877359010896 0 0.029529811899187446 -0.0013227144624765263 0 0.029408308130919127 -0.0012815569914221131 0 0.029529811899187446 -0.0013227144624765263 0 0.029788195821197249 -0.0012597099208614976 0 0.029706852618898019 -0.0013791761058077792 0 0.029375014782020592 -0.0013850421150722004 0 0.0295102878702958 -0.001327877359010896 0 0.029696645016728987 -0.0013112305667408639 0 0.029706852618898019 -0.0013791761058077792 0 0.0295102878702958 -0.001327877359010896 0 0.029375014782020592 -0.0013850421150722004 0 0.029408308130919127 -0.0012815569914221131 0 0.0295102878702958 -0.001327877359010896 0 0.029696645016728987 -0.0013112305667408639 0 0.0295102878702958 -0.001327877359010896 0 0.029599474789407002 -0.0012311225995764433 0 0.0298363866506225 -0.00097243444505462791 0 0.029844952336846989 -0.0012139779730857704 0 0.029599474789407002 -0.0012311225995764433 0 0.029844952336846989 -0.0012139779730857704 0 0.029696645016728987 -0.0013112305667408639 0 0.029599474789407002 -0.0012311225995764433 0 0.029463122350749521 -0.0010393621625655689 0 0.029599474789407002 -0.0012311225995764433 0 0.029493715769237556 -0.0013073670707999298 0 0.030775954094035596 -0.00053037646610585383 0 0.030364746129746264 -0.00094219934787327317 0 0.0295102878702958 -0.001327877359010896 0 0.029599474789407002 -0.0012311225995764433 0 0.029529811899187446 -0.0013227144624765263 0 0.029599474789407002 -0.0012311225995764433 0 0.029529811899187446 -0.0013227144624765263 0 0.029493715769237556 -0.0013073670707999298 0 0.030716489120855155 -0.00074564287681225315 0 0.03008868199908311 -0.0010260460582887296 0 0.029788195821197249 -0.0012597099208614976 0 0.030716489120855155 -0.00074564287681225315 0 0.031263117821644121 -0.00070833749449635485 0 0.029788195821197249 -0.0012597099208614976 0 0.030364746129746264 -0.00094219934787327317 0 0.029933072815318321 -0.0011767278141889671 0 0.029529811899187446 -0.0013227144624765263 0 0.029493715769237556 -0.0013073670707999298 0 0.029788195821197249 -0.0012597099208614976 0 0.031681403854384373 -0.0001339540075534335 0 0.032120520004893904 -0.00011769578923968191 0 0.031263117821644121 -0.00070833749449635485 0 0.031681403854384373 -0.0001339540075534335 0 0.031263117821644121 -0.00070833749449635485 0 0.031134132463853027 -0.00043598283543183001 0 0.030716489120855155 -0.00074564287681225315 0 0.031263117821644121 -0.00070833749449635485 0 0.031134132463853027 -0.00043598283543183001 0 0.031409406624531226 -0.00018886142355648957 0 0.031134132463853027 -0.00043598283543183001 0 0.030835173446501288 -0.00051479969044108563 0 0.030716489120855155 -0.00074564287681225315 0 0.031134132463853027 -0.00043598283543183001 0 0.030835173446501288 -0.00051479969044108563 0 0.031334828027827312 -0.00057858556393999209 0 0.030477471367042572 -0.0008266557330416129 0 0.030310527383827286 -0.00067192119343327961 0 0.030058797308825567 -0.00087370691123482558 0 0.030187900747872688 -0.0006898104282956521 0 0.031334828027827312 -0.00057858556393999209 0 0.030119777603674847 -0.00096083094302813797 0 0.030716489120855155 -0.00074564287681225315 0 0.030835173446501288 -0.00051479969044108563 0 0.03008868199908311 -0.0010260460582887296 0 0.030116372483559733 -0.00067643785539403696 0 0.030058797308825567 -0.00087370691123482558 0 0.03008868199908311 -0.0010260460582887296 0 0.030058797308825567 -0.00087370691123482558 0 0.029867370579173345 -0.0010342808507658168 0 0.029897130651592056 -0.00093393280695379984 0 0.030058797308825567 -0.00087370691123482558 0 0.03008868199908311 -0.0010260460582887296 0 0.029867370579173345 -0.0010342808507658168 0 0.029867370579173345 -0.0010342808507658168 0 0.029709552331624717 -0.0011862727918610096 0 0.029632897206536606 -0.0011194163464584429 0 0.029709552331624717 -0.0011862727918610096 0 0.029363732564994773 -0.0012206197249030051 0 0.029632897206536606 -0.0011194163464584429 0 0.03008868199908311 -0.0010260460582887296 0 0.029709552331624717 -0.0011862727918610096 0 0.029788195821197249 -0.0012597099208614976 0 0.03008868199908311 -0.0010260460582887296 0 0.029867370579173345 -0.0010342808507658168 0 0.029709552331624717 -0.0011862727918610096 0 0.029408308130919127 -0.0012815569914221131 0 0.029788195821197249 -0.0012597099208614976 0 0.02934350074739055 -0.0012572544981419656 0 0.029709552331624717 -0.0011862727918610096 0 0.029788195821197249 -0.0012597099208614976 0 0.02934350074739055 -0.0012572544981419656 0 0.02934350074739055 -0.0012572544981419656 0 0.029363732564994773 -0.0012206197249030051 0 0.02900064162822881 -0.0012788039164329532 0 0.029709552331624717 -0.0011862727918610096 0 0.02934350074739055 -0.0012572544981419656 0 0.029363732564994773 -0.0012206197249030051 0 0.02934350074739055 -0.0012572544981419656 0 0.02900064162822881 -0.0012788039164329532 0 0.028852517258703025 -0.0013775851879759956 0 0.02900064162822881 -0.0012788039164329532 0 0.028852517258703025 -0.0013775851879759956 0 0.028482533009485372 -0.0013748902305924428 0 0.029197819572499051 -0.0013540071873585483 0 0.02934350074739055 -0.0012572544981419656 0 0.028922859810209613 -0.0014318134854443012 0 0.02934350074739055 -0.0012572544981419656 0 0.028852517258703025 -0.0013775851879759956 0 0.028922859810209613 -0.0014318134854443012 0 0.028852517258703025 -0.0013775851879759956 0 0.028554016087306143 -0.0016056725739167052 0 0.028922859810209613 -0.0014318134854443012 0 0.028554016087306143 -0.0016056725739167052 0 0.028609057231896811 -0.001667286052334677 0 0.028922859810209613 -0.0014318134854443012 0 0.028554016087306143 -0.0016056725739167052 0 0.028482533009485372 -0.0013748902305924428 0 0.028162645899112944 -0.0019210833657234043 0 0.028852517258703025 -0.0013775851879759956 0 0.028554016087306143 -0.0016056725739167052 0 0.028482533009485372 -0.0013748902305924428 0 0.028162645899112944 -0.0019210833657234043 0 0.027823091859648031 -0.002274127298848305 0 0.027655969846132035 -0.0021285477620904842 0 0.028162645899112944 -0.0019210833657234043 0 0.028249747859795081 -0.0018375564272644011 0 0.027655969846132035 -0.0021285477620904842 0 0.028249747859795081 -0.0018375564272644011 0 0.028305008030417151 -0.0018594145038826934 0 0.027655969846132035 -0.0021285477620904842 0 0.028554016087306143 -0.0016056725739167052 0 0.028162645899112944 -0.0019210833657234043 0 0.028249747859795081 -0.0018375564272644011 0 0.028554016087306143 -0.0016056725739167052 0 0.028249747859795081 -0.0018375564272644011 0 0.028609057231896811 -0.001667286052334677 0 0.028609057231896811 -0.001667286052334677 0 0.028305008030417151 -0.0018594145038826934 0 0.028563451656190206 -0.0018127269633788899 0 0.028249747859795081 -0.0018375564272644011 0 0.028609057231896811 -0.001667286052334677 0 0.028305008030417151 -0.0018594145038826934 0 0.028305008030417151 -0.0018594145038826934 0 0.027655969846132035 -0.0021285477620904842 0 0.027958422958641312 -0.002058342377903808 0 0.028305008030417151 -0.0018594145038826934 0 0.028563451656190206 -0.0018127269633788899 0 0.027958422958641312 -0.002058342377903808 0 0.028563451656190206 -0.0018127269633788899 0 0.027958422958641312 -0.002058342377903808 0 0.028253266497014415 -0.0021252462611635143 0 0.028563451656190206 -0.0018127269633788899 0 0.028827482000489926 -0.0016450963595266411 0 0.029103443860665854 -0.0016090911456265867 0 0.028609057231896811 -0.001667286052334677 0 0.028563451656190206 -0.0018127269633788899 0 0.028827482000489926 -0.0016450963595266411 0 0.028609057231896811 -0.001667286052334677 0 0.028827482000489926 -0.0016450963595266411 0 0.029044925646830103 -0.0014851990179935554 0 0.028827482000489926 -0.0016450963595266411 0 0.029044925646830103 -0.0014851990179935554 0 0.029103443860665854 -0.0016090911456265867 0 0.028609057231896811 -0.001667286052334677 0 0.028922859810209613 -0.0014318134854443012 0 0.029044925646830103 -0.0014851990179935554 0 0.029197819572499051 -0.0013540071873585483 0 0.028922859810209613 -0.0014318134854443012 0 0.029044925646830103 -0.0014851990179935554 0 0.029375014782020592 -0.0013850421150722004 0 0.029044925646830103 -0.0014851990179935554 0 0.029358460228317347 -0.0014919484174043068 0 0.029375014782020592 -0.0013850421150722004 0 0.029197819572499051 -0.0013540071873585483 0 0.029044925646830103 -0.0014851990179935554 0 0.029720531858771011 -0.0014526168400120435 0 0.029358460228317347 -0.0014919484174043068 0 0.029484792017980731 -0.0015453428095433914 0 0.029484792017980731 -0.0015453428095433914 0 0.029103443860665854 -0.0016090911456265867 0 0.029362308434296554 -0.0017001033210512189 0 0.029044925646830103 -0.0014851990179935554 0 0.029358460228317347 -0.0014919484174043068 0 0.029103443860665854 -0.0016090911456265867 0 0.029358460228317347 -0.0014919484174043068 0 0.029484792017980731 -0.0015453428095433914 0 0.029103443860665854 -0.0016090911456265867 0 0.028563451656190206 -0.0018127269633788899 0 0.029103443860665854 -0.0016090911456265867 0 0.028827897892234552 -0.0019039868481154115 0 0.028563451656190206 -0.0018127269633788899 0 0.028827897892234552 -0.0019039868481154115 0 0.028253266497014415 -0.0021252462611635143 0 0.028827897892234552 -0.0019039868481154115 0 0.029362308434296554 -0.0017001033210512189 0 0.029239829803356262 -0.001961204358791103 0 0.029103443860665854 -0.0016090911456265867 0 0.028827897892234552 -0.0019039868481154115 0 0.029362308434296554 -0.0017001033210512189 0 0.029362308434296554 -0.0017001033210512189 0 0.029239829803356262 -0.001961204358791103 0 0.029565498159955392 -0.0017285661573018698 0 0.029239829803356262 -0.001961204358791103 0 0.029565498159955392 -0.0017285661573018698 0 0.029513435310224941 -0.0020589581216747272 0 0.029703941984282264 -0.0013391963203433694 0 0.030520159873221372 -0.0025106040068780156 0 0.030086360106899659 -0.001421853525176297 0 0.029908829487166173 -0.001504997065354941 0 0.030095693781662113 -0.0014535745319041048 0 0.029703941984282264 -0.0013391963203433694 0 0.029927751771138295 -0.0015795763683855374 0 0.029362308434296554 -0.0017001033210512189 0 0.029565498159955392 -0.0017285661573018698 0 0.029908829487166173 -0.001504997065354941 0 0.029484792017980731 -0.0015453428095433914 0 0.029362308434296554 -0.0017001033210512189 0 0.029908829487166173 -0.001504997065354941 0 0.029720531858771011 -0.0014526168400120435 0 0.029484792017980731 -0.0015453428095433914 0 0.029908829487166173 -0.001504997065354941 0 0.030154351926636205 -0.0014470944965194574 0 0.029908829487166173 -0.001504997065354941 0 0.030095693781662113 -0.0014535745319041048 0 0.026604273472638214 2.5180875620953733e-07 0 0.024445690735099151 0.00014564915707549701 0 0.02002838301121419 -3.1303948690862192e-07 0 0.024533151095587017 0.00046276169433459574 0 0.024819782001473244 0.0007625733824051039 0 0.023266569990426308 0.00026816032288737681 0 0.024533151095587017 0.00046276169433459574 0 0.024445690735099151 0.00014564915707549701 0 0.023266569990426308 0.00026816032288737681 0 0.026604273472638214 2.5180875620953733e-07 0 0.024445690735099151 0.00014564915707549701 0 0.026432955075598598 -0.00029560251382638227 0 0.026537241598118912 -0.00045947982596787005 0 0.026362147711568557 -0.00027636650338044383 0 0.024533151095587017 0.00046276169433459574 0 0.024445690735099151 0.00014564915707549701 0 0.026432955075598598 -0.00029560251382638227 0 0.028515263719291844 -0.0015406090538381738 0 0.026432955075598598 -0.00029560251382638227 0 0.028582321219163199 -0.00068173041995940131 0 0.028515263719291844 -0.0015406090538381738 0 0.028582321219163199 -0.00068173041995940131 0 0.029236607739686216 -0.0012540402335602103 0 0.028894643887785863 -0.00012526568921011818 0 0.028582321219163199 -0.00068173041995940131 0 0.029407883633131918 -0.00062515318751348839 0 0.028894643887785863 -0.00012526568921011818 0 0.026432955075598598 -0.00029560251382638227 0 0.028582321219163199 -0.00068173041995940131 0 0.030051984287282077 -0.00017627303523122309 0 0.028894643887785863 -0.00012526568921011818 0 0.029407883633131918 -0.00062515318751348839 0 0.030051984287282077 -0.00017627303523122309 0 0.029407883633131918 -0.00062515318751348839 0 0.029856322180539158 -0.00057929350157299216 0 0.029856322180539158 -0.00057929350157299216 0 0.029638977648498141 -0.00095628545110264414 0 0.029949983976343648 -0.00074722854074769039 0 0.029407883633131918 -0.00062515318751348839 0 0.029856322180539158 -0.00057929350157299216 0 0.029638977648498141 -0.00095628545110264414 0 0.029638977648498141 -0.00095628545110264414 0 0.029641364434391856 -0.0010844464687127934 0 0.029402050751491465 -0.0012583306737786377 0 0.029638977648498141 -0.00095628545110264414 0 0.029236607739686216 -0.0012540402335602103 0 0.029402050751491465 -0.0012583306737786377 0 0.028582321219163199 -0.00068173041995940131 0 0.029407883633131918 -0.00062515318751348839 0 0.029236607739686216 -0.0012540402335602103 0 0.029407883633131918 -0.00062515318751348839 0 0.029638977648498141 -0.00095628545110264414 0 0.029236607739686216 -0.0012540402335602103 0 0.030310527383827286 -0.00067192119343327961 0 0.030187900747872688 -0.0006898104282956521 0 0.030392688242522378 -0.0004911714536962804 0 0.030187900747872688 -0.0006898104282956521 0 0.030392688242522378 -0.0004911714536962804 0 0.030262494660993445 -0.0005510166462173472 0 0.030187900747872688 -0.0006898104282956521 0 0.030262494660993445 -0.0005510166462173472 0 0.029992258857310331 -0.00080262129597471316 0 0.030262494660993445 -0.0005510166462173472 0 0.029949983976343648 -0.00074722854074769039 0 0.029992258857310331 -0.00080262129597471316 0 0.03022746293448857 -0.00042549180003234339 0 0.030262494660993445 -0.0005510166462173472 0 0.029949983976343648 -0.00074722854074769039 0 0.03022746293448857 -0.00042549180003234339 0 0.029856322180539158 -0.00057929350157299216 0 0.029949983976343648 -0.00074722854074769039 0 0.029638977648498141 -0.00095628545110264414 0 0.029949983976343648 -0.00074722854074769039 0 0.029641364434391856 -0.0010844464687127934 0 0.029949983976343648 -0.00074722854074769039 0 0.029641364434391856 -0.0010844464687127934 0 0.029992258857310331 -0.00080262129597471316 0 0.029641364434391856 -0.0010844464687127934 0 0.029897130651592056 -0.00093393280695379984 0 0.029632897206536606 -0.0011194163464584429 0 0.030187900747872688 -0.0006898104282956521 0 0.029992258857310331 -0.00080262129597471316 0 0.029897130651592056 -0.00093393280695379984 0 0.029641364434391856 -0.0010844464687127934 0 0.029992258857310331 -0.00080262129597471316 0 0.029897130651592056 -0.00093393280695379984 0 0.029867370579173345 -0.0010342808507658168 0 0.029897130651592056 -0.00093393280695379984 0 0.029632897206536606 -0.0011194163464584429 0 0.030058797308825567 -0.00087370691123482558 0 0.030187900747872688 -0.0006898104282956521 0 0.029897130651592056 -0.00093393280695379984 0 0.029641364434391856 -0.0010844464687127934 0 0.029345867624737308 -0.0012112037542854164 0 0.029632897206536606 -0.0011194163464584429 0 0.029363732564994773 -0.0012206197249030051 0 0.029345867624737308 -0.0012112037542854164 0 0.029632897206536606 -0.0011194163464584429 0 0.029641364434391856 -0.0010844464687127934 0 0.029345867624737308 -0.0012112037542854164 0 0.029267548775871868 -0.0013074606116615514 0 0.029641364434391856 -0.0010844464687127934 0 0.029267548775871868 -0.0013074606116615514 0 0.029402050751491465 -0.0012583306737786377 0 0.029345867624737308 -0.0012112037542854164 0 0.029267548775871868 -0.0013074606116615514 0 0.028809098312054943 -0.001216220016946363 0 0.029267548775871868 -0.0013074606116615514 0 0.029127081910208727 -0.0012218604813167958 0 0.028809098312054943 -0.001216220016946363 0 0.029363732564994773 -0.0012206197249030051 0 0.02900064162822881 -0.0012788039164329532 0 0.028809098312054943 -0.001216220016946363 0 0.029363732564994773 -0.0012206197249030051 0 0.029345867624737308 -0.0012112037542854164 0 0.028809098312054943 -0.001216220016946363 0 0.029236607739686216 -0.0012540402335602103 0 0.029402050751491465 -0.0012583306737786377 0 0.029245432638901833 -0.0014555615590832181 0 0.026537241598118912 -0.00045947982596787005 0 0.027041124530582269 -0.00037113620114082475 0 0.028515263719291844 -0.0015406090538381738 0 0.029236607739686216 -0.0012540402335602103 0 0.029245432638901833 -0.0014555615590832181 0 0.029267548775871868 -0.0013074606116615514 0 0.029402050751491465 -0.0012583306737786377 0 0.029245432638901833 -0.0014555615590832181 0 0.027041124530582269 -0.00037113620114082475 0 0.027683737179183619 -0.00052551039106508469 0 0.029267548775871868 -0.0013074606116615514 0 0.029245432638901833 -0.0014555615590832181 0 0.029127081910208727 -0.0012218604813167958 0 0.024819782001473244 0.0007625733824051039 0 0.024484877816531952 -0.00017161646191068253 0 0.026242248398124619 0.00033300867685962969 0 0.024484877816531952 -0.00017161646191068253 0 0.026242248398124619 0.00033300867685962969 0 0.026152970246284976 -0.0014132803788612321 0 0.026242248398124619 0.00033300867685962969 0 0.026152970246284976 -0.0014132803788612321 0 0.02809788832863138 -0.0010712301876120581 0 0.024484877816531952 -0.00017161646191068253 0 0.026152970246284976 -0.0014132803788612321 0 0.023816208156724521 -0.0021335260884662718 0 0.02900064162822881 -0.0012788039164329532 0 0.028482533009485372 -0.0013748902305924428 0 0.028809098312054943 -0.001216220016946363 0 0.028482533009485372 -0.0013748902305924428 0 0.028809098312054943 -0.001216220016946363 0 0.02809788832863138 -0.0010712301876120581 0 0.027683737179183619 -0.00052551039106508469 0 0.028127448840479147 -0.0010379007023492814 0 0.029127081910208727 -0.0012218604813167958 0 0.028809098312054943 -0.001216220016946363 0 0.02809788832863138 -0.0010712301876120581 0 0.026152970246284976 -0.0014132803788612321 0 0.02809788832863138 -0.0010712301876120581 0 0.027739197470988849 -0.0020142954967718135 0 0.028482533009485372 -0.0013748902305924428 0 0.02809788832863138 -0.0010712301876120581 0 0.027739197470988849 -0.0020142954967718135 0 0.028482533009485372 -0.0013748902305924428 0 0.028162645899112944 -0.0019210833657234043 0 0.027739197470988849 -0.0020142954967718135 0 0.027739197470988849 -0.0020142954967718135 0 0.025820425651532107 -0.0027310184608231669 0 0.027335003667041561 -0.0027372603951872202 0 0.027739197470988849 -0.0020142954967718135 0 0.027823091859648031 -0.002274127298848305 0 0.027335003667041561 -0.0027372603951872202 0 0.028162645899112944 -0.0019210833657234043 0 0.027739197470988849 -0.0020142954967718135 0 0.027823091859648031 -0.002274127298848305 0 0.026152970246284976 -0.0014132803788612321 0 0.025820425651532107 -0.0027310184608231669 0 0.023816208156724521 -0.0021335260884662718 0 0.026152970246284976 -0.0014132803788612321 0 0.027739197470988849 -0.0020142954967718135 0 0.025820425651532107 -0.0027310184608231669 0 0.022856823421633705 -0.0010681356516850141 0 0.024282875124838184 -0.0011224252505105195 0 0.022856823421633705 -0.0010681356516850141 0 0.021629930115290689 -0.00086774622202526099 0 0.02002838301121419 -3.1303948690862192e-07 0 0.01886341594502643 0.00019032307169474538 0 0.015314286274046891 1.0067305786068593e-06 0 0.019879217529233214 0.00058437676165936552 0 0.019384896323575783 0.00029883026949898409 0 0.019074674076719336 0.00021750954718841403 0 0.019384896323575783 0.00029883026949898409 0 0.01886341594502643 0.00019032307169474538 0 0.019074674076719336 0.00021750954718841403 0 0.021629930115290689 -0.00086774622202526099 0 0.020939891031904065 -0.00042674707715388045 0 0.019384896323575783 0.00029883026949898409 0 0.020916974136844617 -0.0003653355334684465 0 0.01886341594502643 0.00019032307169474538 0 0.024484877816531952 -0.00017161646191068253 0 0.023816208156724521 -0.0021335260884662718 0 0.023085124686739365 -0.00035584991284096383 0 0.023085124686739365 -0.00035584991284096383 0 0.023266569990426308 0.00026816032288737681 0 0.020916974136844617 -0.0003653355334684465 0 0.023816208156724521 -0.0021335260884662718 0 0.023085124686739365 -0.00035584991284096383 0 0.020916974136844617 -0.0003653355334684465 0 0.024819782001473244 0.0007625733824051039 0 0.024484877816531952 -0.00017161646191068253 0 0.023266569990426308 0.00026816032288737681 0 0.024484877816531952 -0.00017161646191068253 0 0.023085124686739365 -0.00035584991284096383 0 0.023266569990426308 0.00026816032288737681 0 0.023266569990426308 0.00026816032288737681 0 0.02002838301121419 -3.1303948690862192e-07 0 0.020916974136844617 -0.0003653355334684465 0 0.024445690735099151 0.00014564915707549701 0 0.023266569990426308 0.00026816032288737681 0 0.02002838301121419 -3.1303948690862192e-07 0 0.02002838301121419 -3.1303948690862192e-07 0 0.020916974136844617 -0.0003653355334684465 0 0.01886341594502643 0.00019032307169474538 0 0.01886341594502643 0.00019032307169474538 0 0.017168249014696317 -0.00013619782264362145 0 0.015314286274046891 1.0067305786068593e-06 0 0.01886341594502643 0.00019032307169474538 0 0.017168249014696317 -0.00013619782264362145 0 0.018400655973523423 4.5405117743950471e-05 0 0.019074674076719336 0.00021750954718841403 0 0.018880934738094393 -0.0001359107863064624 0 0.019613420006659592 -1.9490174973206783e-05 0 0.019074674076719336 0.00021750954718841403 0 0.018400655973523423 4.5405117743950471e-05 0 0.018880934738094393 -0.0001359107863064624 0 0.01886341594502643 0.00019032307169474538 0 0.019074674076719336 0.00021750954718841403 0 0.018400655973523423 4.5405117743950471e-05 0 0.018400655973523423 4.5405117743950471e-05 0 0.018880934738094393 -0.0001359107863064624 0 0.018177084614514647 -0.00071388332762280465 0 0.017168249014696317 -0.00013619782264362145 0 0.018400655973523423 4.5405117743950471e-05 0 0.018177084614514647 -0.00071388332762280465 0 0.018880934738094393 -0.0001359107863064624 0 0.019148900741229262 -0.001022898911434605 0 0.019421004090330658 -0.0005021033171030096 0 0.018880934738094393 -0.0001359107863064624 0 0.019148900741229262 -0.001022898911434605 0 0.018177084614514647 -0.00071388332762280465 0 0.018880934738094393 -0.0001359107863064624 0 0.019421004090330658 -0.0005021033171030096 0 0.019613420006659592 -1.9490174973206783e-05 0 0.019148900741229262 -0.001022898911434605 0 0.018177084614514647 -0.00071388332762280465 0 0.018606152143384701 -0.001454134406832517 0 0.018177084614514647 -0.00071388332762280465 0 0.017984197003011251 -0.0015368822603044022 0 0.018606152143384701 -0.001454134406832517 0 0.018177084614514647 -0.00071388332762280465 0 0.017984197003011251 -0.0015368822603044022 0 0.017091938791136376 -0.00076118169043937341 0 0.010832649631869376 -0.00054057446307251744 0 0.011597041874376933 -0.00060067516326671032 0 0.011094272984854004 -0.00015844809110307923 0 0.017984197003011251 -0.0015368822603044022 0 0.017091938791136376 -0.00076118169043937341 0 0.017359315563514208 -0.001458067177974136 0 0.017984197003011251 -0.0015368822603044022 0 0.018165414878435135 -0.0019661712431981631 0 0.017359315563514208 -0.001458067177974136 0 0.017984197003011251 -0.0015368822603044022 0 0.018122393578850066 -0.0019042213838421603 0 0.018606152143384701 -0.001454134406832517 0 0.016779701288854566 -0.0017897173461763414 0 0.016081161596872829 -0.001213520570062303 0 0.019148900741229262 -0.001022898911434605 0 0.018606152143384701 -0.001454134406832517 0 0.01954293755426734 -0.0021350483670933137 0 0.016081161596872829 -0.001213520570062303 0 0.020007729596819436 -0.0021989911913506705 0 0.018122393578850066 -0.0019042213838421603 0 0.018606152143384701 -0.001454134406832517 0 0.01954293755426734 -0.0021350483670933137 0 0.015314286274046891 1.0067305786068593e-06 0 0.015722245282019633 -0.00035625109647179374 0 0.013519401869454287 -4.0254732873455624e-06 0 0.017168249014696317 -0.00013619782264362145 0 0.015314286274046891 1.0067305786068593e-06 0 0.015722245282019633 -0.00035625109647179374 0 0.017168249014696317 -0.00013619782264362145 0 0.018177084614514647 -0.00071388332762280465 0 0.017091938791136376 -0.00076118169043937341 0 0.017168249014696317 -0.00013619782264362145 0 0.015722245282019633 -0.00035625109647179374 0 0.017091938791136376 -0.00076118169043937341 0 0.016081161596872829 -0.001213520570062303 0 0.013750259548764633 -0.0009780141145753526 0 0.015722245282019633 -0.00035625109647179374 0 0.017091938791136376 -0.00076118169043937341 0 0.016448128067169932 -0.0016421306084471884 0 0.018165414878435135 -0.0019661712431981631 0 0.017359315563514208 -0.001458067177974136 0 0.016448128067169932 -0.0016421306084471884 0 0.017091938791136376 -0.00076118169043937341 0 0.017359315563514208 -0.001458067177974136 0 0.016448128067169932 -0.0016421306084471884 0 0.015722245282019633 -0.00035625109647179374 0 0.016448128067169932 -0.0016421306084471884 0 0.013519401869454287 -4.0254732873455624e-06 0 0.013750259548764633 -0.0009780141145753526 0 0.013745778529553852 -0.00030640177117091763 0 0.011597041874376933 -0.00060067516326671032 0 0.013514073414310825 -2.0824850533659676e-06 0 0.011580098116215787 4.5207650371897927e-05 0 0.013514073414310825 -2.0824850533659676e-06 0 0.011931729689433793 1.388760360592087e-06 0 0.011580098116215787 4.5207650371897927e-05 0 0.011931729689433793 1.388760360592087e-06 0 0.010899385035684937 0.00021182231310690181 0 0.011580098116215787 4.5207650371897927e-05 0 0.011931729689433793 1.388760360592087e-06 0 0.010899385035684937 0.00021182231310690181 0 0.01040542951138952 0.00014953984313031675 0 0.010899385035684937 0.00021182231310690181 0 0.011580098116215787 4.5207650371897927e-05 0 0.010993107869480743 0.00011581798755673839 0 0.011580098116215787 4.5207650371897927e-05 0 0.011094272984854004 -0.00015844809110307923 0 0.010993107869480743 0.00011581798755673839 0 0.011597041874376933 -0.00060067516326671032 0 0.011580098116215787 4.5207650371897927e-05 0 0.011094272984854004 -0.00015844809110307923 0 0.016081161596872829 -0.001213520570062303 0 0.013806717796934294 -0.0011974947004428837 0 0.010832649631869376 -0.00054057446307251744 0 0.011094272984854004 -0.00015844809110307923 0 0.010654268433128113 5.4491679440263719e-05 0 0.010093123140877857 0.00036194927467626825 0 0.013806717796934294 -0.0011974947004428837 0 0.011094272984854004 -0.00015844809110307923 0 0.010847885152583099 7.0941107205195985e-05 0 0.010993107869480743 0.00011581798755673839 0 0.01845847414716761 -0.0030457967357164334 0 0.019378208821201864 -0.0029380782125859551 0 0.019517063891742736 -0.002075394706522053 0 0.018057645620216094 -0.0020240046115153039 0 0.01845847414716761 -0.0030457967357164334 0 0.019517063891742736 -0.002075394706522053 0 0.013575912457624944 -5.9069842096619547e-05 0 0.014190504376741029 -0.00085783457401130173 0 0.014653533833194983 -0.00058134603020791186 0 0.013806717796934294 -0.0011974947004428837 0 0.010351539595818714 0.00077368927220634583 0 0.013575912457624944 -5.9069842096619547e-05 0 0.014190504376741029 -0.00085783457401130173 0 0.013932213212040599 -0.0010113208888126348 0 0.010847885152583099 7.0941107205195985e-05 0 0.010897502465589435 0.00015488488487281222 0 0.010896108141220827 0.00014427839173294298 0 0.013806717796934294 -0.0011974947004428837 0 0.01809762220531963 -0.0012153502775614517 0 0.01845847414716761 -0.0030457967357164334 0 0.019822505032611133 -0.0036787366130427968 0 0.019378208821201864 -0.0029380782125859551 0 0.010899385035684937 0.00021182231310690181 0 0.010993107869480743 0.00011581798755673839 0 0.010897502465589435 0.00015488488487281222 0 0.010847885152583099 7.0941107205195985e-05 0 0.010993107869480743 0.00011581798755673839 0 0.010897502465589435 0.00015488488487281222 0 0.010899385035684937 0.00021182231310690181 0 0.010897502465589435 0.00015488488487281222 0 0.010813041413232312 5.1682648193723201e-05 0 0.010897502465589435 0.00015488488487281222 0 0.010813041413232312 5.1682648193723201e-05 0 0.010896108141220827 0.00014427839173294298 0 0.008805310505735648 -0.00091234461467347547 0 0.0080620648020165251 -0.0013340458267570405 0 0.0081740381117029245 -0.00074767631912198509 0 0.0077700049294314542 0.0045484797914692142 0 0.0076107988234671107 0.0044409359556557117 0 0.0077737831997594549 0.0037797209134494917 0 0.0095657772402883007 -0.00061874732426582557 0 0.010351539595818714 0.00077368927220634583 0 0.011732456167864379 0.0011678320279374559 0 0.010351539595818714 0.00077368927220634583 0 0.0081740381117029245 -0.00074767631912198509 0 0.0076842327315214155 -0.00038236493433681798 0 0.007893254158820617 0.00014569009488159563 0 0.0080620648020165251 -0.0013340458267570405 0 0.0081740381117029245 -0.00074767631912198509 0 0.0076842327315214155 -0.00038236493433681798 0 0.010351539595818714 0.00077368927220634583 0 0.0073789653372607058 0.0019363843634148802 0 0.008805310505735648 -0.00091234461467347547 0 0.0081740381117029245 -0.00074767631912198509 0 0.0084814831953158726 8.9143333638249742e-05 0 0.010813041413232312 5.1682648193723201e-05 0 0.0098911230696903628 -0.00029164728409443257 0 0.01040542951138952 0.00014953984313031675 0 0.008805310505735648 -0.00091234461467347547 0 0.0098911230696903628 -0.00029164728409443257 0 0.0092271395853742218 -2.1017137181936454e-06 0 0.0095657772402883007 -0.00061874732426582557 0 0.010006715256696747 -0.00023642452795421764 0 0.011931729689433793 1.388760360592087e-06 0 0.0095104334131045683 -9.8733230763542044e-07 0 0.01040542951138952 0.00014953984313031675 0 0.0098911230696903628 -0.00029164728409443257 0 0.0095104334131045683 -9.8733230763542044e-07 0 0.0097061454439697908 6.6487049624749851e-06 0 0.0098911230696903628 -0.00029164728409443257 0 0.0095104334131045683 -9.8733230763542044e-07 0 0.01040542951138952 0.00014953984313031675 0 0.010899385035684937 0.00021182231310690181 0 0.010813041413232312 5.1682648193723201e-05 0 0.01040542951138952 0.00014953984313031675 0 0.014746765061137498 0.0023843306704935587 0 0.018162551929390185 -0.00039682514461980762 0 0.02086725430607958 -0.0014022905575877985 0 0.021397625800201738 -0.0017306412393907099 0 0.021152641353318721 -0.0018241267736210127 0 0.012861134973703087 0.0020090225844737603 0 0.013746095179461515 0.0022760337758216767 0 0.013966223059042918 0.0014510854580543724 0 0.02086725430607958 -0.0014022905575877985 0 0.021152641353318721 -0.0018241267736210127 0 0.021047188530657148 -0.0021225998138442773 0 0.011849208048143219 0.0048797622859789273 0 0.011479397499189662 0.0045663236484583709 0 0.011630591774677504 0.005669303387007817 0 0.014746765061137498 0.0023843306704935587 0 0.016189607728381024 0.0020983923129157273 0 0.011849208048143219 0.0048797622859789273 0 0.011479397499189662 0.0045663236484583709 0 0.01165797686251926 0.0044085159003586505 0 0.014746765061137498 0.0023843306704935587 0 0.01107099596460796 0.0039125018485407529 0 0.01165797686251926 0.0044085159003586505 0 0.011329511865055044 0.0041152302632251961 0 0.011328609063340704 0.0038564097223670042 0 0.014746765061137498 0.0023843306704935587 0 0.011106205202298148 0.0045221770054046729 0 0.011371437358994469 0.0045492230269928184 0 0.01165797686251926 0.0044085159003586505 0 0.011329511865055044 0.0041152302632251961 0 0.01107099596460796 0.0039125018485407529 0 0.011410297587226104 0.0031041422059818833 0 0.0088792219261301444 0.0041033631002027442 0 0.0084207894697585859 0.0036857621791382333 0 0.0090749586353671731 0.0035829507971922884 0 0.0096399570198261713 0.0038143270258926103 0 0.0088792219261301444 0.0041033631002027442 0 0.0090749586353671731 0.0035829507971922884 0 0.012861134973703087 0.0020090225844737603 0 0.012820550118990647 0.0028070438138403961 0 0.013746095179461515 0.0022760337758216767 0 0.0088792219261301444 0.0041033631002027442 0 0.0082567422194993207 0.0043187092417656253 0 0.0084207894697585859 0.0036857621791382333 0 0.011410297587226104 0.0031041422059818833 0 0.011308783441640763 0.0032060346030691441 0 0.0077737831997594549 0.0037797209134494917 0 0.0082567422194993207 0.0043187092417656253 0 0.0084207894697585859 0.0036857621791382333 0 0.011732456167864379 0.0011678320279374559 0 0.011308783441640763 0.0032060346030691441 0 0.0077700049294314542 0.0045484797914692142 0 0.0077737831997594549 0.0037797209134494917 0 0.0082567422194993207 0.0043187092417656253 0 0.015451580747584093 0.0012396492759181043 0 0.0146153833098084 0.0017505535210173566 0 0.014984125021017303 0.0009321763396521359 0 0.0146153833098084 0.0017505535210173566 0 0.013966223059042918 0.0014510854580543724 0 0.014984125021017303 0.0009321763396521359 0 0.013746095179461515 0.0022760337758216767 0 0.0146153833098084 0.0017505535210173566 0 0.013966223059042918 0.0014510854580543724 0 0.018162551929390185 -0.00039682514461980762 0 0.01809762220531963 -0.0012153502775614517 0 0.01809762220531963 -0.0012153502775614517 0 0.021445179314021727 -0.0025896171876417084 0 0.021397625800201738 -0.0017306412393907099 0 0.021702958640219192 -0.0019284378356545088 0 0.021438342500288504 -0.0021442667502569552 0 0.019822505032611133 -0.0036787366130427968 0 0.020088876292970344 -0.0027821064130922157 0 0.020773396551984277 -0.0030247444558052028 0 0.011732456167864379 0.0011678320279374559 0 0.01809762220531963 -0.0012153502775614517 0 0.019378208821201864 -0.0029380782125859551 0 0.020088876292970344 -0.0027821064130922157 0 0.019517063891742736 -0.002075394706522053 0 0.019822505032611133 -0.0036787366130427968 0 0.019378208821201864 -0.0029380782125859551 0 0.020088876292970344 -0.0027821064130922157 0 0.020088876292970344 -0.0027821064130922157 0 0.020773396551984277 -0.0030247444558052028 0 0.020814293973109719 -0.0022960956409928085 0 0.021438342500288504 -0.0021442667502569552 0 0.021305776382169708 -0.0023645423742885956 0 0.021264964862002869 -0.0020481995297528376 0 0.020773396551984277 -0.0030247444558052028 0 0.02119996237276638 -0.0023588049855587235 0 0.020814293973109719 -0.0022960956409928085 0 0.020773396551984277 -0.0030247444558052028 0 0.021305776382169708 -0.0023645423742885956 0 0.02119996237276638 -0.0023588049855587235 0 0.021305776382169708 -0.0023645423742885956 0 0.021264964862002869 -0.0020481995297528376 0 0.021047188530657148 -0.0021225998138442773 0 0.021445179314021727 -0.0025896171876417084 0 0.0211634801824023 -0.002445889655558467 0 0.021397625800201738 -0.0017306412393907099 0 0.021438342500288504 -0.0021442667502569552 0 0.021264964862002869 -0.0020481995297528376 0 0.021264964862002869 -0.0020481995297528376 0 0.021152641353318721 -0.0018241267736210127 0 0.021047188530657148 -0.0021225998138442773 0 0.021397625800201738 -0.0017306412393907099 0 0.021264964862002869 -0.0020481995297528376 0 0.021152641353318721 -0.0018241267736210127 0 0.011849208048143219 0.0048797622859789273 0 0.011630591774677504 0.005669303387007817 0 0.012228589497107535 0.0051640817030373619 0 0.016189607728381024 0.0020983923129157273 0 0.019113822742556737 0.00012350427297969487 0 0.011630591774677504 0.005669303387007817 0 0.011674854745247359 0.0071169679536649006 0 0.012646961568597469 0.0064496526079028194 0 0.021305776382169708 -0.0023645423742885956 0 0.021047188530657148 -0.0021225998138442773 0 0.021420690259837023 -0.0024373211739006431 0 0.021554939839676844 -0.002359035868390758 0 0.021475225692457117 -0.0022863351642708972 0 0.022007460396546018 -0.0022271670215241435 0 0.021554939839676844 -0.002359035868390758 0 0.021450705306024612 -0.0023847195294149927 0 0.021475225692457117 -0.0022863351642708972 0 0.019113822742556737 0.00012350427297969487 0 0.019705205135294598 -3.0658547662683423e-05 0 0.021305776382169708 -0.0023645423742885956 0 0.021420690259837023 -0.0024373211739006431 0 0.021450705306024612 -0.0023847195294149927 0 0.021305776382169708 -0.0023645423742885956 0 0.021450705306024612 -0.0023847195294149927 0 0.02119996237276638 -0.0023588049855587235 0 0.02119996237276638 -0.0023588049855587235 0 0.021135401764408975 -0.0019892309664631519 0 0.020814293973109719 -0.0022960956409928085 0 0.021450705306024612 -0.0023847195294149927 0 0.02119996237276638 -0.0023588049855587235 0 0.021475225692457117 -0.0022863351642708972 0 0.02119996237276638 -0.0023588049855587235 0 0.021475225692457117 -0.0022863351642708972 0 0.021135401764408975 -0.0019892309664631519 0 0.021135401764408975 -0.0019892309664631519 0 0.022007460396546018 -0.0022271670215241435 0 0.021141508326498214 -0.00093385735429659213 0 0.021475225692457117 -0.0022863351642708972 0 0.021135401764408975 -0.0019892309664631519 0 0.022007460396546018 -0.0022271670215241435 0 0.022117164166553512 -0.0038273160821653746 0 0.022007460396546018 -0.0022271670215241435 0 0.023668374101574671 -0.0020914821255211373 0 0.022007460396546018 -0.0022271670215241435 0 0.022209636675344393 -0.00086941709628428126 0 0.023668374101574671 -0.0020914821255211373 0 0.019113822742556737 0.00012350427297969487 0 0.021361568136392787 -0.00306879342246991 0 0.020088876292970344 -0.0027821064130922157 0 0.019517063891742736 -0.002075394706522053 0 0.020814293973109719 -0.0022960956409928085 0 0.020007729596819436 -0.0021989911913506705 0 0.020540453508026548 -0.0022399806754934458 0 0.01954293755426734 -0.0021350483670933137 0 0.020814293973109719 -0.0022960956409928085 0 0.020158848318776589 -0.0016693529377395169 0 0.021135401764408975 -0.0019892309664631519 0 0.020814293973109719 -0.0022960956409928085 0 0.020158848318776589 -0.0016693529377395169 0 0.021135401764408975 -0.0019892309664631519 0 0.020093839211210766 -0.00085589157736676031 0 0.021141508326498214 -0.00093385735429659213 0 0.021135401764408975 -0.0019892309664631519 0 0.020158848318776589 -0.0016693529377395169 0 0.020093839211210766 -0.00085589157736676031 0 0.019148900741229262 -0.001022898911434605 0 0.020158848318776589 -0.0016693529377395169 0 0.020093839211210766 -0.00085589157736676031 0 0.019148900741229262 -0.001022898911434605 0 0.01954293755426734 -0.0021350483670933137 0 0.020158848318776589 -0.0016693529377395169 0 0.020093839211210766 -0.00085589157736676031 0 0.020339565159846456 -9.2645865084673809e-05 0 0.019613420006659592 -1.9490174973206783e-05 0 0.019148900741229262 -0.001022898911434605 0 0.019421004090330658 -0.0005021033171030096 0 0.020093839211210766 -0.00085589157736676031 0 0.019421004090330658 -0.0005021033171030096 0 0.020093839211210766 -0.00085589157736676031 0 0.019613420006659592 -1.9490174973206783e-05 0 0.020093839211210766 -0.00085589157736676031 0 0.020339565159846456 -9.2645865084673809e-05 0 0.021141508326498214 -0.00093385735429659213 0 0.019879217529233214 0.00058437676165936552 0 0.020339565159846456 -9.2645865084673809e-05 0 0.021257856269684721 0.00046843448238659805 0 0.019879217529233214 0.00058437676165936552 0 0.020339565159846456 -9.2645865084673809e-05 0 0.019613420006659592 -1.9490174973206783e-05 0 0.019879217529233214 0.00058437676165936552 0 0.019074674076719336 0.00021750954718841403 0 0.019613420006659592 -1.9490174973206783e-05 0 0.022209636675344393 -0.00086941709628428126 0 0.023459164858561327 -7.9649758061952304e-05 0 0.023668374101574671 -0.0020914821255211373 0 0.022209636675344393 -0.00086941709628428126 0 0.021141508326498214 -0.00093385735429659213 0 0.021257856269684721 0.00046843448238659805 0 0.022007460396546018 -0.0022271670215241435 0 0.022209636675344393 -0.00086941709628428126 0 0.021141508326498214 -0.00093385735429659213 0 0.020339565159846456 -9.2645865084673809e-05 0 0.021141508326498214 -0.00093385735429659213 0 0.021257856269684721 0.00046843448238659805 0 0.027823091859648031 -0.002274127298848305 0 0.027335003667041561 -0.0027372603951872202 0 0.027702785963952543 -0.0022499378441027248 0 0.024282875124838184 -0.0011224252505105195 0 0.025565978131742224 -0.0012459927237272841 0 0.022209636675344393 -0.00086941709628428126 0 0.021257856269684721 0.00046843448238659805 0 0.023459164858561327 -7.9649758061952304e-05 0 0.027823091859648031 -0.002274127298848305 0 0.027702785963952543 -0.0022499378441027248 0 0.027655969846132035 -0.0021285477620904842 0 0.023459164858561327 -7.9649758061952304e-05 0 0.026678176728875742 -0.002018568241358432 0 0.023668374101574671 -0.0020914821255211373 0 0.025565978131742224 -0.0012459927237272841 0 0.02663960466711247 -0.0019283080348732249 0 0.026678176728875742 -0.002018568241358432 0 0.027655969846132035 -0.0021285477620904842 0 0.027467385260585623 -0.0022379404975555284 0 0.027702785963952543 -0.0022499378441027248 0 0.026678176728875742 -0.002018568241358432 0 0.027655969846132035 -0.0021285477620904842 0 0.027655969846132035 -0.0021285477620904842 0 0.027958422958641312 -0.002058342377903808 0 0.027467385260585623 -0.0022379404975555284 0 0.027958422958641312 -0.002058342377903808 0 0.027467385260585623 -0.0022379404975555284 0 0.028253266497014415 -0.0021252462611635143 0 0.027467385260585623 -0.0022379404975555284 0 0.028253266497014415 -0.0021252462611635143 0 0.028097690361714354 -0.0028596541541500054 0 0.026678176728875742 -0.002018568241358432 0 0.027467385260585623 -0.0022379404975555284 0 0.027107194458249481 -0.0029892031839799859 0 0.021239676442351096 0.0022341046773677697 0 0.022168874574984582 0.0022889761575728292 0 0.027467385260585623 -0.0022379404975555284 0 0.027107194458249481 -0.0029892031839799859 0 0.028097690361714354 -0.0028596541541500054 0 0.015240343138147008 0.0075359709690060415 0 0.015527169921228007 0.0067245288059049769 0 0.014820405475863028 0.0065901918993794594 0 0.015240343138147008 0.0075359709690060415 0 0.016193828876439127 0.0074431296724900104 0 0.015527169921228007 0.0067245288059049769 0 0.015240343138147008 0.0075359709690060415 0 0.013870289843115896 0.0064470343831267291 0 0.014820405475863028 0.0065901918993794594 0 0.015240343138147008 0.0075359709690060415 0 0.013477272230989065 0.0074499583086736409 0 0.013870289843115896 0.0064470343831267291 0 0.013477272230989065 0.0074499583086736409 0 0.012646961568597469 0.0064496526079028194 0 0.013870289843115896 0.0064470343831267291 0 0.019113822742556737 0.00012350427297969487 0 0.018986956118087209 0.0021564393650622799 0 0.011674854745247359 0.0071169679536649006 0 0.013477272230989065 0.0074499583086736409 0 0.012646961568597469 0.0064496526079028194 0 0.026678176728875742 -0.002018568241358432 0 0.025494030687657813 -0.0035262651828157042 0 0.023668374101574671 -0.0020914821255211373 0 0.022117164166553512 -0.0038273160821653746 0 0.025494030687657813 -0.0035262651828157042 0 0.023668374101574671 -0.0020914821255211373 0 0.021239676442351096 0.0022341046773677697 0 0.018986956118087209 0.0021564393650622799 0 0.026678176728875742 -0.002018568241358432 0 0.027107194458249481 -0.0029892031839799859 0 0.025494030687657813 -0.0035262651828157042 0 0.029305330630062416 -0.0023206801574098481 0 0.029022918827410524 -0.0026826037044827477 0 0.029590346170012705 -0.0024955872865109864 0 0.022888401339925153 0.0025480151785654821 0 0.025167228785302722 0.0016260326919542629 0 0.029305330630062416 -0.0023206801574098481 0 0.029513435310224941 -0.0020589581216747272 0 0.029590346170012705 -0.0024955872865109864 0 0.029239829803356262 -0.001961204358791103 0 0.029305330630062416 -0.0023206801574098481 0 0.029513435310224941 -0.0020589581216747272 0 0.029239829803356262 -0.001961204358791103 0 0.029305330630062416 -0.0023206801574098481 0 0.028818135646900899 -0.0022706566219017434 0 0.029305330630062416 -0.0023206801574098481 0 0.028818135646900899 -0.0022706566219017434 0 0.029022918827410524 -0.0026826037044827477 0 0.028818135646900899 -0.0022706566219017434 0 0.028097690361714354 -0.0028596541541500054 0 0.029022918827410524 -0.0026826037044827477 0 0.028827897892234552 -0.0019039868481154115 0 0.029239829803356262 -0.001961204358791103 0 0.028818135646900899 -0.0022706566219017434 0 0.028827897892234552 -0.0019039868481154115 0 0.028818135646900899 -0.0022706566219017434 0 0.028253266497014415 -0.0021252462611635143 0 0.028818135646900899 -0.0022706566219017434 0 0.028253266497014415 -0.0021252462611635143 0 0.028097690361714354 -0.0028596541541500054 0 0.016193828876439127 0.0074431296724900104 0 0.015527169921228007 0.0067245288059049769 0 0.016094754082143295 0.0065423913819692677 0 0.016193828876439127 0.0074431296724900104 0 0.016094754082143295 0.0065423913819692677 0 0.016806144255406903 0.0066548945293504634 0 0.016193828876439127 0.0074431296724900104 0 0.017208108492754073 0.0075321470818676484 0 0.016806144255406903 0.0066548945293504634 0 0.022168874574984582 0.0022889761575728292 0 0.022888401339925153 0.0025480151785654821 0 0.017208108492754073 0.0075321470818676484 0 0.016806144255406903 0.0066548945293504634 0 0.01751712558558784 0.006880504675116147 0 0.016806144255406903 0.0066548945293504634 0 0.01751712558558784 0.006880504675116147 0 0.017489685756500169 0.006298721357976639 0 0.01751712558558784 0.006880504675116147 0 0.017489685756500169 0.006298721357976639 0 0.01807414157545446 0.0066445900759205812 0 0.01807414157545446 0.0066445900759205812 0 0.0180165132891804 0.0060387353564086083 0 0.018643020541962266 0.0063070852339911256 0 0.017489685756500169 0.006298721357976639 0 0.01807414157545446 0.0066445900759205812 0 0.0180165132891804 0.0060387353564086083 0 0.01751712558558784 0.006880504675116147 0 0.01807414157545446 0.0066445900759205812 0 0.018021927430349124 0.0071921130941919884 0 0.017208108492754073 0.0075321470818676484 0 0.01751712558558784 0.006880504675116147 0 0.018021927430349124 0.0071921130941919884 0 0.01807414157545446 0.0066445900759205812 0 0.018021927430349124 0.0071921130941919884 0 0.018328108464559074 0.0069533465004150965 0 0.017208108492754073 0.0075321470818676484 0 0.018267403203840134 0.0074125760173797284 0 0.018643150563913805 0.0076906173615020074 0 0.017208108492754073 0.0075321470818676484 0 0.018021927430349124 0.0071921130941919884 0 0.018267403203840134 0.0074125760173797284 0 0.018021927430349124 0.0071921130941919884 0 0.018407516554855664 0.0072085279913648966 0 0.018328108464559074 0.0069533465004150965 0 0.018021927430349124 0.0071921130941919884 0 0.018267403203840134 0.0074125760173797284 0 0.018407516554855664 0.0072085279913648966 0 0.017273764197781094 0.0053948198101007724 0 0.017720285505367837 0.0042735035415807357 0 0.018544547826672961 0.0054833575651143003 0 0.017053664600950924 0.0058521410811850898 0 0.016569689482340947 0.0037462747975274329 0 0.016569689482340947 0.0037462747975274329 0 0.016607824759037677 0.0036790611432794473 0 0.0180165132891804 0.0060387353564086083 0 0.017273764197781094 0.0053948198101007724 0 0.018544547826672961 0.0054833575651143003 0 0.017489685756500169 0.006298721357976639 0 0.0180165132891804 0.0060387353564086083 0 0.017273764197781094 0.0053948198101007724 0 0.016806144255406903 0.0066548945293504634 0 0.017489685756500169 0.006298721357976639 0 0.017273764197781094 0.0053948198101007724 0 0.016806144255406903 0.0066548945293504634 0 0.016760590757291225 0.0059484752892688354 0 0.016272522194697808 0.0059924490983810381 0 0.016793942934638234 0.0065334348514335568 0 0.017053664600950924 0.0058521410811850898 0 0.016760590757291225 0.0059484752892688354 0 0.016380071123249577 0.0053758988753563591 0 0.016272522194697808 0.0059924490983810381 0 0.016760590757291225 0.0059484752892688354 0 0.016380071123249577 0.0053758988753563591 0 0.016937889172700386 0.005122029823186389 0 0.016380071123249577 0.0053758988753563591 0 0.015856358774960257 0.0053593282614916235 0 0.016272522194697808 0.0059924490983810381 0 0.015856358774960257 0.0053593282614916235 0 0.016272522194697808 0.0059924490983810381 0 0.015661860832824646 0.0059562500968574177 0 0.016094754082143295 0.0065423913819692677 0 0.016272522194697808 0.0059924490983810381 0 0.015661860832824646 0.0059562500968574177 0 0.016094754082143295 0.0065423913819692677 0 0.016806144255406903 0.0066548945293504634 0 0.016272522194697808 0.0059924490983810381 0 0.015527169921228007 0.0067245288059049769 0 0.016094754082143295 0.0065423913819692677 0 0.015661860832824646 0.0059562500968574177 0 0.015527169921228007 0.0067245288059049769 0 0.015661860832824646 0.0059562500968574177 0 0.015116766137552709 0.0061008157620215057 0 0.015661860832824646 0.0059562500968574177 0 0.015208064660336421 0.0051658670508112877 0 0.014812932657971701 0.0055075066102789989 0 0.015661860832824646 0.0059562500968574177 0 0.015116766137552709 0.0061008157620215057 0 0.014812932657971701 0.0055075066102789989 0 0.015856358774960257 0.0053593282614916235 0 0.015661860832824646 0.0059562500968574177 0 0.015208064660336421 0.0051658670508112877 0 0.015208064660336421 0.0051658670508112877 0 0.014812932657971701 0.0055075066102789989 0 0.014474745628833382 0.0048955042990905711 0 0.015208064660336421 0.0051658670508112877 0 0.014913002279478412 0.004567340077354971 0 0.01553511706858432 0.004757650583664637 0 0.015208064660336421 0.0051658670508112877 0 0.014913002279478412 0.004567340077354971 0 0.014474745628833382 0.0048955042990905711 0 0.014913002279478412 0.004567340077354971 0 0.014617660678997828 0.0039277009534216516 0 0.013927638678408426 0.0041686652465128676 0 0.014913002279478412 0.004567340077354971 0 0.014617660678997828 0.0039277009534216516 0 0.015281569172652302 0.0041888719741489076 0 0.014913002279478412 0.004567340077354971 0 0.015281569172652302 0.0041888719741489076 0 0.01553511706858432 0.004757650583664637 0 0.015281569172652302 0.0041888719741489076 0 0.015854632036320277 0.0044320280183322968 0 0.01553511706858432 0.004757650583664637 0 0.015281569172652302 0.0041888719741489076 0 0.015854632036320277 0.0044320280183322968 0 0.015692100098760698 0.0038556091608669446 0 0.015854632036320277 0.0044320280183322968 0 0.01553511706858432 0.004757650583664637 0 0.016068150888365083 0.0049078762142888586 0 0.015856358774960257 0.0053593282614916235 0 0.015208064660336421 0.0051658670508112877 0 0.01553511706858432 0.004757650583664637 0 0.015856358774960257 0.0053593282614916235 0 0.01553511706858432 0.004757650583664637 0 0.016068150888365083 0.0049078762142888586 0 0.016380071123249577 0.0053758988753563591 0 0.015856358774960257 0.0053593282614916235 0 0.016068150888365083 0.0049078762142888586 0 0.016380071123249577 0.0053758988753563591 0 0.016533572585385965 0.0049832330234182484 0 0.016937889172700386 0.005122029823186389 0 0.016380071123249577 0.0053758988753563591 0 0.016533572585385965 0.0049832330234182484 0 0.016068150888365083 0.0049078762142888586 0 0.016533572585385965 0.0049832330234182484 0 0.016599982802602904 0.0047854823892606556 0 0.016321401554599279 0.0046409481605990816 0 0.016599982802602904 0.0047854823892606556 0 0.016321401554599279 0.0046409481605990816 0 0.016675970654171375 0.0044672057246582051 0 0.016533572585385965 0.0049832330234182484 0 0.016599982802602904 0.0047854823892606556 0 0.016841230831165517 0.0049970855364000156 0 0.016533572585385965 0.0049832330234182484 0 0.016068150888365083 0.0049078762142888586 0 0.016321401554599279 0.0046409481605990816 0 0.015854632036320277 0.0044320280183322968 0 0.016068150888365083 0.0049078762142888586 0 0.016321401554599279 0.0046409481605990816 0 0.015854632036320277 0.0044320280183322968 0 0.016321401554599279 0.0046409481605990816 0 0.016221795683046474 0.0041812725003911085 0 0.015854632036320277 0.0044320280183322968 0 0.016221795683046474 0.0041812725003911085 0 0.015692100098760698 0.0038556091608669446 0 0.016221795683046474 0.0041812725003911085 0 0.016675970654171375 0.0044672057246582051 0 0.016624557089365687 0.0040542807612398346 0 0.016221795683046474 0.0041812725003911085 0 0.016624557089365687 0.0040542807612398346 0 0.016254232206922462 0.0034881811342073197 0 0.016321401554599279 0.0046409481605990816 0 0.016221795683046474 0.0041812725003911085 0 0.016675970654171375 0.0044672057246582051 0 0.016675970654171375 0.0044672057246582051 0 0.016841230831165517 0.0049970855364000156 0 0.017372080471287726 0.0039144565055803946 0 0.016569689482340947 0.0037462747975274329 0 0.01344047196589448 0.00027831596455614335 0 0.016675970654171375 0.0044672057246582051 0 0.016624557089365687 0.0040542807612398346 0 0.017372080471287726 0.0039144565055803946 0 0.016841230831165517 0.0049970855364000156 0 0.016937217701094815 0.0051346176345440737 0 0.017372080471287726 0.0039144565055803946 0 0.016599982802602904 0.0047854823892606556 0 0.016675970654171375 0.0044672057246582051 0 0.016841230831165517 0.0049970855364000156 0 0.016533572585385965 0.0049832330234182484 0 0.016841230831165517 0.0049970855364000156 0 0.016937889172700386 0.005122029823186389 0 0.016809617603065242 0.0042083831979706698 0 0.016569689482340947 0.0037462747975274329 0 0.013229249081580746 0.0054887918110394897 0 0.01265009050296265 0.005725150958814461 0 0.013870289843115896 0.0064470343831267291 0 0.013229249081580746 0.0054887918110394897 0 0.013870289843115896 0.0064470343831267291 0 0.013872052024714136 0.0056132896697388256 0 0.013229249081580746 0.0054887918110394897 0 0.01265009050296265 0.005725150958814461 0 0.012736542269516966 0.0050816617592659907 0 0.011630591774677504 0.005669303387007817 0 0.01265009050296265 0.005725150958814461 0 0.012228589497107535 0.0051640817030373619 0 0.01265009050296265 0.005725150958814461 0 0.012736542269516966 0.0050816617592659907 0 0.012228589497107535 0.0051640817030373619 0 0.011630591774677504 0.005669303387007817 0 0.01265009050296265 0.005725150958814461 0 0.012646961568597469 0.0064496526079028194 0 0.01265009050296265 0.005725150958814461 0 0.012646961568597469 0.0064496526079028194 0 0.013870289843115896 0.0064470343831267291 0 0.013870289843115896 0.0064470343831267291 0 0.014820405475863028 0.0065901918993794594 0 0.014548896097960409 0.0059414570315035088 0 0.013870289843115896 0.0064470343831267291 0 0.014548896097960409 0.0059414570315035088 0 0.013872052024714136 0.0056132896697388256 0 0.015527169921228007 0.0067245288059049769 0 0.014820405475863028 0.0065901918993794594 0 0.015116766137552709 0.0061008157620215057 0 0.014820405475863028 0.0065901918993794594 0 0.015116766137552709 0.0061008157620215057 0 0.014548896097960409 0.0059414570315035088 0 0.014548896097960409 0.0059414570315035088 0 0.014812932657971701 0.0055075066102789989 0 0.0141777795938146 0.0052663523904658465 0 0.015116766137552709 0.0061008157620215057 0 0.014548896097960409 0.0059414570315035088 0 0.014812932657971701 0.0055075066102789989 0 0.014548896097960409 0.0059414570315035088 0 0.013872052024714136 0.0056132896697388256 0 0.0141777795938146 0.0052663523904658465 0 0.013872052024714136 0.0056132896697388256 0 0.013477871099316712 0.0049766165730281732 0 0.0141777795938146 0.0052663523904658465 0 0.013229249081580746 0.0054887918110394897 0 0.013872052024714136 0.0056132896697388256 0 0.013477871099316712 0.0049766165730281732 0 0.013477871099316712 0.0049766165730281732 0 0.013855244281422752 0.0047295477243032126 0 0.013225341764472104 0.0043258249842404936 0 0.013477871099316712 0.0049766165730281732 0 0.013855244281422752 0.0047295477243032126 0 0.0141777795938146 0.0052663523904658465 0 0.013855244281422752 0.0047295477243032126 0 0.0141777795938146 0.0052663523904658465 0 0.014474745628833382 0.0048955042990905711 0 0.014812932657971701 0.0055075066102789989 0 0.0141777795938146 0.0052663523904658465 0 0.014474745628833382 0.0048955042990905711 0 0.013855244281422752 0.0047295477243032126 0 0.014474745628833382 0.0048955042990905711 0 0.013927638678408426 0.0041686652465128676 0 0.014913002279478412 0.004567340077354971 0 0.014474745628833382 0.0048955042990905711 0 0.013927638678408426 0.0041686652465128676 0 0.013477871099316712 0.0049766165730281732 0 0.013225341764472104 0.0043258249842404936 0 0.012673505357879731 0.0045218414769863059 0 0.013225341764472104 0.0043258249842404936 0 0.012324424126747538 0.0039057276446624843 0 0.013087657262894636 0.0037048994440617503 0 0.013855244281422752 0.0047295477243032126 0 0.013927638678408426 0.0041686652465128676 0 0.013225341764472104 0.0043258249842404936 0 0.013927638678408426 0.0041686652465128676 0 0.013225341764472104 0.0043258249842404936 0 0.013087657262894636 0.0037048994440617503 0 0.012673505357879731 0.0045218414769863059 0 0.011967046312379876 0.0042513845551118683 0 0.012324424126747538 0.0039057276446624843 0 0.013225341764472104 0.0043258249842404936 0 0.012673505357879731 0.0045218414769863059 0 0.012324424126747538 0.0039057276446624843 0 0.013229249081580746 0.0054887918110394897 0 0.013477871099316712 0.0049766165730281732 0 0.012736542269516966 0.0050816617592659907 0 0.013477871099316712 0.0049766165730281732 0 0.012673505357879731 0.0045218414769863059 0 0.012736542269516966 0.0050816617592659907 0 0.012673505357879731 0.0045218414769863059 0 0.012736542269516966 0.0050816617592659907 0 0.012170130262238966 0.0046757662624708285 0 0.011849208048143219 0.0048797622859789273 0 0.012228589497107535 0.0051640817030373619 0 0.012170130262238966 0.0046757662624708285 0 0.012736542269516966 0.0050816617592659907 0 0.012228589497107535 0.0051640817030373619 0 0.012170130262238966 0.0046757662624708285 0 0.011849208048143219 0.0048797622859789273 0 0.01165797686251926 0.0044085159003586505 0 0.012170130262238966 0.0046757662624708285 0 0.01165797686251926 0.0044085159003586505 0 0.012170130262238966 0.0046757662624708285 0 0.011967046312379876 0.0042513845551118683 0 0.01165797686251926 0.0044085159003586505 0 0.011967046312379876 0.0042513845551118683 0 0.011328609063340704 0.0038564097223670042 0 0.012673505357879731 0.0045218414769863059 0 0.012170130262238966 0.0046757662624708285 0 0.011967046312379876 0.0042513845551118683 0 0.011967046312379876 0.0042513845551118683 0 0.011328609063340704 0.0038564097223670042 0 0.012324424126747538 0.0039057276446624843 0 0.011328609063340704 0.0038564097223670042 0 0.011013972751890654 0.0025162338742830449 0 0.012160893163602278 0.0030103431231910515 0 0.011328609063340704 0.0038564097223670042 0 0.011013972751890654 0.0025162338742830449 0 0.0098686812437553412 0.0027577012664820838 0 0.011013972751890654 0.0025162338742830449 0 0.012160893163602278 0.0030103431231910515 0 0.011728416611277543 0.0020637034136213555 0 0.012160893163602278 0.0030103431231910515 0 0.012324424126747538 0.0039057276446624843 0 0.013087657262894636 0.0037048994440617503 0 0.011328609063340704 0.0038564097223670042 0 0.012160893163602278 0.0030103431231910515 0 0.012324424126747538 0.0039057276446624843 0 0.013927638678408426 0.0041686652465128676 0 0.013087657262894636 0.0037048994440617503 0 0.013501242230235466 0.003419524020498171 0 0.013087657262894636 0.0037048994440617503 0 0.013501242230235466 0.003419524020498171 0 0.013005977212215178 0.0029173457261559648 0 0.014617660678997828 0.0039277009534216516 0 0.013927638678408426 0.0041686652465128676 0 0.014052089252661439 0.003570171956069664 0 0.013927638678408426 0.0041686652465128676 0 0.014052089252661439 0.003570171956069664 0 0.013501242230235466 0.003419524020498171 0 0.014052089252661439 0.003570171956069664 0 0.013501242230235466 0.003419524020498171 0 0.013801783899420845 0.0030356104555623897 0 0.014052089252661439 0.003570171956069664 0 0.013801783899420845 0.0030356104555623897 0 0.014460076421536893 0.0033102122826847379 0 0.013501242230235466 0.003419524020498171 0 0.013801783899420845 0.0030356104555623897 0 0.013005977212215178 0.0029173457261559648 0 0.013801783899420845 0.0030356104555623897 0 0.013005977212215178 0.0029173457261559648 0 0.013422104917591472 0.0024026826985004512 0 0.013801783899420845 0.0030356104555623897 0 0.013422104917591472 0.0024026826985004512 0 0.01427059698970864 0.0026855810482641789 0 0.012160893163602278 0.0030103431231910515 0 0.013005977212215178 0.0029173457261559648 0 0.01257084643944153 0.002035464911716627 0 0.012160893163602278 0.0030103431231910515 0 0.013087657262894636 0.0037048994440617503 0 0.013005977212215178 0.0029173457261559648 0 0.013005977212215178 0.0029173457261559648 0 0.01257084643944153 0.002035464911716627 0 0.013422104917591472 0.0024026826985004512 0 0.01257084643944153 0.002035464911716627 0 0.013194202736984689 0.0016396038274576203 0 0.012582794702942971 0.001298074310583491 0 0.013422104917591472 0.0024026826985004512 0 0.01427059698970864 0.0026855810482641789 0 0.01396895862049065 0.0019860315053619594 0 0.013422104917591472 0.0024026826985004512 0 0.013194202736984689 0.0016396038274576203 0 0.01396895862049065 0.0019860315053619594 0 0.01257084643944153 0.002035464911716627 0 0.013422104917591472 0.0024026826985004512 0 0.013194202736984689 0.0016396038274576203 0 0.013194202736984689 0.0016396038274576203 0 0.01396895862049065 0.0019860315053619594 0 0.0137296447560899 0.0012322309463862759 0 0.013194202736984689 0.0016396038274576203 0 0.013035532017721604 0.00093091797309926172 0 0.0137296447560899 0.0012322309463862759 0 0.013194202736984689 0.0016396038274576203 0 0.013035532017721604 0.00093091797309926172 0 0.012582794702942971 0.001298074310583491 0 0.013035532017721604 0.00093091797309926172 0 0.012582794702942971 0.001298074310583491 0 0.012537084748564783 0.00071137777508941617 0 0.01257084643944153 0.002035464911716627 0 0.012582794702942971 0.001298074310583491 0 0.01197227721736142 0.0011695413705209779 0 0.01197227721736142 0.0011695413705209779 0 0.012049813997415195 0.00047410430152955077 0 0.012537084748564783 0.00071137777508941617 0 0.012582794702942971 0.001298074310583491 0 0.01197227721736142 0.0011695413705209779 0 0.012537084748564783 0.00071137777508941617 0 0.01197227721736142 0.0011695413705209779 0 0.010929593317670459 0.00158557059051042 0 0.011249393139975921 0.00058059705320787135 0 0.01197227721736142 0.0011695413705209779 0 0.010929593317670459 0.00158557059051042 0 0.011728416611277543 0.0020637034136213555 0 0.010929593317670459 0.00158557059051042 0 0.011249393139975921 0.00058059705320787135 0 0.0095886013790134512 0.00082411442691074192 0 0.011013972751890654 0.0025162338742830449 0 0.010929593317670459 0.00158557059051042 0 0.011728416611277543 0.0020637034136213555 0 0.011013972751890654 0.0025162338742830449 0 0.010929593317670459 0.00158557059051042 0 0.0099029009209128556 0.0019681073063256877 0 0.01257084643944153 0.002035464911716627 0 0.01197227721736142 0.0011695413705209779 0 0.011728416611277543 0.0020637034136213555 0 0.012160893163602278 0.0030103431231910515 0 0.01257084643944153 0.002035464911716627 0 0.011728416611277543 0.0020637034136213555 0 0.016163146322398108 0.0022442359658734153 0 0.016786109282852433 0.0022919222657511043 0 0.017075095907021453 0.003217337103700512 0 0.016398681998286157 0.0028081915670372273 0 0.016581113902915865 0.0019987960464220144 0 0.016654051765052802 0.002282617682833932 0 0.016581113902915865 0.0019987960464220144 0 0.016765101083184592 0.0021240026542847165 0 0.016624557089365687 0.0040542807612398346 0 0.017075095907021453 0.003217337103700512 0 0.016254232206922462 0.0034881811342073197 0 0.016624557089365687 0.0040542807612398346 0 0.017135558886717112 0.0031905196088893853 0 0.017372080471287726 0.0039144565055803946 0 0.016723810829153737 0.0041670649057722556 0 0.016163146322398108 0.0022442359658734153 0 0.017075095907021453 0.003217337103700512 0 0.016254232206922462 0.0034881811342073197 0 0.016398681998286157 0.0028081915670372273 0 0.016163146322398108 0.0022442359658734153 0 0.01344047196589448 0.00027831596455614335 0 0.016221795683046474 0.0041812725003911085 0 0.016254232206922462 0.0034881811342073197 0 0.015692100098760698 0.0038556091608669446 0 0.016254232206922462 0.0034881811342073197 0 0.015583079254161863 0.0032347005768120149 0 0.015692100098760698 0.0038556091608669446 0 0.016254232206922462 0.0034881811342073197 0 0.016026094195017802 0.0029273786144209356 0 0.015583079254161863 0.0032347005768120149 0 0.016026094195017802 0.0029273786144209356 0 0.015516483819143062 0.0026068110407201752 0 0.015583079254161863 0.0032347005768120149 0 0.016254232206922462 0.0034881811342073197 0 0.016026094195017802 0.0029273786144209356 0 0.016398681998286157 0.0028081915670372273 0 0.016026094195017802 0.0029273786144209356 0 0.016398681998286157 0.0028081915670372273 0 0.016090701302999062 0.0023616701733795153 0 0.016398681998286157 0.0028081915670372273 0 0.016090701302999062 0.0023616701733795153 0 0.016581113902915865 0.0019987960464220144 0 0.016026094195017802 0.0029273786144209356 0 0.015516483819143062 0.0026068110407201752 0 0.016090701302999062 0.0023616701733795153 0 0.015516483819143062 0.0026068110407201752 0 0.014961180956138935 0.002944951696795576 0 0.014847310783567371 0.0021891780954914359 0 0.015516483819143062 0.0026068110407201752 0 0.014961180956138935 0.002944951696795576 0 0.015583079254161863 0.0032347005768120149 0 0.015583079254161863 0.0032347005768120149 0 0.015692100098760698 0.0038556091608669446 0 0.015093105561911582 0.0035821881578236578 0 0.015281569172652302 0.0041888719741489076 0 0.015692100098760698 0.0038556091608669446 0 0.015093105561911582 0.0035821881578236578 0 0.014961180956138935 0.002944951696795576 0 0.015583079254161863 0.0032347005768120149 0 0.015093105561911582 0.0035821881578236578 0 0.014961180956138935 0.002944951696795576 0 0.015093105561911582 0.0035821881578236578 0 0.014460076421536893 0.0033102122826847379 0 0.014617660678997828 0.0039277009534216516 0 0.015093105561911582 0.0035821881578236578 0 0.014460076421536893 0.0033102122826847379 0 0.014617660678997828 0.0039277009534216516 0 0.015281569172652302 0.0041888719741489076 0 0.015093105561911582 0.0035821881578236578 0 0.014617660678997828 0.0039277009534216516 0 0.014052089252661439 0.003570171956069664 0 0.014460076421536893 0.0033102122826847379 0 0.013801783899420845 0.0030356104555623897 0 0.014460076421536893 0.0033102122826847379 0 0.01427059698970864 0.0026855810482641789 0 0.014961180956138935 0.002944951696795576 0 0.014460076421536893 0.0033102122826847379 0 0.01427059698970864 0.0026855810482641789 0 0.014961180956138935 0.002944951696795576 0 0.01427059698970864 0.0026855810482641789 0 0.014847310783567371 0.0021891780954914359 0 0.01427059698970864 0.0026855810482641789 0 0.01396895862049065 0.0019860315053619594 0 0.014847310783567371 0.0021891780954914359 0 0.01396895862049065 0.0019860315053619594 0 0.014353767187289061 0.001595803375113382 0 0.014847310783567371 0.0021891780954914359 0 0.01396895862049065 0.0019860315053619594 0 0.0137296447560899 0.0012322309463862759 0 0.014353767187289061 0.001595803375113382 0 0.013035532017721604 0.00093091797309926172 0 0.0137296447560899 0.0012322309463862759 0 0.013565200994514083 0.00059509924263998544 0 0.0137296447560899 0.0012322309463862759 0 0.014441870826498148 0.00096168585774136209 0 0.013565200994514083 0.00059509924263998544 0 0.0137296447560899 0.0012322309463862759 0 0.014353767187289061 0.001595803375113382 0 0.014441870826498148 0.00096168585774136209 0 0.014976951227661572 0.0015411109155942424 0 0.014441870826498148 0.00096168585774136209 0 0.015742395812295369 0.00090394023794646288 0 0.014976951227661572 0.0015411109155942424 0 0.015596413125485693 0.0019439986194639575 0 0.015742395812295369 0.00090394023794646288 0 0.014353767187289061 0.001595803375113382 0 0.014976951227661572 0.0015411109155942424 0 0.014441870826498148 0.00096168585774136209 0 0.014976951227661572 0.0015411109155942424 0 0.014847310783567371 0.0021891780954914359 0 0.015596413125485693 0.0019439986194639575 0 0.014353767187289061 0.001595803375113382 0 0.014976951227661572 0.0015411109155942424 0 0.014847310783567371 0.0021891780954914359 0 0.015516483819143062 0.0026068110407201752 0 0.014847310783567371 0.0021891780954914359 0 0.015596413125485693 0.0019439986194639575 0 0.016176102373079679 0.0019137563922406293 0 0.015596413125485693 0.0019439986194639575 0 0.015742395812295369 0.00090394023794646288 0 0.016090701302999062 0.0023616701733795153 0 0.016176102373079679 0.0019137563922406293 0 0.015596413125485693 0.0019439986194639575 0 0.015516483819143062 0.0026068110407201752 0 0.016090701302999062 0.0023616701733795153 0 0.015596413125485693 0.0019439986194639575 0 0.016090701302999062 0.0023616701733795153 0 0.016176102373079679 0.0019137563922406293 0 0.016581113902915865 0.0019987960464220144 0 0.0082160829814195112 -0.0030533131544772979 0 0.0081279912138423824 -0.0030670643290904181 0 0.0081327722354619832 -0.0031305133690933979 0 0.016176102373079679 0.0019137563922406293 0 0.015742395812295369 0.00090394023794646288 0 0.016596295308037357 0.0018205895127416203 0 0.011941657025749858 -0.001105351038477146 0 0.012520416401067052 -0.00051173697004462822 0 0.0082160829814195112 -0.0030533131544772979 0 0.0081279912138423824 -0.0030670643290904181 0 0.0081272665943270331 -0.0030093319331642556 0 0.0081279912138423824 -0.0030670643290904181 0 0.0080825574753589664 -0.0030967384715739343 0 0.0081327722354619832 -0.0031305133690933979 0 0.0081279912138423824 -0.0030670643290904181 0 0.0080825574753589664 -0.0030967384715739343 0 0.0080489079899292784 -0.0030397621697064296 0 0.0080825574753589664 -0.0030967384715739343 0 0.0080489079899292784 -0.0030397621697064296 0 0.0080222953908253604 -0.0030952970322921454 0 0.012520416401067052 -0.00051173697004462822 0 0.011529905153749586 -0.0012704826507739944 0 0.016596295308037357 0.0018205895127416203 0 0.016581113902915865 0.0019987960464220144 0 0.016765101083184592 0.0021240026542847165 0 0.0081327722354619832 -0.0031305133690933979 0 0.0080559274763642719 -0.0031365149059155591 0 0.0080673020548036357 -0.0032000613089017121 0 0.0080825574753589664 -0.0030967384715739343 0 0.0081327722354619832 -0.0031305133690933979 0 0.0080559274763642719 -0.0031365149059155591 0 0.016176102373079679 0.0019137563922406293 0 0.016596295308037357 0.0018205895127416203 0 0.016581113902915865 0.0019987960464220144 0 0.008058284754152014 -0.002938388958330305 0 0.0081767587149527993 -0.0029419383453625284 0 0.0080931187503016158 -0.0028207480267816889 0 0.008058284754152014 -0.002938388958330305 0 0.0081272665943270331 -0.0030093319331642556 0 0.0081767587149527993 -0.0029419383453625284 0 0.008058284754152014 -0.002938388958330305 0 0.0080489079899292784 -0.0030397621697064296 0 0.0081272665943270331 -0.0030093319331642556 0 0.0081279912138423824 -0.0030670643290904181 0 0.0080489079899292784 -0.0030397621697064296 0 0.0081272665943270331 -0.0030093319331642556 0 0.0082160829814195112 -0.0030533131544772979 0 0.0081272665943270331 -0.0030093319331642556 0 0.0081767587149527993 -0.0029419383453625284 0 0.0082160829814195112 -0.0030533131544772979 0 0.0081767587149527993 -0.0029419383453625284 0 0.0083007450648374462 -0.002969310370951645 0 0.0086970627757350771 -0.0030205215115771877 0 0.0088030787006560651 -0.0026359281179708263 0 0.0085929182802335392 -0.002446614396886944 0 0.0081767587149527993 -0.0029419383453625284 0 0.0083007450648374462 -0.002969310370951645 0 0.0082462306061592983 -0.0028448871778282586 0 0.01144615165016939 -0.0015486483699835543 0 0.0081349525770368705 -0.0028970870849352867 0 0.014441870826498148 0.00096168585774136209 0 0.015742395812295369 0.00090394023794646288 0 0.014621774819683131 -0.00015487991475660515 0 0.011941657025749858 -0.001105351038477146 0 0.01144615165016939 -0.0015486483699835543 0 0.014171833083586121 0.0010929379805688932 0 0.01144615165016939 -0.0015486483699835543 0 0.014411867966291972 0.00016128012739033185 0 0.013565200994514083 0.00059509924263998544 0 0.013211343600550925 6.2769161125646322e-05 0 0.014441870826498148 0.00096168585774136209 0 0.014411867966291972 0.00016128012739033185 0 0.013565200994514083 0.00059509924263998544 0 0.013565200994514083 0.00059509924263998544 0 0.013211343600550925 6.2769161125646322e-05 0 0.012727365295747979 0.00019035638363770595 0 0.0086970627757350771 -0.0030205215115771877 0 0.0088030787006560651 -0.0026359281179708263 0 0.0090035312719345586 -0.0027789737783576901 0 0.013211343600550925 6.2769161125646322e-05 0 0.013301622711288059 -0.00085869759720332256 0 0.01219466830059962 -0.00021206753401521757 0 0.014411867966291972 0.00016128012739033185 0 0.013211343600550925 6.2769161125646322e-05 0 0.013301622711288059 -0.00085869759720332256 0 0.01144615165016939 -0.0015486483699835543 0 0.011085314367980085 -0.0017162249639023951 0 0.0088030787006560651 -0.0026359281179708263 0 0.0090035312719345586 -0.0027789737783576901 0 0.0089788132620483348 -0.0023496803477593168 0 0.011085314367980085 -0.0017162249639023951 0 0.010082696961499106 -0.0021435212579561133 0 0.0088030787006560651 -0.0026359281179708263 0 0.0089788132620483348 -0.0023496803477593168 0 0.0085929182802335392 -0.002446614396886944 0 0.0089788132620483348 -0.0023496803477593168 0 0.0087920915485364039 -0.0022460850852147186 0 0.0085929182802335392 -0.002446614396886944 0 0.0090035312719345586 -0.0027789737783576901 0 0.0089788132620483348 -0.0023496803477593168 0 0.009724344062720023 -0.0021601982413986375 0 0.0089788132620483348 -0.0023496803477593168 0 0.0091577203526140381 -0.0022072305026254349 0 0.009724344062720023 -0.0021601982413986375 0 0.0089788132620483348 -0.0023496803477593168 0 0.0091577203526140381 -0.0022072305026254349 0 0.0087920915485364039 -0.0022460850852147186 0 0.0087920915485364039 -0.0022460850852147186 0 0.0089900582028112127 -0.0022537557399259778 0 0.0086106076960004684 -0.0023308610188746471 0 0.0091577203526140381 -0.0022072305026254349 0 0.0087920915485364039 -0.0022460850852147186 0 0.0089900582028112127 -0.0022537557399259778 0 0.0087920915485364039 -0.0022460850852147186 0 0.0086106076960004684 -0.0023308610188746471 0 0.0085439316303288042 -0.0023175910890237731 0 0.0087920915485364039 -0.0022460850852147186 0 0.0084679205171938766 -0.0022947388427107971 0 0.0085929182802335392 -0.002446614396886944 0 0.0087920915485364039 -0.0022460850852147186 0 0.0084679205171938766 -0.0022947388427107971 0 0.0085439316303288042 -0.0023175910890237731 0 0.0083425987840425077 -0.0024423459640525546 0 0.0081349525770368705 -0.0028970870849352867 0 0.0082015363498294403 -0.0026969434272216979 0 0.0082462306061592983 -0.0028448871778282586 0 0.0080931187503016158 -0.0028207480267816889 0 0.0081767587149527993 -0.0029419383453625284 0 0.0082462306061592983 -0.0028448871778282586 0 0.0080931187503016158 -0.0028207480267816889 0 0.0082015363498294403 -0.0026969434272216979 0 0.0080931187503016158 -0.0028207480267816889 0 0.0080614775873847615 -0.002714815697764883 0 0.0080931187503016158 -0.0028207480267816889 0 0.0080614775873847615 -0.002714815697764883 0 0.0079548316373985965 -0.0027198899641252307 0 0.0080931187503016158 -0.0028207480267816889 0 0.007959321892269916 -0.0028469917712520124 0 0.0079548316373985965 -0.0027198899641252307 0 0.008058284754152014 -0.002938388958330305 0 0.0080931187503016158 -0.0028207480267816889 0 0.007959321892269916 -0.0028469917712520124 0 0.0093884910242194499 0.00036229172202411903 0 0.008482438265932344 0.00047548348819034954 0 0.0089597146769845246 -0.00021188638922627623 0 0.010725921145278709 0.00011334168997195447 0 0.0094191170207732714 0.00016328756924742057 0 0.008482438265932344 0.00047548348819034954 0 0.0089597146769845246 -0.00021188638922627623 0 0.0082173097706902606 -6.6082457231720092e-06 0 0.010410153647219865 -0.00018564318512970007 0 0.011249393139975921 0.00058059705320787135 0 0.0095886013790134512 0.00082411442691074192 0 0.01197227721736142 0.0011695413705209779 0 0.011249393139975921 0.00058059705320787135 0 0.012049813997415195 0.00047410430152955077 0 0.011943889458912338 -0.0002242818296699978 0 0.010410153647219865 -0.00018564318512970007 0 0.011249393139975921 0.00058059705320787135 0 0.011943889458912338 -0.0002242818296699978 0 0.011249393139975921 0.00058059705320787135 0 0.012049813997415195 0.00047410430152955077 0 0.012049813997415195 0.00047410430152955077 0 0.012537084748564783 0.00071137777508941617 0 0.012395884515056663 0.00022340857006717023 0 0.011943889458912338 -0.0002242818296699978 0 0.012049813997415195 0.00047410430152955077 0 0.012395884515056663 0.00022340857006717023 0 0.013035532017721604 0.00093091797309926172 0 0.013565200994514083 0.00059509924263998544 0 0.012727365295747979 0.00019035638363770595 0 0.013035532017721604 0.00093091797309926172 0 0.012537084748564783 0.00071137777508941617 0 0.012727365295747979 0.00019035638363770595 0 0.012537084748564783 0.00071137777508941617 0 0.012395884515056663 0.00022340857006717023 0 0.012727365295747979 0.00019035638363770595 0 0.012395884515056663 0.00022340857006717023 0 0.012727365295747979 0.00019035638363770595 0 0.012444231748263698 -1.1187707554133798e-05 0 0.013211343600550925 6.2769161125646322e-05 0 0.012727365295747979 0.00019035638363770595 0 0.01219466830059962 -0.00021206753401521757 0 0.012727365295747979 0.00019035638363770595 0 0.01219466830059962 -0.00021206753401521757 0 0.012487093544673328 -8.7288417710007312e-05 0 0.01219466830059962 -0.00021206753401521757 0 0.012487093544673328 -8.7288417710007312e-05 0 0.01254496822320646 -9.1492189352744893e-05 0 0.011582645098466243 -0.00024627296097492389 0 0.01100526092956621 -0.00038070781573128416 0 0.012727365295747979 0.00019035638363770595 0 0.012487093544673328 -8.7288417710007312e-05 0 0.012444231748263698 -1.1187707554133798e-05 0 0.012487093544673328 -8.7288417710007312e-05 0 0.012444231748263698 -1.1187707554133798e-05 0 0.01254496822320646 -9.1492189352744893e-05 0 0.013301622711288059 -0.00085869759720332256 0 0.010165337119917423 -0.0012671617107470978 0 0.009724344062720023 -0.0021601982413986375 0 0.013301622711288059 -0.00085869759720332256 0 0.01219466830059962 -0.00021206753401521757 0 0.010165337119917423 -0.0012671617107470978 0 0.010725921145278709 0.00011334168997195447 0 0.01100526092956621 -0.00038070781573128416 0 0.011943889458912338 -0.0002242818296699978 0 0.012444231748263698 -1.1187707554133798e-05 0 0.01254496822320646 -9.1492189352744893e-05 0 0.011943889458912338 -0.0002242818296699978 0 0.012395884515056663 0.00022340857006717023 0 0.012444231748263698 -1.1187707554133798e-05 0 0.0093884910242194499 0.00036229172202411903 0 0.010303627751013783 0.00019133766560426764 0 0.0096547627157293325 -0.00050217944481193669 0 0.01100526092956621 -0.00038070781573128416 0 0.0088821086926696973 -0.0014720489593449901 0 0.010165337119917423 -0.0012671617107470978 0 0.009724344062720023 -0.0021601982413986375 0 0.0091275406534807677 -0.002263180260309262 0 0.010165337119917423 -0.0012671617107470978 0 0.0083622101679558247 -0.0022719048570564349 0 0.0091275406534807677 -0.002263180260309262 0 0.0091577203526140381 -0.0022072305026254349 0 0.009724344062720023 -0.0021601982413986375 0 0.0089900582028112127 -0.0022537557399259778 0 0.009724344062720023 -0.0021601982413986375 0 0.0091275406534807677 -0.002263180260309262 0 0.0089900582028112127 -0.0022537557399259778 0 0.0091275406534807677 -0.002263180260309262 0 0.0089900582028112127 -0.0022537557399259778 0 0.0085131376697773729 -0.0023576400455896109 0 0.0089900582028112127 -0.0022537557399259778 0 0.0085131376697773729 -0.0023576400455896109 0 0.0086106076960004684 -0.0023308610188746471 0 0.0083622101679558247 -0.0022719048570564349 0 0.0085131376697773729 -0.0023576400455896109 0 0.0080844352173941279 -0.0023072129026602555 0 0.0083622101679558247 -0.0022719048570564349 0 0.0091275406534807677 -0.002263180260309262 0 0.0085131376697773729 -0.0023576400455896109 0 0.0096547627157293325 -0.00050217944481193669 0 0.0089597146769845246 -0.00021188638922627623 0 0.0090177592188665518 -0.0012397366371342906 0 0.0088821086926696973 -0.0014720489593449901 0 0.0085615866876945917 -0.0017546965181554624 0 0.0093884910242194499 0.00036229172202411903 0 0.0096547627157293325 -0.00050217944481193669 0 0.0089597146769845246 -0.00021188638922627623 0 0.0089597146769845246 -0.00021188638922627623 0 0.0084364297968611123 -0.00063489217528811895 0 0.0082173097706902606 -6.6082457231720092e-06 0 0.0089597146769845246 -0.00021188638922627623 0 0.0084364297968611123 -0.00063489217528811895 0 0.0090177592188665518 -0.0012397366371342906 0 0.0084364297968611123 -0.00063489217528811895 0 0.0082475095387150449 -0.0013446868705406019 0 0.0090177592188665518 -0.0012397366371342906 0 0.0084364297968611123 -0.00063489217528811895 0 0.0078769001684890552 -0.00058201960616157528 0 0.0082475095387150449 -0.0013446868705406019 0 0.0078769001684890552 -0.00058201960616157528 0 0.007365608079505731 -0.00086009303686839379 0 0.007696934898450955 -0.0014175285445495742 0 0.0078769001684890552 -0.00058201960616157528 0 0.007365608079505731 -0.00086009303686839379 0 0.0074100292317427442 -0.00029037695393347942 0 0.007365608079505731 -0.00086009303686839379 0 0.0074100292317427442 -0.00029037695393347942 0 0.0068949141798458147 -0.00040671261374557535 0 0.0078769001684890552 -0.00058201960616157528 0 0.0074100292317427442 -0.00029037695393347942 0 0.0077891248913012625 5.5879782365491251e-05 0 0.0074100292317427442 -0.00029037695393347942 0 0.0077891248913012625 5.5879782365491251e-05 0 0.0071735899670615369 0.00017157656061229465 0 0.0077891248913012625 5.5879782365491251e-05 0 0.0076020295690484027 0.00031146629817960719 0 0.0071735899670615369 0.00017157656061229465 0 0.0084364297968611123 -0.00063489217528811895 0 0.0078769001684890552 -0.00058201960616157528 0 0.0082173097706902606 -6.6082457231720092e-06 0 0.0078769001684890552 -0.00058201960616157528 0 0.0077891248913012625 5.5879782365491251e-05 0 0.0082173097706902606 -6.6082457231720092e-06 0 0.008482438265932344 0.00047548348819034954 0 0.0082173097706902606 -6.6082457231720092e-06 0 0.008059271021935023 0.00031526515565320317 0 0.008482438265932344 0.00047548348819034954 0 0.008059271021935023 0.00031526515565320317 0 0.008181561009297492 0.00043541486219830501 0 0.0077891248913012625 5.5879782365491251e-05 0 0.0082173097706902606 -6.6082457231720092e-06 0 0.008059271021935023 0.00031526515565320317 0 0.0077891248913012625 5.5879782365491251e-05 0 0.008059271021935023 0.00031526515565320317 0 0.0076020295690484027 0.00031146629817960719 0 0.008059271021935023 0.00031526515565320317 0 0.0076020295690484027 0.00031146629817960719 0 0.0077882967424497658 0.00043189361246284507 0 0.008059271021935023 0.00031526515565320317 0 0.0077882967424497658 0.00043189361246284507 0 0.008181561009297492 0.00043541486219830501 0 0.008181561009297492 0.00043541486219830501 0 0.0084555802914265173 0.0010433434550789981 0 0.0095886013790134512 0.00082411442691074192 0 0.0077882967424497658 0.00043189361246284507 0 0.008181561009297492 0.00043541486219830501 0 0.0077376453853750925 0.00069819203690698836 0 0.008181561009297492 0.00043541486219830501 0 0.0084555802914265173 0.0010433434550789981 0 0.0077376453853750925 0.00069819203690698836 0 0.010410153647219865 -0.00018564318512970007 0 0.008181561009297492 0.00043541486219830501 0 0.0095886013790134512 0.00082411442691074192 0 0.0094191170207732714 0.00016328756924742057 0 0.0082767454428880928 0.00040465526778511387 0 0.0071998963091193897 0.00081789085928259022 0 0.0077376453853750925 0.00069819203690698836 0 0.0074285238977544101 0.00052721397100573676 0 0.0077882967424497658 0.00043189361246284507 0 0.0077376453853750925 0.00069819203690698836 0 0.0074285238977544101 0.00052721397100573676 0 0.0071998963091193897 0.00081789085928259022 0 0.0074285238977544101 0.00052721397100573676 0 0.0069995550721354115 0.00047404180033481304 0 0.0076020295690484027 0.00031146629817960719 0 0.0074285238977544101 0.00052721397100573676 0 0.0069995550721354115 0.00047404180033481304 0 0.0076020295690484027 0.00031146629817960719 0 0.0069995550721354115 0.00047404180033481304 0 0.0071735899670615369 0.00017157656061229465 0 0.0076020295690484027 0.00031146629817960719 0 0.0077882967424497658 0.00043189361246284507 0 0.0074285238977544101 0.00052721397100573676 0 0.0069995550721354115 0.00047404180033481304 0 0.0065016881591460273 0.00019986673577780968 0 0.0068979773915711917 0.00073943425742691461 0 0.0071998963091193897 0.00081789085928259022 0 0.0069995550721354115 0.00047404180033481304 0 0.0068979773915711917 0.00073943425742691461 0 0.0056653048351242461 2.3620053377127101e-05 0 0.0065016881591460273 0.00019986673577780968 0 0.0068979773915711917 0.00073943425742691461 0 0.0056653048351242461 2.3620053377127101e-05 0 0.0065016881591460273 0.00019986673577780968 0 0.0062836665108351739 -0.00048268860211685773 0 0.0069995550721354115 0.00047404180033481304 0 0.0071735899670615369 0.00017157656061229465 0 0.0065016881591460273 0.00019986673577780968 0 0.0071735899670615369 0.00017157656061229465 0 0.0065016881591460273 0.00019986673577780968 0 0.0068949141798458147 -0.00040671261374557535 0 0.0074100292317427442 -0.00029037695393347942 0 0.0071735899670615369 0.00017157656061229465 0 0.0068949141798458147 -0.00040671261374557535 0 0.007365608079505731 -0.00086009303686839379 0 0.0068949141798458147 -0.00040671261374557535 0 0.0067776637259813095 -0.0015384419276195539 0 0.0068949141798458147 -0.00040671261374557535 0 0.0062836665108351739 -0.00048268860211685773 0 0.0067776637259813095 -0.0015384419276195539 0 0.0065016881591460273 0.00019986673577780968 0 0.0068949141798458147 -0.00040671261374557535 0 0.0062836665108351739 -0.00048268860211685773 0 0.0062836665108351739 -0.00048268860211685773 0 0.0056181956731373526 -0.00076689507144008233 0 0.0067776637259813095 -0.0015384419276195539 0 0.0056653048351242461 2.3620053377127101e-05 0 0.0056181956731373526 -0.00076689507144008233 0 0.0041163187970108686 -0.0003624350484585251 0 0.0056653048351242461 2.3620053377127101e-05 0 0.0062836665108351739 -0.00048268860211685773 0 0.0056181956731373526 -0.00076689507144008233 0 0.0056181956731373526 -0.00076689507144008233 0 0.0041163187970108686 -0.0003624350484585251 0 0.0041043158253132647 -0.0017575661981402851 0 0.0041163187970108686 -0.0003624350484585251 0 0.0025488421715686559 0.00017889470568309844 0 0.0035988661810387587 0.0010548603245894019 0 0.0056653048351242461 2.3620053377127101e-05 0 0.0041163187970108686 -0.0003624350484585251 0 0.0035988661810387587 0.0010548603245894019 0 0.0041163187970108686 -0.0003624350484585251 0 0.0025488421715686559 0.00017889470568309844 0 0.0041043158253132647 -0.0017575661981402851 0 0.0025488421715686559 0.00017889470568309844 0 0.0028365890633114234 0.00059970620032888562 0 0.0035988661810387587 0.0010548603245894019 0 0.0057087535193346001 -3.5940233539191219e-05 0 0.0053260057617619226 0.00078877424259064203 0 0.0013088339585616226 0.00010337068727190599 0 0.0015608583721470034 6.2458783123915502e-07 0 -0.0004260117123954424 -4.6836891893273833e-07 0 0.0025488421715686559 0.00017889470568309844 0 0.0013088339585616226 0.00010337068727190599 0 0.00044287697408588593 -0.00034827864810042997 0 0.0025488421715686559 0.00017889470568309844 0 0.0013088339585616226 0.00010337068727190599 0 0.0028365890633114234 0.00059970620032888562 0 0.0013088339585616226 0.00010337068727190599 0 0.0015608583721470034 6.2458783123915502e-07 0 0.0028365890633114234 0.00059970620032888562 0 0.0015608583721470034 6.2458783123915502e-07 0 0.0028365890633114234 0.00059970620032888562 0 0.0035471331746139297 8.3305586088610762e-07 0 0.0028365890633114234 0.00059970620032888562 0 0.0036036738236483097 0.00055862018358075727 0 0.0041802641423583139 0.00030772525057577569 0 0.0028365890633114234 0.00059970620032888562 0 0.0035471331746139297 8.3305586088610762e-07 0 0.0041802641423583139 0.00030772525057577569 0 0.0028365890633114234 0.00059970620032888562 0 0.0035988661810387587 0.0010548603245894019 0 0.0036036738236483097 0.00055862018358075727 0 0.0071998963091193897 0.00081789085928259022 0 0.0068979773915711917 0.00073943425742691461 0 0.0077107438975801447 0.0010277850101270245 0 0.0053260057617619226 0.00078877424259064203 0 0.0056980716874571753 0.0007928663227830706 0 0.0071998963091193897 0.00081789085928259022 0 0.0077107438975801447 0.0010277850101270245 0 0.0074997972647393935 0.00086252526219883963 0 0.0077107438975801447 0.0010277850101270245 0 0.0079331753652174316 0.00064093983750460612 0 0.0074997972647393935 0.00086252526219883963 0 0.0056980716874571753 0.0007928663227830706 0 0.0067976596526139518 0.00040426118370647483 0 0.0077107438975801447 0.0010277850101270245 0 0.0079331753652174316 0.00064093983750460612 0 0.0087039506142287375 0.00077221741593291849 0 0.0035471331746139297 8.3305586088610762e-07 0 0.0041802641423583139 0.00030772525057577569 0 0.005533770345598074 3.9991920897254347e-07 0 0.0041802641423583139 0.00030772525057577569 0 0.0048698320333025232 2.8918109946856938e-06 0 0.005533770345598074 3.9991920897254347e-07 0 0.0036036738236483097 0.00055862018358075727 0 0.0041802641423583139 0.00030772525057577569 0 0.0048698320333025232 2.8918109946856938e-06 0 0.0048698320333025232 2.8918109946856938e-06 0 0.005533770345598074 3.9991920897254347e-07 0 0.0060216474331728194 -6.4072258977728062e-06 0 0.0060216474331728194 -6.4072258977728062e-06 0 0.0075199350193441627 -2.7357268397369531e-07 0 0.0068528785796947139 -0.00021314468526866242 0 0.005533770345598074 3.9991920897254347e-07 0 0.0060216474331728194 -6.4072258977728062e-06 0 0.0075199350193441627 -2.7357268397369531e-07 0 0.0048698320333025232 2.8918109946856938e-06 0 0.0060216474331728194 -6.4072258977728062e-06 0 0.0068528785796947139 -0.00021314468526866242 0 0.0087039506142287375 0.00077221741593291849 0 0.0092271395853742218 -2.1017137181936454e-06 0 0.0097061454439697908 6.6487049624749851e-06 0 0.0067976596526139518 0.00040426118370647483 0 0.0082163694974557444 1.3890003191433289e-05 0 0.0098911230696903628 -0.00029164728409443257 0 0.0092271395853742218 -2.1017137181936454e-06 0 0.0097061454439697908 6.6487049624749851e-06 0 0.0095064237240924249 -7.0005121907118904e-07 0 0.0075199350193441627 -2.7357268397369531e-07 0 0.0068528785796947139 -0.00021314468526866242 0 0.0095070235542171738 2.4636304350578319e-07 0 0.0082163694974557444 1.3890003191433289e-05 0 0.0079331753652174316 0.00064093983750460612 0 0.0084814831953158726 8.9143333638249742e-05 0 0.007893254158820617 0.00014569009488159563 0 0.0079331753652174316 0.00064093983750460612 0 0.007893254158820617 0.00014569009488159563 0 0.0074332555577939193 0.00044403955645594385 0 0.0079331753652174316 0.00064093983750460612 0 0.0087039506142287375 0.00077221741593291849 0 0.0084814831953158726 8.9143333638249742e-05 0 0.0087039506142287375 0.00077221741593291849 0 0.0092271395853742218 -2.1017137181936454e-06 0 0.0084814831953158726 8.9143333638249742e-05 0 0.008805310505735648 -0.00091234461467347547 0 0.0092271395853742218 -2.1017137181936454e-06 0 0.0084814831953158726 8.9143333638249742e-05 0 0.0081740381117029245 -0.00074767631912198509 0 0.0084814831953158726 8.9143333638249742e-05 0 0.007893254158820617 0.00014569009488159563 0 0.0073789653372607058 0.0019363843634148802 0 0.0077279601025483933 0.0015888268322760712 0 0.0077737831997594549 0.0037797209134494917 0 0.0079011094621953548 0.0028928566617334316 0 0.0084207894697585859 0.0036857621791382333 0 0.0076842327315214155 -0.00038236493433681798 0 0.007893254158820617 0.00014569009488159563 0 0.0074332555577939193 0.00044403955645594385 0 0.0079011094621953548 0.0028928566617334316 0 0.0087245215509007268 0.0031339719000920926 0 0.0087964279117697282 0.0023577393806606447 0 0.0079011094621953548 0.0028928566617334316 0 0.0084207894697585859 0.0036857621791382333 0 0.0087245215509007268 0.0031339719000920926 0 0.0084207894697585859 0.0036857621791382333 0 0.0090749586353671731 0.0035829507971922884 0 0.0087245215509007268 0.0031339719000920926 0 0.0090749586353671731 0.0035829507971922884 0 0.0098686812437553412 0.0027577012664820838 0 0.0087245215509007268 0.0031339719000920926 0 0.0096399570198261713 0.0038143270258926103 0 0.0090749586353671731 0.0035829507971922884 0 0.0098686812437553412 0.0027577012664820838 0 0.010175116764705469 0.0045037506171317163 0 0.011328609063340704 0.0038564097223670042 0 0.0098686812437553412 0.0027577012664820838 0 0.01107099596460796 0.0039125018485407529 0 0.009612128983972977 0.0029038253085763043 0 0.01107099596460796 0.0039125018485407529 0 0.011157284448028711 0.0039921647470100427 0 0.0098686812437553412 0.0027577012664820838 0 0.0087245215509007268 0.0031339719000920926 0 0.0087964279117697282 0.0023577393806606447 0 0.0087964279117697282 0.0023577393806606447 0 0.0099029009209128556 0.0019681073063256877 0 0.0088710415820025951 0.0016277055124915615 0 0.0087964279117697282 0.0023577393806606447 0 0.0088710415820025951 0.0016277055124915615 0 0.0080193444622604394 0.0018153019893340241 0 0.011013972751890654 0.0025162338742830449 0 0.0098686812437553412 0.0027577012664820838 0 0.0099029009209128556 0.0019681073063256877 0 0.0098686812437553412 0.0027577012664820838 0 0.0087964279117697282 0.0023577393806606447 0 0.0099029009209128556 0.0019681073063256877 0 0.010929593317670459 0.00158557059051042 0 0.0095886013790134512 0.00082411442691074192 0 0.0099029009209128556 0.0019681073063256877 0 0.0095886013790134512 0.00082411442691074192 0 0.0099029009209128556 0.0019681073063256877 0 0.0088710415820025951 0.0016277055124915615 0 0.0084555802914265173 0.0010433434550789981 0 0.0095886013790134512 0.00082411442691074192 0 0.0088710415820025951 0.0016277055124915615 0 0.0084555802914265173 0.0010433434550789981 0 0.0088710415820025951 0.0016277055124915615 0 0.0080193444622604394 0.0018153019893340241 0 0.0071998963091193897 0.00081789085928259022 0 0.0077376453853750925 0.00069819203690698836 0 0.0073764512303820832 0.00089187946505442915 0 0.0077806378666349808 0.00069476213676453072 0 0.0076912552769822099 0.0013206007562474381 0 0.0084555802914265173 0.0010433434550789981 0 0.0077376453853750925 0.00069819203690698836 0 0.0080193444622604394 0.0018153019893340241 0 0.0071998963091193897 0.00081789085928259022 0 0.0074997972647393935 0.00086252526219883963 0 0.0073764512303820832 0.00089187946505442915 0 0.0079331753652174316 0.00064093983750460612 0 0.0074332555577939193 0.00044403955645594385 0 0.0074997972647393935 0.00086252526219883963 0 0.0074332555577939193 0.00044403955645594385 0 0.0074997972647393935 0.00086252526219883963 0 0.0073764512303820832 0.00089187946505442915 0 0.0079011094621953548 0.0028928566617334316 0 0.0087964279117697282 0.0023577393806606447 0 0.0080193444622604394 0.0018153019893340241 0 0.0077279601025483933 0.0015888268322760712 0 0.0076912552769822099 0.0013206007562474381 0 -0.0027425492104229598 -0.005653210238144921 0 -0.0026096289721785639 -0.006559435573246529 0 -0.00286436451288791 -0.0064845025077174354 0 -0.0021808030448467316 -0.0063752051877576698 0 -0.0027425492104229598 -0.005653210238144921 0 -0.0017452229427877156 -0.0056663607166889318 0 -0.0021808030448467316 -0.0063752051877576698 0 -0.0027425492104229598 -0.005653210238144921 0 -0.0026096289721785639 -0.006559435573246529 0 -0.0017452229427877156 -0.0056663607166889318 0 -0.001390990999250235 -0.0065782481984993152 0 -0.00019730618435951684 -0.0053580506082896275 0 -0.0021808030448467316 -0.0063752051877576698 0 -0.0017452229427877156 -0.0056663607166889318 0 -0.001390990999250235 -0.0065782481984993152 0 -0.0021808030448467316 -0.0063752051877576698 0 -0.001390990999250235 -0.0065782481984993152 0 -0.0025345423245795242 -0.0070172453804447461 0 -0.001390990999250235 -0.0065782481984993152 0 -0.0011735467270467311 -0.0072713014196044909 0 -0.0025345423245795242 -0.0070172453804447461 0 -0.0014001072566356258 -0.0065696447415964409 0 -0.00054768359651699084 -0.0080346123108010342 0 -0.0021808030448467316 -0.0063752051877576698 0 -0.0026096289721785639 -0.006559435573246529 0 -0.0025345423245795242 -0.0070172453804447461 0 -0.0026096289721785639 -0.006559435573246529 0 -0.0027829948245990644 -0.0067458289288659934 0 -0.0025345423245795242 -0.0070172453804447461 0 -0.0027829948245990644 -0.0067458289288659934 0 -0.0029902722799579917 -0.0066873669593455242 0 -0.00286436451288791 -0.0064845025077174354 0 -0.0026096289721785639 -0.006559435573246529 0 -0.0027829948245990644 -0.0067458289288659934 0 -0.00286436451288791 -0.0064845025077174354 0 -0.0029902722799579917 -0.0066873669593455242 0 -0.0031145438099902884 -0.0063830673787752222 0 -0.00286436451288791 -0.0064845025077174354 0 0.0011779664731510681 -0.0059494558883536304 0 0.0011904610005646981 -0.0059292292867436699 0 0.0011767602845601107 -0.0059381872313810985 0 -0.0011641714646718024 -0.0061065458049364895 0 0.0031518120474250647 -0.0060421425329145982 0 -0.0027636307826500277 -0.0066093778034572188 0 -0.0026308358504148434 -0.006724984754636407 0 -0.0027889300728950097 -0.0063225850726107138 0 0.0089188250977070786 -0.0045016385473132916 0 0.0090126400332524604 -0.0045017522102024582 0 0.009034638285289262 -0.0044399806739772504 0 0.0020787603823998152 -0.0056201816719014053 0 0.0031560256873851581 -0.0051110417166150826 0 -0.0011641714646718024 -0.0061065458049364895 0 0.0020787603823998152 -0.0056201816719014053 0 0.0089188250977070786 -0.0045016385473132916 0 0.0089228645885549244 -0.0045265879481834973 0 0.0090126400332524604 -0.0045017522102024582 0 0.0020787603823998152 -0.0056201816719014053 0 0.005379095947856378 -0.0055498706761736589 0 0.0031518120474250647 -0.0060421425329145982 0 0.0020787603823998152 -0.0056201816719014053 0 0.0072164022940890121 -0.0054541832769836353 0 0.0072824692012929595 -0.005383436881021786 0 0.0072957543167955019 -0.0054304475767888091 0 0.007315736826783251 -0.0054121860591915434 0 0.007351552473499565 -0.0056028237192580991 0 0.0075606023514272203 -0.005769956753131896 0 0.005379095947856378 -0.0055498706761736589 0 0.0085707310163346314 -0.0053077858810560482 0 0.0089228645885549244 -0.0045265879481834973 0 0.0090126400332524604 -0.0045017522102024582 0 0.0090338669620703017 -0.0046760526187172042 0 0.0072164022940890121 -0.0054541832769836353 0 0.0072957543167955019 -0.0054304475767888091 0 0.007351552473499565 -0.0056028237192580991 0 0.005379095947856378 -0.0055498706761736589 0 0.0067181637053677825 -0.0056385593498851794 0 0.0031518120474250647 -0.0060421425329145982 0 0.0076887137420451265 -0.0059686544123687488 0 0.0071613992037414783 -0.0061648469404858427 0 0.0071466177857566109 -0.0061504272019015519 0 0.0072184880799903402 -0.0061828714376432675 0 -0.0027425492104229598 -0.005653210238144921 0 -0.0031145438099902884 -0.0063830673787752222 0 -0.00286436451288791 -0.0064845025077174354 0 0.0072164022940890121 -0.0054541832769836353 0 0.007351552473499565 -0.0056028237192580991 0 0.0072728576618849294 -0.0058613188305864563 0 0.0021449006072796336 -0.0059335270660068311 0 0.0031518120474250647 -0.0060421425329145982 0 0.0071613992037414783 -0.0061648469404858427 0 0.0072184880799903402 -0.0061828714376432675 0 0.0072121780368464413 -0.0062214093021689884 0 0.007351552473499565 -0.0056028237192580991 0 0.0072728576618849294 -0.0058613188305864563 0 0.0075606023514272203 -0.005769956753131896 0 0.0072728576618849294 -0.0058613188305864563 0 0.0075606023514272203 -0.005769956753131896 0 0.007478793975205243 -0.0060463427851331752 0 0.0072728576618849294 -0.0058613188305864563 0 0.007478793975205243 -0.0060463427851331752 0 0.0073190932541844301 -0.0062683328793476057 0 0.007478793975205243 -0.0060463427851331752 0 0.0073190932541844301 -0.0062683328793476057 0 0.0075389701260927368 -0.0062194131619703885 0 0.0076887137420451265 -0.0059686544123687488 0 0.0072100263654534457 -0.0062811987450857856 0 0.0072184880799903402 -0.0061828714376432675 0 0.0072121780368464413 -0.0062214093021689884 0 0.0073190932541844301 -0.0062683328793476057 0 0.0072121780368464413 -0.0062214093021689884 0 0.0071817171320777079 -0.0063002359312591179 0 0.0073190932541844301 -0.0062683328793476057 0 0.0072121780368464413 -0.0062214093021689884 0 0.0071287801312471108 -0.006193342029710636 0 0.0071817171320777079 -0.0063002359312591179 0 0.0071613992037414783 -0.0061648469404858427 0 0.0072121780368464413 -0.0062214093021689884 0 0.0071287801312471108 -0.006193342029710636 0 -0.0027425492104229598 -0.005653210238144921 0 -0.0017452229427877156 -0.0056663607166889318 0 -0.0017691354388594555 -0.004402799054320194 0 0.0021449006072796336 -0.0059335270660068311 0 0.0022705901018491518 -0.0055277586987825152 0 -0.0017691354388594555 -0.004402799054320194 0 -0.00038594662208265098 -0.0031321431796528954 0 -0.00019730618435951684 -0.0053580506082896275 0 -0.0017452229427877156 -0.0056663607166889318 0 -0.0017691354388594555 -0.004402799054320194 0 -0.00019730618435951684 -0.0053580506082896275 0 0.0071287801312471108 -0.006193342029710636 0 0.0070789903572586136 -0.0062476786158694123 0 0.0071817171320777079 -0.0063002359312591179 0 0.0022705901018491518 -0.0055277586987825152 0 0.0068664771762097475 -0.0047003237357933578 0 0.0068664771762097475 -0.0047003237357933578 0 -0.00075983161334173806 -0.0033673893993321122 0 0.0012908613959864525 -0.0038301702944313941 0 0.0018078991091006621 -0.0042286448990125191 0 0.0020413133693616852 -0.0031501125225498697 0 0.0018078991091006621 -0.0042286448990125191 0 0.0028574576334476345 -0.0057286450175902037 0 0.001448991735982357 -0.0064347317223776516 0 0.0018078991091006621 -0.0042286448990125191 0 -0.00019730618435951684 -0.0053580506082896275 0 0.001448991735982357 -0.0064347317223776516 0 -0.00038594662208265098 -0.0031321431796528954 0 0.0018078991091006621 -0.0042286448990125191 0 -0.00019730618435951684 -0.0053580506082896275 0 0.0018078991091006621 -0.0042286448990125191 0 0.0035091140703463011 -0.0043124508278256455 0 0.0026550661498188064 -0.0037374593506379564 0 0.0018078991091006621 -0.0042286448990125191 0 0.0035091140703463011 -0.0043124508278256455 0 0.0028574576334476345 -0.0057286450175902037 0 0.0035091140703463011 -0.0043124508278256455 0 0.0047143555116253262 -0.0046736052781472231 0 0.004431540728374002 -0.0055377507644669179 0 0.0035091140703463011 -0.0043124508278256455 0 0.0028574576334476345 -0.0057286450175902037 0 0.004431540728374002 -0.0055377507644669179 0 0.0028574576334476345 -0.0057286450175902037 0 0.00361078534522334 -0.0069418326852407983 0 0.004431540728374002 -0.0055377507644669179 0 0.0038834379482801172 -0.0065053894399114175 0 0.0044065160680490769 -0.0056291206036772831 0 0.0041505232157853407 -0.0061434792673614978 0 0.004431540728374002 -0.0055377507644669179 0 0.0047702199439846214 -0.0061893670637776085 0 0.00361078534522334 -0.0069418326852407983 0 0.002031680227902254 -0.0074524058151156378 0 0.0025739736309842109 -0.0085476383468682249 0 0.0038834379482801172 -0.0065053894399114175 0 0.0032932036588774341 -0.007721951361776923 0 0.0028574576334476345 -0.0057286450175902037 0 0.00361078534522334 -0.0069418326852407983 0 0.002031680227902254 -0.0074524058151156378 0 0.0041505232157853407 -0.0061434792673614978 0 0.0043665107024064478 -0.0066156213376684647 0 0.0047702199439846214 -0.0061893670637776085 0 -0.001390990999250235 -0.0065782481984993152 0 -0.00019730618435951684 -0.0053580506082896275 0 3.6101362739243311e-05 -0.006821838567849201 0 -0.00019730618435951684 -0.0053580506082896275 0 0.001448991735982357 -0.0064347317223776516 0 3.6101362739243311e-05 -0.006821838567849201 0 0.0028574576334476345 -0.0057286450175902037 0 0.001448991735982357 -0.0064347317223776516 0 0.002031680227902254 -0.0074524058151156378 0 0.001448991735982357 -0.0064347317223776516 0 0.002031680227902254 -0.0074524058151156378 0 0.00090974893360716244 -0.0074866195338054234 0 0.001448991735982357 -0.0064347317223776516 0 0.00090974893360716244 -0.0074866195338054234 0 3.6101362739243311e-05 -0.006821838567849201 0 0.002031680227902254 -0.0074524058151156378 0 0.00090974893360716244 -0.0074866195338054234 0 0.001188514098915515 -0.0084708325087193385 0 -0.001390990999250235 -0.0065782481984993152 0 3.6101362739243311e-05 -0.006821838567849201 0 -0.00024825084202377502 -0.0082959225938121408 0 0.00090974893360716244 -0.0074866195338054234 0 3.6101362739243311e-05 -0.006821838567849201 0 -0.00024825084202377502 -0.0082959225938121408 0 -0.00024825084202377502 -0.0082959225938121408 0 0.001188514098915515 -0.0084708325087193385 0 0.00063603278349160788 -0.0096860555912347789 0 0.00090974893360716244 -0.0074866195338054234 0 -0.00024825084202377502 -0.0082959225938121408 0 0.001188514098915515 -0.0084708325087193385 0 -0.0011735467270467311 -0.0072713014196044909 0 -0.00057266946453066398 -0.0083496665230887324 0 -0.0015154253122765255 -0.0077486819701836802 0 -0.00054768359651699084 -0.0080346123108010342 0 -0.0010611020935452373 -0.007687359859111273 0 -0.0010611020935452373 -0.007687359859111273 0 -0.0028138963529464435 -0.0070458589469541942 0 0.001188514098915515 -0.0084708325087193385 0 0.0014546616344490498 -0.0092199780936641478 0 0.0025739736309842109 -0.0085476383468682249 0 0.002031680227902254 -0.0074524058151156378 0 0.001188514098915515 -0.0084708325087193385 0 0.0025739736309842109 -0.0085476383468682249 0 0.001188514098915515 -0.0084708325087193385 0 0.0014546616344490498 -0.0092199780936641478 0 0.00063603278349160788 -0.0096860555912347789 0 0.0014546616344490498 -0.0092199780936641478 0 0.0014191048841803383 -0.010178099390947819 0 0.00063603278349160788 -0.0096860555912347789 0 0.0015434594727664387 -0.0073663642348877432 0 -0.0010611020935452373 -0.007687359859111273 0 0.0015434594727664387 -0.0073663642348877432 0 0.0032932036588774341 -0.007721951361776923 0 0.0014546616344490498 -0.0092199780936641478 0 0.0014191048841803383 -0.010178099390947819 0 0.0025739736309842109 -0.0085476383468682249 0 -0.00065416338888118553 -0.0073325715617957084 0 -0.0006134035598974177 -0.0072712450698764362 0 -0.0005374676189180787 -0.0074151007472681146 0 -0.001161860177519415 -0.0063591397065944312 0 -0.0010611020935452373 -0.007687359859111273 0 0.0015434594727664387 -0.0073663642348877432 0 -0.001161860177519415 -0.0063591397065944312 0 -0.0041596865122721701 -0.0059545891972919915 0 -0.0039120634677710618 -0.0062141133972051649 0 -0.0042869156654082837 -0.0062660598197707617 0 -0.0044673931858268496 -0.0059136463406227989 0 -0.0041596865122721701 -0.0059545891972919915 0 -0.0042869156654082837 -0.0062660598197707617 0 -0.0039120634677710618 -0.0062141133972051649 0 -0.0038675541966193641 -0.0058498233767998549 0 -0.0035984115296189517 -0.0062700838173293597 0 -0.0041596865122721701 -0.0059545891972919915 0 -0.0039120634677710618 -0.0062141133972051649 0 -0.0038675541966193641 -0.0058498233767998549 0 -0.0039120634677710618 -0.0062141133972051649 0 -0.0042869156654082837 -0.0062660598197707617 0 -0.0037484129480093247 -0.0066657493915648729 0 0.0041505232157853407 -0.0061434792673614978 0 0.0043665107024064478 -0.0066156213376684647 0 0.0039125284683540033 -0.0066072178696616789 0 0.0043665107024064478 -0.0066156213376684647 0 0.0039125284683540033 -0.0066072178696616789 0 0.0040381943554300857 -0.0069163283711856241 0 0.0036656226447253576 -0.006977697738070214 0 0.0039125284683540033 -0.0066072178696616789 0 0.0040381943554300857 -0.0069163283711856241 0 0.0036656226447253576 -0.006977697738070214 0 0.0040381943554300857 -0.0069163283711856241 0 0.004064994808601557 -0.0071848382437063422 0 0.0040381943554300857 -0.0069163283711856241 0 0.0043406348644193333 -0.0071322690338816545 0 0.0045639601140435044 -0.0069382390813554524 0 0.0043665107024064478 -0.0066156213376684647 0 0.0040381943554300857 -0.0069163283711856241 0 0.0045639601140435044 -0.0069382390813554524 0 0.0040381943554300857 -0.0069163283711856241 0 0.0043406348644193333 -0.0071322690338816545 0 0.004064994808601557 -0.0071848382437063422 0 0.0040387577536733117 -0.0069681937337623843 0 0.0042308547641586808 -0.007267229120914793 0 0.0035411300198852501 -0.0067332523263388469 0 0.0037735232812930847 -0.0072995333833711139 0 0.0043518406071359492 -0.0073252310616997883 0 0.0043406348644193333 -0.0071322690338816545 0 0.004064994808601557 -0.0071848382437063422 0 0.0043518406071359492 -0.0073252310616997883 0 0.0015434594727664387 -0.0073663642348877432 0 0.0040387577536733117 -0.0069681937337623843 0 0.0035411300198852501 -0.0067332523263388469 0 0.0037735232812930847 -0.0072995333833711139 0 0.0029050248879609751 -0.0070160826133203458 0 0.0032985791611257441 -0.0076020994141730493 0 0.0037735232812930847 -0.0072995333833711139 0 0.0041451383518392709 -0.0081108811328795636 0 0.0032985791611257441 -0.0076020994141730493 0 0.0037735232812930847 -0.0072995333833711139 0 0.0029050248879609751 -0.0070160826133203458 0 -0.0024086054447757161 -0.0066246252904683719 0 0.00039422361980144603 -0.0070669365475168949 0 0.0037735232812930847 -0.0072995333833711139 0 0.0043518406071359492 -0.0073252310616997883 0 0.0041451383518392709 -0.0081108811328795636 0 -0.004135790322811376 -0.005599988406924045 0 -0.0038183656165694706 -0.0054090558349086399 0 -0.0038195845090315183 -0.0055693079993878875 0 -0.0058245842958760292 -0.005710474085454679 0 -0.003732255818932227 -0.0061241345001502275 0 -0.004135790322811376 -0.005599988406924045 0 -0.0038675541966193641 -0.0058498233767998549 0 -0.0038195845090315183 -0.0055693079993878875 0 -0.0044673931858268496 -0.0059136463406227989 0 -0.0041596865122721701 -0.0059545891972919915 0 -0.0042355055725373297 -0.0055793898403673206 0 -0.0041596865122721701 -0.0059545891972919915 0 -0.0042355055725373297 -0.0055793898403673206 0 -0.0038675541966193641 -0.0058498233767998549 0 0.0026589635854056427 -0.00617034887774205 0 0.0035411300198852501 -0.0067332523263388469 0 0.0029050248879609751 -0.0070160826133203458 0 -0.0026906472138565835 -0.0058712274456338472 0 -0.0029828790993037114 -0.006263688549980947 0 -0.0023808311306388881 -0.006409652845794046 0 0.0026589635854056427 -0.00617034887774205 0 0.0025115627525027617 -0.0063724988671876367 0 0.0029050248879609751 -0.0070160826133203458 0 -0.001161860177519415 -0.0063591397065944312 0 -0.0058245842958760292 -0.005710474085454679 0 -0.001161860177519415 -0.0063591397065944312 0 0.00039422361980144603 -0.0070669365475168949 0 -0.0024086054447757161 -0.0066246252904683719 0 -0.0058245842958760292 -0.005710474085454679 0 -0.0075293584394733742 -0.0059111153814050861 0 -0.0087867070452304664 -0.0049501102615288747 0 -0.0084334384054165629 -0.0059272481149282921 0 -0.0075293584394733742 -0.0059111153814050861 0 -0.0084334384054165629 -0.0059272481149282921 0 -0.0080729454510187933 -0.006330915754889868 0 -0.0020683848011665302 -0.0069464392206603246 0 -0.0029828790993037114 -0.006263688549980947 0 -0.0023808311306388881 -0.006409652845794046 0 -0.0089336824376627585 -0.0058214946566541729 0 -0.0088366029020582864 -0.0062494546962792814 0 -0.0092439072298739645 -0.0062522339220318123 0 -0.004135790322811376 -0.005599988406924045 0 -0.0038183656165694706 -0.0054090558349086399 0 -0.0037551819228409328 -0.0052697671336301979 0 -0.0087867070452304664 -0.0049501102615288747 0 -0.0084334384054165629 -0.0059272481149282921 0 -0.0089336824376627585 -0.0058214946566541729 0 -0.0087867070452304664 -0.0049501102615288747 0 -0.0089336824376627585 -0.0058214946566541729 0 -0.0096697622229037165 -0.0061495024830489648 0 -0.0058245842958760292 -0.005710474085454679 0 -0.0067848009018907389 -0.005654092379395027 0 -0.0084334384054165629 -0.0059272481149282921 0 -0.0089336824376627585 -0.0058214946566541729 0 -0.0088366029020582864 -0.0062494546962792814 0 -0.0089336824376627585 -0.0058214946566541729 0 -0.0096697622229037165 -0.0061495024830489648 0 -0.0092439072298739645 -0.0062522339220318123 0 -0.0038509975949408298 -0.0052311182815633394 0 -0.0038183656165694706 -0.0054090558349086399 0 -0.0037551819228409328 -0.0052697671336301979 0 -0.0038509975949408298 -0.0052311182815633394 0 -0.0037220228666996497 -0.0054182170538012572 0 -0.0037573430381015438 -0.0052405162218693265 0 -0.0038509975949408298 -0.0052311182815633394 0 -0.0037220228666996497 -0.0054182170538012572 0 -0.0038183656165694706 -0.0054090558349086399 0 -0.0037220228666996497 -0.0054182170538012572 0 -0.0038183656165694706 -0.0054090558349086399 0 -0.0038195845090315183 -0.0055693079993878875 0 -0.0036376915149164911 -0.0053497284780018011 0 -0.0037063566656160914 -0.0052073096409101655 0 -0.0038088252296780778 -0.0051127722213047773 0 -0.0037573430381015438 -0.0052405162218693265 0 -0.0036376915149164911 -0.0053497284780018011 0 -0.0038088252296780778 -0.0051127722213047773 0 -0.0037220228666996497 -0.0054182170538012572 0 -0.0036376915149164911 -0.0053497284780018011 0 -0.0035463296947492603 -0.0056008372697979002 0 -0.0037220228666996497 -0.0054182170538012572 0 -0.0037573430381015438 -0.0052405162218693265 0 -0.0036376915149164911 -0.0053497284780018011 0 -0.0036376915149164911 -0.0053497284780018011 0 -0.0034565167007269615 -0.0055809342546772308 0 -0.0034537759174503154 -0.0054904670569502437 0 -0.0036376915149164911 -0.0053497284780018011 0 -0.0034537759174503154 -0.0054904670569502437 0 -0.0037063566656160914 -0.0052073096409101655 0 -0.0034565167007269615 -0.0055809342546772308 0 -0.0032832665201008283 -0.005738299215790995 0 -0.0034537759174503154 -0.0054904670569502437 0 -0.0036376915149164911 -0.0053497284780018011 0 -0.0034565167007269615 -0.0055809342546772308 0 -0.0035463296947492603 -0.0056008372697979002 0 -0.0034565167007269615 -0.0055809342546772308 0 -0.0035463296947492603 -0.0056008372697979002 0 -0.0033121705161589308 -0.0058640615940339577 0 -0.0035463296947492603 -0.0056008372697979002 0 -0.0033121705161589308 -0.0058640615940339577 0 -0.0036361415119292124 -0.0057058939097502891 0 -0.0033121705161589308 -0.0058640615940339577 0 -0.0030919162182705823 -0.0059384201847683411 0 -0.0032832665201008283 -0.005738299215790995 0 -0.0034565167007269615 -0.0055809342546772308 0 -0.0033121705161589308 -0.0058640615940339577 0 -0.0032832665201008283 -0.005738299215790995 0 -0.0037220228666996497 -0.0054182170538012572 0 -0.0035463296947492603 -0.0056008372697979002 0 -0.0036361415119292124 -0.0057058939097502891 0 -0.0037220228666996497 -0.0054182170538012572 0 -0.0038195845090315183 -0.0055693079993878875 0 -0.0036361415119292124 -0.0057058939097502891 0 -0.0033121705161589308 -0.0058640615940339577 0 -0.0036361415119292124 -0.0057058939097502891 0 -0.0033481093286459366 -0.0061291495886186776 0 -0.0038675541966193641 -0.0058498233767998549 0 -0.0036361415119292124 -0.0057058939097502891 0 -0.0033481093286459366 -0.0061291495886186776 0 -0.0038675541966193641 -0.0058498233767998549 0 -0.0038195845090315183 -0.0055693079993878875 0 -0.0036361415119292124 -0.0057058939097502891 0 -0.0038675541966193641 -0.0058498233767998549 0 -0.0035984115296189517 -0.0062700838173293597 0 -0.0033481093286459366 -0.0061291495886186776 0 -0.0039120634677710618 -0.0062141133972051649 0 -0.0035984115296189517 -0.0062700838173293597 0 -0.0037484129480093247 -0.0066657493915648729 0 -0.0035984115296189517 -0.0062700838173293597 0 -0.0033481093286459366 -0.0061291495886186776 0 -0.0031522732524977724 -0.0065378235677291084 0 -0.0033121705161589308 -0.0058640615940339577 0 -0.0033481093286459366 -0.0061291495886186776 0 -0.0030126585012011024 -0.0061618104015070023 0 -0.0033481093286459366 -0.0061291495886186776 0 -0.0030126585012011024 -0.0061618104015070023 0 -0.0028619802951817572 -0.0066413804177326502 0 -0.0033121705161589308 -0.0058640615940339577 0 -0.0030126585012011024 -0.0061618104015070023 0 -0.0030919162182705823 -0.0059384201847683411 0 -0.0033481093286459366 -0.0061291495886186776 0 -0.0028619802951817572 -0.0066413804177326502 0 -0.0031522732524977724 -0.0065378235677291084 0 -0.0028619802951817572 -0.0066413804177326502 0 -0.0025345423245795242 -0.0070172453804447461 0 -0.0031522732524977724 -0.0065378235677291084 0 -0.0027829948245990644 -0.0067458289288659934 0 -0.0028619802951817572 -0.0066413804177326502 0 -0.0025345423245795242 -0.0070172453804447461 0 -0.0030126585012011024 -0.0061618104015070023 0 -0.0028619802951817572 -0.0066413804177326502 0 -0.0027416720944798247 -0.0066913859817383141 0 -0.0011735467270467311 -0.0072713014196044909 0 -0.0025345423245795242 -0.0070172453804447461 0 -0.0015154253122765255 -0.0077486819701836802 0 -0.0025262746640366623 -0.0071054642001369232 0 -0.0028138963529464435 -0.0070458589469541942 0 -0.0035984115296189517 -0.0062700838173293597 0 -0.0037484129480093247 -0.0066657493915648729 0 -0.0031522732524977724 -0.0065378235677291084 0 -0.0025345423245795242 -0.0070172453804447461 0 -0.0037484129480093247 -0.0066657493915648729 0 -0.0031522732524977724 -0.0065378235677291084 0 -0.0030740456184335119 -0.0061030709096415482 0 -0.0031682180886560191 -0.0058799074346707423 0 -0.0029367096944614393 -0.0059492795588448454 0 -0.0031682180886560191 -0.0058799074346707423 0 -0.0029367096944614393 -0.0059492795588448454 0 -0.0029747190530502302 -0.0057673655775689961 0 0.0020787603823998152 -0.0056201816719014053 0 -0.0032681948915377944 -0.0061895756968040096 0 -0.0028676145131300034 -0.0063505225503298519 0 -0.002968577855408576 -0.006210385890191847 0 -0.0029191689693056247 -0.0060458906262533234 0 -0.0027636307826500277 -0.0066093778034572188 0 -0.0027889300728950097 -0.0063225850726107138 0 -0.0029191689693056247 -0.0060458906262533234 0 -0.0011641714646718024 -0.0061065458049364895 0 -0.0028693098608680375 -0.006319674808960259 0 -0.0011641714646718024 -0.0061065458049364895 0 -0.0033527962228546123 -0.006223140568365277 0 -0.0027829948245990644 -0.0067458289288659934 0 -0.0028619802951817572 -0.0066413804177326502 0 -0.0027416720944798247 -0.0066913859817383141 0 -0.0027829948245990644 -0.0067458289288659934 0 -0.0029902722799579917 -0.0066873669593455242 0 -0.0027416720944798247 -0.0066913859817383141 0 -0.0027889300728950097 -0.0063225850726107138 0 -0.0029191689693056247 -0.0060458906262533234 0 -0.0029438155855147845 -0.0059084000887389323 0 -0.0032681948915377944 -0.0061895756968040096 0 -0.0031302558426686794 -0.0057445834519106124 0 -0.0029729146284917648 -0.0062274579113967971 0 -0.0028693098608680375 -0.006319674808960259 0 -0.0030126585012011024 -0.0061618104015070023 0 -0.002968577855408576 -0.006210385890191847 0 -0.0029191689693056247 -0.0060458906262533234 0 -0.0030126585012011024 -0.0061618104015070023 0 -0.0030919162182705823 -0.0059384201847683411 0 -0.0029191689693056247 -0.0060458906262533234 0 -0.0030919162182705823 -0.0059384201847683411 0 -0.0029191689693056247 -0.0060458906262533234 0 -0.0029438155855147845 -0.0059084000887389323 0 -0.0031682180886560191 -0.0058799074346707423 0 -0.003110534324606732 -0.0056404880552348383 0 -0.0029747190530502302 -0.0057673655775689961 0 -0.0031682180886560191 -0.0058799074346707423 0 -0.003110534324606732 -0.0056404880552348383 0 -0.0032902739179302611 -0.0056059749743383762 0 -0.003110534324606732 -0.0056404880552348383 0 -0.0032303948545951409 -0.0054799284531219378 0 -0.003063156311202327 -0.0054741990578898525 0 -0.0032303948545951409 -0.0054799284531219378 0 -0.0032902739179302611 -0.0056059749743383762 0 -0.0034605326578094802 -0.00533884654892673 0 -0.003110534324606732 -0.0056404880552348383 0 -0.0032303948545951409 -0.0054799284531219378 0 -0.0032902739179302611 -0.0056059749743383762 0 -0.0032303948545951409 -0.0054799284531219378 0 -0.003063156311202327 -0.0054741990578898525 0 -0.0031880986985768959 -0.0053363547701154018 0 -0.0029438155855147845 -0.0059084000887389323 0 -0.0032455139863168643 -0.0056769982581914838 0 -0.0034605326578094802 -0.00533884654892673 0 -0.0031302558426686794 -0.0057445834519106124 0 -0.0033768290174371459 -0.005397091270725277 0 -0.0030919162182705823 -0.0059384201847683411 0 -0.0032832665201008283 -0.005738299215790995 0 -0.0032455139863168643 -0.0056769982581914838 0 -0.0030919162182705823 -0.0059384201847683411 0 -0.0029438155855147845 -0.0059084000887389323 0 -0.0032455139863168643 -0.0056769982581914838 0 -0.0034537759174503154 -0.0054904670569502437 0 -0.0032455139863168643 -0.0056769982581914838 0 -0.0034605326578094802 -0.00533884654892673 0 -0.0032832665201008283 -0.005738299215790995 0 -0.0034537759174503154 -0.0054904670569502437 0 -0.0032455139863168643 -0.0056769982581914838 0 -0.0034537759174503154 -0.0054904670569502437 0 -0.0034605326578094802 -0.00533884654892673 0 -0.0037063566656160914 -0.0052073096409101655 0 -0.0032303948545951409 -0.0054799284531219378 0 -0.0034605326578094802 -0.00533884654892673 0 -0.0031880986985768959 -0.0053363547701154018 0 -0.0034605326578094802 -0.00533884654892673 0 -0.0031880986985768959 -0.0053363547701154018 0 -0.0031951798121445207 -0.0051131165292172247 0 -0.0043621187785426799 -0.0046362829278351267 0 -0.005575582251131082 -0.0041794731918441234 0 -0.0059284833695351976 -0.0038632463823679358 0 -0.0065015250222932516 -0.0036719934154119467 0 -0.0065961198189514042 -0.004015882198109293 0 -0.0031880986985768959 -0.0053363547701154018 0 -0.0031951798121445207 -0.0051131165292172247 0 -0.0028125159439769073 -0.0053269585808760761 0 -0.003063156311202327 -0.0054741990578898525 0 -0.0028125159439769073 -0.0053269585808760761 0 -0.0028718652388379034 -0.0055884914335526149 0 -0.003063156311202327 -0.0054741990578898525 0 -0.0031880986985768959 -0.0053363547701154018 0 -0.0028125159439769073 -0.0053269585808760761 0 -0.003110534324606732 -0.0056404880552348383 0 -0.003063156311202327 -0.0054741990578898525 0 -0.0028718652388379034 -0.0055884914335526149 0 -0.0065015250222932516 -0.0036719934154119467 0 -0.006757674299675864 -0.0037106467383186902 0 -0.0067590357540233082 -0.0034712824105470716 0 -0.0028125159439769073 -0.0053269585808760761 0 -0.0028718652388379034 -0.0055884914335526149 0 -0.0024655570147186466 -0.005540237884694179 0 -0.005575582251131082 -0.0041794731918441234 0 0.0014571372757439937 -0.004021776061950191 0 -0.006757674299675864 -0.0037106467383186902 0 -0.0065961198189514042 -0.004015882198109293 0 -0.0069011969723397366 -0.0039376604706200646 0 -0.0065015250222932516 -0.0036719934154119467 0 -0.006757674299675864 -0.0037106467383186902 0 -0.0065961198189514042 -0.004015882198109293 0 -0.0033256191454448959 -0.002990790793878447 0 -0.0021785815914575775 -0.0029227427028196409 0 -0.0025506810020718335 -0.0043684362005334161 0 -0.0052271671002499815 -0.0031590811763058451 0 0.0012537606420563142 -0.0027283221812978327 0 -0.006757674299675864 -0.0037106467383186902 0 -0.0069011969723397366 -0.0039376604706200646 0 -0.0069455277294274143 -0.0036404054862156001 0 0.0035508536901626008 -0.0024176950414470442 0 0.0012537606420563142 -0.0027283221812978327 0 -0.0021785815914575775 -0.0029227427028196409 0 -0.0010416241091598863 -0.0028780452689324714 0 -0.0025506810020718335 -0.0043684362005334161 0 0.0074718586551002723 -0.00015418461563745546 0 0.0076379874231711142 -0.0019374844031604945 0 0.0061429449673165836 -0.0014696041804177363 0 0.0012537606420563142 -0.0027283221812978327 0 0.0087400721137977037 -0.0032846144964564176 0 0.0076379874231711142 -0.0019374844031604945 0 0.0061429449673165836 -0.0014696041804177363 0 0.0074901938631093444 -0.0027180141111544775 0 0.0058437635963901622 -0.0011010908925682247 0 0.0047770262348337715 -0.0021588088134894632 0 0.0070786377726834377 -0.0037982230617411533 0 -0.006757674299675864 -0.0037106467383186902 0 -0.0069455277294274143 -0.0036404054862156001 0 -0.0067590357540233082 -0.0034712824105470716 0 0.0012537606420563142 -0.0027283221812978327 0 0.0014571372757439937 -0.004021776061950191 0 0.0014571372757439937 -0.004021776061950191 0 0.0090878531945727467 -0.0042788279282778294 0 0.0090829210170794775 -0.0043718293852455705 0 0.0092121279706808626 -0.0044323940504540664 0 0.0091644549744239849 -0.0044364461979146006 0 0.0090829210170794775 -0.0043718293852455705 0 0.0091644549744239849 -0.0044364461979146006 0 0.009126021459201987 -0.0044270894707679155 0 0.0058437635963901622 -0.0011010908925682247 0 0.0070786377726834377 -0.0037982230617411533 0 0.0073664719248129895 -0.0036559361257476777 0 0.0061429449673165836 -0.0014696041804177363 0 0.0074901938631093444 -0.0027180141111544775 0 0.0073664719248129895 -0.0036559361257476777 0 0.0074901938631093444 -0.0027180141111544775 0 0.0073664719248129895 -0.0036559361257476777 0 0.0078676755534024204 -0.003374496548859309 0 0.0070786377726834377 -0.0037982230617411533 0 0.0073664719248129895 -0.0036559361257476777 0 0.0079180601414290501 -0.0039995883796423758 0 0.0073664719248129895 -0.0036559361257476777 0 0.0078564478367816985 -0.0036672584452085598 0 0.0079180601414290501 -0.0039995883796423758 0 0.0073664719248129895 -0.0036559361257476777 0 0.0078564478367816985 -0.0036672584452085598 0 0.0078676755534024204 -0.003374496548859309 0 0.0092121279706808626 -0.0044323940504540664 0 0.0092219366839507832 -0.0044615722806341657 0 0.0092608949998887798 -0.004480204745572606 0 0.0092121279706808626 -0.0044323940504540664 0 0.0091999654492490122 -0.00445108094725369 0 0.0091644549744239849 -0.0044364461979146006 0 0.0092121279706808626 -0.0044323940504540664 0 0.0091999654492490122 -0.00445108094725369 0 0.0092219366839507832 -0.0044615722806341657 0 0.0091999654492490122 -0.00445108094725369 0 0.0092099176598249236 -0.0044648218475805117 0 0.0092219366839507832 -0.0044615722806341657 0 0.0091999654492490122 -0.00445108094725369 0 0.0092099176598249236 -0.0044648218475805117 0 0.0091959518634089146 -0.0044684978343263529 0 0.009213083252634223 -0.0044780800385146894 0 0.0092099176598249236 -0.0044648218475805117 0 0.0091959518634089146 -0.0044684978343263529 0 0.009213083252634223 -0.0044780800385146894 0 0.0092099176598249236 -0.0044648218475805117 0 0.0092238391210942901 -0.0044793531243955183 0 0.0092099176598249236 -0.0044648218475805117 0 0.0092219366839507832 -0.0044615722806341657 0 0.0092238391210942901 -0.0044793531243955183 0 0.0091644549744239849 -0.0044364461979146006 0 0.0091669917345196077 -0.004456653426015672 0 0.009126021459201987 -0.0044270894707679155 0 0.0091644549744239849 -0.0044364461979146006 0 0.0091959518634089146 -0.0044684978343263529 0 0.0091669917345196077 -0.004456653426015672 0 0.0091999654492490122 -0.00445108094725369 0 0.0091644549744239849 -0.0044364461979146006 0 0.0091959518634089146 -0.0044684978343263529 0 0.0091669917345196077 -0.004456653426015672 0 0.0091357578121094643 -0.004447430277646984 0 0.0091889188946074271 -0.0044820593266307754 0 0.0091959518634089146 -0.0044684978343263529 0 0.0091669917345196077 -0.004456653426015672 0 0.0091889188946074271 -0.0044820593266307754 0 0.0091357578121094643 -0.004447430277646984 0 0.0091265863385388574 -0.0044570147004192812 0 0.0091889188946074271 -0.0044820593266307754 0 0.0091357578121094643 -0.004447430277646984 0 0.0091265863385388574 -0.0044570147004192812 0 0.0090760402310607179 -0.0044213354828669272 0 0.0091357578121094643 -0.004447430277646984 0 0.009126021459201987 -0.0044270894707679155 0 0.0090760402310607179 -0.0044213354828669272 0 0.0091669917345196077 -0.004456653426015672 0 0.0091357578121094643 -0.004447430277646984 0 0.009126021459201987 -0.0044270894707679155 0 0.0091265863385388574 -0.0044570147004192812 0 0.009034638285289262 -0.0044399806739772504 0 0.0091043241806799558 -0.0044828234785363472 0 0.0091265863385388574 -0.0044570147004192812 0 0.009034638285289262 -0.0044399806739772504 0 0.0090760402310607179 -0.0044213354828669272 0 -0.0029367096944614393 -0.0059492795588448454 0 -0.0029747190530502302 -0.0057673655775689961 0 -0.0027261710763944306 -0.0057765350015739894 0 0.0031560256873851581 -0.0051110417166150826 0 0.0033244843322349235 -0.005102847363747106 0 -0.003110534324606732 -0.0056404880552348383 0 -0.0028718652388379034 -0.0055884914335526149 0 -0.0029747190530502302 -0.0057673655775689961 0 -0.0028718652388379034 -0.0055884914335526149 0 -0.0029747190530502302 -0.0057673655775689961 0 -0.0027261710763944306 -0.0057765350015739894 0 -0.0028718652388379034 -0.0055884914335526149 0 -0.0024655570147186466 -0.005540237884694179 0 -0.0027261710763944306 -0.0057765350015739894 0 0.0090829210170794775 -0.0043718293852455705 0 0.009126021459201987 -0.0044270894707679155 0 0.0090760402310607179 -0.0044213354828669272 0 0.0014571372757439937 -0.004021776061950191 0 0.0033244843322349235 -0.005102847363747106 0 0.007959321892269916 -0.0028469917712520124 0 0.0078014766032452627 -0.0028468050818522689 0 0.0079382135620377249 -0.0029623048139628245 0 0.007959321892269916 -0.0028469917712520124 0 0.0078685417957134185 -0.0027606151918430745 0 0.0078014766032452627 -0.0028468050818522689 0 0.0079548316373985965 -0.0027198899641252307 0 0.0078685417957134185 -0.0027606151918430745 0 0.0078388331146621512 -0.0026787613942694691 0 0.007959321892269916 -0.0028469917712520124 0 0.0079548316373985965 -0.0027198899641252307 0 0.0078685417957134185 -0.0027606151918430745 0 0.0078685417957134185 -0.0027606151918430745 0 0.0077765382145277579 -0.0027272262856037478 0 0.0078014766032452627 -0.0028468050818522689 0 0.0078685417957134185 -0.0027606151918430745 0 0.0077765382145277579 -0.0027272262856037478 0 0.0078388331146621512 -0.0026787613942694691 0 0.0078014766032452627 -0.0028468050818522689 0 0.0076137686862126413 -0.002736698269428696 0 0.0075642572824638982 -0.0028777523609870596 0 0.0077765382145277579 -0.0027272262856037478 0 0.0078014766032452627 -0.0028468050818522689 0 0.0076137686862126413 -0.002736698269428696 0 0.0077765382145277579 -0.0027272262856037478 0 0.0076137686862126413 -0.002736698269428696 0 0.0077127700938544866 -0.0026203017891225778 0 0.0076137686862126413 -0.002736698269428696 0 0.0075461815202048886 -0.0026674835694636746 0 0.0077127700938544866 -0.0026203017891225778 0 0.0035508536901626008 -0.0024176950414470442 0 0.0087605386597669685 -0.0024691907493006892 0 0.007331035395471479 -0.0026933897302531097 0 0.007400660814609228 -0.0027072346782532029 0 0.0075642572824638982 -0.0028777523609870596 0 0.0076137686862126413 -0.002736698269428696 0 0.007400660814609228 -0.0027072346782532029 0 0.0075642572824638982 -0.0028777523609870596 0 0.0076137686862126413 -0.002736698269428696 0 0.0075461815202048886 -0.0026674835694636746 0 0.007400660814609228 -0.0027072346782532029 0 0.0074718586551002723 -0.00015418461563745546 0 0.0076379874231711142 -0.0019374844031604945 0 0.0088082476278560761 -0.0021059390406829269 0 0.0076379874231711142 -0.0019374844031604945 0 0.0088082476278560761 -0.0021059390406829269 0 0.0084671916509238242 -0.0031557649796047321 0 0.0088082476278560761 -0.0021059390406829269 0 0.0084671916509238242 -0.0031557649796047321 0 0.010049955574239619 -0.00408648230017434 0 0.0084671916509238242 -0.0031557649796047321 0 0.0089876749508698457 -0.003991964426584233 0 0.010049955574239619 -0.00408648230017434 0 0.0074901938631093444 -0.0027180141111544775 0 0.0078676755534024204 -0.003374496548859309 0 0.0084671916509238242 -0.0031557649796047321 0 0.0076379874231711142 -0.0019374844031604945 0 0.0074901938631093444 -0.0027180141111544775 0 0.0084671916509238242 -0.0031557649796047321 0 0.0084671916509238242 -0.0031557649796047321 0 0.0082759399972434922 -0.0036391202340808563 0 0.0089876749508698457 -0.003991964426584233 0 0.0078676755534024204 -0.003374496548859309 0 0.0084671916509238242 -0.0031557649796047321 0 0.0082759399972434922 -0.0036391202340808563 0 0.0078564478367816985 -0.0036672584452085598 0 0.0082759399972434922 -0.0036391202340808563 0 0.0079180601414290501 -0.0039995883796423758 0 0.0078564478367816985 -0.0036672584452085598 0 0.0078676755534024204 -0.003374496548859309 0 0.0082759399972434922 -0.0036391202340808563 0 0.0092219366839507832 -0.0044615722806341657 0 0.0092608949998887798 -0.004480204745572606 0 0.0092238391210942901 -0.0044793531243955183 0 0.0090878531945727467 -0.0042788279282778294 0 0.0093397568973621805 -0.0043615814213414945 0 0.0079180601414290501 -0.0039995883796423758 0 0.0085574587123410078 -0.0041925453212277022 0 0.0090493504783430712 -0.0051503270269973016 0 0.0070786377726834377 -0.0037982230617411533 0 0.0079180601414290501 -0.0039995883796423758 0 0.0090493504783430712 -0.0051503270269973016 0 0.0082759399972434922 -0.0036391202340808563 0 0.0079180601414290501 -0.0039995883796423758 0 0.0085574587123410078 -0.0041925453212277022 0 0.0082759399972434922 -0.0036391202340808563 0 0.0085574587123410078 -0.0041925453212277022 0 0.0089876749508698457 -0.003991964426584233 0 0.0085574587123410078 -0.0041925453212277022 0 0.0089876749508698457 -0.003991964426584233 0 0.0090493504783430712 -0.0051503270269973016 0 0.0099351612951900786 -0.0042051195687598398 0 0.010049955574239619 -0.00408648230017434 0 0.0099923030421672325 -0.0041685097914083459 0 0.0089876749508698457 -0.003991964426584233 0 0.0098431241991892588 -0.0042374195952998538 0 0.010049955574239619 -0.00408648230017434 0 0.0098431241991892588 -0.0042374195952998538 0 0.0099936769116237799 -0.0041870607370434205 0 0.010115310523168939 -0.0041819049505950204 0 0.0089876749508698457 -0.003991964426584233 0 0.0098431241991892588 -0.0042374195952998538 0 0.0090493504783430712 -0.0051503270269973016 0 0.0097656712687291033 -0.0042840315391359943 0 0.0093397568973621805 -0.0043615814213414945 0 0.0098431241991892588 -0.0042374195952998538 0 0.0099351612951900786 -0.0042051195687598398 0 0.0099936769116237799 -0.0041870607370434205 0 0.0099351612951900786 -0.0042051195687598398 0 0.0099936769116237799 -0.0041870607370434205 0 0.010011730171616808 -0.0041517691199484301 0 0.0098431241991892588 -0.0042374195952998538 0 0.0099351612951900786 -0.0042051195687598398 0 0.010049955574239619 -0.00408648230017434 0 0.0078014766032452627 -0.0028468050818522689 0 0.0075642572824638982 -0.0028777523609870596 0 0.0077663355652547866 -0.0030202171864545861 0 0.0087605386597669685 -0.0024691907493006892 0 0.0088312894214881109 -0.0034525612030083101 0 0.0078014766032452627 -0.0028468050818522689 0 0.0077663355652547866 -0.0030202171864545861 0 0.0079382135620377249 -0.0029623048139628245 0 0.0077663355652547866 -0.0030202171864545861 0 0.0079445655412596142 -0.0030497547540544079 0 0.0079323024220037657 -0.0031217571025298342 0 0.0077663355652547866 -0.0030202171864545861 0 0.0079445655412596142 -0.0030497547540544079 0 0.0079382135620377249 -0.0029623048139628245 0 0.0088312894214881109 -0.0034525612030083101 0 0.0086389042618039025 -0.00398893267639862 0 0.008058284754152014 -0.002938388958330305 0 0.0080489079899292784 -0.0030397621697064296 0 0.0079382135620377249 -0.0029623048139628245 0 0.0080489079899292784 -0.0030397621697064296 0 0.0079445655412596142 -0.0030497547540544079 0 0.0079382135620377249 -0.0029623048139628245 0 0.008058284754152014 -0.002938388958330305 0 0.007959321892269916 -0.0028469917712520124 0 0.0079382135620377249 -0.0029623048139628245 0 0.0086389042618039025 -0.00398893267639862 0 0.011529905153749586 -0.0012704826507739944 0 0.0080559274763642719 -0.0031365149059155591 0 0.0079323024220037657 -0.0031217571025298342 0 0.0080673020548036357 -0.0032000613089017121 0 0.0098875276874735071 -0.0039530924663156598 0 0.0099643471398078703 -0.0041648113229385397 0 0.0097729951822155461 -0.0038958610256986477 0 0.0080559274763642719 -0.0031365149059155591 0 0.0080222953908253604 -0.0030952970322921454 0 0.0079323024220037657 -0.0031217571025298342 0 0.0080489079899292784 -0.0030397621697064296 0 0.0079445655412596142 -0.0030497547540544079 0 0.0080222953908253604 -0.0030952970322921454 0 0.0080825574753589664 -0.0030967384715739343 0 0.0080559274763642719 -0.0031365149059155591 0 0.0080222953908253604 -0.0030952970322921454 0 0.0079445655412596142 -0.0030497547540544079 0 0.0080222953908253604 -0.0030952970322921454 0 0.0079323024220037657 -0.0031217571025298342 0 0.010049955574239619 -0.00408648230017434 0 0.0099643471398078703 -0.0041648113229385397 0 0.0099923030421672325 -0.0041685097914083459 0 0.0099643471398078703 -0.0041648113229385397 0 0.010030478918523197 -0.0041093838566423164 0 0.0099923030421672325 -0.0041685097914083459 0 0.0098875276874735071 -0.0039530924663156598 0 0.0099643471398078703 -0.0041648113229385397 0 0.010047893610946544 -0.0040291761110039723 0 0.0099643471398078703 -0.0041648113229385397 0 0.010047893610946544 -0.0040291761110039723 0 0.010030478918523197 -0.0041093838566423164 0 0.0098875276874735071 -0.0039530924663156598 0 0.010047893610946544 -0.0040291761110039723 0 0.01001313370775431 -0.0038681808303496286 0 0.010047893610946544 -0.0040291761110039723 0 0.010114896036814289 -0.0040532501150221962 0 0.010247936581860975 -0.0039650322393367347 0 0.010114896036814289 -0.0040532501150221962 0 0.010156562116487362 -0.0039992901054057796 0 0.010247936581860975 -0.0039650322393367347 0 0.010047893610946544 -0.0040291761110039723 0 0.010114896036814289 -0.0040532501150221962 0 0.010030478918523197 -0.0041093838566423164 0 0.010114896036814289 -0.0040532501150221962 0 0.010030478918523197 -0.0041093838566423164 0 0.010044718859036116 -0.004118892640924402 0 0.010030478918523197 -0.0041093838566423164 0 0.0099923030421672325 -0.0041685097914083459 0 0.010044718859036116 -0.004118892640924402 0 0.0099351612951900786 -0.0042051195687598398 0 0.0099923030421672325 -0.0041685097914083459 0 0.010011730171616808 -0.0041517691199484301 0 0.0099923030421672325 -0.0041685097914083459 0 0.010011730171616808 -0.0041517691199484301 0 0.010044718859036116 -0.004118892640924402 0 0.0099936769116237799 -0.0041870607370434205 0 0.010011730171616808 -0.0041517691199484301 0 0.010076532079999173 -0.0041464794999825369 0 0.0099936769116237799 -0.0041870607370434205 0 0.010115310523168939 -0.0041819049505950204 0 0.010076532079999173 -0.0041464794999825369 0 0.010011730171616808 -0.0041517691199484301 0 0.010076281538973704 -0.0041077860941901535 0 0.010044718859036116 -0.004118892640924402 0 0.010011730171616808 -0.0041517691199484301 0 0.010076281538973704 -0.0041077860941901535 0 0.010076532079999173 -0.0041464794999825369 0 0.010114896036814289 -0.0040532501150221962 0 0.010076281538973704 -0.0041077860941901535 0 0.010114752820531691 -0.0040578831415364926 0 0.010114896036814289 -0.0040532501150221962 0 0.010076281538973704 -0.0041077860941901535 0 0.010044718859036116 -0.004118892640924402 0 0.0093397568973621805 -0.0043615814213414945 0 0.0097269741661061889 -0.0042254895433630479 0 0.0092608949998887798 -0.004480204745572606 0 0.0092238391210942901 -0.0044793531243955183 0 0.0092189716324046628 -0.0045004605381176194 0 0.010114752820531691 -0.0040578831415364926 0 0.010099436002027295 -0.0041510432022247665 0 0.010138303900015352 -0.0039985990244661594 0 0.010076281538973704 -0.0041077860941901535 0 0.010114752820531691 -0.0040578831415364926 0 0.010099436002027295 -0.0041510432022247665 0 0.010076281538973704 -0.0041077860941901535 0 0.010099436002027295 -0.0041510432022247665 0 0.010076532079999173 -0.0041464794999825369 0 0.0093397568973621805 -0.0043615814213414945 0 0.0094456732770941566 -0.0043936444344546454 0 0.010114752820531691 -0.0040578831415364926 0 0.010156562116487362 -0.0039992901054057796 0 0.010138303900015352 -0.0039985990244661594 0 0.010114896036814289 -0.0040532501150221962 0 0.010114752820531691 -0.0040578831415364926 0 0.010156562116487362 -0.0039992901054057796 0 0.010156562116487362 -0.0039992901054057796 0 0.010129318344129024 -0.0041082010663507796 0 0.010247936581860975 -0.0039650322393367347 0 0.010129318344129024 -0.0041082010663507796 0 0.010067803075849186 -0.0042855365983222836 0 0.010246122778968367 -0.0042359280290331577 0 0.010129318344129024 -0.0041082010663507796 0 0.010247936581860975 -0.0039650322393367347 0 0.010246122778968367 -0.0042359280290331577 0 0.010255179557234428 -0.0039714362525405484 0 0.010512043151072235 -0.0036288390641782712 0 0.010172171646413517 -0.0036526246372095145 0 0.010247936581860975 -0.0039650322393367347 0 0.01063131368538753 -0.0031678750842370185 0 0.010172171646413517 -0.0036526246372095145 0 0.010204501111305948 -0.0033412102173592789 0 0.01063131368538753 -0.0031678750842370185 0 0.010047893610946544 -0.0040291761110039723 0 0.010247936581860975 -0.0039650322393367347 0 0.01001313370775431 -0.0038681808303496286 0 0.010172171646413517 -0.0036526246372095145 0 0.010247936581860975 -0.0039650322393367347 0 0.01001313370775431 -0.0038681808303496286 0 0.0098875276874735071 -0.0039530924663156598 0 0.01001313370775431 -0.0038681808303496286 0 0.0097943951178914527 -0.0038058680392511245 0 0.01001313370775431 -0.0038681808303496286 0 0.0099326471516529031 -0.0036208525169588988 0 0.0097943951178914527 -0.0038058680392511245 0 0.0096725752369593576 -0.0037953994538365812 0 0.01034083237886921 -0.0028243103123197265 0 0.010172171646413517 -0.0036526246372095145 0 0.01001313370775431 -0.0038681808303496286 0 0.0099326471516529031 -0.0036208525169588988 0 0.010204501111305948 -0.0033412102173592789 0 0.0099326471516529031 -0.0036208525169588988 0 0.0099582716472857956 -0.0030062655685973378 0 0.010172171646413517 -0.0036526246372095145 0 0.010204501111305948 -0.0033412102173592789 0 0.0099326471516529031 -0.0036208525169588988 0 0.01034083237886921 -0.0028243103123197265 0 0.01344047196589448 0.00027831596455614335 0 0.0099326471516529031 -0.0036208525169588988 0 0.0093953254965095569 -0.0031855252287711377 0 0.0099582716472857956 -0.0030062655685973378 0 0.012551512499573052 -0.00031489022682934037 0 0.01301735372920337 -0.00058644018379143241 0 0.01271746785168249 0.00018635088213513409 0 0.0099326471516529031 -0.0036208525169588988 0 0.0096715418294892955 -0.0038663657898197696 0 0.0093953254965095569 -0.0031855252287711377 0 0.016163146322398108 0.0022442359658734153 0 0.011529905153749586 -0.0012704826507739944 0 0.012551512499573052 -0.00031489022682934037 0 0.01301735372920337 -0.00058644018379143241 0 0.012824559736535361 -0.00077200309761437508 0 0.01034083237886921 -0.0028243103123197265 0 0.011529905153749586 -0.0012704826507739944 0 0.010179038632938875 -0.0038864523952150303 0 0.01034083237886921 -0.0028243103123197265 0 0.0098875276874735071 -0.0039530924663156598 0 0.0098445436446978705 -0.0038208722432345873 0 0.0097729951822155461 -0.0038958610256986477 0 0.0093352934515992785 -0.0045426955721845005 0 0.0092035176963188511 -0.0045020456501351346 0 0.0092410072694850583 -0.0045176987417198892 0 0.0093352934515992785 -0.0045426955721845005 0 0.0091321714022344312 -0.0045377894804248271 0 0.0092035176963188511 -0.0045020456501351346 0 0.0090126400332524604 -0.0045017522102024582 0 0.0090338669620703017 -0.0046760526187172042 0 0.0091321714022344312 -0.0045377894804248271 0 0.0093352934515992785 -0.0045426955721845005 0 0.0091771838491538759 -0.0046263163644345139 0 0.0091321714022344312 -0.0045377894804248271 0 0.0090338669620703017 -0.0046760526187172042 0 0.0091771838491538759 -0.0046263163644345139 0 0.0091321714022344312 -0.0045377894804248271 0 0.0091321714022344312 -0.0045377894804248271 0 0.0091043241806799558 -0.0044828234785363472 0 0.0092035176963188511 -0.0045020456501351346 0 0.0090126400332524604 -0.0045017522102024582 0 0.0091321714022344312 -0.0045377894804248271 0 0.0091043241806799558 -0.0044828234785363472 0 0.0090126400332524604 -0.0045017522102024582 0 0.009034638285289262 -0.0044399806739772504 0 0.0091043241806799558 -0.0044828234785363472 0 0.0091265863385388574 -0.0044570147004192812 0 0.0091043241806799558 -0.0044828234785363472 0 0.0092035176963188511 -0.0045020456501351346 0 0.0092035176963188511 -0.0045020456501351346 0 0.0091889188946074271 -0.0044820593266307754 0 0.0092410072694850583 -0.0045176987417198892 0 0.0091265863385388574 -0.0044570147004192812 0 0.0092035176963188511 -0.0045020456501351346 0 0.0091889188946074271 -0.0044820593266307754 0 0.0092179907536011074 -0.0044958021923190376 0 0.0092189716324046628 -0.0045004605381176194 0 0.0092410072694850583 -0.0045176987417198892 0 0.0091959518634089146 -0.0044684978343263529 0 0.0091889188946074271 -0.0044820593266307754 0 0.0092179907536011074 -0.0044958021923190376 0 0.0091889188946074271 -0.0044820593266307754 0 0.0092179907536011074 -0.0044958021923190376 0 0.0092410072694850583 -0.0045176987417198892 0 0.0092179907536011074 -0.0044958021923190376 0 0.0092238391210942901 -0.0044793531243955183 0 0.0092189716324046628 -0.0045004605381176194 0 0.009213083252634223 -0.0044780800385146894 0 0.0092179907536011074 -0.0044958021923190376 0 0.0092238391210942901 -0.0044793531243955183 0 0.009213083252634223 -0.0044780800385146894 0 0.0091959518634089146 -0.0044684978343263529 0 0.0092179907536011074 -0.0044958021923190376 0 0.010156562116487362 -0.0039992901054057796 0 0.010138303900015352 -0.0039985990244661594 0 0.0099899862761338928 -0.004002370761153182 0 0.0097269741661061889 -0.0042254895433630479 0 0.0096028570774480248 -0.0042468714903090279 0 0.0092189716324046628 -0.0045004605381176194 0 0.0092410072694850583 -0.0045176987417198892 0 0.009235852743827877 -0.0044578587597284862 0 0.0093352934515992785 -0.0045426955721845005 0 0.0092410072694850583 -0.0045176987417198892 0 0.009235852743827877 -0.0044578587597284862 0 0.0099899862761338928 -0.004002370761153182 0 0.010001099900602656 -0.0041762947781204167 0 0.0096117177494322061 -0.0042276547590122445 0 0.0096028570774480248 -0.0042468714903090279 0 0.009605291625400407 -0.0042338892553649221 0 0.010129318344129024 -0.0041082010663507796 0 0.0099899862761338928 -0.004002370761153182 0 0.010001099900602656 -0.0041762947781204167 0 0.010156562116487362 -0.0039992901054057796 0 0.010129318344129024 -0.0041082010663507796 0 0.0099899862761338928 -0.004002370761153182 0 0.010129318344129024 -0.0041082010663507796 0 0.010001099900602656 -0.0041762947781204167 0 0.010067803075849186 -0.0042855365983222836 0 0.0099083296697296958 -0.0043151019808551922 0 0.010001099900602656 -0.0041762947781204167 0 0.0096117177494322061 -0.0042276547590122445 0 0.0099083296697296958 -0.0043151019808551922 0 0.010001099900602656 -0.0041762947781204167 0 0.010067803075849186 -0.0042855365983222836 0 0.0099083296697296958 -0.0043151019808551922 0 0.0096086232869238442 -0.0043289579386931454 0 0.0096117177494322061 -0.0042276547590122445 0 0.0096086232869238442 -0.0043289579386931454 0 0.0095459826486392115 -0.0043024459450008695 0 0.0095578759152618181 -0.0044041130448193074 0 0.0096086232869238442 -0.0043289579386931454 0 0.0095733212694200411 -0.0042792280195209894 0 0.0095459826486392115 -0.0043024459450008695 0 0.0096086232869238442 -0.0043289579386931454 0 0.0095733212694200411 -0.0042792280195209894 0 0.0096117177494322061 -0.0042276547590122445 0 0.0095733212694200411 -0.0042792280195209894 0 0.0096117177494322061 -0.0042276547590122445 0 0.0095684331617333154 -0.0043342950432715341 0 0.0093352934515992785 -0.0045426955721845005 0 0.009235852743827877 -0.0044578587597284862 0 0.0095684331617333154 -0.0043342950432715341 0 0.009235852743827877 -0.0044578587597284862 0 0.0096117177494322061 -0.0042276547590122445 0 0.0095684331617333154 -0.0043342950432715341 0 0.0093352934515992785 -0.0045426955721845005 0 0.0091771838491538759 -0.0046263163644345139 0 0.0092427044887337228 -0.0047673073263780402 0 0.0093557519871282739 -0.0045577980324490799 0 0.0094123510951495248 -0.0044631896434242785 0 0.0085707310163346314 -0.0053077858810560482 0 0.0089408294565254762 -0.005065061387107668 0 0.0090338669620703017 -0.0046760526187172042 0 0.0092427044887337228 -0.0047673073263780402 0 0.0091727615929326697 -0.0049413611625891193 0 0.0090338669620703017 -0.0046760526187172042 0 0.0091771838491538759 -0.0046263163644345139 0 0.0092427044887337228 -0.0047673073263780402 0 0.007478793975205243 -0.0060463427851331752 0 0.0077630685637182836 -0.006097332597053879 0 0.0075389701260927368 -0.0062194131619703885 0 0.0075606023514272203 -0.005769956753131896 0 0.007478793975205243 -0.0060463427851331752 0 0.0077630685637182836 -0.006097332597053879 0 0.0095459826486392115 -0.0043024459450008695 0 0.0095346524088637148 -0.0042844848589449949 0 0.0094746151838278111 -0.0044768313215895316 0 0.0095733212694200411 -0.0042792280195209894 0 0.0095684331617333154 -0.0043342950432715341 0 0.0095537493736000123 -0.0042869818345949908 0 0.0094123510951495248 -0.0044631896434242785 0 0.0089408294565254762 -0.005065061387107668 0 0.0095733212694200411 -0.0042792280195209894 0 0.0095459826486392115 -0.0043024459450008695 0 0.0095537493736000123 -0.0042869818345949908 0 0.0089444637229250685 -0.0050149248571197116 0 0.0089408294565254762 -0.005065061387107668 0 0.0089408294565254762 -0.005065061387107668 0 0.0084872931150941598 -0.0056792114450951135 0 0.0077630685637182836 -0.006097332597053879 0 0.0076678600343857784 -0.0063244561383049179 0 0.0075389701260927368 -0.0062194131619703885 0 0.0095459826486392115 -0.0043024459450008695 0 0.0095578759152618181 -0.0044041130448193074 0 0.0094746151838278111 -0.0044768313215895316 0 0.0095578759152618181 -0.0044041130448193074 0 0.0094746151838278111 -0.0044768313215895316 0 0.0096048496169527046 -0.0045168345862569778 0 0.0084872931150941598 -0.0056792114450951135 0 0.011572920884636847 -0.0050653664149635166 0 0.0094746151838278111 -0.0044768313215895316 0 0.0094856620068394099 -0.0046203730224060663 0 0.0094562486152488055 -0.0046068896037860605 0 0.0094746151838278111 -0.0044768313215895316 0 0.0094856620068394099 -0.0046203730224060663 0 0.0096048496169527046 -0.0045168345862569778 0 0.013504193859693427 -0.0043910524533336652 0 0.0092736507188330656 -0.0046826711379638576 0 0.013504193859693427 -0.0043910524533336652 0 0.011572920884636847 -0.0050653664149635166 0 0.010185412484352238 -0.0043160085165390187 0 0.010084626438822098 -0.004328611849794343 0 0.01009222256442229 -0.0043528384252493118 0 0.010084626438822098 -0.004328611849794343 0 0.01009222256442229 -0.0043528384252493118 0 0.010016936125082559 -0.0043257621252835443 0 0.010185412484352238 -0.0043160085165390187 0 0.010084626438822098 -0.004328611849794343 0 0.010105391640752324 -0.0043247720108002844 0 0.0099083296697296958 -0.0043151019808551922 0 0.0096086232869238442 -0.0043289579386931454 0 0.0096048496169527046 -0.0045168345862569778 0 0.0099083296697296958 -0.0043151019808551922 0 0.01009222256442229 -0.0043528384252493118 0 0.010016936125082559 -0.0043257621252835443 0 0.010119356602132102 -0.0041900697823465125 0 0.0092736507188330656 -0.0046826711379638576 0 0.0096086232869238442 -0.0043289579386931454 0 0.0095578759152618181 -0.0044041130448193074 0 0.0096048496169527046 -0.0045168345862569778 0 0.010016936125082559 -0.0043257621252835443 0 0.010067803075849186 -0.0042855365983222836 0 0.010082047419195996 -0.0043342143873714946 0 0.0099083296697296958 -0.0043151019808551922 0 0.010016936125082559 -0.0043257621252835443 0 0.010067803075849186 -0.0042855365983222836 0 0.010067803075849186 -0.0042855365983222836 0 0.010146513439104372 -0.0043324176587679619 0 0.010082047419195996 -0.0043342143873714946 0 0.010084626438822098 -0.004328611849794343 0 0.010082047419195996 -0.0043342143873714946 0 0.010105391640752324 -0.0043247720108002844 0 0.010084626438822098 -0.004328611849794343 0 0.010016936125082559 -0.0043257621252835443 0 0.010082047419195996 -0.0043342143873714946 0 0.010082047419195996 -0.0043342143873714946 0 0.010163757941227248 -0.004379567048463544 0 0.010105391640752324 -0.0043247720108002844 0 0.014810456617597922 -0.0032551974104102184 0 0.015324644938417837 -0.0030848376058389346 0 0.010146513439104372 -0.0043324176587679619 0 0.010082047419195996 -0.0043342143873714946 0 0.010163757941227248 -0.004379567048463544 0 0.019560987285005868 -0.0018557597514879893 0 0.01984707056963356 -0.0016779214586263309 0 0.019517550707870757 -0.0015589753552189189 0 0.019560987285005868 -0.0018557597514879893 0 0.019178004232391816 -0.0016664944996779448 0 0.019517550707870757 -0.0015589753552189189 0 0.019560987285005868 -0.0018557597514879893 0 0.01984707056963356 -0.0016779214586263309 0 0.01992287213403841 -0.002049463195119242 0 0.01984707056963356 -0.0016779214586263309 0 0.020253972092123165 -0.0018049974431494004 0 0.01992287213403841 -0.002049463195119242 0 0.013504193859693427 -0.0043910524533336652 0 0.015324644938417837 -0.0030848376058389346 0 0.02028143007051543 -0.0022530976335701481 0 0.020228193910003828 -0.0020432080138493461 0 0.01992287213403841 -0.002049463195119242 0 0.020253972092123165 -0.0018049974431494004 0 0.020228193910003828 -0.0020432080138493461 0 0.020407618874533892 -0.0021625462888673571 0 0.020253972092123165 -0.0018049974431494004 0 0.020228193910003828 -0.0020432080138493461 0 0.01992287213403841 -0.002049463195119242 0 0.02028143007051543 -0.0022530976335701481 0 0.020228193910003828 -0.0020432080138493461 0 0.020407618874533892 -0.0021625462888673571 0 0.014355143094058357 0.0013526225857253178 0 0.014737001244280658 0.0012697081598552898 0 0.014567868796131764 0.00077305025322086285 0 0.0096159883901340091 -0.002457827287132717 0 0.0093953254965095569 -0.0031855252287711377 0 0.0099582716472857956 -0.0030062655685973378 0 0.011998538650600589 -0.00090150038297898247 0 0.01344047196589448 0.00027831596455614335 0 0.0099582716472857956 -0.0030062655685973378 0 0.010234174713313319 -0.0024376082574950847 0 0.01063131368538753 -0.0031678750842370185 0 0.0096159883901340091 -0.002457827287132717 0 0.0099582716472857956 -0.0030062655685973378 0 0.010234174713313319 -0.0024376082574950847 0 0.010234174713313319 -0.0024376082574950847 0 0.010859480238309609 -0.0022358198272840113 0 0.01063131368538753 -0.0031678750842370185 0 0.0099588004762973994 -0.0035194418162287707 0 0.010512043151072235 -0.0036288390641782712 0 0.010204501111305948 -0.0033412102173592789 0 0.0099582716472857956 -0.0030062655685973378 0 0.01063131368538753 -0.0031678750842370185 0 0.010067803075849186 -0.0042855365983222836 0 0.010146513439104372 -0.0043324176587679619 0 0.010246122778968367 -0.0042359280290331577 0 0.010146513439104372 -0.0043324176587679619 0 0.010228026367021272 -0.0043399233460350165 0 0.010246122778968367 -0.0042359280290331577 0 0.010163757941227248 -0.004379567048463544 0 0.010228026367021272 -0.0043399233460350165 0 0.010267078406926587 -0.0043946782638925493 0 0.010146513439104372 -0.0043324176587679619 0 0.010163757941227248 -0.004379567048463544 0 0.010228026367021272 -0.0043399233460350165 0 0.0099588004762973994 -0.0035194418162287707 0 0.014895729110311945 -0.0019772303862590273 0 0.014810456617597922 -0.0032551974104102184 0 0.014895729110311945 -0.0019772303862590273 0 0.011045858871858702 -0.0012589906475724061 0 0.010509710307502902 -0.0016958608088993316 0 0.010195977387623857 -0.00083816396710365362 0 0.010234174713313319 -0.0024376082574950847 0 0.010859480238309609 -0.0022358198272840113 0 0.010509710307502902 -0.0016958608088993316 0 0.010859480238309609 -0.0022358198272840113 0 0.011045858871858702 -0.0012589906475724061 0 0.010509710307502902 -0.0016958608088993316 0 0.010234174713313319 -0.0024376082574950847 0 0.010509710307502902 -0.0016958608088993316 0 0.0098913452685781868 -0.0016582654567267 0 0.0096159883901340091 -0.002457827287132717 0 0.010234174713313319 -0.0024376082574950847 0 0.0098913452685781868 -0.0016582654567267 0 0.012165251555134685 -5.1468230234001957e-05 0 0.014860589281384924 0.0012396778126763383 0 0.010509710307502902 -0.0016958608088993316 0 0.0098913452685781868 -0.0016582654567267 0 0.010195977387623857 -0.00083816396710365362 0 0.016607824759037677 0.0036790611432794473 0 0.016681994708539202 0.0033562143393304372 0 0.0180165132891804 0.0060387353564086083 0 0.018544547826672961 0.0054833575651143003 0 0.018643020541962266 0.0063070852339911256 0 0.014908456150748059 0.0017668776955046166 0 0.014681974081369554 0.0018245365208401565 0 0.015020086057602692 0.0023087969880559887 0 0.014737001244280658 0.0012697081598552898 0 0.014908456150748059 0.0017668776955046166 0 0.014681974081369554 0.0018245365208401565 0 0.014355143094058357 0.0013526225857253178 0 0.014737001244280658 0.0012697081598552898 0 0.014681974081369554 0.0018245365208401565 0 0.011998538650600589 -0.00090150038297898247 0 0.012165251555134685 -5.1468230234001957e-05 0 0.018267403203840134 0.0074125760173797284 0 0.018655793167295709 0.0073184465461798194 0 0.018407516554855664 0.0072085279913648966 0 0.018267403203840134 0.0074125760173797284 0 0.018687207581636864 0.0075127805717462061 0 0.018643150563913805 0.0076906173615020074 0 0.018267403203840134 0.0074125760173797284 0 0.018655793167295709 0.0073184465461798194 0 0.018687207581636864 0.0075127805717462061 0 0.018687207581636864 0.0075127805717462061 0 0.018902238920178633 0.0074174411966314215 0 0.018658431152507236 0.0076498687225360707 0 0.018902238920178633 0.0074174411966314215 0 0.019186948492825602 0.0074553326221635657 0 0.018658431152507236 0.0076498687225360707 0 0.018655793167295709 0.0073184465461798194 0 0.018687207581636864 0.0075127805717462061 0 0.018902238920178633 0.0074174411966314215 0 0.018902238920178633 0.0074174411966314215 0 0.018827842099749432 0.0072004657487313673 0 0.01910998295410226 0.0071388899695228525 0 0.018655793167295709 0.0073184465461798194 0 0.018902238920178633 0.0074174411966314215 0 0.018827842099749432 0.0072004657487313673 0 0.018655793167295709 0.0073184465461798194 0 0.018827842099749432 0.0072004657487313673 0 0.018619518432538298 0.0070995037513087132 0 0.018827842099749432 0.0072004657487313673 0 0.01885468665948167 0.0070100796395275444 0 0.018619518432538298 0.0070995037513087132 0 0.018827842099749432 0.0072004657487313673 0 0.01885468665948167 0.0070100796395275444 0 0.01910998295410226 0.0071388899695228525 0 0.01885468665948167 0.0070100796395275444 0 0.018971535626966237 0.0068079995466829709 0 0.01910998295410226 0.0071388899695228525 0 0.01885468665948167 0.0070100796395275444 0 0.018654908034993305 0.006866073079570479 0 0.018619518432538298 0.0070995037513087132 0 0.01885468665948167 0.0070100796395275444 0 0.018654908034993305 0.006866073079570479 0 0.018971535626966237 0.0068079995466829709 0 0.018654908034993305 0.006866073079570479 0 0.018619518432538298 0.0070995037513087132 0 0.018328108464559074 0.0069533465004150965 0 0.018655793167295709 0.0073184465461798194 0 0.018619518432538298 0.0070995037513087132 0 0.018407516554855664 0.0072085279913648966 0 0.018619518432538298 0.0070995037513087132 0 0.018407516554855664 0.0072085279913648966 0 0.018328108464559074 0.0069533465004150965 0 0.01807414157545446 0.0066445900759205812 0 0.018476301607406761 0.0066946225646609238 0 0.018643020541962266 0.0063070852339911256 0 0.01807414157545446 0.0066445900759205812 0 0.018328108464559074 0.0069533465004150965 0 0.018476301607406761 0.0066946225646609238 0 0.018476301607406761 0.0066946225646609238 0 0.018643020541962266 0.0063070852339911256 0 0.018735109042749481 0.0066596472614609617 0 0.018544547826672961 0.0054833575651143003 0 0.018643020541962266 0.0063070852339911256 0 0.019276192064542865 0.0065882553010797474 0 0.018654908034993305 0.006866073079570479 0 0.018476301607406761 0.0066946225646609238 0 0.018735109042749481 0.0066596472614609617 0 0.018654908034993305 0.006866073079570479 0 0.018328108464559074 0.0069533465004150965 0 0.018476301607406761 0.0066946225646609238 0 0.018643020541962266 0.0063070852339911256 0 0.018961489253379375 0.0066028414490111381 0 0.019276192064542865 0.0065882553010797474 0 0.018643020541962266 0.0063070852339911256 0 0.018961489253379375 0.0066028414490111381 0 0.018735109042749481 0.0066596472614609617 0 0.018654908034993305 0.006866073079570479 0 0.018735109042749481 0.0066596472614609617 0 0.018971535626966237 0.0068079995466829709 0 0.018961489253379375 0.0066028414490111381 0 0.018735109042749481 0.0066596472614609617 0 0.018971535626966237 0.0068079995466829709 0 0.019216133487679216 0.0068194917283085762 0 0.019276192064542865 0.0065882553010797474 0 0.01959249472085851 0.0070326628657047452 0 0.018961489253379375 0.0066028414490111381 0 0.018971535626966237 0.0068079995466829709 0 0.01910299735119389 0.0067206791500180425 0 0.018971535626966237 0.0068079995466829709 0 0.01910299735119389 0.0067206791500180425 0 0.019216133487679216 0.0068194917283085762 0 0.014908456150748059 0.0017668776955046166 0 0.015020086057602692 0.0023087969880559887 0 0.015087560616994542 0.0022752247362492063 0 0.01910299735119389 0.0067206791500180425 0 0.019216133487679216 0.0068194917283085762 0 0.019276192064542865 0.0065882553010797474 0 0.016681994708539202 0.0033562143393304372 0 0.014860589281384924 0.0012396778126763383 0 0.018961489253379375 0.0066028414490111381 0 0.01910299735119389 0.0067206791500180425 0 0.019276192064542865 0.0065882553010797474 0 0.016681994708539202 0.0033562143393304372 0 0.018410327957743902 0.0037790191700815719 0 0.014860589281384924 0.0012396778126763383 0 0.018410327957743902 0.0037790191700815719 0 0.015856219156571972 0.0022602441551209402 0 0.0164325745029919 0.0019944355164997029 0 0.017136203409334805 0.004119741498265982 0 0.018340611224396279 0.00056467127353099374 0 0.018605807345065912 0.0013151260772594562 0 0.019275807026961869 0.00089640127899179658 0 0.01959249472085851 0.0070326628657047452 0 0.019379874666314648 0.0072827327258331957 0 0.019888233607672362 0.0077795548118684789 0 0.019216133487679216 0.0068194917283085762 0 0.01959249472085851 0.0070326628657047452 0 0.01910998295410226 0.0071388899695228525 0 0.01959249472085851 0.0070326628657047452 0 0.01910998295410226 0.0071388899695228525 0 0.019379874666314648 0.0072827327258331957 0 0.018971535626966237 0.0068079995466829709 0 0.019216133487679216 0.0068194917283085762 0 0.01910998295410226 0.0071388899695228525 0 0.01910998295410226 0.0071388899695228525 0 0.019186948492825602 0.0074553326221635657 0 0.019379874666314648 0.0072827327258331957 0 0.018902238920178633 0.0074174411966314215 0 0.01910998295410226 0.0071388899695228525 0 0.019186948492825602 0.0074553326221635657 0 0.018410327957743902 0.0037790191700815719 0 0.019064125217281354 0.0016349666934373373 0 0.018410327957743902 0.0037790191700815719 0 0.024467474269075178 0.0022737180654538 0 0.018605807345065912 0.0013151260772594562 0 0.019394659809643638 0.0015441626601751012 0 0.019387475273492927 0.0023224820546849678 0 0.019394659809643638 0.0015441626601751012 0 0.019275807026961869 0.00089640127899179658 0 0.020111155099323898 0.0012406889903153594 0 0.018605807345065912 0.0013151260772594562 0 0.019394659809643638 0.0015441626601751012 0 0.019275807026961869 0.00089640127899179658 0 0.019914469355309314 -0.00018280701426348145 0 0.018340611224396279 0.00056467127353099374 0 0.019275807026961869 0.00089640127899179658 0 0.014895729110311945 -0.0019772303862590273 0 0.014860589281384924 0.0012396778126763383 0 0.014895729110311945 -0.0019772303862590273 0 0.019715132030426789 0.00040419380492629289 0 0.019914469355309314 -0.00018280701426348145 0 0.019275807026961869 0.00089640127899179658 0 0.020111155099323898 0.0012406889903153594 0 0.019178004232391816 -0.0016664944996779448 0 0.019273020701281719 -0.0012895913540026923 0 0.019517550707870757 -0.0015589753552189189 0 0.019715132030426789 0.00040419380492629289 0 0.024533656285050602 -0.00029651851415144224 0 0.019394659809643638 0.0015441626601751012 0 0.020111155099323898 0.0012406889903153594 0 0.020287184063589127 0.0026126030626229652 0 0.019273020701281719 -0.0012895913540026923 0 0.019373537432326862 -0.00092317248550106751 0 0.019693345213422645 -0.0012593225910399607 0 0.024533656285050602 -0.00029651851415144224 0 0.03005189601918317 -0.0013088989390946696 0 0.029784213445706795 -0.0011765836483637103 0 0.029838483501129519 -0.0012279111821098302 0 0.029805030567054414 -0.001224998132190459 0 0.029754539036624058 -0.0011260441596672877 0 0.029811254158345478 -0.0012261372038690386 0 0.02985980633825467 -0.0012092730106670387 0 0.030354647893847946 -0.0019755745600724623 0 0.024467474269075178 0.0022737180654538 0 0.020287184063589127 0.0026126030626229652 0 0.019387475273492927 0.0023224820546849678 0 0.019097624908797219 0.0024150389010036731 0 0.018829258353539349 0.0015613374423196825 0 0.019387475273492927 0.0023224820546849678 0 0.019097624908797219 0.0024150389010036731 0 0.029754539036624058 -0.0011260441596672877 0 0.02985980633825467 -0.0012092730106670387 0 0.029822049185555487 -0.0010975010480512156 0 0.024533656285050602 -0.00029651851415144224 0 0.024467474269075178 0.0022737180654538 0 0.019394659809643638 0.0015441626601751012 0 0.020287184063589127 0.0026126030626229652 0 0.019387475273492927 0.0023224820546849678 0 0.029840891792887517 -0.0010736932396969293 0 0.029963930044928453 -0.0011668206745954531 0 0.030000435862368231 -0.0010342734368756919 0 0.019186948492825602 0.0074553326221635657 0 0.019888233607672362 0.0077795548118684789 0 0.018658431152507236 0.0076498687225360707 0 0.024467474269075178 0.0022737180654538 0 0.025167228785302722 0.0016260326919542629 0 0.019186948492825602 0.0074553326221635657 0 0.019379874666314648 0.0072827327258331957 0 0.019888233607672362 0.0077795548118684789 0 0.02985980633825467 -0.0012092730106670387 0 0.029963930044928453 -0.0011668206745954531 0 0.02996448639386412 -0.0012750917051771611 0 0.02985980633825467 -0.0012092730106670387 0 0.029840891792887517 -0.0010736932396969293 0 0.029963930044928453 -0.0011668206745954531 0 0.030086397982901115 -0.0012453975644146971 0 0.029963930044928453 -0.0011668206745954531 0 0.02996448639386412 -0.0012750917051771611 0 0.030086397982901115 -0.0012453975644146971 0 0.029963930044928453 -0.0011668206745954531 0 0.030000435862368231 -0.0010342734368756919 0 0.030520159873221372 -0.0025106040068780156 0 0.025167228785302722 0.0016260326919542629 0 0.023887954900793335 0.0042379599130866656 0 0.025167228785302722 0.0016260326919542629 0 0.020072726421709274 -0.0014226025412314139 0 0.020034801646608213 -0.0010895075124862182 0 0.020423770173299258 -0.001093837637529124 0 0.020378645015476923 -0.0014749188508811103 0 0.020072726421709274 -0.0014226025412314139 0 0.020423770173299258 -0.001093837637529124 0 0.020253972092123165 -0.0018049974431494004 0 0.020378645015476923 -0.0014749188508811103 0 0.020072726421709274 -0.0014226025412314139 0 0.01984707056963356 -0.0016779214586263309 0 0.020253972092123165 -0.0018049974431494004 0 0.020072726421709274 -0.0014226025412314139 0 0.01984707056963356 -0.0016779214586263309 0 0.020072726421709274 -0.0014226025412314139 0 0.019693345213422645 -0.0012593225910399607 0 0.01984707056963356 -0.0016779214586263309 0 0.019517550707870757 -0.0015589753552189189 0 0.019693345213422645 -0.0012593225910399607 0 0.019273020701281719 -0.0012895913540026923 0 0.019517550707870757 -0.0015589753552189189 0 0.019693345213422645 -0.0012593225910399607 0 0.020072726421709274 -0.0014226025412314139 0 0.019693345213422645 -0.0012593225910399607 0 0.020034801646608213 -0.0010895075124862182 0 0.019693345213422645 -0.0012593225910399607 0 0.019788681063155584 -0.00086872704198869368 0 0.020034801646608213 -0.0010895075124862182 0 0.019373537432326862 -0.00092317248550106751 0 0.019693345213422645 -0.0012593225910399607 0 0.019788681063155584 -0.00086872704198869368 0 0.024533656285050602 -0.00029651851415144224 0 0.02477069864729493 -0.0011064965770582634 0 0.029784213445706795 -0.0011765836483637103 0 0.029750691042689483 -0.0011736298549101269 0 0.029805030567054414 -0.001224998132190459 0 0.02477069864729493 -0.0011064965770582634 0 0.024886008441763977 -0.00096946689037645658 0 0.029750691042689483 -0.0011736298549101269 0 0.02964543722226242 -0.001136075253923102 0 0.029760368433413027 -0.0012207954041465127 0 0.029750691042689483 -0.0011736298549101269 0 0.029805030567054414 -0.001224998132190459 0 0.029760368433413027 -0.0012207954041465127 0 0.020200301497772192 -0.00080823828292343313 0 0.020034801646608213 -0.0010895075124862182 0 0.020423770173299258 -0.001093837637529124 0 0.019788681063155584 -0.00086872704198869368 0 0.020200301497772192 -0.00080823828292343313 0 0.020034801646608213 -0.0010895075124862182 0 0.020200301497772192 -0.00080823828292343313 0 0.020423770173299258 -0.001093837637529124 0 0.020621527663529936 -0.00074137123813682189 0 0.024886008441763977 -0.00096946689037645658 0 0.025188084989730471 -0.00089253763141753891 0 0.02964543722226242 -0.001136075253923102 0 0.029444864344010096 -0.0011148011879512101 0 0.029554048756350652 -0.0012464050517463202 0 0.020621527663529936 -0.00074137123813682189 0 0.020845028675072385 -0.00087857267242866471 0 0.021045040738057231 -0.00067418027981114531 0 0.029444864344010096 -0.0011148011879512101 0 0.029226012471231293 -0.0011588029253298234 0 0.029142099704153285 -0.0011336290949366613 0 0.025188084989730471 -0.00089253763141753891 0 0.024381801417035179 -0.001125151911014214 0 0.029444864344010096 -0.0011148011879512101 0 0.029226012471231293 -0.0011588029253298234 0 0.029363650465354687 -0.001237885193702624 0 0.024381801417035179 -0.001125151911014214 0 0.028385209684873208 -0.0020984649731979003 0 0.029226012471231293 -0.0011588029253298234 0 0.029142099704153285 -0.0011336290949366613 0 0.029191135517412748 -0.0012100143158575787 0 0.020845028675072385 -0.00087857267242866471 0 0.021045040738057231 -0.00067418027981114531 0 0.021108976237228308 -0.0007784753188822658 0 0.020845028675072385 -0.00087857267242866471 0 0.021108976237228308 -0.0007784753188822658 0 0.020886583270186245 -0.0012372299472886246 0 0.020423770173299258 -0.001093837637529124 0 0.020621527663529936 -0.00074137123813682189 0 0.020845028675072385 -0.00087857267242866471 0 0.020423770173299258 -0.001093837637529124 0 0.020845028675072385 -0.00087857267242866471 0 0.020886583270186245 -0.0012372299472886246 0 0.017410651646779261 -0.0014870355704950664 0 0.01722660389371378 -0.0012904765884348298 0 0.017638243487850747 -0.0012167460246983988 0 0.017519606277042282 -0.0014395624104362223 0 0.020286445618559294 -0.0013483575217523643 0 0.017410651646779261 -0.0014870355704950664 0 0.017712556793081667 -0.0016919378504653985 0 0.017638243487850747 -0.0012167460246983988 0 0.021980669351218163 -0.0017613083937950632 0 0.020286445618559294 -0.0013483575217523643 0 0.017410651646779261 -0.0014870355704950664 0 0.01722660389371378 -0.0012904765884348298 0 0.017157596521594487 -0.0014459424385782865 0 0.021595236622661468 -0.0013273312317639977 0 0.021904397708666978 -0.0012761093251404873 0 0.021713897136582248 -0.0010157609617317822 0 0.026129931107147418 -0.0022682919999174904 0 0.026058023207358606 -0.0022798098407063915 0 0.026025578524389588 -0.0022237690850523662 0 0.021980669351218163 -0.0017613083937950632 0 0.019629182937233786 -0.00098213250140780041 0 0.021980669351218163 -0.0017613083937950632 0 0.024381801417035179 -0.001125151911014214 0 0.024381801417035179 -0.001125151911014214 0 0.019629182937233786 -0.00098213250140780041 0 0.019629182937233786 -0.00098213250140780041 0 0.016982219656892859 -0.0016135577307312614 0 0.019629182937233786 -0.00098213250140780041 0 0.018395435226897849 -0.0017357230118502666 0 0.017410651646779261 -0.0014870355704950664 0 0.017157596521594487 -0.0014459424385782865 0 0.017337814144821741 -0.0018091224162024534 0 0.016664115510612105 -0.0011035005715267329 0 0.017057842632702585 -0.0016985468252455535 0 0.016238067307846153 -0.0021605019640246761 0 0.017337814144821741 -0.0018091224162024534 0 0.017551055785751692 -0.0019592504275163327 0 0.017712556793081667 -0.0016919378504653985 0 0.017410651646779261 -0.0014870355704950664 0 0.017337814144821741 -0.0018091224162024534 0 0.017712556793081667 -0.0016919378504653985 0 0.017525745560632081 -0.0022984456135695043 0 0.01684143182102283 -0.0023224791949931494 0 0.017183295860884445 -0.0026801667769704367 0 0.016982219656892859 -0.0016135577307312614 0 0.017568510681383622 -0.0023240675265579613 0 0.017337814144821741 -0.0018091224162024534 0 0.017551055785751692 -0.0019592504275163327 0 0.017525745560632081 -0.0022984456135695043 0 0.017057842632702585 -0.0016985468252455535 0 0.017525745560632081 -0.0022984456135695043 0 0.01684143182102283 -0.0023224791949931494 0 0.017551055785751692 -0.0019592504275163327 0 0.017525745560632081 -0.0022984456135695043 0 0.017874552573165205 -0.0023521512044594032 0 0.017057842632702585 -0.0016985468252455535 0 0.01684143182102283 -0.0023224791949931494 0 0.016238067307846153 -0.0021605019640246761 0 0.01684143182102283 -0.0023224791949931494 0 0.017183295860884445 -0.0026801667769704367 0 0.016659898138346649 -0.0030568041068029708 0 0.01684143182102283 -0.0023224791949931494 0 0.016238067307846153 -0.0021605019640246761 0 0.016659898138346649 -0.0030568041068029708 0 0.017183295860884445 -0.0026801667769704367 0 0.017413363592573016 -0.0030799912440912661 0 0.016659898138346649 -0.0030568041068029708 0 0.017183295860884445 -0.0026801667769704367 0 0.017413363592573016 -0.0030799912440912661 0 0.017612266989192764 -0.0026441014356848045 0 0.017525745560632081 -0.0022984456135695043 0 0.017183295860884445 -0.0026801667769704367 0 0.017612266989192764 -0.0026441014356848045 0 0.020378645015476923 -0.0014749188508811103 0 0.020423770173299258 -0.001093837637529124 0 0.020886583270186245 -0.0012372299472886246 0 0.018395435226897849 -0.0017357230118502666 0 0.018650257245762233 -0.0022995855294374616 0 0.016238067307846153 -0.0021605019640246761 0 0.015916127358203663 -0.003094390254048905 0 0.016659898138346649 -0.0030568041068029708 0 0.020378645015476923 -0.0014749188508811103 0 0.020886583270186245 -0.0012372299472886246 0 0.0206551794838724 -0.0016981731211477902 0 0.020253972092123165 -0.0018049974431494004 0 0.020378645015476923 -0.0014749188508811103 0 0.0206551794838724 -0.0016981731211477902 0 0.020253972092123165 -0.0018049974431494004 0 0.0206551794838724 -0.0016981731211477902 0 0.020407618874533892 -0.0021625462888673571 0 0.015916127358203663 -0.003094390254048905 0 0.015662814060016555 -0.0038218501548054206 0 0.01612012334779751 -0.0034387909901947861 0 0.015844671278971944 -0.003083468746792294 0 0.015769371199373446 -0.0037545744376083208 0 0.018650257245762233 -0.0022995855294374616 0 0.015844671278971944 -0.003083468746792294 0 0.014862474166772081 -0.0043738036010296036 0 0.015713119840140767 -0.0037040831617123214 0 0.015596236957242987 -0.0044161862412058226 0 0.015713119840140767 -0.0037040831617123214 0 0.016437393285319481 -0.0037816670028181492 0 0.015596236957242987 -0.0044161862412058226 0 0.016437393285319481 -0.0037816670028181492 0 0.016269108294971427 -0.0047085113067769921 0 0.015596236957242987 -0.0044161862412058226 0 0.015916127358203663 -0.003094390254048905 0 0.01612012334779751 -0.0034387909901947861 0 0.016659898138346649 -0.0030568041068029708 0 0.015769371199373446 -0.0037545744376083208 0 0.016668626256850234 -0.0030163607123648529 0 0.016659898138346649 -0.0030568041068029708 0 0.017135278367253145 -0.0036891458470514325 0 0.016437393285319481 -0.0037816670028181492 0 0.015713119840140767 -0.0037040831617123214 0 0.016659898138346649 -0.0030568041068029708 0 0.016437393285319481 -0.0037816670028181492 0 0.017413363592573016 -0.0030799912440912661 0 0.017135278367253145 -0.0036891458470514325 0 0.017858982393132116 -0.0036152174158677968 0 0.017413363592573016 -0.0030799912440912661 0 0.016659898138346649 -0.0030568041068029708 0 0.017135278367253145 -0.0036891458470514325 0 0.017135278367253145 -0.0036891458470514325 0 0.016907925407800617 -0.0042933220513228969 0 0.017549080813916509 -0.0043323495134339838 0 0.017135278367253145 -0.0036891458470514325 0 0.016907925407800617 -0.0042933220513228969 0 0.016437393285319481 -0.0037816670028181492 0 0.016907925407800617 -0.0042933220513228969 0 0.016437393285319481 -0.0037816670028181492 0 0.016269108294971427 -0.0047085113067769921 0 0.016269108294971427 -0.0047085113067769921 0 0.01726836925684664 -0.0050284953344816195 0 0.016513035043634799 -0.0054997981740355405 0 0.016907925407800617 -0.0042933220513228969 0 0.016269108294971427 -0.0047085113067769921 0 0.01726836925684664 -0.0050284953344816195 0 0.016907925407800617 -0.0042933220513228969 0 0.01726836925684664 -0.0050284953344816195 0 0.017549080813916509 -0.0043323495134339838 0 0.0068664771762097475 -0.0047003237357933578 0 0.012901468994734601 -0.0062977969355163393 0 0.017308838349327244 -0.0058910845518779986 0 0.01726836925684664 -0.0050284953344816195 0 0.016513035043634799 -0.0054997981740355405 0 0.012901468994734601 -0.0062977969355163393 0 0.011232760911643451 -0.0057031154997065729 0 0.016269108294971427 -0.0047085113067769921 0 0.016513035043634799 -0.0054997981740355405 0 0.01564740290288727 -0.0051190965774941385 0 0.0071817171320777079 -0.0063002359312591179 0 0.0073206955904959615 -0.0063906161781005673 0 0.0073190932541844301 -0.0062683328793476057 0 0.0073206955904959615 -0.0063906161781005673 0 0.0073190932541844301 -0.0062683328793476057 0 0.0074734494536606542 -0.0063484289129796092 0 0.0076678600343857784 -0.0063244561383049179 0 0.0074734494536606542 -0.0063484289129796092 0 0.0075976765579574461 -0.0065254555242376423 0 0.0073190932541844301 -0.0062683328793476057 0 0.0075389701260927368 -0.0062194131619703885 0 0.0074734494536606542 -0.0063484289129796092 0 0.0076678600343857784 -0.0063244561383049179 0 0.0075389701260927368 -0.0062194131619703885 0 0.0074734494536606542 -0.0063484289129796092 0 0.014862474166772081 -0.0043738036010296036 0 0.014723647805475765 -0.0047077207308117951 0 0.015596236957242987 -0.0044161862412058226 0 0.01564740290288727 -0.0051190965774941385 0 0.014723647805475765 -0.0047077207308117951 0 0.015596236957242987 -0.0044161862412058226 0 0.0073206955904959615 -0.0063906161781005673 0 0.0074734494536606542 -0.0063484289129796092 0 0.0075976765579574461 -0.0065254555242376423 0 0.011232760911643451 -0.0057031154997065729 0 0.011572920884636847 -0.0050653664149635166 0 0.013504193859693427 -0.0043910524533336652 0 0.015844671278971944 -0.003083468746792294 0 0.012624716135021108 -0.0046845509078149673 0 0.014360473696818084 -0.0032380072320982059 0 0.01360787233499971 -0.0051357003301366437 0 0.015844671278971944 -0.003083468746792294 0 0.011572920884636847 -0.0050653664149635166 0 0.016269108294971427 -0.0047085113067769921 0 0.01564740290288727 -0.0051190965774941385 0 0.015596236957242987 -0.0044161862412058226 0 0.0033989233111085863 -0.003290627726650622 0 0.0020413133693616852 -0.0031501125225498697 0 0.0031256591957198035 -0.0023865585423654243 0 0.0033989233111085863 -0.003290627726650622 0 0.0031256591957198035 -0.0023865585423654243 0 0.0045347075191619719 -0.0026322546346178328 0 0.0033989233111085863 -0.003290627726650622 0 0.0045865105933768219 -0.0036580741782490656 0 0.0045347075191619719 -0.0026322546346178328 0 0.0035091140703463011 -0.0043124508278256455 0 0.0033989233111085863 -0.003290627726650622 0 0.0045865105933768219 -0.0036580741782490656 0 0.0033989233111085863 -0.003290627726650622 0 0.0026550661498188064 -0.0037374593506379564 0 0.0020413133693616852 -0.0031501125225498697 0 0.0035091140703463011 -0.0043124508278256455 0 0.0033989233111085863 -0.003290627726650622 0 0.0026550661498188064 -0.0037374593506379564 0 0.0018078991091006621 -0.0042286448990125191 0 0.0026550661498188064 -0.0037374593506379564 0 0.0020413133693616852 -0.0031501125225498697 0 0.017308838349327244 -0.0058910845518779986 0 0.01726836925684664 -0.0050284953344816195 0 0.018153538430407127 -0.0051246584042222458 0 0.0068664771762097475 -0.0047003237357933578 0 0.010506011658706156 -0.0040448510506736176 0 0.018153538430407127 -0.0051246584042222458 0 0.018233569938829245 -0.0043068088084635466 0 0.017549080813916509 -0.0043323495134339838 0 0.01726836925684664 -0.0050284953344816195 0 0.018153538430407127 -0.0051246584042222458 0 0.017549080813916509 -0.0043323495134339838 0 0.018153538430407127 -0.0051246584042222458 0 0.018233569938829245 -0.0043068088084635466 0 0.018995005584062946 -0.0042972945842964273 0 0.010506011658706156 -0.0040448510506736176 0 0.010988438412155086 -0.0033787467983206945 0 0.018233569938829245 -0.0043068088084635466 0 0.018651579569335948 -0.0035959796769558772 0 0.018995005584062946 -0.0042972945842964273 0 0.018233569938829245 -0.0043068088084635466 0 0.017858982393132116 -0.0036152174158677968 0 0.018651579569335948 -0.0035959796769558772 0 0.017135278367253145 -0.0036891458470514325 0 0.017549080813916509 -0.0043323495134339838 0 0.017858982393132116 -0.0036152174158677968 0 0.018233569938829245 -0.0043068088084635466 0 0.017549080813916509 -0.0043323495134339838 0 0.017858982393132116 -0.0036152174158677968 0 0.017413363592573016 -0.0030799912440912661 0 0.017858982393132116 -0.0036152174158677968 0 0.018160098022377169 -0.0028423981754429812 0 0.017858982393132116 -0.0036152174158677968 0 0.018651579569335948 -0.0035959796769558772 0 0.018160098022377169 -0.0028423981754429812 0 0.018651579569335948 -0.0035959796769558772 0 0.019760224204056865 -0.0034178725770815099 0 0.018931936448134672 -0.0028521165138130009 0 0.010988438412155086 -0.0033787467983206945 0 0.01184252756955991 -0.0025776459231625589 0 0.018651579569335948 -0.0035959796769558772 0 0.018995005584062946 -0.0042972945842964273 0 0.019760224204056865 -0.0034178725770815099 0 0.0031256591957198035 -0.0023865585423654243 0 0.004113976190981139 -0.0016979272460649639 0 0.0045347075191619719 -0.0026322546346178328 0 0.019760224204056865 -0.0034178725770815099 0 0.019656469817472228 -0.0027292799274679842 0 0.020148274572404191 -0.0026323704927055107 0 0.019656469817472228 -0.0027292799274679842 0 0.019945918058714176 -0.0022897757464705412 0 0.020148274572404191 -0.0026323704927055107 0 0.019760224204056865 -0.0034178725770815099 0 0.019656469817472228 -0.0027292799274679842 0 0.018931936448134672 -0.0028521165138130009 0 0.019656469817472228 -0.0027292799274679842 0 0.018931936448134672 -0.0028521165138130009 0 0.019343979652328518 -0.0020918585629559616 0 0.018931936448134672 -0.0028521165138130009 0 0.019343979652328518 -0.0020918585629559616 0 0.018660706759452687 -0.0023996228153529264 0 0.019343979652328518 -0.0020918585629559616 0 0.019945918058714176 -0.0022897757464705412 0 0.019997377636715014 -0.0016565994378113114 0 0.019656469817472228 -0.0027292799274679842 0 0.019343979652328518 -0.0020918585629559616 0 0.019945918058714176 -0.0022897757464705412 0 0.017413363592573016 -0.0030799912440912661 0 0.017612266989192764 -0.0026441014356848045 0 0.018160098022377169 -0.0028423981754429812 0 0.017612266989192764 -0.0026441014356848045 0 0.018160098022377169 -0.0028423981754429812 0 0.017874552573165205 -0.0023521512044594032 0 0.018931936448134672 -0.0028521165138130009 0 0.018160098022377169 -0.0028423981754429812 0 0.018660706759452687 -0.0023996228153529264 0 0.018651579569335948 -0.0035959796769558772 0 0.018931936448134672 -0.0028521165138130009 0 0.018160098022377169 -0.0028423981754429812 0 0.019343979652328518 -0.0020918585629559616 0 0.018660706759452687 -0.0023996228153529264 0 0.018642174446361716 -0.0018611069675594808 0 0.018660706759452687 -0.0023996228153529264 0 0.018289205622851582 -0.002241525749458947 0 0.018642174446361716 -0.0018611069675594808 0 0.018289205622851582 -0.002241525749458947 0 0.018189230540222801 -0.0018268392171385032 0 0.018642174446361716 -0.0018611069675594808 0 0.018160098022377169 -0.0028423981754429812 0 0.018660706759452687 -0.0023996228153529264 0 0.018289205622851582 -0.002241525749458947 0 0.017874552573165205 -0.0023521512044594032 0 0.017802050250749994 -0.0014806558906693764 0 0.018189230540222801 -0.0018268392171385032 0 0.017551055785751692 -0.0019592504275163327 0 0.017874552573165205 -0.0023521512044594032 0 0.017712556793081667 -0.0016919378504653985 0 0.017921371042654531 -0.0023765122362881213 0 0.017519606277042282 -0.0014395624104362223 0 0.018160098022377169 -0.0028423981754429812 0 0.018289205622851582 -0.002241525749458947 0 0.017874552573165205 -0.0023521512044594032 0 0.018289205622851582 -0.002241525749458947 0 0.017874552573165205 -0.0023521512044594032 0 0.018189230540222801 -0.0018268392171385032 0 0.017525745560632081 -0.0022984456135695043 0 0.017612266989192764 -0.0026441014356848045 0 0.017874552573165205 -0.0023521512044594032 0 0.017802050250749994 -0.0014806558906693764 0 0.018189230540222801 -0.0018268392171385032 0 0.018413253091299629 -0.0012404542740438074 0 0.019343979652328518 -0.0020918585629559616 0 0.018642174446361716 -0.0018611069675594808 0 0.019010890041893956 -0.0014788491400353548 0 0.018642174446361716 -0.0018611069675594808 0 0.019010890041893956 -0.0014788491400353548 0 0.018413253091299629 -0.0012404542740438074 0 0.018189230540222801 -0.0018268392171385032 0 0.018642174446361716 -0.0018611069675594808 0 0.018413253091299629 -0.0012404542740438074 0 0.018934520164654616 -0.00080112778550401481 0 0.018413253091299629 -0.0012404542740438074 0 0.01833188108095709 -0.00044278275210505582 0 0.019010890041893956 -0.0014788491400353548 0 0.018934520164654616 -0.00080112778550401481 0 0.018413253091299629 -0.0012404542740438074 0 0.018876223779046141 -0.00059166472083120689 0 0.023570631449906634 -0.0015811102846715827 0 0.017802050250749994 -0.0014806558906693764 0 0.018050352464980404 -0.00093471459268121271 0 0.017659585624281188 -0.00057075519109037621 0 0.018413253091299629 -0.0012404542740438074 0 0.018050352464980404 -0.00093471459268121271 0 0.01833188108095709 -0.00044278275210505582 0 0.018050352464980404 -0.00093471459268121271 0 0.01833188108095709 -0.00044278275210505582 0 0.017659585624281188 -0.00057075519109037621 0 0.017802050250749994 -0.0014806558906693764 0 0.018413253091299629 -0.0012404542740438074 0 0.018050352464980404 -0.00093471459268121271 0 0.019997377636715014 -0.0016565994378113114 0 0.019728065598062283 -0.0012775395346777709 0 0.020266745037202841 -0.0012616032072082491 0 0.019343979652328518 -0.0020918585629559616 0 0.019997377636715014 -0.0016565994378113114 0 0.019728065598062283 -0.0012775395346777709 0 0.019343979652328518 -0.0020918585629559616 0 0.019010890041893956 -0.0014788491400353548 0 0.019728065598062283 -0.0012775395346777709 0 0.019964665445955557 -0.0010942156382513298 0 0.019728065598062283 -0.0012775395346777709 0 0.020018783562647708 -0.001104623247583796 0 0.018876223779046141 -0.00059166472083120689 0 0.01992488724520031 -0.0013529407980874381 0 0.019010890041893956 -0.0014788491400353548 0 0.018934520164654616 -0.00080112778550401481 0 0.019728065598062283 -0.0012775395346777709 0 0.019728065598062283 -0.0012775395346777709 0 0.020018783562647708 -0.001104623247583796 0 0.020266745037202841 -0.0012616032072082491 0 0.030644338401671675 -0.0024790844329231863 0 0.030718217089573355 -0.0024243834451093552 0 0.030455675764531058 -0.002121236668674747 0 0.025719455505888843 -0.0017421884049231286 0 0.025134841882043242 -0.001500774600742823 0 0.020018783562647708 -0.001104623247583796 0 0.020016119146475931 -0.0010526676000105857 0 0.020347670744341784 -0.00082105742137265241 0 0.020018783562647708 -0.001104623247583796 0 0.020347670744341784 -0.00082105742137265241 0 0.020266745037202841 -0.0012616032072082491 0 0.019964665445955557 -0.0010942156382513298 0 0.020018783562647708 -0.001104623247583796 0 0.020016119146475931 -0.0010526676000105857 0 0.030644338401671675 -0.0024790844329231863 0 0.030646860228082842 -0.0023797663811995968 0 0.030718217089573355 -0.0024243834451093552 0 0.030644338401671675 -0.0024790844329231863 0 0.030646860228082842 -0.0023797663811995968 0 0.030496979129568395 -0.0024072668950414649 0 0.030646860228082842 -0.0023797663811995968 0 0.030718217089573355 -0.0024243834451093552 0 0.030747482873714604 -0.0022909843236698529 0 0.030718217089573355 -0.0024243834451093552 0 0.030747482873714604 -0.0022909843236698529 0 0.030806431795002285 -0.002327632987882276 0 0.030646860228082842 -0.0023797663811995968 0 0.030747482873714604 -0.0022909843236698529 0 0.030623886194024428 -0.0022335577211428058 0 0.030718217089573355 -0.0024243834451093552 0 0.030708963449315542 -0.0024383982900628501 0 0.030455675764531058 -0.002121236668674747 0 0.030708963449315542 -0.0024383982900628501 0 0.030806431795002285 -0.002327632987882276 0 0.030983338057669695 -0.0022294931135655185 0 0.030718217089573355 -0.0024243834451093552 0 0.030708963449315542 -0.0024383982900628501 0 0.030806431795002285 -0.002327632987882276 0 0.030983338057669695 -0.0022294931135655185 0 0.030903346580509469 -0.0021728763791904805 0 0.03109305128015909 -0.0020564353021203748 0 0.030806431795002285 -0.002327632987882276 0 0.030983338057669695 -0.0022294931135655185 0 0.030903346580509469 -0.0021728763791904805 0 0.030747482873714604 -0.0022909843236698529 0 0.030806431795002285 -0.002327632987882276 0 0.030903346580509469 -0.0021728763791904805 0 0.030747482873714604 -0.0022909843236698529 0 0.030903346580509469 -0.0021728763791904805 0 0.030804227553739419 -0.0021238905827573994 0 0.030747482873714604 -0.0022909843236698529 0 0.030804227553739419 -0.0021238905827573994 0 0.030623886194024428 -0.0022335577211428058 0 0.030903346580509469 -0.0021728763791904805 0 0.030804227553739419 -0.0021238905827573994 0 0.030995199090004782 -0.0019928551449260802 0 0.030804227553739419 -0.0021238905827573994 0 0.030995199090004782 -0.0019928551449260802 0 0.030774351725312756 -0.001961030470542087 0 0.030995199090004782 -0.0019928551449260802 0 0.030774351725312756 -0.001961030470542087 0 0.031119914786870165 -0.0017932015930444088 0 0.031230764909857805 -0.0018689845342385008 0 0.030995199090004782 -0.0019928551449260802 0 0.031119914786870165 -0.0017932015930444088 0 0.031230764909857805 -0.0018689845342385008 0 0.03109305128015909 -0.0020564353021203748 0 0.030995199090004782 -0.0019928551449260802 0 0.030903346580509469 -0.0021728763791904805 0 0.03109305128015909 -0.0020564353021203748 0 0.030995199090004782 -0.0019928551449260802 0 0.03051185253557899 -0.0020747680630043559 0 0.03025125575418447 -0.0020610019860443115 0 0.03061262887401069 -0.0017821997313800097 0 0.030553055650214402 -0.0019749199756503096 0 0.030514457829537149 -0.0018465000054492333 0 0.03051185253557899 -0.0020747680630043559 0 0.030774351725312756 -0.001961030470542087 0 0.03061262887401069 -0.0017821997313800097 0 0.03051185253557899 -0.0020747680630043559 0 0.030774351725312756 -0.001961030470542087 0 0.030623886194024428 -0.0022335577211428058 0 0.030804227553739419 -0.0021238905827573994 0 0.030774351725312756 -0.001961030470542087 0 0.030623886194024428 -0.0022335577211428058 0 0.03051185253557899 -0.0020747680630043559 0 0.03032198444614493 -0.0021791123283931599 0 0.03025125575418447 -0.0020610019860443115 0 0.03032198444614493 -0.0021791123283931599 0 0.030374329213875222 -0.0023188636037559675 0 0.030153094947119513 -0.0022493328466755996 0 0.03051185253557899 -0.0020747680630043559 0 0.030623886194024428 -0.0022335577211428058 0 0.030374329213875222 -0.0023188636037559675 0 0.03051185253557899 -0.0020747680630043559 0 0.03032198444614493 -0.0021791123283931599 0 0.030374329213875222 -0.0023188636037559675 0 0.030374329213875222 -0.0023188636037559675 0 0.030317869886252007 -0.0025781748406331806 0 0.030175455024584647 -0.0024478006374205547 0 0.030374329213875222 -0.0023188636037559675 0 0.030496979129568395 -0.0024072668950414649 0 0.030317869886252007 -0.0025781748406331806 0 0.030646860228082842 -0.0023797663811995968 0 0.030623886194024428 -0.0022335577211428058 0 0.030496979129568395 -0.0024072668950414649 0 0.030623886194024428 -0.0022335577211428058 0 0.030374329213875222 -0.0023188636037559675 0 0.030496979129568395 -0.0024072668950414649 0 0.019964665445955557 -0.0010942156382513298 0 0.020016119146475931 -0.0010526676000105857 0 0.020184519432482471 -0.0011262817518319563 0 0.025719455505888843 -0.0017421884049231286 0 0.023570631449906634 -0.0015811102846715827 0 0.030644338401671675 -0.0024790844329231863 0 0.030496979129568395 -0.0024072668950414649 0 0.030317869886252007 -0.0025781748406331806 0 0.022977067051706226 -0.0014749997279097412 0 0.024325815119061428 -0.0012501719189724635 0 0.024598274774590475 -0.0025141724392747596 0 0.023570631449906634 -0.0015811102846715827 0 0.020286445618559294 -0.0013483575217523643 0 0.023570631449906634 -0.0015811102846715827 0 0.027526492128205623 -0.0026216256327467177 0 0.023704930252970161 -0.0021343728866772124 0 0.023488083582613086 -0.0021704803921830823 0 0.023592785371423126 -0.002262257591531053 0 0.020286445618559294 -0.0013483575217523643 0 0.027526492128205623 -0.0026216256327467177 0 0.023488083582613086 -0.0021704803921830823 0 0.023592785371423126 -0.002262257591531053 0 0.023544583955645296 -0.0023464378260662252 0 0.023592785371423126 -0.002262257591531053 0 0.023544583955645296 -0.0023464378260662252 0 0.023631679495560554 -0.0023986936486228307 0 0.028848593431508723 -0.0024838440990223366 0 0.028385209684873208 -0.0020984649731979003 0 0.026129931107147418 -0.0022682919999174904 0 0.026246989016815367 -0.0020386477551370269 0 0.026025578524389588 -0.0022237690850523662 0 0.021980669351218163 -0.0017613083937950632 0 0.026609210676166995 -0.0023588389578217709 0 0.023704930252970161 -0.0021343728866772124 0 0.023592785371423126 -0.002262257591531053 0 0.023631679495560554 -0.0023986936486228307 0 0.026190417480924471 -0.0019984948814924454 0 0.026246989016815367 -0.0020386477551370269 0 0.026025578524389588 -0.0022237690850523662 0 0.030176007020176768 -0.0023169827938355342 0 0.030030209873472338 -0.0025261182708759054 0 0.03004262188998685 -0.0023449628172181646 0 0.028848593431508723 -0.0024838440990223366 0 0.026609210676166995 -0.0023588389578217709 0 0.030103199036847002 -0.0022601247439839951 0 0.030176007020176768 -0.0023169827938355342 0 0.03004262188998685 -0.0023449628172181646 0 0.030111653702230446 -0.0025950752321994108 0 0.028848593431508723 -0.0024838440990223366 0 0.027526492128205623 -0.0026216256327467177 0 0.030247539633246005 -0.0023777164035165459 0 0.030374329213875222 -0.0023188636037559675 0 0.030175455024584647 -0.0024478006374205547 0 0.030153094947119513 -0.0022493328466755996 0 0.030146752792443214 -0.0024730023310538217 0 0.030071247356274214 -0.0024157695523014853 0 0.030153094947119513 -0.0022493328466755996 0 0.029988465042449057 -0.0023654153252698246 0 0.030071247356274214 -0.0024157695523014853 0 0.030153094947119513 -0.0022493328466755996 0 0.027526492128205623 -0.0026216256327467177 0 0.026609210676166995 -0.0023588389578217709 0 0.029363650465354687 -0.001237885193702624 0 0.029397747768353195 -0.0013560694240649842 0 0.029554048756350652 -0.0012464050517463202 0 0.029444864344010096 -0.0011148011879512101 0 0.029363650465354687 -0.001237885193702624 0 0.029554048756350652 -0.0012464050517463202 0 0.030030209873472338 -0.0025261182708759054 0 0.03004262188998685 -0.0023449628172181646 0 0.029918193319326845 -0.0023629281602571312 0 0.029363650465354687 -0.001237885193702624 0 0.029205994920387966 -0.0012057784617636273 0 0.029397747768353195 -0.0013560694240649842 0 0.028385209684873208 -0.0020984649731979003 0 0.029782232036987037 -0.0018962525619141534 0 0.029226012471231293 -0.0011588029253298234 0 0.029363650465354687 -0.001237885193702624 0 0.029205994920387966 -0.0012057784617636273 0 0.028794300873530788 -0.0015290873251787931 0 0.028385209684873208 -0.0020984649731979003 0 0.030103199036847002 -0.0022601247439839951 0 0.03004262188998685 -0.0023449628172181646 0 0.029979995159130128 -0.0022366390545744785 0 0.03004262188998685 -0.0023449628172181646 0 0.029918193319326845 -0.0023629281602571312 0 0.029979995159130128 -0.0022366390545744785 0 0.029782232036987037 -0.0018962525619141534 0 0.029640668503893887 -0.0017895177013088855 0 0.029918193319326845 -0.0023629281602571312 0 0.02977709783498185 -0.0021737437665685865 0 0.029979995159130128 -0.0022366390545744785 0 0.029397747768353195 -0.0013560694240649842 0 0.029554048756350652 -0.0012464050517463202 0 0.029612936110751904 -0.0013607941558019226 0 0.029397747768353195 -0.0013560694240649842 0 0.029569476004660779 -0.0014604873846718184 0 0.029612936110751904 -0.0013607941558019226 0 0.02977709783498185 -0.0021737437665685865 0 0.029963917480314722 -0.0020965733268361979 0 0.029814528092031153 -0.0019991367529173442 0 0.02977709783498185 -0.0021737437665685865 0 0.029963917480314722 -0.0020965733268361979 0 0.029979995159130128 -0.0022366390545744785 0 0.030103199036847002 -0.0022601247439839951 0 0.029979995159130128 -0.0022366390545744785 0 0.03008991823435412 -0.0021327064900693296 0 0.029963917480314722 -0.0020965733268361979 0 0.029979995159130128 -0.0022366390545744785 0 0.03008991823435412 -0.0021327064900693296 0 0.029963917480314722 -0.0020965733268361979 0 0.030137071596610665 -0.0019626107264967474 0 0.029883326254808218 -0.0018184471185172576 0 0.029963917480314722 -0.0020965733268361979 0 0.03008991823435412 -0.0021327064900693296 0 0.030137071596610665 -0.0019626107264967474 0 0.029814528092031153 -0.0019991367529173442 0 0.029883326254808218 -0.0018184471185172576 0 0.02963152950373615 -0.0019678831180149478 0 0.029963917480314722 -0.0020965733268361979 0 0.029814528092031153 -0.0019991367529173442 0 0.029883326254808218 -0.0018184471185172576 0 0.02977709783498185 -0.0021737437665685865 0 0.029814528092031153 -0.0019991367529173442 0 0.02963152950373615 -0.0019678831180149478 0 0.030020881790830893 -0.001726828509528039 0 0.029809634043625684 -0.001765178663417919 0 0.028848593431508723 -0.0024838440990223366 0 0.030553055650214402 -0.0019749199756503096 0 0.029988465042449057 -0.0023654153252698246 0 0.030153094947119513 -0.0022493328466755996 0 0.03025125575418447 -0.0020610019860443115 0 0.030221360761245309 -0.0023403403322540704 0 0.030212969130223838 -0.0021191362018273844 0 0.030425657644081682 -0.0020564356607445256 0 0.03032198444614493 -0.0021791123283931599 0 0.030153094947119513 -0.0022493328466755996 0 0.03025125575418447 -0.0020610019860443115 0 0.030103199036847002 -0.0022601247439839951 0 0.030221360761245309 -0.0023403403322540704 0 0.030212969130223838 -0.0021191362018273844 0 0.030103199036847002 -0.0022601247439839951 0 0.03008991823435412 -0.0021327064900693296 0 0.030212969130223838 -0.0021191362018273844 0 0.030137071596610665 -0.0019626107264967474 0 0.030292106979165317 -0.0019776639243939149 0 0.030354644147328257 -0.0018234981356334342 0 0.030212969130223838 -0.0021191362018273844 0 0.030137071596610665 -0.0019626107264967474 0 0.030292106979165317 -0.0019776639243939149 0 0.03008991823435412 -0.0021327064900693296 0 0.030212969130223838 -0.0021191362018273844 0 0.030137071596610665 -0.0019626107264967474 0 0.030212969130223838 -0.0021191362018273844 0 0.030292106979165317 -0.0019776639243939149 0 0.030425657644081682 -0.0020564356607445256 0 0.030292106979165317 -0.0019776639243939149 0 0.030425657644081682 -0.0020564356607445256 0 0.030354644147328257 -0.0018234981356334342 0 0.030425657644081682 -0.0020564356607445256 0 0.030354644147328257 -0.0018234981356334342 0 0.03061262887401069 -0.0017821997313800097 0 0.030354644147328257 -0.0018234981356334342 0 0.030456273950543834 -0.0015139520293067778 0 0.03061262887401069 -0.0017821997313800097 0 0.030137071596610665 -0.0019626107264967474 0 0.030354644147328257 -0.0018234981356334342 0 0.030152091483321378 -0.0016624758209768636 0 0.030226587458009449 -0.0016173196746030506 0 0.030439060036685103 -0.0015176593042109437 0 0.030288822270957812 -0.0015774523219916213 0 0.030456273950543834 -0.0015139520293067778 0 0.030285594606988833 -0.001454540860943007 0 0.030354644147328257 -0.0018234981356334342 0 0.030152091483321378 -0.0016624758209768636 0 0.030456273950543834 -0.0015139520293067778 0 0.030158508476158984 -0.001617054410361001 0 0.03001351557915111 -0.001691491303658689 0 0.030065891731048438 -0.0016071862005883225 0 0.030158508476158984 -0.001617054410361001 0 0.030065891731048438 -0.0016071862005883225 0 0.030080782210829451 -0.001527539700581011 0 0.030226587458009449 -0.0016173196746030506 0 0.030020881790830893 -0.001726828509528039 0 0.030137071596610665 -0.0019626107264967474 0 0.030152091483321378 -0.0016624758209768636 0 0.029883326254808218 -0.0018184471185172576 0 0.030288822270957812 -0.0015774523219916213 0 0.030184059171964522 -0.0015139025585901818 0 0.030285594606988833 -0.001454540860943007 0 0.030288822270957812 -0.0015774523219916213 0 0.030158508476158984 -0.001617054410361001 0 0.030184059171964522 -0.0015139025585901818 0 0.030184059171964522 -0.0015139025585901818 0 0.030128162675455976 -0.0014777618762102825 0 0.030080782210829451 -0.001527539700581011 0 0.030158508476158984 -0.001617054410361001 0 0.030184059171964522 -0.0015139025585901818 0 0.030080782210829451 -0.001527539700581011 0 0.030184059171964522 -0.0015139025585901818 0 0.030128162675455976 -0.0014777618762102825 0 0.030199177382030557 -0.0014422748074948378 0 0.030184059171964522 -0.0015139025585901818 0 0.030199177382030557 -0.0014422748074948378 0 0.030285594606988833 -0.001454540860943007 0 0.030199177382030557 -0.0014422748074948378 0 0.030270944800372061 -0.0013512065055994195 0 0.030285594606988833 -0.001454540860943007 0 0.030199177382030557 -0.0014422748074948378 0 0.030270944800372061 -0.0013512065055994195 0 0.030150845447102462 -0.0014171792968418651 0 0.030128162675455976 -0.0014777618762102825 0 0.030199177382030557 -0.0014422748074948378 0 0.030150845447102462 -0.0014171792968418651 0 0.030456273950543834 -0.0015139520293067778 0 0.030425516660277242 -0.0013325898351841895 0 0.030800439545544706 -0.0011369248100351393 0 0.030456273950543834 -0.0015139520293067778 0 0.030285594606988833 -0.001454540860943007 0 0.030425516660277242 -0.0013325898351841895 0 0.030270944800372061 -0.0013512065055994195 0 0.030285594606988833 -0.001454540860943007 0 0.030425516660277242 -0.0013325898351841895 0 0.030270944800372061 -0.0013512065055994195 0 0.030425516660277242 -0.0013325898351841895 0 0.030481910516010846 -0.0011903678284857686 0 0.030425516660277242 -0.0013325898351841895 0 0.030800439545544706 -0.0011369248100351393 0 0.030481910516010846 -0.0011903678284857686 0 0.031417954647756305 -0.0012231559703610824 0 0.031349000096587476 -0.0013008966077624584 0 0.030456273950543834 -0.0015139520293067778 0 0.030831313289964836 -0.0014962551595645293 0 0.030800439545544706 -0.0011369248100351393 0 0.030831313289964836 -0.0014962551595645293 0 0.030800439545544706 -0.0011369248100351393 0 0.031483738514658903 -0.0012468921007045611 0 0.030831313289964836 -0.0014962551595645293 0 0.031483738514658903 -0.0012468921007045611 0 0.031011720612062497 -0.0016641585262270233 0 0.031417954647756305 -0.0012231559703610824 0 0.031503378427934728 -0.001250651889669421 0 0.032033449086832477 -0.0012768941454707051 0 0.031483738514658903 -0.0012468921007045611 0 0.031872551512039292 -0.0013382189759548117 0 0.031660223762578148 -0.0012555892920923673 0 0.031483738514658903 -0.0012468921007045611 0 0.031872551512039292 -0.0013382189759548117 0 0.031660223762578148 -0.0012555892920923673 0 0.031483738514658903 -0.0012468921007045611 0 0.031535937133230864 -0.0014286489950424083 0 0.031483738514658903 -0.0012468921007045611 0 0.031298588017809707 -0.0015594849232584192 0 0.031535937133230864 -0.0014286489950424083 0 0.031011720612062497 -0.0016641585262270233 0 0.031298588017809707 -0.0015594849232584192 0 0.031119914786870165 -0.0017932015930444088 0 0.031483738514658903 -0.0012468921007045611 0 0.031011720612062497 -0.0016641585262270233 0 0.031298588017809707 -0.0015594849232584192 0 0.031298588017809707 -0.0015594849232584192 0 0.031324012553572395 -0.0016888217190520385 0 0.031535937133230864 -0.0014286489950424083 0 0.031298588017809707 -0.0015594849232584192 0 0.031324012553572395 -0.0016888217190520385 0 0.031119914786870165 -0.0017932015930444088 0 0.031230764909857805 -0.0018689845342385008 0 0.031324012553572395 -0.0016888217190520385 0 0.031119914786870165 -0.0017932015930444088 0 0.030774351725312756 -0.001961030470542087 0 0.031011720612062497 -0.0016641585262270233 0 0.031119914786870165 -0.0017932015930444088 0 0.030774351725312756 -0.001961030470542087 0 0.031011720612062497 -0.0016641585262270233 0 0.03061262887401069 -0.0017821997313800097 0 0.030456273950543834 -0.0015139520293067778 0 0.030831313289964836 -0.0014962551595645293 0 0.03061262887401069 -0.0017821997313800097 0 0.030831313289964836 -0.0014962551595645293 0 0.031011720612062497 -0.0016641585262270233 0 0.03061262887401069 -0.0017821997313800097 0 0.030108388324750636 -0.00141214599715249 0 0.030095693781662113 -0.0014535745319041048 0 0.030248748348404419 -0.0014274331339643464 0 0.030108388324750636 -0.00141214599715249 0 0.030095693781662113 -0.0014535745319041048 0 0.030019220735535077 -0.0013704673795061342 0 0.030086360106899659 -0.001421853525176297 0 0.030095693781662113 -0.0014535745319041048 0 0.0300463673557184 -0.0013594857998719691 0 0.030095693781662113 -0.0014535745319041048 0 0.0300463673557184 -0.0013594857998719691 0 0.030019220735535077 -0.0013704673795061342 0 0.030086397982901115 -0.0012453975644146971 0 0.0300463673557184 -0.0013594857998719691 0 0.02996448639386412 -0.0012750917051771611 0 0.030086360106899659 -0.001421853525176297 0 0.030086397982901115 -0.0012453975644146971 0 0.0300463673557184 -0.0013594857998719691 0 0.0300463673557184 -0.0013594857998719691 0 0.02996448639386412 -0.0012750917051771611 0 0.030019220735535077 -0.0013704673795061342 0 0.02996448639386412 -0.0012750917051771611 0 0.030019220735535077 -0.0013704673795061342 0 0.02992084421904366 -0.001298895321680475 0 0.030019220735535077 -0.0013704673795061342 0 0.02992084421904366 -0.001298895321680475 0 0.029983163896620511 -0.0013640981688663218 0 0.02985980633825467 -0.0012092730106670387 0 0.02996448639386412 -0.0012750917051771611 0 0.02992084421904366 -0.001298895321680475 0 0.029811254158345478 -0.0012261372038690386 0 0.02985980633825467 -0.0012092730106670387 0 0.02992084421904366 -0.001298895321680475 0 0.03005189601918317 -0.0013088989390946696 0 0.029849545423766673 -0.0012691811037835951 0 0.029811254158345478 -0.0012261372038690386 0 0.02992084421904366 -0.001298895321680475 0 0.029885518982549753 -0.0013026265142021154 0 0.029885518982549753 -0.0013026265142021154 0 0.029983163896620511 -0.0013640981688663218 0 0.029897815986690078 -0.0013594425162279007 0 0.02992084421904366 -0.001298895321680475 0 0.029885518982549753 -0.0013026265142021154 0 0.029983163896620511 -0.0013640981688663218 0 0.029983163896620511 -0.0013640981688663218 0 0.030006919442055174 -0.0014173101338039891 0 0.029897815986690078 -0.0013594425162279007 0 0.030108388324750636 -0.00141214599715249 0 0.030019220735535077 -0.0013704673795061342 0 0.029983163896620511 -0.0013640981688663218 0 0.030108388324750636 -0.00141214599715249 0 0.029983163896620511 -0.0013640981688663218 0 0.030006919442055174 -0.0014173101338039891 0 0.030054600585163085 -0.0014953430180522642 0 0.029970093016285067 -0.0014956747738070271 0 0.030036724632514895 -0.0015190874954110487 0 0.030030710066605112 -0.001452388434016026 0 0.029941632882036572 -0.0013897233373995129 0 0.030054600585163085 -0.0014953430180522642 0 0.029970093016285067 -0.0014956747738070271 0 0.029988992915151415 -0.0014242488403228366 0 0.029921394825371185 -0.0015220354995781542 0 0.029970093016285067 -0.0014956747738070271 0 0.029973607403811175 -0.0015352101713181237 0 0.029921394825371185 -0.0015220354995781542 0 0.029905836042718573 -0.0014748814426762615 0 0.029844590555098947 -0.0014797145189182142 0 0.029921394825371185 -0.0015220354995781542 0 0.029970093016285067 -0.0014956747738070271 0 0.029905836042718573 -0.0014748814426762615 0 0.029970093016285067 -0.0014956747738070271 0 0.029925647338439013 -0.001443060757330025 0 0.029905836042718573 -0.0014748814426762615 0 0.029925647338439013 -0.001443060757330025 0 0.029988992915151415 -0.0014242488403228366 0 0.029842251971132255 -0.001381357098128973 0 0.029925647338439013 -0.001443060757330025 0 0.029905836042718573 -0.0014748814426762615 0 0.029842251971132255 -0.001381357098128973 0 0.029905836042718573 -0.0014748814426762615 0 0.029842251971132255 -0.001381357098128973 0 0.029844590555098947 -0.0014797145189182142 0 0.029970093016285067 -0.0014956747738070271 0 0.029925647338439013 -0.001443060757330025 0 0.029988992915151415 -0.0014242488403228366 0 0.029885518982549753 -0.0013026265142021154 0 0.029897815986690078 -0.0013594425162279007 0 0.029844490580708767 -0.0012911005674035338 0 0.029941632882036572 -0.0013897233373995129 0 0.029859509539853644 -0.0012991282457515167 0 0.029838483501129519 -0.0012279111821098302 0 0.029805030567054414 -0.001224998132190459 0 0.029885518982549753 -0.0013026265142021154 0 0.029805030567054414 -0.001224998132190459 0 0.029885518982549753 -0.0013026265142021154 0 0.029844490580708767 -0.0012911005674035338 0 0.029805030567054414 -0.001224998132190459 0 0.029844490580708767 -0.0012911005674035338 0 0.029760368433413027 -0.0012207954041465127 0 0.029844490580708767 -0.0012911005674035338 0 0.029760368433413027 -0.0012207954041465127 0 0.029725069512151599 -0.0012925311700459307 0 0.029988992915151415 -0.0014242488403228366 0 0.029844490580708767 -0.0012911005674035338 0 0.029842251971132255 -0.001381357098128973 0 0.029844490580708767 -0.0012911005674035338 0 0.029842251971132255 -0.001381357098128973 0 0.029725069512151599 -0.0012925311700459307 0 0.029842251971132255 -0.001381357098128973 0 0.029725069512151599 -0.0012925311700459307 0 0.029747507710815229 -0.0014227074768155118 0 0.02964543722226242 -0.001136075253923102 0 0.029760368433413027 -0.0012207954041465127 0 0.029725069512151599 -0.0012925311700459307 0 0.029725069512151599 -0.0012925311700459307 0 0.029554048756350652 -0.0012464050517463202 0 0.029612936110751904 -0.0013607941558019226 0 0.02964543722226242 -0.001136075253923102 0 0.029725069512151599 -0.0012925311700459307 0 0.029554048756350652 -0.0012464050517463202 0 0.029725069512151599 -0.0012925311700459307 0 0.029612936110751904 -0.0013607941558019226 0 0.029747507710815229 -0.0014227074768155118 0 0.029640668503893887 -0.0017895177013088855 0 0.029809634043625684 -0.001765178663417919 0 0.029569476004660779 -0.0014604873846718184 0 0.029612936110751904 -0.0013607941558019226 0 0.029747507710815229 -0.0014227074768155118 0 0.029569476004660779 -0.0014604873846718184 0 0.029747507710815229 -0.0014227074768155118 0 0.029739290138640191 -0.0015071613312659425 0 0.029747507710815229 -0.0014227074768155118 0 0.029789298176012242 -0.0014834434580487791 0 0.029739290138640191 -0.0015071613312659425 0 0.029842251971132255 -0.001381357098128973 0 0.029747507710815229 -0.0014227074768155118 0 0.029844590555098947 -0.0014797145189182142 0 0.029747507710815229 -0.0014227074768155118 0 0.029844590555098947 -0.0014797145189182142 0 0.029789298176012242 -0.0014834434580487791 0 0.029844590555098947 -0.0014797145189182142 0 0.029789298176012242 -0.0014834434580487791 0 0.029820140079929888 -0.0015167485444105577 0 0.029844590555098947 -0.0014797145189182142 0 0.029820140079929888 -0.0015167485444105577 0 0.029873825852010715 -0.0015290505321799064 0 0.029921394825371185 -0.0015220354995781542 0 0.029844590555098947 -0.0014797145189182142 0 0.029873825852010715 -0.0015290505321799064 0 0.029921394825371185 -0.0015220354995781542 0 0.029873825852010715 -0.0015290505321799064 0 0.029932288266104855 -0.0015582240206456096 0 0.029864557458451076 -0.0015587510667685156 0 0.029873825852010715 -0.0015290505321799064 0 0.029932288266104855 -0.0015582240206456096 0 0.029820140079929888 -0.0015167485444105577 0 0.029864557458451076 -0.0015587510667685156 0 0.029873825852010715 -0.0015290505321799064 0 0.03001351557915111 -0.001691491303658689 0 0.030005833133452044 -0.0016119293098056057 0 0.029930712143462261 -0.0015930175204719153 0 0.029820140079929888 -0.0015167485444105577 0 0.029864557458451076 -0.0015587510667685156 0 0.029753211939739045 -0.0015537917602525349 0 0.029809634043625684 -0.001765178663417919 0 0.029861244344247889 -0.0016027818886753045 0 0.029864557458451076 -0.0015587510667685156 0 0.029753211939739045 -0.0015537917602525349 0 0.029930712143462261 -0.0015930175204719153 0 0.029569476004660779 -0.0014604873846718184 0 0.029753211939739045 -0.0015537917602525349 0 0.029739290138640191 -0.0015071613312659425 0 0.029820140079929888 -0.0015167485444105577 0 0.029753211939739045 -0.0015537917602525349 0 0.029739290138640191 -0.0015071613312659425 0 0.029789298176012242 -0.0014834434580487791 0 0.029820140079929888 -0.0015167485444105577 0 0.029739290138640191 -0.0015071613312659425 0 0.030004508838871451 -0.0015601192384506028 0 0.030065891731048438 -0.0016071862005883225 0 0.030080782210829451 -0.001527539700581011 0 0.03001351557915111 -0.001691491303658689 0 0.030065891731048438 -0.0016071862005883225 0 0.030005833133452044 -0.0016119293098056057 0 0.030004508838871451 -0.0015601192384506028 0 0.030005833133452044 -0.0016119293098056057 0 0.029930712143462261 -0.0015930175204719153 0 0.030004508838871451 -0.0015601192384506028 0 0.030065891731048438 -0.0016071862005883225 0 0.030005833133452044 -0.0016119293098056057 0 0.029864557458451076 -0.0015587510667685156 0 0.029930712143462261 -0.0015930175204719153 0 0.029932288266104855 -0.0015582240206456096 0 0.029930712143462261 -0.0015930175204719153 0 0.029932288266104855 -0.0015582240206456096 0 0.029980550952662166 -0.0015474504045971432 0 0.029932288266104855 -0.0015582240206456096 0 0.029980550952662166 -0.0015474504045971432 0 0.029973607403811175 -0.0015352101713181237 0 0.030004508838871451 -0.0015601192384506028 0 0.029930712143462261 -0.0015930175204719153 0 0.029980550952662166 -0.0015474504045971432 0 0.030004508838871451 -0.0015601192384506028 0 0.029980550952662166 -0.0015474504045971432 0 0.030032117426999731 -0.0015242211348091468 0 0.029980550952662166 -0.0015474504045971432 0 0.030032117426999731 -0.0015242211348091468 0 0.03003760206258984 -0.0015251992637677564 0 0.030004508838871451 -0.0015601192384506028 0 0.030032117426999731 -0.0015242211348091468 0 0.030080782210829451 -0.001527539700581011 0 0.030128162675455976 -0.0014777618762102825 0 0.030080782210829451 -0.001527539700581011 0 0.030084129719898316 -0.0014829161082784725 0 0.030032117426999731 -0.0015242211348091468 0 0.030080782210829451 -0.001527539700581011 0 0.030084129719898316 -0.0014829161082784725 0 0.030150845447102462 -0.0014171792968418651 0 0.030084129719898316 -0.0014829161082784725 0 0.030131866849431022 -0.0014402641366000769 0 0.030128162675455976 -0.0014777618762102825 0 0.030150845447102462 -0.0014171792968418651 0 0.030084129719898316 -0.0014829161082784725 0 0.030084129719898316 -0.0014829161082784725 0 0.030080892367472814 -0.0015049044822394674 0 0.030113545207947522 -0.0014878333507058604 0 0.030084129719898316 -0.0014829161082784725 0 0.030113545207947522 -0.0014878333507058604 0 0.030131866849431022 -0.0014402641366000769 0 0.030032117426999731 -0.0015242211348091468 0 0.030084129719898316 -0.0014829161082784725 0 0.03003760206258984 -0.0015251992637677564 0 0.030084129719898316 -0.0014829161082784725 0 0.030080892367472814 -0.0015049044822394674 0 0.03003760206258984 -0.0015251992637677564 0 0.03003760206258984 -0.0015251992637677564 0 0.030076502133644465 -0.0015318064442389849 0 0.030077706655938802 -0.0015239109396778111 0 0.030080892367472814 -0.0015049044822394674 0 0.03003760206258984 -0.0015251992637677564 0 0.030076502133644465 -0.0015318064442389849 0 0.030080892367472814 -0.0015049044822394674 0 0.030107620871760544 -0.0015399081649764834 0 0.030113545207947522 -0.0014878333507058604 0 0.030080892367472814 -0.0015049044822394674 0 0.030076502133644465 -0.0015318064442389849 0 0.030107620871760544 -0.0015399081649764834 0 0.030076502133644465 -0.0015318064442389849 0 0.030107620871760544 -0.0015399081649764834 0 0.030107205508170712 -0.0015481681440995129 0 0.030107620871760544 -0.0015399081649764834 0 0.030107205508170712 -0.0015481681440995129 0 0.030166038661610071 -0.0016035020277850259 0 0.030076502133644465 -0.0015318064442389849 0 0.030107205508170712 -0.0015481681440995129 0 0.030077706655938802 -0.0015239109396778111 0 0.030077706655938802 -0.0015239109396778111 0 0.03002253468924106 -0.0015314519829123362 0 0.030036724632514895 -0.0015190874954110487 0 0.03003760206258984 -0.0015251992637677564 0 0.030077706655938802 -0.0015239109396778111 0 0.03002253468924106 -0.0015314519829123362 0 0.029980550952662166 -0.0015474504045971432 0 0.03003760206258984 -0.0015251992637677564 0 0.03002253468924106 -0.0015314519829123362 0 0.029970093016285067 -0.0014956747738070271 0 0.029973607403811175 -0.0015352101713181237 0 0.030036724632514895 -0.0015190874954110487 0 0.03002253468924106 -0.0015314519829123362 0 0.029973607403811175 -0.0015352101713181237 0 0.030036724632514895 -0.0015190874954110487 0 0.029980550952662166 -0.0015474504045971432 0 0.03002253468924106 -0.0015314519829123362 0 0.029973607403811175 -0.0015352101713181237 0 0.029921394825371185 -0.0015220354995781542 0 0.029932288266104855 -0.0015582240206456096 0 0.029973607403811175 -0.0015352101713181237 0 0.030030710066605112 -0.001452388434016026 0 0.030121447414720847 -0.0014833021522697944 0 0.030054600585163085 -0.0014953430180522642 0 0.030036724632514895 -0.0015190874954110487 0 0.030120115461991073 -0.0015069386732399859 0 0.030006919442055174 -0.0014173101338039891 0 0.030117658240066958 -0.001457905379323218 0 0.03019826232009605 -0.0014221736773815585 0 0.030108388324750636 -0.00141214599715249 0 0.030006919442055174 -0.0014173101338039891 0 0.03019826232009605 -0.0014221736773815585 0 0.030121447414720847 -0.0014833021522697944 0 0.030204479587994815 -0.0015284551406306412 0 0.030117658240066958 -0.001457905379323218 0 0.030220976642746932 -0.0015261221053791034 0 0.03019826232009605 -0.0014221736773815585 0 0.030077706655938802 -0.0015239109396778111 0 0.030120115461991073 -0.0015069386732399859 0 0.030220976642746932 -0.0015261221053791034 0 0.030077706655938802 -0.0015239109396778111 0 0.030036724632514895 -0.0015190874954110487 0 0.030120115461991073 -0.0015069386732399859 0 0.030107205508170712 -0.0015481681440995129 0 0.030077706655938802 -0.0015239109396778111 0 0.030220976642746932 -0.0015261221053791034 0 0.030107205508170712 -0.0015481681440995129 0 0.030166038661610071 -0.0016035020277850259 0 0.030220976642746932 -0.0015261221053791034 0 0.030166038661610071 -0.0016035020277850259 0 0.030220976642746932 -0.0015261221053791034 0 0.030365721847710268 -0.001750424632267265 0 0.031096520477649513 -0.001659769579949788 0 0.031600146236713103 -0.0015941820790508997 0 0.030220976642746932 -0.0015261221053791034 0 0.030447078090383342 -0.0014630618748382839 0 0.030365721847710268 -0.001750424632267265 0 0.030447078090383342 -0.0014630618748382839 0 0.030991057612248907 -0.001652771080093509 0 0.030365721847710268 -0.001750424632267265 0 0.030467481593718426 -0.0014686620757729592 0 0.030447078090383342 -0.0014630618748382839 0 0.030991057612248907 -0.001652771080093509 0 0.030154351926636205 -0.0014470944965194574 0 0.030467481593718426 -0.0014686620757729592 0 0.030248748348404419 -0.0014274331339643464 0 0.030467481593718426 -0.0014686620757729592 0 0.030447078090383342 -0.0014630618748382839 0 0.030248748348404419 -0.0014274331339643464 0 0.030220976642746932 -0.0015261221053791034 0 0.030447078090383342 -0.0014630618748382839 0 0.03019826232009605 -0.0014221736773815585 0 0.030447078090383342 -0.0014630618748382839 0 0.03019826232009605 -0.0014221736773815585 0 0.030248748348404419 -0.0014274331339643464 0 0.030108388324750636 -0.00141214599715249 0 0.03019826232009605 -0.0014221736773815585 0 0.030248748348404419 -0.0014274331339643464 0 0.030154351926636205 -0.0014470944965194574 0 0.030095693781662113 -0.0014535745319041048 0 0.030248748348404419 -0.0014274331339643464 0 0.031967354088773561 0.00047004898746920171 0 0.033684513572763662 2.349976102233048e-05 0 0.032727196315398478 -0.00045066780916143016 0 0.031967354088773561 0.00047004898746920171 0 0.033684513572763662 2.349976102233048e-05 0 0.033850088596462685 0.00044836793581788989 0 0.033684513572763662 2.349976102233048e-05 0 0.032727196315398478 -0.00045066780916143016 0 0.033621028467996222 -0.00053622958856071031 0 0.031720750264490949 -0.00041520441050517658 0 0.031967354088773561 0.00047004898746920171 0 0.032727196315398478 -0.00045066780916143016 0 0.031720750264490949 -0.00041520441050517658 0 0.032727196315398478 -0.00045066780916143016 0 0.031742061049128543 -0.0010268100814071039 0 0.030991057612248907 -0.001652771080093509 0 0.031742061049128543 -0.0010268100814071039 0 0.032829184430158066 -0.0015176798131057109 0 0.032727196315398478 -0.00045066780916143016 0 0.032829184430158066 -0.0015176798131057109 0 0.033621028467996222 -0.00053622958856071031 0 0.032727196315398478 -0.00045066780916143016 0 0.031742061049128543 -0.0010268100814071039 0 0.032829184430158066 -0.0015176798131057109 0 0.032829184430158066 -0.0015176798131057109 0 0.033621028467996222 -0.00053622958856071031 0 0.034036175816979743 -0.0010034975888644493 0 0.031600146236713103 -0.0015941820790508997 0 0.032138437233191354 -0.0012987166647569742 0 0.030166038661610071 -0.0016035020277850259 0 0.030365721847710268 -0.001750424632267265 0 0.030184260664179379 -0.0016378454472491932 0 0.030166038661610071 -0.0016035020277850259 0 0.030184260664179379 -0.0016378454472491932 0 0.030143618943959491 -0.0015737956292609079 0 0.032138437233191354 -0.0012987166647569742 0 0.03225391409420765 -0.0011106122707871685 0 0.034036175816979743 -0.0010034975888644493 0 0.034151280807274718 -0.000166359993428675 0 0.034631993470385022 -0.00054098120476497164 0 0.033621028467996222 -0.00053622958856071031 0 0.034036175816979743 -0.0010034975888644493 0 0.034151280807274718 -0.000166359993428675 0 0.033684513572763662 2.349976102233048e-05 0 0.033621028467996222 -0.00053622958856071031 0 0.034151280807274718 -0.000166359993428675 0 0.033684513572763662 2.349976102233048e-05 0 0.034151280807274718 -0.000166359993428675 0 0.034284855239089786 0.00023683798672127172 0 0.034151280807274718 -0.000166359993428675 0 0.034437104917756076 4.2806645650811715e-05 0 0.034284855239089786 0.00023683798672127172 0 0.034151280807274718 -0.000166359993428675 0 0.034437104917756076 4.2806645650811715e-05 0 0.034606555611097552 -0.00015939837601524465 0 0.034437104917756076 4.2806645650811715e-05 0 0.034606555611097552 -0.00015939837601524465 0 0.034656077715525375 1.0315369400101132e-05 0 0.034606555611097552 -0.00015939837601524465 0 0.034766959378308801 -7.3701251211705075e-05 0 0.034656077715525375 1.0315369400101132e-05 0 0.034606555611097552 -0.00015939837601524465 0 0.034766959378308801 -7.3701251211705075e-05 0 0.034821491664813436 -0.00017172816933922361 0 0.034766959378308801 -7.3701251211705075e-05 0 0.034824946068719158 -5.1195603645543423e-05 0 0.034771026788155884 9.4706288817961217e-06 0 0.034766959378308801 -7.3701251211705075e-05 0 0.03483709384305772 -0.00010699187215470901 0 0.034824946068719158 -5.1195603645543423e-05 0 0.034766959378308801 -7.3701251211705075e-05 0 0.034821491664813436 -0.00017172816933922361 0 0.03483709384305772 -0.00010699187215470901 0 0.034821491664813436 -0.00017172816933922361 0 0.034833633010124966 -0.00014280201248827049 0 0.03483709384305772 -0.00010699187215470901 0 0.03225391409420765 -0.0011106122707871685 0 0.03314575161786748 -0.00051630197771292672 0 0.034821491664813436 -0.00017172816933922361 0 0.034631993470385022 -0.00054098120476497164 0 0.034927754810941111 -0.00021905360733770081 0 0.030146799784115236 -0.0015207699279072668 0 0.03015297644045772 -0.0014940641171124879 0 0.030175019795263519 -0.0014634508386308991 0 0.034522515303746587 -0.00065237734375380265 0 0.03314575161786748 -0.00051630197771292672 0 0.034606555611097552 -0.00015939837601524465 0 0.034821491664813436 -0.00017172816933922361 0 0.034631993470385022 -0.00054098120476497164 0 0.034151280807274718 -0.000166359993428675 0 0.034606555611097552 -0.00015939837601524465 0 0.034631993470385022 -0.00054098120476497164 0 0.030184260664179379 -0.0016378454472491932 0 0.030146799784115236 -0.0015207699279072668 0 0.030143618943959491 -0.0015737956292609079 0 0.030146799784115236 -0.0015207699279072668 0 0.030143618943959491 -0.0015737956292609079 0 0.030136671632512699 -0.0015267294971840028 0 0.030107620871760544 -0.0015399081649764834 0 0.030166038661610071 -0.0016035020277850259 0 0.030143618943959491 -0.0015737956292609079 0 0.030107620871760544 -0.0015399081649764834 0 0.030143618943959491 -0.0015737956292609079 0 0.030136671632512699 -0.0015267294971840028 0 0.030136671632512699 -0.0015267294971840028 0 0.030142542753269445 -0.0014890252358716156 0 0.030113545207947522 -0.0014878333507058604 0 0.030107620871760544 -0.0015399081649764834 0 0.030136671632512699 -0.0015267294971840028 0 0.030113545207947522 -0.0014878333507058604 0 0.030146799784115236 -0.0015207699279072668 0 0.030136671632512699 -0.0015267294971840028 0 0.03015297644045772 -0.0014940641171124879 0 0.030136671632512699 -0.0015267294971840028 0 0.03015297644045772 -0.0014940641171124879 0 0.030142542753269445 -0.0014890252358716156 0 0.03015297644045772 -0.0014940641171124879 0 0.030160878783051515 -0.0014694499538230449 0 0.030142542753269445 -0.0014890252358716156 0 0.030160878783051515 -0.0014694499538230449 0 0.030142542753269445 -0.0014890252358716156 0 0.030141959181142791 -0.0014621408804154988 0 0.030141959181142791 -0.0014621408804154988 0 0.030113545207947522 -0.0014878333507058604 0 0.030131866849431022 -0.0014402641366000769 0 0.030142542753269445 -0.0014890252358716156 0 0.030141959181142791 -0.0014621408804154988 0 0.030113545207947522 -0.0014878333507058604 0 0.030131866849431022 -0.0014402641366000769 0 0.030160369122529618 -0.0014309240351039255 0 0.030156899926655854 -0.0014013665934064835 0 0.030141959181142791 -0.0014621408804154988 0 0.030131866849431022 -0.0014402641366000769 0 0.030160369122529618 -0.0014309240351039255 0 0.030150845447102462 -0.0014171792968418651 0 0.030131866849431022 -0.0014402641366000769 0 0.030156899926655854 -0.0014013665934064835 0 0.030160878783051515 -0.0014694499538230449 0 0.030160369122529618 -0.0014309240351039255 0 0.030173278651390554 -0.0014534887282839708 0 0.030160878783051515 -0.0014694499538230449 0 0.030141959181142791 -0.0014621408804154988 0 0.030160369122529618 -0.0014309240351039255 0 0.030160369122529618 -0.0014309240351039255 0 0.030173278651390554 -0.0014534887282839708 0 0.03016814153366314 -0.0014136918374278308 0 0.034845090674316542 -8.9524476493908138e-05 0 0.03483594449390412 -8.8676278564022194e-05 0 0.034800646777743298 -8.7572346200001536e-05 0 0.034845090674316542 -8.9524476493908138e-05 0 0.03483594449390412 -8.8676278564022194e-05 0 0.034845236423251068 -9.3247989484814895e-05 0 0.03015297644045772 -0.0014940641171124879 0 0.030160878783051515 -0.0014694499538230449 0 0.030175019795263519 -0.0014634508386308991 0 0.030160878783051515 -0.0014694499538230449 0 0.030173278651390554 -0.0014534887282839708 0 0.030175019795263519 -0.0014634508386308991 0 0.03483594449390412 -8.8676278564022194e-05 0 0.034831540639905942 -9.7874086865952655e-05 0 0.034845236423251068 -9.3247989484814895e-05 0 0.032502690760545384 -0.00077798054777837643 0 0.03314575161786748 -0.00051630197771292672 0 0.03314575161786748 -0.00051630197771292672 0 0.034941178701837876 0.00015357386725295725 0 0.034845236423251068 -9.3247989484814895e-05 0 0.03483709384305772 -0.00010699187215470901 0 0.034851527612232487 -6.8248656027290679e-05 0 0.034845236423251068 -9.3247989484814895e-05 0 0.034851527612232487 -6.8248656027290679e-05 0 0.034857240480589892 -7.3225151796715122e-05 0 0.034833633010124966 -0.00014280201248827049 0 0.034845236423251068 -9.3247989484814895e-05 0 0.03483709384305772 -0.00010699187215470901 0 0.034824946068719158 -5.1195603645543423e-05 0 0.034851527612232487 -6.8248656027290679e-05 0 0.034849109302536735 -1.740590441678763e-05 0 0.03483709384305772 -0.00010699187215470901 0 0.034824946068719158 -5.1195603645543423e-05 0 0.034851527612232487 -6.8248656027290679e-05 0 0.034851527612232487 -6.8248656027290679e-05 0 0.034857240480589892 -7.3225151796715122e-05 0 0.034864477326093463 -3.7984518375820283e-05 0 0.03487039921329068 -4.9657463321236116e-05 0 0.034891537173739662 -2.2718151642876673e-05 0 0.034848349849101408 -8.9484146975332918e-05 0 0.03487039921329068 -4.9657463321236116e-05 0 0.034857240480589892 -7.3225151796715122e-05 0 0.034864477326093463 -3.7984518375820283e-05 0 0.03487039921329068 -4.9657463321236116e-05 0 0.034857240480589892 -7.3225151796715122e-05 0 0.034848349849101408 -8.9484146975332918e-05 0 0.034845090674316542 -8.9524476493908138e-05 0 0.034857240480589892 -7.3225151796715122e-05 0 0.034848349849101408 -8.9484146975332918e-05 0 0.034845090674316542 -8.9524476493908138e-05 0 0.034845236423251068 -9.3247989484814895e-05 0 0.034857240480589892 -7.3225151796715122e-05 0 0.034877559585442475 -1.4654048726529063e-05 0 0.034864477326093463 -3.7984518375820283e-05 0 0.034869315391475982 1.2312786346015536e-05 0 0.034877559585442475 -1.4654048726529063e-05 0 0.034869315391475982 1.2312786346015536e-05 0 0.034885429085646465 1.3051254474844016e-05 0 0.034877559585442475 -1.4654048726529063e-05 0 0.034891537173739662 -2.2718151642876673e-05 0 0.034885429085646465 1.3051254474844016e-05 0 0.03487039921329068 -4.9657463321236116e-05 0 0.034877559585442475 -1.4654048726529063e-05 0 0.034891537173739662 -2.2718151642876673e-05 0 0.03487039921329068 -4.9657463321236116e-05 0 0.034877559585442475 -1.4654048726529063e-05 0 0.034864477326093463 -3.7984518375820283e-05 0 0.034851527612232487 -6.8248656027290679e-05 0 0.034864477326093463 -3.7984518375820283e-05 0 0.034849109302536735 -1.740590441678763e-05 0 0.034824946068719158 -5.1195603645543423e-05 0 0.034849109302536735 -1.740590441678763e-05 0 0.034824572645306626 5.1499282211975563e-06 0 0.034849109302536735 -1.740590441678763e-05 0 0.03484698392485399 2.2441409617797747e-05 0 0.034824572645306626 5.1499282211975563e-06 0 0.03484698392485399 2.2441409617797747e-05 0 0.034824572645306626 5.1499282211975563e-06 0 0.034817971053212347 4.9390858757995216e-05 0 0.034849109302536735 -1.740590441678763e-05 0 0.03484698392485399 2.2441409617797747e-05 0 0.034869315391475982 1.2312786346015536e-05 0 0.034864477326093463 -3.7984518375820283e-05 0 0.034849109302536735 -1.740590441678763e-05 0 0.034869315391475982 1.2312786346015536e-05 0 0.034869315391475982 1.2312786346015536e-05 0 0.034896119693031837 3.9335624201906609e-05 0 0.034885429085646465 1.3051254474844016e-05 0 0.034869315391475982 1.2312786346015536e-05 0 0.034862771297107721 4.435031164312009e-05 0 0.034896119693031837 3.9335624201906609e-05 0 0.03484698392485399 2.2441409617797747e-05 0 0.034862771297107721 4.435031164312009e-05 0 0.034817971053212347 4.9390858757995216e-05 0 0.03484698392485399 2.2441409617797747e-05 0 0.034869315391475982 1.2312786346015536e-05 0 0.034862771297107721 4.435031164312009e-05 0 0.034862771297107721 4.435031164312009e-05 0 0.034891008417763429 5.0350774133428399e-05 0 0.034835535613948823 7.7280946491353289e-05 0 0.034862771297107721 4.435031164312009e-05 0 0.034896119693031837 3.9335624201906609e-05 0 0.034891008417763429 5.0350774133428399e-05 0 0.031880915582888421 -0.0011529510758694198 0 0.031882372142287028 -0.0010359711307502989 0 0.031912226937877333 -0.0010867359959517001 0 0.033301870642742898 -0.00057073855283891657 0 0.034115667644036014 -0.00045885473090411677 0 0.034891537173739662 -2.2718151642876673e-05 0 0.034885429085646465 1.3051254474844016e-05 0 0.034897761106568004 3.9430747069024881e-05 0 0.034993867541247163 -8.1570724457219387e-05 0 0.034115667644036014 -0.00045885473090411677 0 0.034896119693031837 3.9335624201906609e-05 0 0.034885429085646465 1.3051254474844016e-05 0 0.034897761106568004 3.9430747069024881e-05 0 0.034956089809833328 -1.3508619725706228e-06 0 0.034966530535159246 7.7410717164478989e-06 0 0.034952169093630456 6.0755088878684928e-06 0 0.034906647216629248 3.751050139864523e-05 0 0.034954900439040329 1.927550643853787e-05 0 0.034917990817576364 3.8026719652605274e-05 0 0.034115667644036014 -0.00045885473090411677 0 0.034912082813295851 0.00010230358549888291 0 0.034956089809833328 -1.3508619725706228e-06 0 0.034966530535159246 7.7410717164478989e-06 0 0.034954900439040329 1.927550643853787e-05 0 0.034115667644036014 -0.00045885473090411677 0 0.033436613119241253 -0.0004569564093380988 0 0.034896119693031837 3.9335624201906609e-05 0 0.034906647216629248 3.751050139864523e-05 0 0.034917990817576364 3.8026719652605274e-05 0 0.034966530535159246 7.7410717164478989e-06 0 0.034954900439040329 1.927550643853787e-05 0 0.034999922211620953 2.2738029652750695e-08 0 0.034954900439040329 1.927550643853787e-05 0 0.034999895010950077 4.069268525129405e-08 0 0.034999922211620953 2.2738029652750695e-08 0 0.034999895010950077 4.069268525129405e-08 0 0.034919851212100485 4.5841485410343638e-05 0 0.034917639393364078 5.365865269617681e-05 0 0.034954900439040329 1.927550643853787e-05 0 0.034999895010950077 4.069268525129405e-08 0 0.034919851212100485 4.5841485410343638e-05 0 0.034954900439040329 1.927550643853787e-05 0 0.034919851212100485 4.5841485410343638e-05 0 0.034917990817576364 3.8026719652605274e-05 0 0.034896119693031837 3.9335624201906609e-05 0 0.034917990817576364 3.8026719652605274e-05 0 0.034891008417763429 5.0350774133428399e-05 0 0.034919851212100485 4.5841485410343638e-05 0 0.034891008417763429 5.0350774133428399e-05 0 0.034835535613948823 7.7280946491353289e-05 0 0.034919851212100485 4.5841485410343638e-05 0 0.034917990817576364 3.8026719652605274e-05 0 0.034891008417763429 5.0350774133428399e-05 0 0.034917639393364078 5.365865269617681e-05 0 0.034822486173403631 9.3442414572163305e-05 0 0.034835535613948823 7.7280946491353289e-05 0 0.034919851212100485 4.5841485410343638e-05 0 0.034917639393364078 5.365865269617681e-05 0 0.034835535613948823 7.7280946491353289e-05 0 0.034999895010950077 4.069268525129405e-08 0 0.034917639393364078 5.365865269617681e-05 0 0.034999822121640815 5.0253962730411865e-08 0 0.034917639393364078 5.365865269617681e-05 0 0.034999822121640815 5.0253962730411865e-08 0 0.034822486173403631 9.3442414572163305e-05 0 0.034999822121640815 5.0253962730411865e-08 0 0.034822486173403631 9.3442414572163305e-05 0 0.03499966648725425 1.423817558035125e-07 0 0.034822486173403631 9.3442414572163305e-05 0 0.034652245428707491 0.00013204023886788371 0 0.034658576839821653 0.00013508041954920141 0 0.034652245428707491 0.00013204023886788371 0 0.034835535613948823 7.7280946491353289e-05 0 0.034751850737799773 6.7124200931106351e-05 0 0.034822486173403631 9.3442414572163305e-05 0 0.034652245428707491 0.00013204023886788371 0 0.034835535613948823 7.7280946491353289e-05 0 0.034862771297107721 4.435031164312009e-05 0 0.034835535613948823 7.7280946491353289e-05 0 0.034817971053212347 4.9390858757995216e-05 0 0.034835535613948823 7.7280946491353289e-05 0 0.034817971053212347 4.9390858757995216e-05 0 0.034751850737799773 6.7124200931106351e-05 0 0.034817971053212347 4.9390858757995216e-05 0 0.034751850737799773 6.7124200931106351e-05 0 0.034771026788155884 9.4706288817961217e-06 0 0.034824572645306626 5.1499282211975563e-06 0 0.034817971053212347 4.9390858757995216e-05 0 0.034771026788155884 9.4706288817961217e-06 0 0.034824946068719158 -5.1195603645543423e-05 0 0.034824572645306626 5.1499282211975563e-06 0 0.034771026788155884 9.4706288817961217e-06 0 0.034766959378308801 -7.3701251211705075e-05 0 0.034771026788155884 9.4706288817961217e-06 0 0.034656077715525375 1.0315369400101132e-05 0 0.034751850737799773 6.7124200931106351e-05 0 0.034771026788155884 9.4706288817961217e-06 0 0.034656077715525375 1.0315369400101132e-05 0 0.034437104917756076 4.2806645650811715e-05 0 0.034652245428707491 0.00013204023886788371 0 0.034656077715525375 1.0315369400101132e-05 0 0.034652245428707491 0.00013204023886788371 0 0.034751850737799773 6.7124200931106351e-05 0 0.034656077715525375 1.0315369400101132e-05 0 0.034437104917756076 4.2806645650811715e-05 0 0.034652245428707491 0.00013204023886788371 0 0.034284855239089786 0.00023683798672127172 0 0.033684513572763662 2.349976102233048e-05 0 0.034284855239089786 0.00023683798672127172 0 0.033850088596462685 0.00044836793581788989 0 0.034284855239089786 0.00023683798672127172 0 0.034548336872499856 0.00014184531400088102 0 0.033850088596462685 0.00044836793581788989 0 0.034284855239089786 0.00023683798672127172 0 0.034658576839821653 0.00013508041954920141 0 0.034548336872499856 0.00014184531400088102 0 0.034652245428707491 0.00013204023886788371 0 0.034284855239089786 0.00023683798672127172 0 0.034658576839821653 0.00013508041954920141 0 0.034822486173403631 9.3442414572163305e-05 0 0.034658576839821653 0.00013508041954920141 0 0.03499966648725425 1.423817558035125e-07 0 0.03499966648725425 1.423817558035125e-07 0 0.034548336872499856 0.00014184531400088102 0 0.034999629520199596 -8.9017714728905476e-09 0 0.034658576839821653 0.00013508041954920141 0 0.03499966648725425 1.423817558035125e-07 0 0.034548336872499856 0.00014184531400088102 0 0.034548336872499856 0.00014184531400088102 0 0.034999629520199596 -8.9017714728905476e-09 0 0.034775722340616273 5.1076141226749801e-05 0 0.034548336872499856 0.00014184531400088102 0 0.034775722340616273 5.1076141226749801e-05 0 0.034483864442472756 0.00015292004687348146 0 0.034999790688240884 8.1054815691264582e-09 0 0.034999629520199596 -8.9017714728905476e-09 0 0.034775722340616273 5.1076141226749801e-05 0 0.034826994120431741 4.397021605604392e-05 0 0.034775722340616273 5.1076141226749801e-05 0 0.034483864442472756 0.00015292004687348146 0 0.034548336872499856 0.00014184531400088102 0 0.034483864442472756 0.00015292004687348146 0 0.033850088596462685 0.00044836793581788989 0 0.033263432972101339 0.00040113142643248925 0 0.033775378447356522 0.00046170069464343235 0 0.03465101190519386 0.00042495988437099243 0 0.034483864442472756 0.00015292004687348146 0 0.033850088596462685 0.00044836793581788989 0 0.032219244570633881 -0.0014188144913055577 0 0.032406243201743547 -0.0014350761162281985 0 0.032189875798368232 -0.0014325684548123011 0 0.032406243201743547 -0.0014350761162281985 0 0.032208638026463947 -0.0013266365523193996 0 0.032311177350125703 -0.0012148884396911701 0 0.032219244570633881 -0.0014188144913055577 0 0.032406243201743547 -0.0014350761162281985 0 0.032208638026463947 -0.0013266365523193996 0 0.032406243201743547 -0.0014350761162281985 0 0.032696496274059628 -0.0016179264881524228 0 0.032327891199685328 -0.0014664700186324804 0 0.032406243201743547 -0.0014350761162281985 0 0.032696496274059628 -0.0016179264881524228 0 0.032545749801091921 -0.0012842942228392345 0 0.032696496274059628 -0.0016179264881524228 0 0.032202744590789451 -0.0015939323288590066 0 0.032036463792645957 -0.001869751665453654 0 0.032696496274059628 -0.0016179264881524228 0 0.032202744590789451 -0.0015939323288590066 0 0.032327891199685328 -0.0014664700186324804 0 0.032327891199685328 -0.0014664700186324804 0 0.032048914297798346 -0.0013612917167218645 0 0.032034709240262062 -0.0014329753571788041 0 0.032202744590789451 -0.0015939323288590066 0 0.032327891199685328 -0.0014664700186324804 0 0.032034709240262062 -0.0014329753571788041 0 0.032327891199685328 -0.0014664700186324804 0 0.032048914297798346 -0.0013612917167218645 0 0.032189875798368232 -0.0014325684548123011 0 0.032406243201743547 -0.0014350761162281985 0 0.032327891199685328 -0.0014664700186324804 0 0.032189875798368232 -0.0014325684548123011 0 0.032048914297798346 -0.0013612917167218645 0 0.031872551512039292 -0.0013382189759548117 0 0.032189875798368232 -0.0014325684548123011 0 0.032048914297798346 -0.0013612917167218645 0 0.032034709240262062 -0.0014329753571788041 0 0.031863758958244309 -0.0013062777158483762 0 0.032048914297798346 -0.0013612917167218645 0 0.031830481722229693 -0.0012920434292183528 0 0.031863758958244309 -0.0013062777158483762 0 0.032048914297798346 -0.0013612917167218645 0 0.031830481722229693 -0.0012920434292183528 0 0.031872551512039292 -0.0013382189759548117 0 0.031660223762578148 -0.0012555892920923673 0 0.031830481722229693 -0.0012920434292183528 0 0.031872551512039292 -0.0013382189759548117 0 0.032033449086832477 -0.0012768941454707051 0 0.031872551512039292 -0.0013382189759548117 0 0.032138064281503856 -0.001412133502428119 0 0.031872551512039292 -0.0013382189759548117 0 0.032189875798368232 -0.0014325684548123011 0 0.032138064281503856 -0.001412133502428119 0 0.032219244570633881 -0.0014188144913055577 0 0.032189875798368232 -0.0014325684548123011 0 0.032138064281503856 -0.001412133502428119 0 0.032219244570633881 -0.0014188144913055577 0 0.032138064281503856 -0.001412133502428119 0 0.03214472411948098 -0.0014141754656294865 0 0.032033449086832477 -0.0012768941454707051 0 0.032138064281503856 -0.001412133502428119 0 0.032151742082871734 -0.0014066305366886407 0 0.032151742082871734 -0.0014066305366886407 0 0.032043974554859425 -0.0014468020108263475 0 0.03214472411948098 -0.0014141754656294865 0 0.032138064281503856 -0.001412133502428119 0 0.032151742082871734 -0.0014066305366886407 0 0.03214472411948098 -0.0014141754656294865 0 0.030270944800372061 -0.0013512065055994195 0 0.030481910516010846 -0.0011903678284857686 0 0.030307264544241031 -0.0012527415249951751 0 0.031349000096587476 -0.0013008966077624584 0 0.031024665823012505 -0.0013599766465506556 0 0.032043974554859425 -0.0014468020108263475 0 0.032041383208459888 -0.0013826080158251071 0 0.03214472411948098 -0.0014141754656294865 0 0.030156899926655854 -0.0014013665934064835 0 0.030181059624148319 -0.0013506146718684519 0 0.03016814153366314 -0.0014136918374278308 0 0.030150845447102462 -0.0014171792968418651 0 0.030156899926655854 -0.0014013665934064835 0 0.030181059624148319 -0.0013506146718684519 0 0.030270944800372061 -0.0013512065055994195 0 0.030150845447102462 -0.0014171792968418651 0 0.030181059624148319 -0.0013506146718684519 0 0.030270944800372061 -0.0013512065055994195 0 0.030307264544241031 -0.0012527415249951751 0 0.030181059624148319 -0.0013506146718684519 0 0.032043974554859425 -0.0014468020108263475 0 0.032041383208459888 -0.0013826080158251071 0 0.031893944697553377 -0.0013978414470069175 0 0.031024665823012505 -0.0013599766465506556 0 0.031888132483114208 -0.00091160514621184288 0 0.030307264544241031 -0.0012527415249951751 0 0.030181059624148319 -0.0013506146718684519 0 0.030165211815730304 -0.0012304764493548575 0 0.030212126640847374 -0.0013370856244577262 0 0.031888132483114208 -0.00091160514621184288 0 0.032502690760545384 -0.00077798054777837643 0 0.031888132483114208 -0.00091160514621184288 0 0.030160369122529618 -0.0014309240351039255 0 0.030156899926655854 -0.0014013665934064835 0 0.03016814153366314 -0.0014136918374278308 0 0.031893944697553377 -0.0013978414470069175 0 0.031908246143418639 -0.0012982936484489411 0 0.031961213350024387 -0.0013349952643059093 0 0.031888132483114208 -0.00091160514621184288 0 0.033502847115401788 -0.00068527712509644707 0 0.034845090674316542 -8.9524476493908138e-05 0 0.034800646777743298 -8.7572346200001536e-05 0 0.034848349849101408 -8.9484146975332918e-05 0 0.031893944697553377 -0.0013978414470069175 0 0.031908246143418639 -0.0012982936484489411 0 0.031868980065552735 -0.0012644953929643332 0 0.032041383208459888 -0.0013826080158251071 0 0.031893944697553377 -0.0013978414470069175 0 0.031961213350024387 -0.0013349952643059093 0 0.031908246143418639 -0.0012982936484489411 0 0.031961213350024387 -0.0013349952643059093 0 0.031903528267501972 -0.0012425612999913615 0 0.031961213350024387 -0.0013349952643059093 0 0.03198395934222268 -0.0012468505306139548 0 0.032042013300738428 -0.0013176484192296907 0 0.032041383208459888 -0.0013826080158251071 0 0.031961213350024387 -0.0013349952643059093 0 0.032042013300738428 -0.0013176484192296907 0 0.031961213350024387 -0.0013349952643059093 0 0.03198395934222268 -0.0012468505306139548 0 0.031903528267501972 -0.0012425612999913615 0 0.03198395934222268 -0.0012468505306139548 0 0.031903528267501972 -0.0012425612999913615 0 0.031926678770912396 -0.001141971454935441 0 0.031880915582888421 -0.0011529510758694198 0 0.031899324402142736 -0.0011980630375737265 0 0.031868980065552735 -0.0012644953929643332 0 0.033301870642742898 -0.00057073855283891657 0 0.033502847115401788 -0.00068527712509644707 0 0.031908246143418639 -0.0012982936484489411 0 0.031903528267501972 -0.0012425612999913615 0 0.031868980065552735 -0.0012644953929643332 0 0.031903528267501972 -0.0012425612999913615 0 0.031899324402142736 -0.0011980630375737265 0 0.031868980065552735 -0.0012644953929643332 0 0.032219244570633881 -0.0014188144913055577 0 0.032128260261315024 -0.0013605694162411939 0 0.032208638026463947 -0.0013266365523193996 0 0.032219244570633881 -0.0014188144913055577 0 0.03214472411948098 -0.0014141754656294865 0 0.032128260261315024 -0.0013605694162411939 0 0.032041383208459888 -0.0013826080158251071 0 0.03214472411948098 -0.0014141754656294865 0 0.032128260261315024 -0.0013605694162411939 0 0.032041383208459888 -0.0013826080158251071 0 0.032128260261315024 -0.0013605694162411939 0 0.032042013300738428 -0.0013176484192296907 0 0.032128260261315024 -0.0013605694162411939 0 0.032042013300738428 -0.0013176484192296907 0 0.032086073527783865 -0.001259881917177634 0 0.03198395934222268 -0.0012468505306139548 0 0.032042013300738428 -0.0013176484192296907 0 0.032086073527783865 -0.001259881917177634 0 0.03198395934222268 -0.0012468505306139548 0 0.032086073527783865 -0.001259881917177634 0 0.03202398151421617 -0.0011274362794778294 0 0.032086073527783865 -0.001259881917177634 0 0.032208638026463947 -0.0013266365523193996 0 0.032135267000312433 -0.0011513336815321923 0 0.032128260261315024 -0.0013605694162411939 0 0.032086073527783865 -0.001259881917177634 0 0.032208638026463947 -0.0013266365523193996 0 0.032208638026463947 -0.0013266365523193996 0 0.032135267000312433 -0.0011513336815321923 0 0.032311177350125703 -0.0012148884396911701 0 0.032135267000312433 -0.0011513336815321923 0 0.03219083405756696 -0.00095841207349397085 0 0.032311177350125703 -0.0012148884396911701 0 0.032086073527783865 -0.001259881917177634 0 0.032135267000312433 -0.0011513336815321923 0 0.03202398151421617 -0.0011274362794778294 0 0.032135267000312433 -0.0011513336815321923 0 0.03202398151421617 -0.0011274362794778294 0 0.032032787897571052 -0.00096336126673141553 0 0.032032787897571052 -0.00096336126673141553 0 0.031922837378986227 -0.00097053332581053587 0 0.031954040129704035 -0.00078439027948640498 0 0.03202398151421617 -0.0011274362794778294 0 0.032032787897571052 -0.00096336126673141553 0 0.031922837378986227 -0.00097053332581053587 0 0.032135267000312433 -0.0011513336815321923 0 0.032032787897571052 -0.00096336126673141553 0 0.03219083405756696 -0.00095841207349397085 0 0.032032787897571052 -0.00096336126673141553 0 0.03219083405756696 -0.00095841207349397085 0 0.032133293059262394 -0.00063795028099298905 0 0.031903528267501972 -0.0012425612999913615 0 0.031899324402142736 -0.0011980630375737265 0 0.031938735218251121 -0.0011352028281048992 0 0.031912449877228119 -0.0012055982800238724 0 0.031763553439401848 -0.0011524103950631692 0 0.031880915582888421 -0.0011529510758694198 0 0.031938735218251121 -0.0011352028281048992 0 0.031912226937877333 -0.0010867359959517001 0 0.031880915582888421 -0.0011529510758694198 0 0.031899324402142736 -0.0011980630375737265 0 0.031938735218251121 -0.0011352028281048992 0 0.03202398151421617 -0.0011274362794778294 0 0.031926678770912396 -0.001141971454935441 0 0.031922837378986227 -0.00097053332581053587 0 0.031903528267501972 -0.0012425612999913615 0 0.03180380067487925 -0.0010549539994756879 0 0.031926678770912396 -0.001141971454935441 0 0.03180380067487925 -0.0010549539994756879 0 0.031926678770912396 -0.001141971454935441 0 0.031922837378986227 -0.00097053332581053587 0 0.03198395934222268 -0.0012468505306139548 0 0.03202398151421617 -0.0011274362794778294 0 0.031926678770912396 -0.001141971454935441 0 0.031938735218251121 -0.0011352028281048992 0 0.031912226937877333 -0.0010867359959517001 0 0.031947393335816622 -0.0010222309903914243 0 0.03180380067487925 -0.0010549539994756879 0 0.031922837378986227 -0.00097053332581053587 0 0.031765792678396271 -0.00084956640959789808 0 0.031763553439401848 -0.0011524103950631692 0 0.033436613119241253 -0.0004569564093380988 0 0.031882372142287028 -0.0010359711307502989 0 0.031912226937877333 -0.0010867359959517001 0 0.031947393335816622 -0.0010222309903914243 0 0.034966530535159246 7.7410717164478989e-06 0 0.034952169093630456 6.0755088878684928e-06 0 0.034999922211620953 2.2738029652750695e-08 0 0.034975931093871059 -1.2727922331298903e-05 0 0.034986309062126832 -8.6182434907461809e-06 0 0.034990971881265702 -4.4828629250007149e-06 0 0.031922837378986227 -0.00097053332581053587 0 0.031765792678396271 -0.00084956640959789808 0 0.031954040129704035 -0.00078439027948640498 0 0.033436613119241253 -0.0004569564093380988 0 0.033458629465482552 -0.00039125363891214199 0 0.034986309062126832 -8.6182434907461809e-06 0 0.034990971881265702 -4.4828629250007149e-06 0 0.035000006456699262 -6.7692906410963165e-09 0 0.034990971881265702 -4.4828629250007149e-06 0 0.034999955992610687 -2.9165019068244681e-09 0 0.035000006456699262 -6.7692906410963165e-09 0 0.033436613119241253 -0.0004569564093380988 0 0.035000886247911457 4.6913060153054568e-07 0 0.034975931093871059 -1.2727922331298903e-05 0 0.034990971881265702 -4.4828629250007149e-06 0 0.034999955992610687 -2.9165019068244681e-09 0 0.03219083405756696 -0.00095841207349397085 0 0.032133293059262394 -0.00063795028099298905 0 0.032347611862473091 -0.00074554469610908672 0 0.032032787897571052 -0.00096336126673141553 0 0.031954040129704035 -0.00078439027948640498 0 0.032133293059262394 -0.00063795028099298905 0 0.033458629465482552 -0.00039125363891214199 0 0.033573530030596363 -0.00031418170861761692 0 0.034986309062126832 -8.6182434907461809e-06 0 0.034989948392637249 -5.3790398194840186e-06 0 0.035000006456699262 -6.7692906410963165e-09 0 0.034989948392637249 -5.3790398194840186e-06 0 0.035000006456699262 -6.7692906410963165e-09 0 0.03499990781144862 2.7963290152759734e-09 0 0.034989948392637249 -5.3790398194840186e-06 0 0.03499990781144862 2.7963290152759734e-09 0 0.034991912611981785 -5.0614792435016857e-06 0 0.03499990781144862 2.7963290152759734e-09 0 0.034991912611981785 -5.0614792435016857e-06 0 0.035000261004638628 -3.4320310153377925e-08 0 0.032481642780640391 -0.0003275815537111059 0 0.033025594083743205 -0.00039191520843422572 0 0.03327180517647918 0.00011020612485819344 0 0.034991912611981785 -5.0614792435016857e-06 0 0.035000261004638628 -3.4320310153377925e-08 0 0.035019799074562645 3.0388784096164792e-06 0 0.033755059097519483 -0.00015784341686029982 0 0.034165829789372291 2.8205941219642358e-05 0 0.032481642780640391 -0.0003275815537111059 0 0.032698546570905158 -0.00072648929337341733 0 0.033025594083743205 -0.00039191520843422572 0 0.032481642780640391 -0.0003275815537111059 0 0.032698546570905158 -0.00072648929337341733 0 0.032347611862473091 -0.00074554469610908672 0 0.033573530030596363 -0.00031418170861761692 0 0.033755059097519483 -0.00015784341686029982 0 0.032133293059262394 -0.00063795028099298905 0 0.032481642780640391 -0.0003275815537111059 0 0.032347611862473091 -0.00074554469610908672 0 0.03219083405756696 -0.00095841207349397085 0 0.032347611862473091 -0.00074554469610908672 0 0.032431355560667403 -0.0010277576508861525 0 0.032698546570905158 -0.00072648929337341733 0 0.032347611862473091 -0.00074554469610908672 0 0.032431355560667403 -0.0010277576508861525 0 0.032698546570905158 -0.00072648929337341733 0 0.032431355560667403 -0.0010277576508861525 0 0.032869215278907592 -0.0010828666358476933 0 0.032431355560667403 -0.0010277576508861525 0 0.032545749801091921 -0.0012842942228392345 0 0.032311177350125703 -0.0012148884396911701 0 0.032406243201743547 -0.0014350761162281985 0 0.032545749801091921 -0.0012842942228392345 0 0.032311177350125703 -0.0012148884396911701 0 0.032431355560667403 -0.0010277576508861525 0 0.032545749801091921 -0.0012842942228392345 0 0.032869215278907592 -0.0010828666358476933 0 0.03219083405756696 -0.00095841207349397085 0 0.032431355560667403 -0.0010277576508861525 0 0.032311177350125703 -0.0012148884396911701 0 0.032785866271090883 -0.0016323101492274822 0 0.033045144566955738 -0.0017327222233589849 0 0.032696496274059628 -0.0016179264881524228 0 0.033659336503890851 -0.001302847082971504 0 0.034195551544781197 -0.0015248936155160906 0 0.033659336503890851 -0.001302847082971504 0 0.033741776973706415 -0.0010142967297146277 0 0.034044490776001496 -0.0011252765783144748 0 0.033216524683355148 -0.0011866081549324135 0 0.033659336503890851 -0.001302847082971504 0 0.033741776973706415 -0.0010142967297146277 0 0.032696496274059628 -0.0016179264881524228 0 0.033216524683355148 -0.0011866081549324135 0 0.033659336503890851 -0.001302847082971504 0 0.032696496274059628 -0.0016179264881524228 0 0.033216524683355148 -0.0011866081549324135 0 0.032869215278907592 -0.0010828666358476933 0 0.032696496274059628 -0.0016179264881524228 0 0.032545749801091921 -0.0012842942228392345 0 0.032869215278907592 -0.0010828666358476933 0 0.033216524683355148 -0.0011866081549324135 0 0.032869215278907592 -0.0010828666358476933 0 0.03327277462925049 -0.00096174889855744298 0 0.032698546570905158 -0.00072648929337341733 0 0.032869215278907592 -0.0010828666358476933 0 0.033323159129490465 -0.00064658522732887348 0 0.032869215278907592 -0.0010828666358476933 0 0.03327277462925049 -0.00096174889855744298 0 0.033323159129490465 -0.00064658522732887348 0 0.03327277462925049 -0.00096174889855744298 0 0.033874212572209107 -0.00076340010121909096 0 0.033323159129490465 -0.00064658522732887348 0 0.033216524683355148 -0.0011866081549324135 0 0.03327277462925049 -0.00096174889855744298 0 0.033741776973706415 -0.0010142967297146277 0 0.03327277462925049 -0.00096174889855744298 0 0.033741776973706415 -0.0010142967297146277 0 0.033874212572209107 -0.00076340010121909096 0 0.033741776973706415 -0.0010142967297146277 0 0.033874212572209107 -0.00076340010121909096 0 0.034015053712737033 -0.00097113484675495079 0 0.033908605876447777 -0.00048325470606284086 0 0.034238784975437773 -0.0005407396692378169 0 0.034349320993445155 -0.00034267505917997914 0 0.033874212572209107 -0.00076340010121909096 0 0.033908605876447777 -0.00048325470606284086 0 0.034238784975437773 -0.0005407396692378169 0 0.033874212572209107 -0.00076340010121909096 0 0.033908605876447777 -0.00048325470606284086 0 0.033323159129490465 -0.00064658522732887348 0 0.033908605876447777 -0.00048325470606284086 0 0.033323159129490465 -0.00064658522732887348 0 0.033467697338865794 -0.00033530943591416387 0 0.033908605876447777 -0.00048325470606284086 0 0.033467697338865794 -0.00033530943591416387 0 0.034105222170597679 -0.00022509052556511785 0 0.034105222170597679 -0.00022509052556511785 0 0.034576199566404606 -0.00014585220040780136 0 0.034349320993445155 -0.00034267505917997914 0 0.033908605876447777 -0.00048325470606284086 0 0.034105222170597679 -0.00022509052556511785 0 0.034349320993445155 -0.00034267505917997914 0 0.032698546570905158 -0.00072648929337341733 0 0.033323159129490465 -0.00064658522732887348 0 0.033025594083743205 -0.00039191520843422572 0 0.033323159129490465 -0.00064658522732887348 0 0.033467697338865794 -0.00033530943591416387 0 0.033025594083743205 -0.00039191520843422572 0 0.033467697338865794 -0.00033530943591416387 0 0.033025594083743205 -0.00039191520843422572 0 0.03327180517647918 0.00011020612485819344 0 0.035000261004638628 -3.4320310153377925e-08 0 0.035019799074562645 3.0388784096164792e-06 0 0.034999199275321524 1.8122647197750331e-07 0 0.035019799074562645 3.0388784096164792e-06 0 0.034999199275321524 1.8122647197750331e-07 0 0.034880024377854854 5.9726513153302711e-05 0 0.03327180517647918 0.00011020612485819344 0 0.034105222170597679 -0.00022509052556511785 0 0.034880024377854854 5.9726513153302711e-05 0 0.034165829789372291 2.8205941219642358e-05 0 0.034794366127409902 7.7902360182885999e-05 0 0.034105222170597679 -0.00022509052556511785 0 0.034880024377854854 5.9726513153302711e-05 0 0.034576199566404606 -0.00014585220040780136 0 0.033467697338865794 -0.00033530943591416387 0 0.03327180517647918 0.00011020612485819344 0 0.034105222170597679 -0.00022509052556511785 0 0.034999199275321524 1.8122647197750331e-07 0 0.034880024377854854 5.9726513153302711e-05 0 0.034999677506384386 -7.6616716403055565e-08 0 0.034880024377854854 5.9726513153302711e-05 0 0.034829114820062665 -5.803239090676011e-05 0 0.034999677506384386 -7.6616716403055565e-08 0 0.034880024377854854 5.9726513153302711e-05 0 0.034576199566404606 -0.00014585220040780136 0 0.034829114820062665 -5.803239090676011e-05 0 0.034829114820062665 -5.803239090676011e-05 0 0.034898760852480969 -0.00015420046895209228 0 0.034652610345661861 -0.00021634700216691376 0 0.034576199566404606 -0.00014585220040780136 0 0.034829114820062665 -5.803239090676011e-05 0 0.034652610345661861 -0.00021634700216691376 0 0.034999677506384386 -7.6616716403055565e-08 0 0.034898760852480969 -0.00015420046895209228 0 0.034993152733230462 -0.00013666579019339694 0 0.034829114820062665 -5.803239090676011e-05 0 0.034999677506384386 -7.6616716403055565e-08 0 0.034898760852480969 -0.00015420046895209228 0 0.034898760852480969 -0.00015420046895209228 0 0.034726824955499412 -0.00044983951759718663 0 0.034708913172978764 -0.00030071889890811971 0 0.034898760852480969 -0.00015420046895209228 0 0.034919598377429903 -0.00046438801032969797 0 0.034726824955499412 -0.00044983951759718663 0 0.034898760852480969 -0.00015420046895209228 0 0.034919598377429903 -0.00046438801032969797 0 0.035013242241478552 -0.00030610279045574957 0 0.034898760852480969 -0.00015420046895209228 0 0.034652610345661861 -0.00021634700216691376 0 0.034708913172978764 -0.00030071889890811971 0 0.034726824955499412 -0.00044983951759718663 0 0.034521807438519722 -0.00041927443213537758 0 0.034708913172978764 -0.00030071889890811971 0 0.034726824955499412 -0.00044983951759718663 0 0.034521807438519722 -0.00041927443213537758 0 0.034479034859619395 -0.00059075678348510482 0 0.034521807438519722 -0.00041927443213537758 0 0.034383287301365723 -0.00055033553153341981 0 0.034479034859619395 -0.00059075678348510482 0 0.034383287301365723 -0.00055033553153341981 0 0.034238784975437773 -0.0005407396692378169 0 0.034257982126990473 -0.00066823751943437867 0 0.034521807438519722 -0.00041927443213537758 0 0.034383287301365723 -0.00055033553153341981 0 0.034238784975437773 -0.0005407396692378169 0 0.034521807438519722 -0.00041927443213537758 0 0.034238784975437773 -0.0005407396692378169 0 0.034349320993445155 -0.00034267505917997914 0 0.034521807438519722 -0.00041927443213537758 0 0.034349320993445155 -0.00034267505917997914 0 0.034652610345661861 -0.00021634700216691376 0 0.034576199566404606 -0.00014585220040780136 0 0.034349320993445155 -0.00034267505917997914 0 0.034652610345661861 -0.00021634700216691376 0 0.034521807438519722 -0.00041927443213537758 0 0.034652610345661861 -0.00021634700216691376 0 0.034708913172978764 -0.00030071889890811971 0 0.035000605531137853 -1.4177022783330848e-07 0 0.035046187964247452 -0.00012782890744156226 0 0.035239173878584454 -0.0002391571536866978 0 0.035000044694242061 2.819723932494238e-08 0 0.035191245538418785 -0.00014407085134022943 0 0.034999677506384386 -7.6616716403055565e-08 0 0.035000605531137853 -1.4177022783330848e-07 0 0.035046187964247452 -0.00012782890744156226 0 0.034999677506384386 -7.6616716403055565e-08 0 0.035046187964247452 -0.00012782890744156226 0 0.034993152733230462 -0.00013666579019339694 0 0.035046187964247452 -0.00012782890744156226 0 0.034993152733230462 -0.00013666579019339694 0 0.035013242241478552 -0.00030610279045574957 0 0.035046187964247452 -0.00012782890744156226 0 0.035013242241478552 -0.00030610279045574957 0 0.035123959532930495 -0.00040093311544874406 0 0.034898760852480969 -0.00015420046895209228 0 0.034993152733230462 -0.00013666579019339694 0 0.035013242241478552 -0.00030610279045574957 0 0.034919598377429903 -0.00046438801032969797 0 0.035013242241478552 -0.00030610279045574957 0 0.03501424704085792 -0.00058755669110414368 0 0.035013242241478552 -0.00030610279045574957 0 0.035123959532930495 -0.00040093311544874406 0 0.03501424704085792 -0.00058755669110414368 0 0.035239173878584454 -0.0002391571536866978 0 0.035123959532930495 -0.00040093311544874406 0 0.035322520045196086 -0.00051790772985465736 0 0.035046187964247452 -0.00012782890744156226 0 0.035239173878584454 -0.0002391571536866978 0 0.035123959532930495 -0.00040093311544874406 0 0.035123959532930495 -0.00040093311544874406 0 0.035106547019575149 -0.00062875349645784501 0 0.035322520045196086 -0.00051790772985465736 0 0.03397969790577355 -0.00048834270436026381 0 0.033166336666726026 -0.00016960827012092313 0 0.032576916228787833 -0.00041069811063890801 0 0.032283042415278254 -8.1764704351406652e-05 0 0.031955213610419406 -0.00060857929626902151 0 0.035106547019575149 -0.00062875349645784501 0 0.03501424704085792 -0.00058755669110414368 0 0.034921486342442923 -0.000770694474768386 0 0.03397969790577355 -0.00048834270436026381 0 0.033666731240945554 -0.0008412683739402755 0 0.035123959532930495 -0.00040093311544874406 0 0.035106547019575149 -0.00062875349645784501 0 0.03501424704085792 -0.00058755669110414368 0 0.0327037251877067 -5.4048162292813469e-06 0 0.033078811611499372 0.00025627247786923283 0 0.032383844374594066 0.00039749181051307157 0 0.032576916228787833 -0.00041069811063890801 0 0.0327037251877067 -5.4048162292813469e-06 0 0.033193484653576917 -0.00021629491923417387 0 0.0327037251877067 -5.4048162292813469e-06 0 0.033193484653576917 -0.00021629491923417387 0 0.033078811611499372 0.00025627247786923283 0 0.032283042415278254 -8.1764704351406652e-05 0 0.032383844374594066 0.00039749181051307157 0 0.031811830404452041 -3.8928752900179848e-05 0 0.032576916228787833 -0.00041069811063890801 0 0.0327037251877067 -5.4048162292813469e-06 0 0.032283042415278254 -8.1764704351406652e-05 0 0.0327037251877067 -5.4048162292813469e-06 0 0.032283042415278254 -8.1764704351406652e-05 0 0.032383844374594066 0.00039749181051307157 0 0.034439552451437504 -0.00089256651215682391 0 0.034225311314880928 -0.00093666981362502228 0 0.034349758434478725 -0.00076701781940884302 0 0.034439552451437504 -0.00089256651215682391 0 0.034349758434478725 -0.00076701781940884302 0 0.034540343714208208 -0.00072624968243399255 0 0.034439552451437504 -0.00089256651215682391 0 0.034540343714208208 -0.00072624968243399255 0 0.034658255424253472 -0.00081891021216324515 0 0.034439552451437504 -0.00089256651215682391 0 0.034529217459868519 -0.00098291386094429066 0 0.034340973912251507 -0.0010583272245920749 0 0.034439552451437504 -0.00089256651215682391 0 0.034529217459868519 -0.00098291386094429066 0 0.034658255424253472 -0.00081891021216324515 0 0.034439552451437504 -0.00089256651215682391 0 0.034340973912251507 -0.0010583272245920749 0 0.034225311314880928 -0.00093666981362502228 0 0.034340973912251507 -0.0010583272245920749 0 0.034225311314880928 -0.00093666981362502228 0 0.034044490776001496 -0.0011252765783144748 0 0.033741776973706415 -0.0010142967297146277 0 0.034015053712737033 -0.00097113484675495079 0 0.034044490776001496 -0.0011252765783144748 0 0.034225311314880928 -0.00093666981362502228 0 0.034015053712737033 -0.00097113484675495079 0 0.034044490776001496 -0.0011252765783144748 0 0.033874212572209107 -0.00076340010121909096 0 0.034015053712737033 -0.00097113484675495079 0 0.034146476259255654 -0.0008201188660721452 0 0.034225311314880928 -0.00093666981362502228 0 0.034015053712737033 -0.00097113484675495079 0 0.034146476259255654 -0.0008201188660721452 0 0.034225311314880928 -0.00093666981362502228 0 0.034146476259255654 -0.0008201188660721452 0 0.034349758434478725 -0.00076701781940884302 0 0.033874212572209107 -0.00076340010121909096 0 0.034238784975437773 -0.0005407396692378169 0 0.034257982126990473 -0.00066823751943437867 0 0.034146476259255654 -0.0008201188660721452 0 0.034257982126990473 -0.00066823751943437867 0 0.034349758434478725 -0.00076701781940884302 0 0.033874212572209107 -0.00076340010121909096 0 0.034146476259255654 -0.0008201188660721452 0 0.034257982126990473 -0.00066823751943437867 0 0.034383287301365723 -0.00055033553153341981 0 0.034257982126990473 -0.00066823751943437867 0 0.034479034859619395 -0.00059075678348510482 0 0.034726824955499412 -0.00044983951759718663 0 0.034479034859619395 -0.00059075678348510482 0 0.034540343714208208 -0.00072624968243399255 0 0.034257982126990473 -0.00066823751943437867 0 0.034479034859619395 -0.00059075678348510482 0 0.034349758434478725 -0.00076701781940884302 0 0.034479034859619395 -0.00059075678348510482 0 0.034349758434478725 -0.00076701781940884302 0 0.034540343714208208 -0.00072624968243399255 0 0.034726824955499412 -0.00044983951759718663 0 0.034540343714208208 -0.00072624968243399255 0 0.034747346068299712 -0.00064081259389641777 0 0.034919598377429903 -0.00046438801032969797 0 0.034726824955499412 -0.00044983951759718663 0 0.034747346068299712 -0.00064081259389641777 0 0.034540343714208208 -0.00072624968243399255 0 0.034747346068299712 -0.00064081259389641777 0 0.034658255424253472 -0.00081891021216324515 0 0.034919598377429903 -0.00046438801032969797 0 0.034747346068299712 -0.00064081259389641777 0 0.034916593982670246 -0.00071945905928190988 0 0.034919598377429903 -0.00046438801032969797 0 0.03501424704085792 -0.00058755669110414368 0 0.034916593982670246 -0.00071945905928190988 0 0.034292074427509651 -0.00093712760477155863 0 0.033666731240945554 -0.0008412683739402755 0 0.034916593982670246 -0.00071945905928190988 0 0.034723121717561319 -0.00095877695964179447 0 0.035043038141351381 -0.0010704149427440085 0 0.03501424704085792 -0.00058755669110414368 0 0.034916593982670246 -0.00071945905928190988 0 0.034921486342442923 -0.000770694474768386 0 0.034916593982670246 -0.00071945905928190988 0 0.034658255424253472 -0.00081891021216324515 0 0.034723121717561319 -0.00095877695964179447 0 0.034747346068299712 -0.00064081259389641777 0 0.034916593982670246 -0.00071945905928190988 0 0.034658255424253472 -0.00081891021216324515 0 0.034529217459868519 -0.00098291386094429066 0 0.034723121717561319 -0.00095877695964179447 0 0.034510659296306881 -0.0011588489460866117 0 0.034529217459868519 -0.00098291386094429066 0 0.034658255424253472 -0.00081891021216324515 0 0.034723121717561319 -0.00095877695964179447 0 0.033666731240945554 -0.0008412683739402755 0 0.033045144566955738 -0.0017327222233589849 0 0.034723121717561319 -0.00095877695964179447 0 0.035043038141351381 -0.0010704149427440085 0 0.034510659296306881 -0.0011588489460866117 0 0.031974194726902765 -0.001928728969563613 0 0.031900967727686101 -0.0011878594089212817 0 0.031946719045853195 -0.0018490610759239025 0 0.032007342329634647 -0.0018355271743483292 0 0.031937766993835645 -0.0018063184926080649 0 0.035043038141351381 -0.0010704149427440085 0 0.034510659296306881 -0.0011588489460866117 0 0.034195551544781197 -0.0015248936155160906 0 0.033666731240945554 -0.0008412683739402755 0 0.031900967727686101 -0.0011878594089212817 0 0.031946719045853195 -0.0018490610759239025 0 0.032007342329634647 -0.0018355271743483292 0 0.032036463792645957 -0.001869751665453654 0 0.034510659296306881 -0.0011588489460866117 0 0.034226998607349138 -0.0012385912979871292 0 0.034195551544781197 -0.0015248936155160906 0 0.034340973912251507 -0.0010583272245920749 0 0.034510659296306881 -0.0011588489460866117 0 0.034226998607349138 -0.0012385912979871292 0 0.034529217459868519 -0.00098291386094429066 0 0.034340973912251507 -0.0010583272245920749 0 0.034510659296306881 -0.0011588489460866117 0 0.033659336503890851 -0.001302847082971504 0 0.03403627039037721 -0.001292644947952296 0 0.034195551544781197 -0.0015248936155160906 0 0.034044490776001496 -0.0011252765783144748 0 0.034226998607349138 -0.0012385912979871292 0 0.03403627039037721 -0.001292644947952296 0 0.034340973912251507 -0.0010583272245920749 0 0.034044490776001496 -0.0011252765783144748 0 0.034226998607349138 -0.0012385912979871292 0 0.034226998607349138 -0.0012385912979871292 0 0.03403627039037721 -0.001292644947952296 0 0.034195551544781197 -0.0015248936155160906 0 0.033659336503890851 -0.001302847082971504 0 0.034044490776001496 -0.0011252765783144748 0 0.03403627039037721 -0.001292644947952296 0 0.032202744590789451 -0.0015939323288590066 0 0.032007342329634647 -0.0018355271743483292 0 0.032036463792645957 -0.001869751665453654 0 0.032202744590789451 -0.0015939323288590066 0 0.032007342329634647 -0.0018355271743483292 0 0.031954465231892534 -0.0016177690076939403 0 0.032202744590789451 -0.0015939323288590066 0 0.031954465231892534 -0.0016177690076939403 0 0.032034709240262062 -0.0014329753571788041 0 0.031954465231892534 -0.0016177690076939403 0 0.032034709240262062 -0.0014329753571788041 0 0.03181767009476593 -0.0015218589183735383 0 0.032034709240262062 -0.0014329753571788041 0 0.03181767009476593 -0.0015218589183735383 0 0.031815970702114074 -0.0013758653813222067 0 0.03181767009476593 -0.0015218589183735383 0 0.031815970702114074 -0.0013758653813222067 0 0.031580452933546076 -0.0014727158402837951 0 0.031954465231892534 -0.0016177690076939403 0 0.03181767009476593 -0.0015218589183735383 0 0.031640123659634527 -0.0017460304328420931 0 0.03181767009476593 -0.0015218589183735383 0 0.031640123659634527 -0.0017460304328420931 0 0.031580452933546076 -0.0014727158402837951 0 0.032007342329634647 -0.0018355271743483292 0 0.031954465231892534 -0.0016177690076939403 0 0.031640123659634527 -0.0017460304328420931 0 0.031900967727686101 -0.0011878594089212817 0 0.031397039806240652 -0.0012518643838611823 0 0.031310616526564181 -0.0010668256896341451 0 0.031207819244921518 -0.0010443029873618748 0 0.031278703877812807 -0.00096417946295036805 0 0.031900967727686101 -0.0011878594089212817 0 0.032049236046304511 -0.00036872841193102854 0 0.032049236046304511 -0.00036872841193102854 0 0.030333196029683537 0.00076008870062745505 0 0.031207819244921518 -0.0010443029873618748 0 0.031178212202039542 -0.00096421375800800067 0 0.03110161863177224 -0.001017741452361206 0 0.031178212202039542 -0.00096421375800800067 0 0.031220419930354067 -0.00092403514831484004 0 0.03116659922062472 -0.00089227793957674412 0 0.031178212202039542 -0.00096421375800800067 0 0.031278703877812807 -0.00096417946295036805 0 0.031220419930354067 -0.00092403514831484004 0 0.031207819244921518 -0.0010443029873618748 0 0.031178212202039542 -0.00096421375800800067 0 0.031278703877812807 -0.00096417946295036805 0 0.031580452933546076 -0.0014727158402837951 0 0.031452985396696005 -0.0012333700445066056 0 0.031730826578081774 -0.0012351373545868623 0 0.031397039806240652 -0.0012518643838611823 0 0.03135642875078188 -0.0010332767728387043 0 0.031278703877812807 -0.00096417946295036805 0 0.031257316321966981 -0.00087467829724130984 0 0.031220419930354067 -0.00092403514831484004 0 0.031257316321966981 -0.00087467829724130984 0 0.03116659922062472 -0.00089227793957674412 0 0.031210750331681577 -0.00084352033380863335 0 0.031257316321966981 -0.00087467829724130984 0 0.031220419930354067 -0.00092403514831484004 0 0.03116659922062472 -0.00089227793957674412 0 0.031210750331681577 -0.00084352033380863335 0 0.031141172776005706 -0.0008169050378804615 0 0.031280454922047209 -0.00077189497330890024 0 0.031257316321966981 -0.00087467829724130984 0 0.031210750331681577 -0.00084352033380863335 0 0.031280454922047209 -0.00077189497330890024 0 0.03116659922062472 -0.00089227793957674412 0 0.031210750331681577 -0.00084352033380863335 0 0.031141172776005706 -0.0008169050378804615 0 0.031452985396696005 -0.0012333700445066056 0 0.031520313458144121 -0.00097205803471594424 0 0.031280454922047209 -0.00077189497330890024 0 0.03135642875078188 -0.0010332767728387043 0 0.031286065537756244 -0.00079099495793429259 0 0.031452985396696005 -0.0012333700445066056 0 0.031520313458144121 -0.00097205803471594424 0 0.031730826578081774 -0.0012351373545868623 0 0.031520313458144121 -0.00097205803471594424 0 0.031730826578081774 -0.0012351373545868623 0 0.031684398957840761 -0.00078527482173742255 0 0.03171543702579635 -0.0011717109896475632 0 0.031752455733515754 -0.0011429052346095686 0 0.031735866972292269 -0.0012527838881786215 0 0.031730826578081774 -0.0012351373545868623 0 0.031709352164562048 -0.0012704665368321621 0 0.031660223762578148 -0.0012555892920923673 0 0.031830481722229693 -0.0012920434292183528 0 0.031735866972292269 -0.0012527838881786215 0 0.031735866972292269 -0.0012527838881786215 0 0.031863758958244309 -0.0013062777158483762 0 0.031730826578081774 -0.0012351373545868623 0 0.031830481722229693 -0.0012920434292183528 0 0.031735866972292269 -0.0012527838881786215 0 0.031863758958244309 -0.0013062777158483762 0 0.032034709240262062 -0.0014329753571788041 0 0.031815970702114074 -0.0013758653813222067 0 0.031863758958244309 -0.0013062777158483762 0 0.031815970702114074 -0.0013758653813222067 0 0.031580452933546076 -0.0014727158402837951 0 0.031730826578081774 -0.0012351373545868623 0 0.031815970702114074 -0.0013758653813222067 0 0.031863758958244309 -0.0013062777158483762 0 0.031730826578081774 -0.0012351373545868623 0 0.026127895088978607 0.0029160116645724505 0 0.027237235407027709 0.002335292137773943 0 0.02597073741931414 0.003321355219521567 0 0.026182245865403776 0.00365471164949314 0 0.026302857993372217 0.0030281180129973868 0 0.02597073741931414 0.003321355219521567 0 0.025773001861346265 0.0036739849119684369 0 0.026182245865403776 0.00365471164949314 0 0.025638394488727553 0.0032438227792021715 0 0.025773001861346265 0.0036739849119684369 0 0.025143457106381491 0.0037985454341366632 0 0.02597073741931414 0.003321355219521567 0 0.025638394488727553 0.0032438227792021715 0 0.025946203498812086 0.0030070674336908311 0 0.02597073741931414 0.003321355219521567 0 0.025638394488727553 0.0032438227792021715 0 0.025773001861346265 0.0036739849119684369 0 0.025773001861346265 0.0036739849119684369 0 0.025143457106381491 0.0037985454341366632 0 0.025490382426136833 0.0040298184393452166 0 0.025773001861346265 0.0036739849119684369 0 0.025849517524471444 0.0039552749274091407 0 0.025490382426136833 0.0040298184393452166 0 0.025849517524471444 0.0039552749274091407 0 0.026182245865403776 0.00365471164949314 0 0.026030270906968717 0.004204892372344911 0 0.026127895088978607 0.0029160116645724505 0 0.026076884951741226 0.0038500553031065462 0 0.025773001861346265 0.0036739849119684369 0 0.025849517524471444 0.0039552749274091407 0 0.026182245865403776 0.00365471164949314 0 0.02622188598650543 0.00227722302109532 0 0.026800881820739732 0.0028796012970862617 0 0.026103319567569096 0.0034542267889162239 0 0.02622188598650543 0.00227722302109532 0 0.026800881820739732 0.0028796012970862617 0 0.027043827708508376 0.0018249032714586061 0 0.027024023392186503 0.0017611387128511947 0 0.028509059969497059 0.0005647552651782522 0 0.029635046797051683 -0.00036440025770069913 0 0.028509059969497059 0.0005647552651782522 0 0.027446313469550829 0.00041806842059894213 0 0.028007426479919995 0.00029098006503178658 0 0.027581123003242371 -9.6259410934975719e-05 0 0.03116659922062472 -0.00089227793957674412 0 0.031141172776005706 -0.0008169050378804615 0 0.03105937109191774 -0.00087019289030501113 0 0.03116659922062472 -0.00089227793957674412 0 0.03105937109191774 -0.00087019289030501113 0 0.031082939036336465 -0.00094468742969919587 0 0.028509059969497059 0.0005647552651782522 0 0.030083804379255227 -0.0001201168120948177 0 0.02622188598650543 0.00227722302109532 0 0.027043827708508376 0.0018249032714586061 0 0.026316076534479486 0.0011601815907023405 0 0.028937998468002709 0.0013686269856777048 0 0.028996975982389771 0.0011469068665529005 0 0.028737683125473715 0.0011959203659902026 0 0.028509059969497059 0.0005647552651782522 0 0.027237235407027709 0.002335292137773943 0 0.028996975982389771 0.0011469068665529005 0 0.028753340595478592 0.00098098515646521034 0 0.028737683125473715 0.0011959203659902026 0 0.030083804379255227 -0.0001201168120948177 0 0.030333196029683537 0.00076008870062745505 0 0.031178212202039542 -0.00096421375800800067 0 0.031082939036336465 -0.00094468742969919587 0 0.03110161863177224 -0.001017741452361206 0 0.031178212202039542 -0.00096421375800800067 0 0.03116659922062472 -0.00089227793957674412 0 0.031082939036336465 -0.00094468742969919587 0 0.032383844374594066 0.00039749181051307157 0 0.031669313212498669 0.00053812295486650741 0 0.031811830404452041 -3.8928752900179848e-05 0 0.0295935751542599 0.0027202993456998366 0 0.028801514203217676 0.0022132278684465715 0 0.029867017486978696 0.0015602459181486841 0 0.030333196029683537 0.00076008870062745505 0 0.028180466656174782 0.002456935968914044 0 0.028180466656174782 0.002456935968914044 0 0.028157044709208903 0.0018645874983529095 0 0.028801514203217676 0.0022132278684465715 0 0.028113181811483149 0.0029975464283563649 0 0.02818716770559903 0.001544037015622265 0 0.0295935751542599 0.0027202993456998366 0 0.028801514203217676 0.0022132278684465715 0 0.028113181811483149 0.0029975464283563649 0 0.028996975982389771 0.0011469068665529005 0 0.029057960101304545 0.00091702617537476 0 0.028753340595478592 0.00098098515646521034 0 0.028054641180807211 0.0030115309543132149 0 0.027569102415825157 0.0024728887284357877 0 0.02818716770559903 0.001544037015622265 0 0.027569102415825157 0.0024728887284357877 0 0.026949630413535066 0.0025605750522430964 0 0.027092196615615627 0.0019726747425830994 0 0.027569102415825157 0.0024728887284357877 0 0.026949630413535066 0.0025605750522430964 0 0.027366863863644043 0.0031325554096025159 0 0.026949630413535066 0.0025605750522430964 0 0.027366863863644043 0.0031325554096025159 0 0.026907109938778258 0.003128573815827056 0 0.028054641180807211 0.0030115309543132149 0 0.027569102415825157 0.0024728887284357877 0 0.027366863863644043 0.0031325554096025159 0 0.028180466656174782 0.002456935968914044 0 0.027495001478908897 0.0028882150704578123 0 0.027980613682800953 0.0030134950401561711 0 0.027366863863644043 0.0031325554096025159 0 0.027922030005952368 0.0040184874745845308 0 0.028180466656174782 0.002456935968914044 0 0.027237235407027709 0.002335292137773943 0 0.027237235407027709 0.002335292137773943 0 0.026487865749478708 0.002978059007962496 0 0.027366863863644043 0.0031325554096025159 0 0.027922030005952368 0.0040184874745845308 0 0.026907109938778258 0.003128573815827056 0 0.025946203498812086 0.0030070674336908311 0 0.026302857993372217 0.0030281180129973868 0 0.02595572499526453 0.0026153478604332425 0 0.02597073741931414 0.003321355219521567 0 0.025946203498812086 0.0030070674336908311 0 0.026302857993372217 0.0030281180129973868 0 0.025638394488727553 0.0032438227792021715 0 0.025759876255011135 0.0028303767862301993 0 0.025466448483901945 0.0028790896555297343 0 0.025638394488727553 0.0032438227792021715 0 0.025946203498812086 0.0030070674336908311 0 0.025759876255011135 0.0028303767862301993 0 0.025759876255011135 0.0028303767862301993 0 0.025651354595060651 0.0025679712960439546 0 0.02595572499526453 0.0026153478604332425 0 0.025946203498812086 0.0030070674336908311 0 0.025759876255011135 0.0028303767862301993 0 0.02595572499526453 0.0026153478604332425 0 0.025759876255011135 0.0028303767862301993 0 0.025651354595060651 0.0025679712960439546 0 0.025466448483901945 0.0028790896555297343 0 0.026949630413535066 0.0025605750522430964 0 0.026907109938778258 0.003128573815827056 0 0.025749484365076465 0.0020657333141244063 0 0.025651354595060651 0.0025679712960439546 0 0.02595572499526453 0.0026153478604332425 0 0.025749484365076465 0.0020657333141244063 0 0.026949630413535066 0.0025605750522430964 0 0.027092196615615627 0.0019726747425830994 0 0.025749484365076465 0.0020657333141244063 0 0.026487865749478708 0.002978059007962496 0 0.025743109822838072 0.0020981404254044882 0 0.026443387560175838 0.0015473616703700081 0 0.027092196615615627 0.0019726747425830994 0 0.025749484365076465 0.0020657333141244063 0 0.026443387560175838 0.0015473616703700081 0 0.025749484365076465 0.0020657333141244063 0 0.025641146816421548 0.00061885983809290771 0 0.026443387560175838 0.0015473616703700081 0 0.027092196615615627 0.0019726747425830994 0 0.027141771526096963 0.0010421347378153233 0 0.027569102415825157 0.0024728887284357877 0 0.027092196615615627 0.0019726747425830994 0 0.02818716770559903 0.001544037015622265 0 0.027092196615615627 0.0019726747425830994 0 0.027141771526096963 0.0010421347378153233 0 0.02818716770559903 0.001544037015622265 0 0.027141771526096963 0.0010421347378153233 0 0.027987511744200409 0.00060382112106590951 0 0.027080123228153747 -0.000537253760728225 0 0.027141771526096963 0.0010421347378153233 0 0.027987511744200409 0.00060382112106590951 0 0.02818716770559903 0.001544037015622265 0 0.027141771526096963 0.0010421347378153233 0 0.027080123228153747 -0.000537253760728225 0 0.02574443986851814 0.00040405564264445903 0 0.025996150932296628 0.00069014496680168153 0 0.028416578573637996 0.0010669881784598975 0 0.026443387560175838 0.0015473616703700081 0 0.027141771526096963 0.0010421347378153233 0 0.025641146816421548 0.00061885983809290771 0 0.028801514203217676 0.0022132278684465715 0 0.029867017486978696 0.0015602459181486841 0 0.028933439756551861 0.0010420995633501314 0 0.032283042415278254 -8.1764704351406652e-05 0 0.031811830404452041 -3.8928752900179848e-05 0 0.031955213610419406 -0.00060857929626902151 0 0.030333196029683537 0.00076008870062745505 0 0.030800583222426663 0.00097186890964340343 0 0.028801514203217676 0.0022132278684465715 0 0.02818716770559903 0.001544037015622265 0 0.028933439756551861 0.0010420995633501314 0 0.027987511744200409 0.00060382112106590951 0 0.028933439756551861 0.0010420995633501314 0 0.028590189884493366 -9.3120350277146348e-05 0 0.027987511744200409 0.00060382112106590951 0 0.02818716770559903 0.001544037015622265 0 0.028933439756551861 0.0010420995633501314 0 0.029867017486978696 0.0015602459181486841 0 0.028933439756551861 0.0010420995633501314 0 0.030150165298590138 0.00038838413177460731 0 0.033166336666726026 -0.00016960827012092313 0 0.031315823172123794 -2.234469106488916e-05 0 0.030800583222426663 0.00097186890964340343 0 0.033166336666726026 -0.00016960827012092313 0 0.028933439756551861 0.0010420995633501314 0 0.030150165298590138 0.00038838413177460731 0 0.028590189884493366 -9.3120350277146348e-05 0 0.035011911114441394 8.6757281612204431e-05 0 0.034977874320374407 0.00023110117495188801 0 0.034926599628112016 9.0670384351606624e-05 0 0.035191245538418785 -0.00014407085134022943 0 0.033166336666726026 -0.00016960827012092313 0 0.034977874320374407 0.00023110117495188801 0 0.034926599628112016 9.0670384351606624e-05 0 0.034807164143126068 0.000209941831657566 0 0.034926599628112016 9.0670384351606624e-05 0 0.034807164143126068 0.000209941831657566 0 0.034773510845232024 3.4439313722319729e-05 0 0.035042572048048518 0.0002270732766317042 0 0.035000511686049757 1.5134818984056385e-07 0 0.03499937268933466 -1.604829599461159e-07 0 0.035200769747374558 2.4567007131345218e-05 0 0.034999631232890599 2.65199567401581e-07 0 0.034926599628112016 9.0670384351606624e-05 0 0.034773510845232024 3.4439313722319729e-05 0 0.034999620779684708 -1.2567739283692526e-07 0 0.035000267956441712 1.0936847033299625e-07 0 0.035011911114441394 8.6757281612204431e-05 0 0.034999620779684708 -1.2567739283692526e-07 0 0.035011911114441394 8.6757281612204431e-05 0 0.034926599628112016 9.0670384351606624e-05 0 0.034999620779684708 -1.2567739283692526e-07 0 0.034261787542306625 0.00096044640119919724 0 0.033326881884281949 0.00064429369071624038 0 0.03312138187006692 0.0017546484166915122 0 0.03220809317189717 0.00042713466108335876 0 0.034145709142747345 0.00089287100103844445 0 0.034379976661463252 0.00090839232063988319 0 0.033929086232398639 0.00011970828763798279 0 0.033326881884281949 0.00064429369071624038 0 0.03220809317189717 0.00042713466108335876 0 0.028416578573637996 0.0010669881784598975 0 0.034807164143126068 0.000209941831657566 0 0.034773510845232024 3.4439313722319729e-05 0 0.034547580173177897 0.00015445343991575181 0 0.031315823172123794 -2.234469106488916e-05 0 0.03220809317189717 0.00042713466108335876 0 0.035200769747374558 2.4567007131345218e-05 0 0.03220809317189717 0.00042713466108335876 0 0.027987511744200409 0.00060382112106590951 0 0.028590189884493366 -9.3120350277146348e-05 0 0.027080123228153747 -0.000537253760728225 0 0.034619031770011931 0.00029725907586212558 0 0.03499937268933466 -1.604829599461159e-07 0 0.033929086232398639 0.00011970828763798279 0 0.034999823323423426 -5.2740457814642245e-09 0 0.034448535051380763 8.5504902914079007e-05 0 0.035042572048048518 0.0002270732766317042 0 0.034379976661463252 0.00090839232063988319 0 0.034619031770011931 0.00029725907586212558 0 0.035042572048048518 0.0002270732766317042 0 0.034619031770011931 0.00029725907586212558 0 0.03499937268933466 -1.604829599461159e-07 0 0.03499999584984053 -1.3400400091166024e-09 0 0.034998503078683824 6.0810583422576852e-07 0 0.034999998971802844 3.4597792955671474e-09 0 0.034379976661463252 0.00090839232063988319 0 0.034619031770011931 0.00029725907586212558 0 0.033929086232398639 0.00011970828763798279 0 0.033929086232398639 0.00011970828763798279 0 0.033584082444875839 0.00023223738167044779 0 0.033326881884281949 0.00064429369071624038 0 0.034448535051380763 8.5504902914079007e-05 0 0.034309639576690858 0.00012844740810847617 0 0.034998503078683824 6.0810583422576852e-07 0 0.03499764365648949 1.0606453523088653e-06 0 0.034999998971802844 3.4597792955671474e-09 0 0.034999998971802844 3.4597792955671474e-09 0 0.034998783452968224 1.9330265353107109e-06 0 0.034999003331806937 1.6837787911273708e-06 0 0.03448499964857555 5.0270840880881782e-05 0 0.033623732496914152 0.00040361663278711842 0 0.033137755553938317 0.00031007237525570986 0 0.03499764365648949 1.0606453523088653e-06 0 0.034999998971802844 3.4597792955671474e-09 0 0.034998783452968224 1.9330265353107109e-06 0 0.03499764365648949 1.0606453523088653e-06 0 0.034998783452968224 1.9330265353107109e-06 0 0.034997808472767671 5.2007689241513019e-06 0 0.034309639576690858 0.00012844740810847617 0 0.034354163883303139 9.1709840478310388e-05 0 0.033584082444875839 0.00023223738167044779 0 0.033326881884281949 0.00064429369071624038 0 0.032653481740821055 0.00057787048297056976 0 0.034309639576690858 0.00012844740810847617 0 0.033352820076064757 0.00042981497651152457 0 0.033326881884281949 0.00064429369071624038 0 0.032849450090311455 0.0011026056498931252 0 0.03312138187006692 0.0017546484166915122 0 0.033326881884281949 0.00064429369071624038 0 0.032653481740821055 0.00057787048297056976 0 0.032849450090311455 0.0011026056498931252 0 0.032849450090311455 0.0011026056498931252 0 0.032290779031678506 0.0014222575861563926 0 0.03312138187006692 0.0017546484166915122 0 0.032653481740821055 0.00057787048297056976 0 0.032849450090311455 0.0011026056498931252 0 0.032290779031678506 0.0014222575861563926 0 0.032653481740821055 0.00057787048297056976 0 0.032290779031678506 0.0014222575861563926 0 0.031436153269395771 0.0010640569569339048 0 0.033623732496914152 0.00040361663278711842 0 0.033137755553938317 0.00031007237525570986 0 0.032456503294329003 0.00088193751701944143 0 0.033352820076064757 0.00042981497651152457 0 0.03075793683000249 0.0011724186980115563 0 0.029426952606511951 0.0017266652635834431 0 0.029393043183780807 0.0017069971404544981 0 0.029398774047996613 0.0017367908775000847 0 0.03122362559763402 0.0017337127280110567 0 0.03075793683000249 0.0011724186980115563 0 0.034994894149400671 3.365261029813671e-06 0 0.034997808472767671 5.2007689241513019e-06 0 0.034999003331806937 1.6837787911273708e-06 0 0.034994894149400671 3.365261029813671e-06 0 0.034997808472767671 5.2007689241513019e-06 0 0.034986257266726682 9.9871163064826192e-06 0 0.034999998971802844 3.4597792955671474e-09 0 0.034999003331806937 1.6837787911273708e-06 0 0.034999977918977021 2.0451290349535483e-09 0 0.034998783452968224 1.9330265353107109e-06 0 0.034997808472767671 5.2007689241513019e-06 0 0.034999003331806937 1.6837787911273708e-06 0 0.034994894149400671 3.365261029813671e-06 0 0.034999003331806937 1.6837787911273708e-06 0 0.034999977918977021 2.0451290349535483e-09 0 0.034999977918977021 2.0451290349535483e-09 0 0.034993436848216514 1.7768536580614159e-06 0 0.034999977061161168 8.6339681043918835e-09 0 0.034994894149400671 3.365261029813671e-06 0 0.034999977918977021 2.0451290349535483e-09 0 0.034993436848216514 1.7768536580614159e-06 0 0.035081022164456944 -0.00017378277573848927 0 0.034174424992490522 0.00021683544560513907 0 0.034993436848216514 1.7768536580614159e-06 0 0.034986257266726682 9.9871163064826192e-06 0 0.034960122172316865 1.7831705822704061e-05 0 0.034994894149400671 3.365261029813671e-06 0 0.034993436848216514 1.7768536580614159e-06 0 0.034986257266726682 9.9871163064826192e-06 0 0.034993436848216514 1.7768536580614159e-06 0 0.034999977061161168 8.6339681043918835e-09 0 0.034995344658179599 3.5175556332996924e-06 0 0.034999977061161168 8.6339681043918835e-09 0 0.034995344658179599 3.5175556332996924e-06 0 0.034987469782143774 8.7744903132344201e-06 0 0.034993436848216514 1.7768536580614159e-06 0 0.034995344658179599 3.5175556332996924e-06 0 0.034994024622878948 6.4390723884730053e-06 0 0.034174424992490522 0.00021683544560513907 0 0.035125258651061544 0.00013515494655551009 0 0.034995344658179599 3.5175556332996924e-06 0 0.034994024622878948 6.4390723884730053e-06 0 0.034987469782143774 8.7744903132344201e-06 0 0.034962684273243054 5.7871723105831076e-06 0 0.034952418467697012 1.326589192195193e-05 0 0.034987469782143774 8.7744903132344201e-06 0 0.032944744099602262 0.00059289715546826597 0 0.032982331575123466 0.0005496622005529702 0 0.033031363465010115 0.00056939847303630353 0 0.032277890725934712 0.00090225167257573238 0 0.032402867329783182 0.00057801480733348811 0 0.032277890725934712 0.00090225167257573238 0 0.034174424992490522 0.00021683544560513907 0 0.034174424992490522 0.00021683544560513907 0 0.032402867329783182 0.00057801480733348811 0 0.029320422371138199 0.0015334759900362692 0 0.029546716678564428 0.0014564342062919585 0 0.029344513020648191 0.0017027790145657299 0 0.032277890725934712 0.00090225167257573238 0 0.030440915668613792 0.0015650633323622419 0 0.029320422371138199 0.0015334759900362692 0 0.029344513020648191 0.0017027790145657299 0 0.0292067399283709 0.0017198837899560699 0 0.033137755553938317 0.00031007237525570986 0 0.031802930594931583 0.0006062871892201137 0 0.032456503294329003 0.00088193751701944143 0 0.034997808472767671 5.2007689241513019e-06 0 0.034986257266726682 9.9871163064826192e-06 0 0.034972132194962424 2.1757377132453459e-05 0 0.03075793683000249 0.0011724186980115563 0 0.028911924335244744 0.0018838039224826682 0 0.034354163883303139 9.1709840478310388e-05 0 0.032402867329783182 0.00057801480733348811 0 0.029546716678564428 0.0014564342062919585 0 0.029795780645053987 0.0015565318989531286 0 0.029344513020648191 0.0017027790145657299 0 0.032402867329783182 0.00057801480733348811 0 0.03075793683000249 0.0011724186980115563 0 0.034986257266726682 9.9871163064826192e-06 0 0.034960122172316865 1.7831705822704061e-05 0 0.034972132194962424 2.1757377132453459e-05 0 0.029393043183780807 0.0017069971404544981 0 0.029372292790450252 0.0017520008040396917 0 0.029398774047996613 0.0017367908775000847 0 0.029393043183780807 0.0017069971404544981 0 0.029372292790450252 0.0017520008040396917 0 0.029344513020648191 0.0017027790145657299 0 0.029372292790450252 0.0017520008040396917 0 0.029344513020648191 0.0017027790145657299 0 0.029330188013174101 0.0017661123206138254 0 0.029344513020648191 0.0017027790145657299 0 0.029276320718708018 0.0017627163995887919 0 0.0292067399283709 0.0017198837899560699 0 0.029344513020648191 0.0017027790145657299 0 0.029330188013174101 0.0017661123206138254 0 0.029276320718708018 0.0017627163995887919 0 0.029330188013174101 0.0017661123206138254 0 0.029276320718708018 0.0017627163995887919 0 0.029279607968753649 0.0018120108473251326 0 0.029330188013174101 0.0017661123206138254 0 0.029279607968753649 0.0018120108473251326 0 0.029345694273119068 0.0018516277057103131 0 0.029279607968753649 0.0018120108473251326 0 0.029345694273119068 0.0018516277057103131 0 0.029263434218498228 0.0018682378880182555 0 0.029276320718708018 0.0017627163995887919 0 0.029279607968753649 0.0018120108473251326 0 0.029210176488426245 0.0017922313964343801 0 0.029279607968753649 0.0018120108473251326 0 0.029223096117658335 0.0018351543838965618 0 0.029263434218498228 0.0018682378880182555 0 0.029372292790450252 0.0017520008040396917 0 0.029345694273119068 0.0018516277057103131 0 0.029410887110044231 0.0017810302987696712 0 0.029372292790450252 0.0017520008040396917 0 0.029330188013174101 0.0017661123206138254 0 0.029345694273119068 0.0018516277057103131 0 0.024119324454823392 0.0019976108145307561 0 0.02473760237641201 0.0014177758715987535 0 0.024623096149226253 0.0021757975504765044 0 0.026797636270084878 0.001860368349292421 0 0.026930064845634847 0.0016634382594325051 0 0.02473760237641201 0.0014177758715987535 0 0.025749484365076465 0.0020657333141244063 0 0.025200524027980391 0.0024228175934656953 0 0.02473760237641201 0.0014177758715987535 0 0.025749484365076465 0.0020657333141244063 0 0.025641146816421548 0.00061885983809290771 0 0.029426952606511951 0.0017266652635834431 0 0.029410887110044231 0.0017810302987696712 0 0.029450900658591166 0.0017385112377460217 0 0.026930064845634847 0.0016634382594325051 0 0.028416578573637996 0.0010669881784598975 0 0.03122362559763402 0.0017337127280110567 0 0.028416578573637996 0.0010669881784598975 0 0.029426952606511951 0.0017266652635834431 0 0.029410887110044231 0.0017810302987696712 0 0.029398774047996613 0.0017367908775000847 0 0.029372292790450252 0.0017520008040396917 0 0.029410887110044231 0.0017810302987696712 0 0.029398774047996613 0.0017367908775000847 0 0.035429013915348202 0.0010974477112964663 0 0.035677353674578895 0.00089618219571860011 0 0.035767913837766903 0.0012481408865663548 0 0.035429013915348202 0.0010974477112964663 0 0.035677353674578895 0.00089618219571860011 0 0.035314378627729244 0.0005404059326713465 0 0.035677353674578895 0.00089618219571860011 0 0.035314378627729244 0.0005404059326713465 0 0.03570394568937961 0.0004457004282562222 0 0.035429013915348202 0.0010974477112964663 0 0.035314378627729244 0.0005404059326713465 0 0.035054927424318046 0.00074570698389054679 0 0.035314378627729244 0.0005404059326713465 0 0.035001748934639115 3.24678023952495e-07 0 0.034994240152340539 0.00023863185922624557 0 0.035314378627729244 0.0005404059326713465 0 0.035001748934639115 3.24678023952495e-07 0 0.03570394568937961 0.0004457004282562222 0 0.035000078551362016 -2.6272662030196206e-08 0 0.035432489271604688 0.00041519775813678969 0 0.034999999242513742 3.1533017230831119e-09 0 0.034991597154810261 6.1246478926880392e-06 0 0.034999959248630495 9.1071693188225919e-09 0 0.034991597154810261 6.1246478926880392e-06 0 0.034986700303191766 4.5849199744098621e-06 0 0.034999959248630495 9.1071693188225919e-09 0 0.034986700303191766 4.5849199744098621e-06 0 0.03495162059065534 2.262308361826696e-05 0 0.034974798945631186 1.2890756446346442e-05 0 0.034978441271663309 -0.00041009563597785244 0 0.033185767214933243 0.00089797540348281809 0 0.034991597154810261 6.1246478926880392e-06 0 0.034986700303191766 4.5849199744098621e-06 0 0.034978705459552631 1.1055376815596714e-05 0 0.035677353674578895 0.00089618219571860011 0 0.03570394568937961 0.0004457004282562222 0 0.036154525653310607 0.0010001805863494968 0 0.035432489271604688 0.00041519775813678969 0 0.033185767214933243 0.00089797540348281809 0 0.035677353674578895 0.00089618219571860011 0 0.036154525653310607 0.0010001805863494968 0 0.035767913837766903 0.0012481408865663548 0 0.03495367363082913 3.0016202630743153e-05 0 0.03495162059065534 2.262308361826696e-05 0 0.034974798945631186 1.2890756446346442e-05 0 0.028648128276083699 0.0014302401093941926 0 0.028535524969676793 0.0012927263689706972 0 0.028512961006338676 0.0014564212842606808 0 0.031456488386573112 0.00099977318558489622 0 0.033185767214933243 0.00089797540348281809 0 0.031456488386573112 0.00099977318558489622 0 0.033851257305887852 0.00035778716942011231 0 0.03495367363082913 3.0016202630743153e-05 0 0.034974798945631186 1.2890756446346442e-05 0 0.034980391182709659 1.3711639087914426e-05 0 0.034974798945631186 1.2890756446346442e-05 0 0.034989180989071021 6.1578330073185832e-06 0 0.034980391182709659 1.3711639087914426e-05 0 0.034986700303191766 4.5849199744098621e-06 0 0.034974798945631186 1.2890756446346442e-05 0 0.034989180989071021 6.1578330073185832e-06 0 0.034986700303191766 4.5849199744098621e-06 0 0.034999959248630495 9.1071693188225919e-09 0 0.034989180989071021 6.1578330073185832e-06 0 0.034999977061161168 8.6339681043918835e-09 0 0.034989180989071021 6.1578330073185832e-06 0 0.034987469782143774 8.7744903132344201e-06 0 0.034999977061161168 8.6339681043918835e-09 0 0.034999959248630495 9.1071693188225919e-09 0 0.034989180989071021 6.1578330073185832e-06 0 0.032277890725934712 0.00090225167257573238 0 0.033851257305887852 0.00035778716942011231 0 0.032219672518350645 0.00083569326558459759 0 0.031641934547463856 0.00096401619088476388 0 0.031854631626144173 0.0012426888114076345 0 0.034962684273243054 5.7871723105831076e-06 0 0.034987469782143774 8.7744903132344201e-06 0 0.034980391182709659 1.3711639087914426e-05 0 0.034989180989071021 6.1578330073185832e-06 0 0.034987469782143774 8.7744903132344201e-06 0 0.034980391182709659 1.3711639087914426e-05 0 0.031641934547463856 0.00096401619088476388 0 0.031854631626144173 0.0012426888114076345 0 0.031510317038161373 0.0012516421997219877 0 0.030440915668613792 0.0015650633323622419 0 0.029662196387951614 0.0017808949787614162 0 0.0292067399283709 0.0017198837899560699 0 0.029210176488426245 0.0017922313964343801 0 0.029150024701144198 0.0018012485114819248 0 0.031854631626144173 0.0012426888114076345 0 0.031487266034091674 0.0016438805197295599 0 0.031510317038161373 0.0012516421997219877 0 0.029276320718708018 0.0017627163995887919 0 0.0292067399283709 0.0017198837899560699 0 0.029210176488426245 0.0017922313964343801 0 0.029662196387951614 0.0017808949787614162 0 0.028519912257562018 0.0026685732935997856 0 0.029279607968753649 0.0018120108473251326 0 0.029210176488426245 0.0017922313964343801 0 0.029223096117658335 0.0018351543838965618 0 0.028901688681473619 0.0020064684761689775 0 0.0289435418780883 0.0022068324098902014 0 0.029239465842322575 0.0024590851598433267 0 0.029223096117658335 0.0018351543838965618 0 0.029150024701144198 0.0018012485114819248 0 0.02921589172575953 0.0018990425279080605 0 0.029210176488426245 0.0017922313964343801 0 0.029223096117658335 0.0018351543838965618 0 0.029150024701144198 0.0018012485114819248 0 0.029662196387951614 0.0017808949787614162 0 0.028365471737945829 0.0025025163541066565 0 0.028989388617626923 0.0019449282144383632 0 0.028581867645104779 0.0021972161223334399 0 0.028530370936557092 0.0023865736321521812 0 0.028901688681473619 0.0020064684761689775 0 0.028530370936557092 0.0023865736321521812 0 0.028774757559335295 0.0023848487804182476 0 0.028901688681473619 0.0020064684761689775 0 0.0289435418780883 0.0022068324098902014 0 0.028774757559335295 0.0023848487804182476 0 0.028989388617626923 0.0019449282144383632 0 0.028581867645104779 0.0021972161223334399 0 0.028647914604548193 0.0020032336126720985 0 0.028989388617626923 0.0019449282144383632 0 0.028647914604548193 0.0020032336126720985 0 0.028706582753113406 0.001895448652420566 0 0.028647914604548193 0.0020032336126720985 0 0.028706582753113406 0.001895448652420566 0 0.028536607393822012 0.0018965339622279136 0 0.028989388617626923 0.0019449282144383632 0 0.028706582753113406 0.001895448652420566 0 0.028659608780354656 0.0017372835754281169 0 0.028613464892101877 0.0014359691299079015 0 0.028989388617626923 0.0019449282144383632 0 0.028659608780354656 0.0017372835754281169 0 0.028706582753113406 0.001895448652420566 0 0.028659608780354656 0.0017372835754281169 0 0.028536607393822012 0.0018965339622279136 0 0.031065176362690145 0.0010906462079291863 0 0.031487266034091674 0.0016438805197295599 0 0.031510317038161373 0.0012516421997219877 0 0.031065176362690145 0.0010906462079291863 0 0.031641934547463856 0.00096401619088476388 0 0.031510317038161373 0.0012516421997219877 0 0.031456488386573112 0.00099977318558489622 0 0.029662196387951614 0.0017808949787614162 0 0.036154525653310607 0.0010001805863494968 0 0.035767913837766903 0.0012481408865663548 0 0.03593564620699137 0.0016761860537437372 0 0.028535524969676793 0.0012927263689706972 0 0.028512961006338676 0.0014564212842606808 0 0.028354777948625901 0.001764489918238944 0 0.033185767214933243 0.00089797540348281809 0 0.032123659550337955 0.0018022262867027174 0 0.028659608780354656 0.0017372835754281169 0 0.028512961006338676 0.0014564212842606808 0 0.028354777948625901 0.001764489918238944 0 0.028613464892101877 0.0014359691299079015 0 0.028659608780354656 0.0017372835754281169 0 0.028512961006338676 0.0014564212842606808 0 0.031456488386573112 0.00099977318558489622 0 0.03006017252733352 0.001273496327825345 0 0.028659608780354656 0.0017372835754281169 0 0.028354777948625901 0.001764489918238944 0 0.028536607393822012 0.0018965339622279136 0 0.032123659550337955 0.0018022262867027174 0 0.03049836572110225 0.0017556089122288062 0 0.028354777948625901 0.001764489918238944 0 0.02842310198136723 0.0020728340235512109 0 0.028536607393822012 0.0018965339622279136 0 0.028354777948625901 0.001764489918238944 0 0.02842310198136723 0.0020728340235512109 0 0.028211732537742614 0.0022042433605813151 0 0.028647914604548193 0.0020032336126720985 0 0.02842310198136723 0.0020728340235512109 0 0.028536607393822012 0.0018965339622279136 0 0.028581867645104779 0.0021972161223334399 0 0.02842310198136723 0.0020728340235512109 0 0.028485135264754304 0.0023665741632588212 0 0.028581867645104779 0.0021972161223334399 0 0.028647914604548193 0.0020032336126720985 0 0.02842310198136723 0.0020728340235512109 0 0.02842310198136723 0.0020728340235512109 0 0.028211732537742614 0.0022042433605813151 0 0.028485135264754304 0.0023665741632588212 0 0.035720669380483024 0.0022800462902348661 0 0.035482322544871568 0.0016304280248513421 0 0.03503030929193094 0.0019944741067987625 0 0.03593564620699137 0.0016761860537437372 0 0.035720669380483024 0.0022800462902348661 0 0.035482322544871568 0.0016304280248513421 0 0.028472368869398138 0.00152117585939009 0 0.028986452677098623 0.001482182596793535 0 0.02947511024376738 0.0020232046301363119 0 0.03049836572110225 0.0017556089122288062 0 0.032553033189031397 0.0020824173184453023 0 0.035767913837766903 0.0012481408865663548 0 0.03593564620699137 0.0016761860537437372 0 0.035482322544871568 0.0016304280248513421 0 0.035429013915348202 0.0010974477112964663 0 0.035767913837766903 0.0012481408865663548 0 0.035482322544871568 0.0016304280248513421 0 0.035429013915348202 0.0010974477112964663 0 0.035482322544871568 0.0016304280248513421 0 0.035006238654602888 0.0013869525336413593 0 0.026889021519481856 0.0018751665171032783 0 0.028138873872966607 0.001082915057621754 0 0.026179801456377182 0.0036120032327420257 0 0.027924322964395773 0.0031223280503628369 0 0.02776676580917414 0.0029068325422389263 0 0.027813845304640351 0.003378584206260902 0 0.027924322964395773 0.0031223280503628369 0 0.028138759200108419 0.0032075702656428535 0 0.027813845304640351 0.003378584206260902 0 0.02776676580917414 0.0029068325422389263 0 0.027999569612249538 0.0027138343900503289 0 0.028049125691168856 0.0029417709457333452 0 0.027924322964395773 0.0031223280503628369 0 0.02776676580917414 0.0029068325422389263 0 0.028049125691168856 0.0029417709457333452 0 0.026889021519481856 0.0018751665171032783 0 0.028138873872966607 0.001082915057621754 0 0.028277476883554024 0.0010248508423457417 0 0.028037563369663333 0.0021494747754018579 0 0.02776676580917414 0.0029068325422389263 0 0.027999569612249538 0.0027138343900503289 0 0.03049836572110225 0.0017556089122288062 0 0.027669760187837796 0.0021030966102566812 0 0.028986452677098623 0.001482182596793535 0 0.028277476883554024 0.0010248508423457417 0 0.029278563856719262 0.0010763181611933401 0 0.028472368869398138 0.00152117585939009 0 0.028986452677098623 0.001482182596793535 0 0.028277476883554024 0.0010248508423457417 0 0.028472368869398138 0.00152117585939009 0 0.028138873872966607 0.001082915057621754 0 0.028277476883554024 0.0010248508423457417 0 0.028037563369663333 0.0021494747754018579 0 0.027999569612249538 0.0027138343900503289 0 0.028115969751042722 0.0025707135612614393 0 0.027999569612249538 0.0027138343900503289 0 0.028115969751042722 0.0025707135612614393 0 0.028161991474311851 0.0027856966084234104 0 0.028244848203302291 0.0026363970950233958 0 0.028115969751042722 0.0025707135612614393 0 0.028161991474311851 0.0027856966084234104 0 0.028244848203302291 0.0026363970950233958 0 0.028329485988308523 0.0028711834595850786 0 0.028161991474311851 0.0027856966084234104 0 0.028244848203302291 0.0026363970950233958 0 0.028115969751042722 0.0025707135612614393 0 0.028212816261991298 0.002455260643118338 0 0.028244848203302291 0.0026363970950233958 0 0.028212816261991298 0.002455260643118338 0 0.028330305954516608 0.0025270854984665208 0 0.028037563369663333 0.0021494747754018579 0 0.028115969751042722 0.0025707135612614393 0 0.028212816261991298 0.002455260643118338 0 0.028037563369663333 0.0021494747754018579 0 0.028485135264754304 0.0023665741632588212 0 0.028305179548716339 0.0023954222402460309 0 0.028037563369663333 0.0021494747754018579 0 0.028212816261991298 0.002455260643118338 0 0.028305179548716339 0.0023954222402460309 0 0.03049836572110225 0.0017556089122288062 0 0.028042735050630225 0.0019351480099128384 0 0.028212816261991298 0.002455260643118338 0 0.028305179548716339 0.0023954222402460309 0 0.028330305954516608 0.0025270854984665208 0 0.028581867645104779 0.0021972161223334399 0 0.028485135264754304 0.0023665741632588212 0 0.028530370936557092 0.0023865736321521812 0 0.028485135264754304 0.0023665741632588212 0 0.028305179548716339 0.0023954222402460309 0 0.028449719066140161 0.0024695991783090189 0 0.028305179548716339 0.0023954222402460309 0 0.028449719066140161 0.0024695991783090189 0 0.028330305954516608 0.0025270854984665208 0 0.028530370936557092 0.0023865736321521812 0 0.028533363715046542 0.0025134400632759579 0 0.028449719066140161 0.0024695991783090189 0 0.028485135264754304 0.0023665741632588212 0 0.028530370936557092 0.0023865736321521812 0 0.028449719066140161 0.0024695991783090189 0 0.028533363715046542 0.0025134400632759579 0 0.028449719066140161 0.0024695991783090189 0 0.028412351275779443 0.0026185555305166274 0 0.028244848203302291 0.0026363970950233958 0 0.028412351275779443 0.0026185555305166274 0 0.028329485988308523 0.0028711834595850786 0 0.028412351275779443 0.0026185555305166274 0 0.028329485988308523 0.0028711834595850786 0 0.028644323366418811 0.0026275419014928033 0 0.028449719066140161 0.0024695991783090189 0 0.028412351275779443 0.0026185555305166274 0 0.028330305954516608 0.0025270854984665208 0 0.028244848203302291 0.0026363970950233958 0 0.028412351275779443 0.0026185555305166274 0 0.028330305954516608 0.0025270854984665208 0 0.028329485988308523 0.0028711834595850786 0 0.028138759200108419 0.0032075702656428535 0 0.028843404565494803 0.0031389077172420208 0 0.028329485988308523 0.0028711834595850786 0 0.028049125691168856 0.0029417709457333452 0 0.028138759200108419 0.0032075702656428535 0 0.028329485988308523 0.0028711834595850786 0 0.028161991474311851 0.0027856966084234104 0 0.028049125691168856 0.0029417709457333452 0 0.027999569612249538 0.0027138343900503289 0 0.028161991474311851 0.0027856966084234104 0 0.028049125691168856 0.0029417709457333452 0 0.027924322964395773 0.0031223280503628369 0 0.028049125691168856 0.0029417709457333452 0 0.028138759200108419 0.0032075702656428535 0 0.028329485988308523 0.0028711834595850786 0 0.028843404565494803 0.0031389077172420208 0 0.028644323366418811 0.0026275419014928033 0 0.028843404565494803 0.0031389077172420208 0 0.028883454964287625 0.0026375815561513485 0 0.029090583783000151 0.0026784346180292054 0 0.028843404565494803 0.0031389077172420208 0 0.028644323366418811 0.0026275419014928033 0 0.028883454964287625 0.0026375815561513485 0 0.028533363715046542 0.0025134400632759579 0 0.028644323366418811 0.0026275419014928033 0 0.028627993157760569 0.0024702488878092779 0 0.028533363715046542 0.0025134400632759579 0 0.028412351275779443 0.0026185555305166274 0 0.028644323366418811 0.0026275419014928033 0 0.028530370936557092 0.0023865736321521812 0 0.028533363715046542 0.0025134400632759579 0 0.028627993157760569 0.0024702488878092779 0 0.028530370936557092 0.0023865736321521812 0 0.028627993157760569 0.0024702488878092779 0 0.028774757559335295 0.0023848487804182476 0 0.028644323366418811 0.0026275419014928033 0 0.028627993157760569 0.0024702488878092779 0 0.028774757559335295 0.0023848487804182476 0 0.028774757559335295 0.0023848487804182476 0 0.028883454964287625 0.0026375815561513485 0 0.029000551612036542 0.0024702613941206455 0 0.0289435418780883 0.0022068324098902014 0 0.028774757559335295 0.0023848487804182476 0 0.029000551612036542 0.0024702613941206455 0 0.028644323366418811 0.0026275419014928033 0 0.028774757559335295 0.0023848487804182476 0 0.028883454964287625 0.0026375815561513485 0 0.029090583783000151 0.0026784346180292054 0 0.029000551612036542 0.0024702613941206455 0 0.029287314407168905 0.002486888549768234 0 0.028883454964287625 0.0026375815561513485 0 0.029090583783000151 0.0026784346180292054 0 0.029000551612036542 0.0024702613941206455 0 0.0289435418780883 0.0022068324098902014 0 0.029000551612036542 0.0024702613941206455 0 0.029287314407168905 0.002486888549768234 0 0.029079618195773285 0.0023501642525433886 0 0.028519912257562018 0.0026685732935997856 0 0.029223096117658335 0.0018351543838965618 0 0.02921589172575953 0.0018990425279080605 0 0.029263434218498228 0.0018682378880182555 0 0.029090583783000151 0.0026784346180292054 0 0.029287314407168905 0.002486888549768234 0 0.029432162471108698 0.0026753332427002963 0 0.028519912257562018 0.0026685732935997856 0 0.026216722766314045 0.0027706931343534076 0 0.023993726402577253 0.0037413437742344546 0 0.024256162063304637 0.0037472363225956691 0 0.024336068617461681 0.0034855948867683283 0 0.026528238079545349 0.0034657552989517098 0 0.026216722766314045 0.0027706931343534076 0 0.028843404565494803 0.0031389077172420208 0 0.029090583783000151 0.0026784346180292054 0 0.029432162471108698 0.0026753332427002963 0 0.024256162063304637 0.0037472363225956691 0 0.024126892015849662 0.0040274724751363502 0 0.02436054330882027 0.00385993808056425 0 0.023993726402577253 0.0037413437742344546 0 0.024256162063304637 0.0037472363225956691 0 0.024126892015849662 0.0040274724751363502 0 0.024126892015849662 0.0040274724751363502 0 0.024366502432482645 0.004021343329091754 0 0.023992931798873424 0.0043065701634782318 0 0.02385579540080476 0.0041807513908540712 0 0.023573706194577798 0.0044034292959644833 0 0.023992931798873424 0.0043065701634782318 0 0.024126892015849662 0.0040274724751363502 0 0.02385579540080476 0.0041807513908540712 0 0.023992931798873424 0.0043065701634782318 0 0.026528238079545349 0.0034657552989517098 0 0.025860560431025959 0.0039267120372818891 0 0.023993726402577253 0.0037413437742344546 0 0.02385579540080476 0.0041807513908540712 0 0.023581953268406369 0.0041927420317220392 0 0.023993726402577253 0.0037413437742344546 0 0.024126892015849662 0.0040274724751363502 0 0.02385579540080476 0.0041807513908540712 0 0.028138759200108419 0.0032075702656428535 0 0.028843404565494803 0.0031389077172420208 0 0.028132047055977657 0.0036861215643543854 0 0.028138759200108419 0.0032075702656428535 0 0.028132047055977657 0.0036861215643543854 0 0.027813845304640351 0.003378584206260902 0 0.02385579540080476 0.0041807513908540712 0 0.023581953268406369 0.0041927420317220392 0 0.023573706194577798 0.0044034292959644833 0 0.023568824472974089 0.004382986411087841 0 0.023680503316819024 0.0043093025558780911 0 0.023581953268406369 0.0041927420317220392 0 0.023635622800072757 0.0044952712250709145 0 0.023757488693631177 0.0046327985827013694 0 0.028132047055977657 0.0036861215643543854 0 0.02746817084006075 0.003700011538473763 0 0.027290243144265661 0.00424404402773494 0 0.025860560431025959 0.0039267120372818891 0 0.025554313427609925 0.0044707454959654336 0 0.023581953268406369 0.0041927420317220392 0 0.023573706194577798 0.0044034292959644833 0 0.023635622800072757 0.0044952712250709145 0 0.023573706194577798 0.0044034292959644833 0 0.023635622800072757 0.0044952712250709145 0 0.02353332902758937 0.0044563366411463157 0 0.023635622800072757 0.0044952712250709145 0 0.023711337968560953 0.0045271640838596434 0 0.023757488693631177 0.0046327985827013694 0 0.027669760187837796 0.0021030966102566812 0 0.026869101681827424 0.0034616479359061152 0 0.028132047055977657 0.0036861215643543854 0 0.02746817084006075 0.003700011538473763 0 0.027813845304640351 0.003378584206260902 0 0.02776676580917414 0.0029068325422389263 0 0.02746817084006075 0.003700011538473763 0 0.027813845304640351 0.003378584206260902 0 0.024817923521973179 0.0026251743919121591 0 0.024609166147944877 0.0028880292068747919 0 0.025060269087159345 0.0029438599865816138 0 0.024817923521973179 0.0026251743919121591 0 0.024609166147944877 0.0028880292068747919 0 0.024384686720950136 0.0025429459528012155 0 0.024609166147944877 0.0028880292068747919 0 0.025060269087159345 0.0029438599865816138 0 0.02467599288070044 0.0033831013245755447 0 0.025060269087159345 0.0029438599865816138 0 0.025466448483901945 0.0028790896555297343 0 0.025200524027980391 0.0024228175934656953 0 0.024817923521973179 0.0026251743919121591 0 0.025060269087159345 0.0029438599865816138 0 0.025200524027980391 0.0024228175934656953 0 0.025638394488727553 0.0032438227792021715 0 0.025466448483901945 0.0028790896555297343 0 0.025217428773405139 0.0032749545580959293 0 0.025060269087159345 0.0029438599865816138 0 0.025466448483901945 0.0028790896555297343 0 0.025217428773405139 0.0032749545580959293 0 0.025651354595060651 0.0025679712960439546 0 0.025466448483901945 0.0028790896555297343 0 0.025200524027980391 0.0024228175934656953 0 0.025651354595060651 0.0025679712960439546 0 0.025749484365076465 0.0020657333141244063 0 0.025200524027980391 0.0024228175934656953 0 0.02473760237641201 0.0014177758715987535 0 0.025200524027980391 0.0024228175934656953 0 0.024623096149226253 0.0021757975504765044 0 0.024817923521973179 0.0026251743919121591 0 0.025200524027980391 0.0024228175934656953 0 0.024623096149226253 0.0021757975504765044 0 0.024817923521973179 0.0026251743919121591 0 0.024623096149226253 0.0021757975504765044 0 0.024384686720950136 0.0025429459528012155 0 0.024119324454823392 0.0019976108145307561 0 0.024623096149226253 0.0021757975504765044 0 0.024384686720950136 0.0025429459528012155 0 0.024119324454823392 0.0019976108145307561 0 0.023990648994690351 0.0024699747227286046 0 0.024384686720950136 0.0025429459528012155 0 0.026797636270084878 0.001860368349292421 0 0.026258615660621827 0.0024851756307413646 0 0.029345694273119068 0.0018516277057103131 0 0.029263434218498228 0.0018682378880182555 0 0.029244730031568935 0.0019311810250358639 0 0.024119324454823392 0.0019976108145307561 0 0.023990648994690351 0.0024699747227286046 0 0.02352582094957209 0.0024508894857315903 0 0.02921589172575953 0.0018990425279080605 0 0.029263434218498228 0.0018682378880182555 0 0.029244730031568935 0.0019311810250358639 0 0.026258615660621827 0.0024851756307413646 0 0.026216722766314045 0.0027706931343534076 0 0.027830638600792514 0.0031243446236008956 0 0.026653728580527249 0.0021831257915358193 0 0.026929793860656734 0.0019955675981718603 0 0.028519912257562018 0.0026685732935997856 0 0.026258615660621827 0.0024851756307413646 0 0.026216722766314045 0.0027706931343534076 0 0.024184314621932289 0.0036624772433508711 0 0.024256162063304637 0.0037472363225956691 0 0.024336068617461681 0.0034855948867683283 0 0.024501013872519701 0.0037073242507465812 0 0.024425607109402888 0.0035216307962513552 0 0.024410581046019519 0.003532139574185291 0 0.024501013872519701 0.0037073242507465812 0 0.024425607109402888 0.0035216307962513552 0 0.024501013872519701 0.0037073242507465812 0 0.024554371527467856 0.0036605579160594397 0 0.023990648994690351 0.0024699747227286046 0 0.02352582094957209 0.0024508894857315903 0 0.024089380139990256 0.0029266624123186129 0 0.026258615660621827 0.0024851756307413646 0 0.024023359386144284 0.0031952755477767801 0 0.024609166147944877 0.0028880292068747919 0 0.024089380139990256 0.0029266624123186129 0 0.02467599288070044 0.0033831013245755447 0 0.024609166147944877 0.0028880292068747919 0 0.024384686720950136 0.0025429459528012155 0 0.024089380139990256 0.0029266624123186129 0 0.023990648994690351 0.0024699747227286046 0 0.024384686720950136 0.0025429459528012155 0 0.024089380139990256 0.0029266624123186129 0 0.024501013872519701 0.0037073242507465812 0 0.024554371527467856 0.0036605579160594397 0 0.024617280686631503 0.0037646161178245211 0 0.024554371527467856 0.0036605579160594397 0 0.024617280686631503 0.0037646161178245211 0 0.024789961274222689 0.0037369841386116669 0 0.024023359386144284 0.0031952755477767801 0 0.024799815651580501 0.0035996615980434924 0 0.024617280686631503 0.0037646161178245211 0 0.024497978288981499 0.0038701304082034366 0 0.02463979749643554 0.0039995902100660738 0 0.024617280686631503 0.0037646161178245211 0 0.02463979749643554 0.0039995902100660738 0 0.024789961274222689 0.0037369841386116669 0 0.024501013872519701 0.0037073242507465812 0 0.024617280686631503 0.0037646161178245211 0 0.024497978288981499 0.0038701304082034366 0 0.024126892015849662 0.0040274724751363502 0 0.02436054330882027 0.00385993808056425 0 0.024366502432482645 0.004021343329091754 0 0.024256162063304637 0.0037472363225956691 0 0.024501013872519701 0.0037073242507465812 0 0.02436054330882027 0.00385993808056425 0 0.024501013872519701 0.0037073242507465812 0 0.024497978288981499 0.0038701304082034366 0 0.02436054330882027 0.00385993808056425 0 0.024497978288981499 0.0038701304082034366 0 0.02436054330882027 0.00385993808056425 0 0.024366502432482645 0.004021343329091754 0 0.024366502432482645 0.004021343329091754 0 0.02463979749643554 0.0039995902100660738 0 0.024358085086270829 0.0043049160641484788 0 0.024497978288981499 0.0038701304082034366 0 0.024366502432482645 0.004021343329091754 0 0.02463979749643554 0.0039995902100660738 0 0.02463979749643554 0.0039995902100660738 0 0.025143457106381491 0.0037985454341366632 0 0.025029182155853702 0.004174231950371414 0 0.02463979749643554 0.0039995902100660738 0 0.024789961274222689 0.0037369841386116669 0 0.025143457106381491 0.0037985454341366632 0 0.024799815651580501 0.0035996615980434924 0 0.025093516956917677 0.0037829297286618591 0 0.02467599288070044 0.0033831013245755447 0 0.025217428773405139 0.0032749545580959293 0 0.025143457106381491 0.0037985454341366632 0 0.025638394488727553 0.0032438227792021715 0 0.025217428773405139 0.0032749545580959293 0 0.025143457106381491 0.0037985454341366632 0 0.025060269087159345 0.0029438599865816138 0 0.02467599288070044 0.0033831013245755447 0 0.025217428773405139 0.0032749545580959293 0 0.025143457106381491 0.0037985454341366632 0 0.025029182155853702 0.004174231950371414 0 0.025490382426136833 0.0040298184393452166 0 0.025029182155853702 0.004174231950371414 0 0.025490382426136833 0.0040298184393452166 0 0.025411508660064676 0.0043858444041634838 0 0.025029182155853702 0.004174231950371414 0 0.025019033602964265 0.0044973852192523736 0 0.025411508660064676 0.0043858444041634838 0 0.025019033602964265 0.0044973852192523736 0 0.025411508660064676 0.0043858444041634838 0 0.025332304382002107 0.0047112475735763184 0 0.025019033602964265 0.0044973852192523736 0 0.024645488829990164 0.0044023284963444608 0 0.024748503184660015 0.004928000633347006 0 0.025029182155853702 0.004174231950371414 0 0.025019033602964265 0.0044973852192523736 0 0.024645488829990164 0.0044023284963444608 0 0.02463979749643554 0.0039995902100660738 0 0.025029182155853702 0.004174231950371414 0 0.024645488829990164 0.0044023284963444608 0 0.02463979749643554 0.0039995902100660738 0 0.024645488829990164 0.0044023284963444608 0 0.024358085086270829 0.0043049160641484788 0 0.024618293956760604 0.0043999028197736498 0 0.02407988365884536 0.0042729138098373826 0 0.024645488829990164 0.0044023284963444608 0 0.023774204077502012 0.0042125051818926338 0 0.023770760797045556 0.0045702202821280187 0 0.024645488829990164 0.0044023284963444608 0 0.023770760797045556 0.0045702202821280187 0 0.02410211019614274 0.0049252550030964761 0 0.023770760797045556 0.0045702202821280187 0 0.02410211019614274 0.0049252550030964761 0 0.023375564931378455 0.0048492169546477401 0 0.02410211019614274 0.0049252550030964761 0 0.023375564931378455 0.0048492169546477401 0 0.023937609737879183 0.0055257262755164906 0 0.0231820486624532 0.0047657377220658263 0 0.024281628794116605 0.0055367910477274454 0 0.023375564931378455 0.0048492169546477401 0 0.023319513505774329 0.005122269124586065 0 0.023532535153677477 0.0051862762849786588 0 0.02410211019614274 0.0049252550030964761 0 0.024346848234185932 0.0052794639492912791 0 0.024748503184660015 0.004928000633347006 0 0.02410211019614274 0.0049252550030964761 0 0.024346848234185932 0.0052794639492912791 0 0.023937609737879183 0.0055257262755164906 0 0.024346848234185932 0.0052794639492912791 0 0.024746700522521328 0.0054159122140750018 0 0.024748503184660015 0.004928000633347006 0 0.024746700522521328 0.0054159122140750018 0 0.025246353371123083 0.0051571799665668791 0 0.024748503184660015 0.004928000633347006 0 0.024746700522521328 0.0054159122140750018 0 0.025246353371123083 0.0051571799665668791 0 0.025131015836321272 0.0056627513106743696 0 0.025019033602964265 0.0044973852192523736 0 0.024748503184660015 0.004928000633347006 0 0.025332304382002107 0.0047112475735763184 0 0.025246353371123083 0.0051571799665668791 0 0.024748503184660015 0.004928000633347006 0 0.025332304382002107 0.0047112475735763184 0 0.024645488829990164 0.0044023284963444608 0 0.02410211019614274 0.0049252550030964761 0 0.024748503184660015 0.004928000633347006 0 0.023558999813341322 0.0044327578255790138 0 0.023170919173940464 0.004521155076839898 0 0.023579419467846873 0.0044142589727592359 0 0.023558999813341322 0.0044327578255790138 0 0.02353332902758937 0.0044563366411463157 0 0.023269730069232004 0.0044634934751325668 0 0.023558999813341322 0.0044327578255790138 0 0.023269730069232004 0.0044634934751325668 0 0.023170919173940464 0.004521155076839898 0 0.023558999813341322 0.0044327578255790138 0 0.023729044172479393 0.0044426038626283193 0 0.02353332902758937 0.0044563366411463157 0 0.023729044172479393 0.0044426038626283193 0 0.023711337968560953 0.0045271640838596434 0 0.02353332902758937 0.0044563366411463157 0 0.023635622800072757 0.0044952712250709145 0 0.023711337968560953 0.0045271640838596434 0 0.02353332902758937 0.0044563366411463157 0 0.023573706194577798 0.0044034292959644833 0 0.02353332902758937 0.0044563366411463157 0 0.02338664023632268 0.0043971009327133971 0 0.02353332902758937 0.0044563366411463157 0 0.02338664023632268 0.0043971009327133971 0 0.023269730069232004 0.0044634934751325668 0 0.023573706194577798 0.0044034292959644833 0 0.02338664023632268 0.0043971009327133971 0 0.023363476393849242 0.0043175727604641426 0 0.02338664023632268 0.0043971009327133971 0 0.023269730069232004 0.0044634934751325668 0 0.023295839084574083 0.0044866711862770643 0 0.02338664023632268 0.0043971009327133971 0 0.023295839084574083 0.0044866711862770643 0 0.023363476393849242 0.0043175727604641426 0 0.024366502432482645 0.004021343329091754 0 0.024358085086270829 0.0043049160641484788 0 0.023992931798873424 0.0043065701634782318 0 0.023774204077502012 0.0042125051818926338 0 0.023295839084574083 0.0044866711862770643 0 0.023363476393849242 0.0043175727604641426 0 0.02407988365884536 0.0042729138098373826 0 0.023680503316819024 0.0043093025558780911 0 0.023774204077502012 0.0042125051818926338 0 0.023770760797045556 0.0045702202821280187 0 0.023295839084574083 0.0044866711862770643 0 0.023770760797045556 0.0045702202821280187 0 0.023295839084574083 0.0044866711862770643 0 0.023375564931378455 0.0048492169546477401 0 0.023375564931378455 0.0048492169546477401 0 0.02298825146220497 0.0050103901112725224 0 0.023319513505774329 0.005122269124586065 0 0.02298825146220497 0.0050103901112725224 0 0.022951984539257255 0.0047038155112593284 0 0.022099621435213601 0.005307967068213691 0 0.023375564931378455 0.0048492169546477401 0 0.02298825146220497 0.0050103901112725224 0 0.022951984539257255 0.0047038155112593284 0 0.023295839084574083 0.0044866711862770643 0 0.023375564931378455 0.0048492169546477401 0 0.022951984539257255 0.0047038155112593284 0 0.023269730069232004 0.0044634934751325668 0 0.022951984539257255 0.0047038155112593284 0 0.023170919173940464 0.004521155076839898 0 0.023269730069232004 0.0044634934751325668 0 0.023295839084574083 0.0044866711862770643 0 0.022951984539257255 0.0047038155112593284 0 0.022951984539257255 0.0047038155112593284 0 0.022725721764458813 0.0048551600908279266 0 0.022099621435213601 0.005307967068213691 0 0.022951984539257255 0.0047038155112593284 0 0.022725721764458813 0.0048551600908279266 0 0.023170919173940464 0.004521155076839898 0 0.022725721764458813 0.0048551600908279266 0 0.023170919173940464 0.004521155076839898 0 0.023492332192148954 0.0043441086773001311 0 0.022542791985829719 0.0048264908424158082 0 0.022032186069477117 0.0043903147223718301 0 0.022843489796710862 0.0042977351490050579 0 0.022725721764458813 0.0048551600908279266 0 0.022542791985829719 0.0048264908424158082 0 0.022099621435213601 0.005307967068213691 0 0.022725721764458813 0.0048551600908279266 0 0.022542791985829719 0.0048264908424158082 0 0.02294290528868994 0.0048224903545305798 0 0.022542791985829719 0.0048264908424158082 0 0.022099621435213601 0.005307967068213691 0 0.022032186069477117 0.0043903147223718301 0 0.022099621435213601 0.005307967068213691 0 0.020251063281731947 0.0045261710470490763 0 0.022032186069477117 0.0043903147223718301 0 0.022099621435213601 0.005307967068213691 0 0.019661190080758055 0.0058930091375852169 0 0.020251063281731947 0.0045261710470490763 0 0.02298825146220497 0.0050103901112725224 0 0.022099621435213601 0.005307967068213691 0 0.023126004414481791 0.0054648039194454268 0 0.021953353509834895 0.0054017909736138832 0 0.021424157335438742 0.0056342969470878322 0 0.02298825146220497 0.0050103901112725224 0 0.023319513505774329 0.005122269124586065 0 0.023126004414481791 0.0054648039194454268 0 0.023319513505774329 0.005122269124586065 0 0.023126004414481791 0.0054648039194454268 0 0.023477598710408637 0.0054185489937077112 0 0.018756563307460151 0.0051508163275998491 0 0.019661190080758055 0.0058930091375852169 0 0.017509842604066909 0.005934601127015402 0 0.021424157335438742 0.0056342969470878322 0 0.020176838010720545 0.0056450313262172746 0 0.018756563307460151 0.0051508163275998491 0 0.019661190080758055 0.0058930091375852169 0 0.020251063281731947 0.0045261710470490763 0 0.018756563307460151 0.0051508163275998491 0 0.020251063281731947 0.0045261710470490763 0 0.018065130505326602 0.0041742647813303412 0 0.019417639721113687 0.0033719864521737494 0 0.020251063281731947 0.0045261710470490763 0 0.018065130505326602 0.0041742647813303412 0 0.019417639721113687 0.0033719864521737494 0 0.017902592589700551 0.0025475963465799614 0 0.018965272372557875 0.0024854088462780261 0 0.019417639721113687 0.0033719864521737494 0 0.018065130505326602 0.0041742647813303412 0 0.017482221528276071 0.0033858997768885088 0 0.019417639721113687 0.0033719864521737494 0 0.017482221528276071 0.0033858997768885088 0 0.017902592589700551 0.0025475963465799614 0 0.019417639721113687 0.0033719864521737494 0 0.02093906003911758 0.0034849551619029299 0 0.019869007727646177 0.0020672944620058246 0 0.019417639721113687 0.0033719864521737494 0 0.020251063281731947 0.0045261710470490763 0 0.02093906003911758 0.0034849551619029299 0 0.022032186069477117 0.0043903147223718301 0 0.02093906003911758 0.0034849551619029299 0 0.022385262770464012 0.0034405126995051341 0 0.020251063281731947 0.0045261710470490763 0 0.022032186069477117 0.0043903147223718301 0 0.02093906003911758 0.0034849551619029299 0 0.02093906003911758 0.0034849551619029299 0 0.022385262770464012 0.0034405126995051341 0 0.021416153148838265 0.0024895195602453214 0 0.022385262770464012 0.0034405126995051341 0 0.022285791697681551 0.0026130324033418156 0 0.021416153148838265 0.0024895195602453214 0 0.022032186069477117 0.0043903147223718301 0 0.022385262770464012 0.0034405126995051341 0 0.022843489796710862 0.0042977351490050579 0 0.024424475013688871 0.0060291947044089876 0 0.02487165269846996 0.006094779656693845 0 0.024712171187467793 0.0057709165043949139 0 0.021085649675748743 0.0055318521832440036 0 0.022739884123945748 0.0056675271104707405 0 0.020315111155963801 0.0051909343778227994 0 0.019651792496606108 0.0050684879347165993 0 0.019878569633334751 0.0047302837479105374 0 0.021085649675748743 0.0055318521832440036 0 0.017010326056654913 0.0045197754010077506 0 0.02487165269846996 0.006094779656693845 0 0.025131015836321272 0.0056627513106743696 0 0.024712171187467793 0.0057709165043949139 0 0.022739884123945748 0.0056675271104707405 0 0.02073399124612214 0.0047853961606390783 0 0.019651792496606108 0.0050684879347165993 0 0.019490345534058085 0.0047429814719335828 0 0.019016611455353077 0.0049533081492519528 0 0.02487165269846996 0.006094779656693845 0 0.025131015836321272 0.0056627513106743696 0 0.02530442765471537 0.0061621034696516365 0 0.024746700522521328 0.0054159122140750018 0 0.025131015836321272 0.0056627513106743696 0 0.024712171187467793 0.0057709165043949139 0 0.024424475013688871 0.0060291947044089876 0 0.024712171187467793 0.0057709165043949139 0 0.024412906469520563 0.0056044000751659826 0 0.024746700522521328 0.0054159122140750018 0 0.024712171187467793 0.0057709165043949139 0 0.024412906469520563 0.0056044000751659826 0 0.024346848234185932 0.0052794639492912791 0 0.024746700522521328 0.0054159122140750018 0 0.024412906469520563 0.0056044000751659826 0 0.024424475013688871 0.0060291947044089876 0 0.024412906469520563 0.0056044000751659826 0 0.023937609737879183 0.0055257262755164906 0 0.021085649675748743 0.0055318521832440036 0 0.024281628794116605 0.0055367910477274454 0 0.024346848234185932 0.0052794639492912791 0 0.024412906469520563 0.0056044000751659826 0 0.023937609737879183 0.0055257262755164906 0 0.023319513505774329 0.005122269124586065 0 0.023532535153677477 0.0051862762849786588 0 0.023477598710408637 0.0054185489937077112 0 0.018756563307460151 0.0051508163275998491 0 0.017509842604066909 0.005934601127015402 0 0.018065130505326602 0.0041742647813303412 0 0.021085649675748743 0.0055318521832440036 0 0.020176838010720545 0.0056450313262172746 0 0.015514012653368893 0.0057529101642887458 0 0.017509842604066909 0.005934601127015402 0 0.016693291863753457 0.0046246501376179519 0 0.023699825687920971 0.005453154513456006 0 0.023532535153677477 0.0051862762849786588 0 0.023477598710408637 0.0054185489937077112 0 0.015514012653368893 0.0057529101642887458 0 0.016693291863753457 0.0046246501376179519 0 0.015504270756312024 0.0043582826453809126 0 0.016693291863753457 0.0046246501376179519 0 0.015504270756312024 0.0043582826453809126 0 0.016174237622401166 0.0036258331814717805 0 0.017509842604066909 0.005934601127015402 0 0.016693291863753457 0.0046246501376179519 0 0.018065130505326602 0.0041742647813303412 0 0.016693291863753457 0.0046246501376179519 0 0.018065130505326602 0.0041742647813303412 0 0.017482221528276071 0.0033858997768885088 0 0.017482221528276071 0.0033858997768885088 0 0.016549055466375338 0.0027396715248387696 0 0.017902592589700551 0.0025475963465799614 0 0.017482221528276071 0.0033858997768885088 0 0.016174237622401166 0.0036258331814717805 0 0.016549055466375338 0.0027396715248387696 0 0.016693291863753457 0.0046246501376179519 0 0.017482221528276071 0.0033858997768885088 0 0.016174237622401166 0.0036258331814717805 0 0.015504270756312024 0.0043582826453809126 0 0.016174237622401166 0.0036258331814717805 0 0.015238512299954567 0.0031053771992417328 0 0.016174237622401166 0.0036258331814717805 0 0.015238512299954567 0.0031053771992417328 0 0.016549055466375338 0.0027396715248387696 0 0.015504270756312024 0.0043582826453809126 0 0.015238512299954567 0.0031053771992417328 0 0.014578455320317806 0.0038195008028143623 0 0.015238512299954567 0.0031053771992417328 0 0.014170203345863167 0.0029630946841294743 0 0.014578455320317806 0.0038195008028143623 0 0.014170203345863167 0.0029630946841294743 0 0.014578455320317806 0.0038195008028143623 0 0.013632072347644502 0.003874563666158281 0 0.015504270756312024 0.0043582826453809126 0 0.014578455320317806 0.0038195008028143623 0 0.014513796545349537 0.004784293982561999 0 0.015514012653368893 0.0057529101642887458 0 0.015504270756312024 0.0043582826453809126 0 0.014513796545349537 0.004784293982561999 0 0.014578455320317806 0.0038195008028143623 0 0.014513796545349537 0.004784293982561999 0 0.013632072347644502 0.003874563666158281 0 0.015896806830620738 0.0042302991634692415 0 0.02073399124612214 0.0047853961606390783 0 0.019490345534058085 0.0047429814719335828 0 0.019449382479616896 0.0042934467342442498 0 0.019016611455353077 0.0049533081492519528 0 0.019651792496606108 0.0050684879347165993 0 0.019878569633334751 0.0047302837479105374 0 0.019490345534058085 0.0047429814719335828 0 0.019878569633334751 0.0047302837479105374 0 0.019490345534058085 0.0047429814719335828 0 0.019449382479616896 0.0042934467342442498 0 0.017010326056654913 0.0045197754010077506 0 0.015896806830620738 0.0042302991634692415 0 0.012894134774920152 0.0038581892772528849 0 0.013297762808981829 0.0042947683427170718 0 0.013331314878260838 0.0034246871275070696 0 0.016574489799250219 0.0044998394907573916 0 0.016502083554441625 0.0044182742346743414 0 0.016867974271562197 0.0043214863179851888 0 0.014691373122344267 0.0038114790472380767 0 0.015896806830620738 0.0042302991634692415 0 0.013972739027540388 0.0035063540126940161 0 0.015896806830620738 0.0042302991634692415 0 0.014170203345863167 0.0029630946841294743 0 0.013331314878260838 0.0034246871275070696 0 0.01319808409218878 0.0029138651425718882 0 0.014170203345863167 0.0029630946841294743 0 0.013297762808981829 0.0042947683427170718 0 0.013331314878260838 0.0034246871275070696 0 0.012506921174187878 0.0036971595690496249 0 0.012401038695096456 0.0033234381273510405 0 0.012218229591661998 0.0036268376491217585 0 0.012894134774920152 0.0038581892772528849 0 0.012855581291989578 0.003355592964229204 0 0.012401038695096456 0.0033234381273510405 0 0.014691373122344267 0.0038114790472380767 0 0.013190593845197888 0.0030299371284719994 0 0.012894134774920152 0.0038581892772528849 0 0.013331314878260838 0.0034246871275070696 0 0.012855581291989578 0.003355592964229204 0 0.012855581291989578 0.003355592964229204 0 0.012566993135695806 0.002810790372100541 0 0.01319808409218878 0.0029138651425718882 0 0.013331314878260838 0.0034246871275070696 0 0.012855581291989578 0.003355592964229204 0 0.01319808409218878 0.0029138651425718882 0 0.012855581291989578 0.003355592964229204 0 0.012401038695096456 0.0033234381273510405 0 0.012566993135695806 0.002810790372100541 0 0.012401038695096456 0.0033234381273510405 0 0.011879094348574449 0.0029174313579267042 0 0.012566993135695806 0.002810790372100541 0 0.012401038695096456 0.0033234381273510405 0 0.011872193813957425 0.003416304089776325 0 0.012218229591661998 0.0036268376491217585 0 0.012401038695096456 0.0033234381273510405 0 0.011872193813957425 0.003416304089776325 0 0.011879094348574449 0.0029174313579267042 0 0.011872193813957425 0.003416304089776325 0 0.011251049469130633 0.0032741945497085393 0 0.011879094348574449 0.0029174313579267042 0 0.011872193813957425 0.003416304089776325 0 0.011750376827691766 0.0036481392843157683 0 0.011251049469130633 0.0032741945497085393 0 0.011750376827691766 0.0036481392843157683 0 0.012145153894052721 0.0038981121439936495 0 0.011248220533107629 0.0038445504257729082 0 0.011750376827691766 0.0036481392843157683 0 0.011251049469130633 0.0032741945497085393 0 0.011248220533107629 0.0038445504257729082 0 0.012506921174187878 0.0036971595690496249 0 0.012145153894052721 0.0038981121439936495 0 0.012218229591661998 0.0036268376491217585 0 0.014691373122344267 0.0038114790472380767 0 0.014096048124010387 0.0043892944897118789 0 0.012506921174187878 0.0036971595690496249 0 0.012145153894052721 0.0038981121439936495 0 0.012020255597597396 0.0040617969800180367 0 0.011750376827691766 0.0036481392843157683 0 0.012145153894052721 0.0038981121439936495 0 0.012218229591661998 0.0036268376491217585 0 0.011872193813957425 0.003416304089776325 0 0.011750376827691766 0.0036481392843157683 0 0.012218229591661998 0.0036268376491217585 0 0.012145153894052721 0.0038981121439936495 0 0.011248220533107629 0.0038445504257729082 0 0.010414085012191094 0.0043837588270452983 0 0.011251049469130633 0.0032741945497085393 0 0.010520440317978748 0.0035347208366487918 0 0.010248684029085346 0.0028517658517875515 0 0.010520440317978748 0.0035347208366487918 0 0.0097330572862684029 0.003467394643839483 0 0.010248684029085346 0.0028517658517875515 0 0.011251049469130633 0.0032741945497085393 0 0.011248220533107629 0.0038445504257729082 0 0.010520440317978748 0.0035347208366487918 0 0.011248220533107629 0.0038445504257729082 0 0.010520440317978748 0.0035347208366487918 0 0.010414085012191094 0.0043837588270452983 0 0.010520440317978748 0.0035347208366487918 0 0.010071013095654509 0.0038491994762963068 0 0.0097330572862684029 0.003467394643839483 0 0.010520440317978748 0.0035347208366487918 0 0.010414085012191094 0.0043837588270452983 0 0.010071013095654509 0.0038491994762963068 0 0.012245005280477726 0.003889848125808784 0 0.010671392553289836 0.0043602890642236167 0 0.011794084709887919 0.004103586743499186 0 0.0118142294764333 0.0041681089606446188 0 0.012020255597597396 0.0040617969800180367 0 0.016744373663971936 0.003838278141871623 0 0.014096048124010387 0.0043892944897118789 0 0.016502083554441625 0.0044182742346743414 0 0.016867974271562197 0.0043214863179851888 0 0.016762382851915916 0.0040794781108906943 0 0.012145153894052721 0.0038981121439936495 0 0.011794084709887919 0.004103586743499186 0 0.012020255597597396 0.0040617969800180367 0 0.01714929053096409 0.0041434452508406364 0 0.016867974271562197 0.0043214863179851888 0 0.016762382851915916 0.0040794781108906943 0 0.016744373663971936 0.003838278141871623 0 0.02073399124612214 0.0047853961606390783 0 0.020500603028760455 0.004480651722677754 0 0.021481749216652031 0.0038927032603467073 0 0.021143487868905408 0.0035960614202095401 0 0.02073399124612214 0.0047853961606390783 0 0.023533552209230531 0.0046040615913297495 0 0.025131015836321272 0.0056627513106743696 0 0.02530442765471537 0.0061621034696516365 0 0.025602144511071165 0.0057734883819432281 0 0.021732364106648909 0.0046937191187590354 0 0.020500603028760455 0.004480651722677754 0 0.021481749216652031 0.0038927032603467073 0 0.021732364106648909 0.0046937191187590354 0 0.021481749216652031 0.0038927032603467073 0 0.022847038593261079 0.0040161780050307402 0 0.021346115736641018 0.0034769737968729864 0 0.023284873349484026 0.0037891195755191905 0 0.025602144511071165 0.0057734883819432281 0 0.025520558888040962 0.0054110972596401732 0 0.025887596265952117 0.0053830424547642586 0 0.021481749216652031 0.0038927032603467073 0 0.021143487868905408 0.0035960614202095401 0 0.021772887321648945 0.0027538558631892891 0 0.023533552209230531 0.0046040615913297495 0 0.023284873349484026 0.0037891195755191905 0 0.021481749216652031 0.0038927032603467073 0 0.022219297719001482 0.0033858443768088361 0 0.021787984821308112 0.0026463628149956848 0 0.025131015836321272 0.0056627513106743696 0 0.025602144511071165 0.0057734883819432281 0 0.025520558888040962 0.0054110972596401732 0 0.022758939098637757 0.0029869467431215225 0 0.023957998325051431 0.003324765920057877 0 0.023668694339262483 0.0024756964157996563 0 0.022758939098637757 0.0029869467431215225 0 0.022847038593261079 0.0040161780050307402 0 0.023957998325051431 0.003324765920057877 0 0.023427170950243038 0.0010887360210329311 0 0.026289998310803257 0.0017823183643588395 0 0.022758939098637757 0.0029869467431215225 0 0.022219297719001482 0.0033858443768088361 0 0.022847038593261079 0.0040161780050307402 0 0.022758939098637757 0.0029869467431215225 0 0.022219297719001482 0.0033858443768088361 0 0.021787984821308112 0.0026463628149956848 0 0.021481749216652031 0.0038927032603467073 0 0.022219297719001482 0.0033858443768088361 0 0.022847038593261079 0.0040161780050307402 0 0.015558463470516209 0.0029726989069078038 0 0.017906789829334531 0.0015017601396999606 0 0.018239448736629495 0.00341053259678719 0 0.016744373663971936 0.003838278141871623 0 0.020440670225895997 0.0027876463755388821 0 0.017906789829334531 0.0015017601396999606 0 0.019573050979072568 0.0017762573751079608 0 0.020280089390011885 3.6098728342103831e-05 0 0.017906789829334531 0.0015017601396999606 0 0.019573050979072568 0.0017762573751079608 0 0.018239448736629495 0.00341053259678719 0 0.019573050979072568 0.0017762573751079608 0 0.018239448736629495 0.00341053259678719 0 0.021173813138257721 0.0026410656114006655 0 0.020440670225895997 0.0027876463755388821 0 0.023427170950243038 0.0010887360210329311 0 0.012493053796406488 0.003504547121895003 0 0.014841931583609438 0.0015810452641904556 0 0.0089282036363638791 0.0046498729021321574 0 0.0080855555907228538 0.0036334743302727235 0 0.0075960690063846294 0.0043575196332203076 0 0.012493053796406488 0.003504547121895003 0 0.021874760869714353 0.0004866031291849331 0 0.012900584594834409 0.0020461722497058391 0 0.018472488438259677 0.00057435007761242631 0 0.01807002573898241 0.0028836769101138046 0 0.016744373663971936 0.003838278141871623 0 0.012493053796406488 0.003504547121895003 0 0.011794084709887919 0.004103586743499186 0 0.0118142294764333 0.0041681089606446188 0 0.011743044335981395 0.0041200544818718026 0 0.010414085012191094 0.0043837588270452983 0 0.0089282036363638791 0.0046498729021321574 0 0.0096295920706978878 0.0040099256488922491 0 0.010671392553289836 0.0043602890642236167 0 0.012493053796406488 0.003504547121895003 0 0.0089282036363638791 0.0046498729021321574 0 0.0096295920706978878 0.0040099256488922491 0 0.008994343256929372 0.0036255771892521747 0 0.010414085012191094 0.0043837588270452983 0 0.010071013095654509 0.0038491994762963068 0 0.0096295920706978878 0.0040099256488922491 0 0.010071013095654509 0.0038491994762963068 0 0.0096295920706978878 0.0040099256488922491 0 0.0097330572862684029 0.003467394643839483 0 0.0096295920706978878 0.0040099256488922491 0 0.008994343256929372 0.0036255771892521747 0 0.0097330572862684029 0.003467394643839483 0 0.008994343256929372 0.0036255771892521747 0 0.0097330572862684029 0.003467394643839483 0 0.0091629041886927987 0.0029163473845342709 0 0.0097330572862684029 0.003467394643839483 0 0.0091629041886927987 0.0029163473845342709 0 0.010248684029085346 0.0028517658517875515 0 0.0089282036363638791 0.0046498729021321574 0 0.008994343256929372 0.0036255771892521747 0 0.0080855555907228538 0.0036334743302727235 0 0.008994343256929372 0.0036255771892521747 0 0.0085126881762617092 0.0029012429776353386 0 0.0091629041886927987 0.0029163473845342709 0 0.008994343256929372 0.0036255771892521747 0 0.0080855555907228538 0.0036334743302727235 0 0.0085126881762617092 0.0029012429776353386 0 0.0079054492246894616 0.0036903295371066083 0 0.0077950055625129085 0.002967941242555784 0 0.0085126881762617092 0.0029012429776353386 0 0.0092481634916721945 0.003163703298201548 0 0.0083888428611848809 0.0033315100670988675 0 0.0092481634916721945 0.003163703298201548 0 0.0099677112457834168 0.0019125778100012284 0 0.013235225260059 0.0012933296152204446 0 0.013779732920125782 0.0013871490075725119 0 0.013745473323104197 0.001641330872388522 0 0.0079054492246894616 0.0036903295371066083 0 0.0077950055625129085 0.002967941242555784 0 0.0069865467659786457 0.0030309881449453917 0 0.013779732920125782 0.0013871490075725119 0 0.013834004625091949 0.00086002315514908478 0 0.014211076762155087 0.0019196421251142903 0 0.013235225260059 0.0012933296152204446 0 0.013779732920125782 0.0013871490075725119 0 0.013615516624980766 0.00082421838952379304 0 0.013779732920125782 0.0013871490075725119 0 0.013758440461303515 0.0016205727337515127 0 0.014211076762155087 0.0019196421251142903 0 0.011117610091734559 0.0014276910951243138 0 0.0099677112457834168 0.0019125778100012284 0 0.021450656030572921 -0.00062286670460319656 0 0.020931208915844535 -0.00071527255306945924 0 0.021244765621368195 -0.0012190087238443611 0 0.020330950589042919 -6.0333952721676104e-06 0 0.016085487567138554 -0.00021541494333448909 0 0.027765381424173691 -0.0029491148354571489 0 0.026876699834927024 -0.0030647111376893733 0 0.026289532080590049 -0.0024636450401305404 0 0.027765381424173691 -0.0029491148354571489 0 0.026289532080590049 -0.0024636450401305404 0 0.028458158226487 -0.0022176507104659355 0 0.020330950589042919 -6.0333952721676104e-06 0 0.025439437918580044 -0.0015793954206747747 0 0.027765381424173691 -0.0029491148354571489 0 0.026876699834927024 -0.0030647111376893733 0 0.027735443530999538 -0.0038004521613785088 0 0.026876699834927024 -0.0030647111376893733 0 0.026122085822513498 -0.0029336626333464652 0 0.026289532080590049 -0.0024636450401305404 0 0.018892810962225861 0.0017900544189931387 0 0.018472488438259677 0.00057435007761242631 0 0.01807002573898241 0.0028836769101138046 0 0.020660847429092549 -0.00062380687685976576 0 0.025338770961038669 -0.0021699397296315978 0 0.026876699834927024 -0.0030647111376893733 0 0.026122085822513498 -0.0029336626333464652 0 0.026579741843368348 -0.003528486667255058 0 0.020660847429092549 -0.00062380687685976576 0 0.014841931583609438 0.0015810452641904556 0 0.020660847429092549 -0.00062380687685976576 0 0.021874760869714353 0.0004866031291849331 0 0.022093645613415831 0.00024385112578661019 0 0.02166981785743476 -0.00097842012014829997 0 0.023345700904169094 -0.0014155725576925119 0 0.0092481634916721945 0.003163703298201548 0 0.014841931583609438 0.0015810452641904556 0 0.013779732920125782 0.0013871490075725119 0 0.013615516624980766 0.00082421838952379304 0 0.013834004625091949 0.00086002315514908478 0 0.019258625640393871 0.00021684946439374982 0 0.019424448270995553 -1.2907141091727086e-05 0 0.019160535340354144 -6.0927371258879936e-05 0 0.014841931583609438 0.0015810452641904556 0 0.020330950589042919 -6.0333952721676104e-06 0 0.020660847429092549 -0.00062380687685976576 0 0.020330950589042919 -6.0333952721676104e-06 0 0.020347670744341784 -0.00082105742137265241 0 0.020768878100861411 -0.001133417100957986 0 0.020266745037202841 -0.0012616032072082491 0 0.020347670744341784 -0.00082105742137265241 0 0.020931208915844535 -0.00071527255306945924 0 0.020768878100861411 -0.001133417100957986 0 0.025134841882043242 -0.001500774600742823 0 0.025439437918580044 -0.0015793954206747747 0 0.020931208915844535 -0.00071527255306945924 0 0.020768878100861411 -0.001133417100957986 0 0.021244765621368195 -0.0012190087238443611 0 0.027765381424173691 -0.0029491148354571489 0 0.028458158226487 -0.0022176507104659355 0 0.029255765366348118 -0.0035078716791068598 0 0.030742373363284493 -0.002421182101492887 0 0.030261325512344287 -0.0030780554326624802 0 0.030708963449315542 -0.0024383982900628501 0 0.030983338057669695 -0.0022294931135655185 0 0.031368420773298489 -0.002279364962143423 0 0.030708963449315542 -0.0024383982900628501 0 0.030455675764531058 -0.002121236668674747 0 0.029255765366348118 -0.0035078716791068598 0 0.030455675764531058 -0.002121236668674747 0 0.028458158226487 -0.0022176507104659355 0 0.029255765366348118 -0.0035078716791068598 0 0.030983338057669695 -0.0022294931135655185 0 0.031223429831873078 -0.0021126575360407127 0 0.031368420773298489 -0.002279364962143423 0 0.030983338057669695 -0.0022294931135655185 0 0.03109305128015909 -0.0020564353021203748 0 0.031223429831873078 -0.0021126575360407127 0 0.031223429831873078 -0.0021126575360407127 0 0.031400922064058354 -0.0020777105671010219 0 0.031368420773298489 -0.002279364962143423 0 0.031223429831873078 -0.0021126575360407127 0 0.031400922064058354 -0.0020777105671010219 0 0.031292992778758605 -0.0019802141380676742 0 0.027765381424173691 -0.0029491148354571489 0 0.029255765366348118 -0.0035078716791068598 0 0.027735443530999538 -0.0038004521613785088 0 0.030261325512344287 -0.0030780554326624802 0 0.029373583406579144 -0.00188038310512563 0 0.031400922064058354 -0.0020777105671010219 0 0.031368420773298489 -0.002279364962143423 0 0.031664106133511109 -0.0020481422946163142 0 0.029255765366348118 -0.0035078716791068598 0 0.027735443530999538 -0.0038004521613785088 0 0.027508497634660165 -0.0046642407905328059 0 0.031400922064058354 -0.0020777105671010219 0 0.031465490242831316 -0.0019478061731487803 0 0.031664106133511109 -0.0020481422946163142 0 0.031465490242831316 -0.0019478061731487803 0 0.031664106133511109 -0.0020481422946163142 0 0.03148269779937047 -0.0017629296334909107 0 0.031056086235943085 -0.00040066318278308201 0 0.03120303469699259 -0.0010637343956162002 0 0.031628211712789255 -0.0012180825883508569 0 0.029373583406579144 -0.00188038310512563 0 0.031860223646677961 -0.0014354916623527285 0 0.031465490242831316 -0.0019478061731487803 0 0.031389460598168842 -0.0018620965634008439 0 0.03148269779937047 -0.0017629296334909107 0 0.031400922064058354 -0.0020777105671010219 0 0.031465490242831316 -0.0019478061731487803 0 0.031292992778758605 -0.0019802141380676742 0 0.031465490242831316 -0.0019478061731487803 0 0.031292992778758605 -0.0019802141380676742 0 0.031389460598168842 -0.0018620965634008439 0 0.031230764909857805 -0.0018689845342385008 0 0.031292992778758605 -0.0019802141380676742 0 0.031389460598168842 -0.0018620965634008439 0 0.03109305128015909 -0.0020564353021203748 0 0.031223429831873078 -0.0021126575360407127 0 0.031292992778758605 -0.0019802141380676742 0 0.031230764909857805 -0.0018689845342385008 0 0.03109305128015909 -0.0020564353021203748 0 0.031292992778758605 -0.0019802141380676742 0 0.025733003623241841 0.0002440243703477392 0 0.025947747236816303 -0.00045100838128504334 0 0.025351617677691441 -0.00086605155409097206 0 0.019573050979072568 0.0017762573751079608 0 0.021173813138257721 0.0026410656114006655 0 0.020280089390011885 3.6098728342103831e-05 0 0.021874760869714353 0.0004866031291849331 0 0.023427170950243038 0.0010887360210329311 0 0.021874760869714353 0.0004866031291849331 0 0.025338770961038669 -0.0021699397296315978 0 0.025733003623241841 0.0002440243703477392 0 0.025947747236816303 -0.00045100838128504334 0 0.026115307479745557 0.00014530346141770315 0 0.026876699834927024 -0.0030647111376893733 0 0.026579741843368348 -0.003528486667255058 0 0.027735443530999538 -0.0038004521613785088 0 0.026625534854463093 -0.003498878703673527 0 0.027735443530999538 -0.0038004521613785088 0 0.027508497634660165 -0.0046642407905328059 0 0.025338770961038669 -0.0021699397296315978 0 0.027958061548049688 -0.0036899623031988308 0 0.025338770961038669 -0.0021699397296315978 0 0.029373583406579144 -0.00188038310512563 0 0.025947747236816303 -0.00045100838128504334 0 0.026115307479745557 0.00014530346141770315 0 0.026704616278537024 -0.0006127345072285353 0 0.029373583406579144 -0.00188038310512563 0 0.027687250510648954 0.00018990972738254511 0 0.031056086235943085 -0.00040066318278308201 0 0.03045761077880246 -0.00076175157183475768 0 0.03120303469699259 -0.0010637343956162002 0 0.025947747236816303 -0.00045100838128504334 0 0.026704616278537024 -0.0006127345072285353 0 0.025837403179547039 -0.001165463589816594 0 0.025947747236816303 -0.00045100838128504334 0 0.025837403179547039 -0.001165463589816594 0 0.025351617677691441 -0.00086605155409097206 0 0.027687250510648954 0.00018990972738254511 0 0.023427170950243038 0.0010887360210329311 0 0.02560881074942694 0.00095530354235548063 0 0.025770948155522822 0.00085214767442301183 0 0.025875278092279075 0.001140867086384932 0 0.027687250510648954 0.00018990972738254511 0 0.026289998310803257 0.0017823183643588395 0 0.02824427304083444 0.0020203722139359613 0 0.028247808447888684 0.0016233028303552356 0 0.027908560593784527 0.0018118541064109644 0 0.028247808447888684 0.0016233028303552356 0 0.028730189638357252 0.0017255899684740117 0 0.028390661865686239 0.0013107610859871344 0 0.02824427304083444 0.0020203722139359613 0 0.028247808447888684 0.0016233028303552356 0 0.028730189638357252 0.0017255899684740117 0 0.03045761077880246 -0.00076175157183475768 0 0.03120303469699259 -0.0010637343956162002 0 0.031218462647305399 -0.0012043776216030726 0 0.027687250510648954 0.00018990972738254511 0 0.030465284807367016 3.8444071556363611e-05 0 0.03120303469699259 -0.0010637343956162002 0 0.031235170216838352 -0.0011814130799269143 0 0.031456254404940778 -0.0012726266205324176 0 0.030606000135865577 -0.0004693546288047226 0 0.030465284807367016 3.8444071556363611e-05 0 0.030465284807367016 3.8444071556363611e-05 0 0.030871373824568636 -0.00036290180426840871 0 0.028730189638357252 0.0017255899684740117 0 0.028390661865686239 0.0013107610859871344 0 0.028815935852993701 0.0010279316163330195 0 0.028247808447888684 0.0016233028303552356 0 0.028390661865686239 0.0013107610859871344 0 0.027958528225605021 0.0012577003905116532 0 0.031394036151450144 -0.0017288990915870018 0 0.03148269779937047 -0.0017629296334909107 0 0.031535937133230864 -0.0014286489950424083 0 0.031230764909857805 -0.0018689845342385008 0 0.031389460598168842 -0.0018620965634008439 0 0.031394036151450144 -0.0017288990915870018 0 0.031230764909857805 -0.0018689845342385008 0 0.031324012553572395 -0.0016888217190520385 0 0.031394036151450144 -0.0017288990915870018 0 0.031389460598168842 -0.0018620965634008439 0 0.031394036151450144 -0.0017288990915870018 0 0.03148269779937047 -0.0017629296334909107 0 0.031628211712789255 -0.0012180825883508569 0 0.031456254404940778 -0.0012726266205324176 0 0.031560954315707594 -0.0013117245610320132 0 0.03120303469699259 -0.0010637343956162002 0 0.031628211712789255 -0.0012180825883508569 0 0.031456254404940778 -0.0012726266205324176 0 0.030465284807367016 3.8444071556363611e-05 0 0.031347421946281054 -0.00073536577461345506 0 0.031456254404940778 -0.0012726266205324176 0 0.031579366424532122 -0.0013491336320727437 0 0.031600896199148833 -0.0013720214802918835 0 0.031416040760791318 -0.0012536147038768265 0 0.031600896199148833 -0.0013720214802918835 0 0.031591630960665522 -0.0013854214305416643 0 0.031416040760791318 -0.0012536147038768265 0 0.031456254404940778 -0.0012726266205324176 0 0.031600896199148833 -0.0013720214802918835 0 0.031579366424532122 -0.0013491336320727437 0 0.031577483857705285 -0.0013508739282648576 0 0.031605786008580647 -0.0013717118941738878 0 0.031579366424532122 -0.0013491336320727437 0 0.031605786008580647 -0.0013717118941738878 0 0.031600896199148833 -0.0013720214802918835 0 0.031628211712789255 -0.0012180825883508569 0 0.031577483857705285 -0.0013508739282648576 0 0.031560954315707594 -0.0013117245610320132 0 0.031456254404940778 -0.0012726266205324176 0 0.031579366424532122 -0.0013491336320727437 0 0.031560954315707594 -0.0013117245610320132 0 0.031579366424532122 -0.0013491336320727437 0 0.031577483857705285 -0.0013508739282648576 0 0.031560954315707594 -0.0013117245610320132 0 0.031324012553572395 -0.0016888217190520385 0 0.031394036151450144 -0.0017288990915870018 0 0.031535937133230864 -0.0014286489950424083 0 0.031860223646677961 -0.0014354916623527285 0 0.031422974078281075 -0.0014066801348392216 0 0.031628211712789255 -0.0012180825883508569 0 0.031577483857705285 -0.0013508739282648576 0 0.031535937133230864 -0.0014286489950424083 0 0.031577483857705285 -0.0013508739282648576 0 0.031535937133230864 -0.0014286489950424083 0 0.031605786008580647 -0.0013717118941738878 0 0.031660223762578148 -0.0012555892920923673 0 0.031535937133230864 -0.0014286489950424083 0 0.031654216371322971 -0.0013071034770787686 0 0.031535937133230864 -0.0014286489950424083 0 0.031605786008580647 -0.0013717118941738878 0 0.031654216371322971 -0.0013071034770787686 0 0.031644303030139154 -0.0013293866375154147 0 0.031640864176836529 -0.0013501624392449406 0 0.031709352164562048 -0.0012704665368321621 0 0.031605786008580647 -0.0013717118941738878 0 0.031644303030139154 -0.0013293866375154147 0 0.031654216371322971 -0.0013071034770787686 0 0.031605786008580647 -0.0013717118941738878 0 0.031644303030139154 -0.0013293866375154147 0 0.031600896199148833 -0.0013720214802918835 0 0.031644303030139154 -0.0013293866375154147 0 0.031600896199148833 -0.0013720214802918835 0 0.031640864176836529 -0.0013501624392449406 0 0.030975169622868913 -0.00059322380756700213 0 0.030871373824568636 -0.00036290180426840871 0 0.031644303030139154 -0.0013293866375154147 0 0.031709352164562048 -0.0012704665368321621 0 0.031654216371322971 -0.0013071034770787686 0 0.030871373824568636 -0.00036290180426840871 0 0.031752455733515754 -0.0011429052346095686 0 0.031735866972292269 -0.0012527838881786215 0 0.031709352164562048 -0.0012704665368321621 0 0.031654216371322971 -0.0013071034770787686 0 0.031660223762578148 -0.0012555892920923673 0 0.031735866972292269 -0.0012527838881786215 0 0.031654216371322971 -0.0013071034770787686 0 0.028390661865686239 0.0013107610859871344 0 0.028194929210558412 0.00093359642416005525 0 0.027958528225605021 0.0012577003905116532 0 0.028390661865686239 0.0013107610859871344 0 0.028815935852993701 0.0010279316163330195 0 0.028194929210558412 0.00093359642416005525 0 0.030871373824568636 -0.00036290180426840871 0 0.029797103789303947 6.5249654155329688e-05 0 0.028815935852993701 0.0010279316163330195 0 0.028194929210558412 0.00093359642416005525 0 0.028417323328015307 0.00067187121807322364 0 0.031620192562879519 -0.00035470676679746373 0 0.031684398957840761 -0.00078527482173742255 0 0.031475403532711374 -0.00075044746601136525 0 0.031620192562879519 -0.00035470676679746373 0 0.031284740596787063 -0.00068478725986651022 0 0.031475403532711374 -0.00075044746601136525 0 0.031520313458144121 -0.00097205803471594424 0 0.031684398957840761 -0.00078527482173742255 0 0.031475403532711374 -0.00075044746601136525 0 0.031284740596787063 -0.00068478725986651022 0 0.031475403532711374 -0.00075044746601136525 0 0.031280454922047209 -0.00077189497330890024 0 0.031520313458144121 -0.00097205803471594424 0 0.031475403532711374 -0.00075044746601136525 0 0.031280454922047209 -0.00077189497330890024 0 0.029635046797051683 -0.00036440025770069913 0 0.029797103789303947 6.5249654155329688e-05 0 0.031141172776005706 -0.0008169050378804615 0 0.031284740596787063 -0.00068478725986651022 0 0.031280454922047209 -0.00077189497330890024 0 0.028007426479919995 0.00029098006503178658 0 0.028194929210558412 0.00093359642416005525 0 0.028417323328015307 0.00067187121807322364 0 0.027446313469550829 0.00041806842059894213 0 0.028007426479919995 0.00029098006503178658 0 0.027829236742790267 0.00096057730988505219 0 0.028007426479919995 0.00029098006503178658 0 0.028194929210558412 0.00093359642416005525 0 0.027829236742790267 0.00096057730988505219 0 0.028194929210558412 0.00093359642416005525 0 0.027829236742790267 0.00096057730988505219 0 0.027958528225605021 0.0012577003905116532 0 0.026971632510810618 0.0023840182276781158 0 0.025927712228486503 0.0036467488879377498 0 0.027829236742790267 0.00096057730988505219 0 0.027277732833358489 0.00096362762053664864 0 0.027315935388657231 0.0017401016083153204 0 0.027024023392186503 0.0017611387128511947 0 0.026971632510810618 0.0023840182276781158 0 0.027446313469550829 0.00041806842059894213 0 0.027829236742790267 0.00096057730988505219 0 0.027277732833358489 0.00096362762053664864 0 0.026800881820739732 0.0028796012970862617 0 0.026532842874463947 0.0039979297691803842 0 0.026103319567569096 0.0034542267889162239 0 0.025849517524471444 0.0039552749274091407 0 0.025740559426747463 0.0041980580998172692 0 0.026030270906968717 0.004204892372344911 0 0.025740559426747463 0.0041980580998172692 0 0.026030270906968717 0.004204892372344911 0 0.025725645856540361 0.0044049491300630125 0 0.025740559426747463 0.0041980580998172692 0 0.025490382426136833 0.0040298184393452166 0 0.025411508660064676 0.0043858444041634838 0 0.025849517524471444 0.0039552749274091407 0 0.025740559426747463 0.0041980580998172692 0 0.025490382426136833 0.0040298184393452166 0 0.025411508660064676 0.0043858444041634838 0 0.025616377670596671 0.0046410164775751144 0 0.025725645856540361 0.0044049491300630125 0 0.025740559426747463 0.0041980580998172692 0 0.025411508660064676 0.0043858444041634838 0 0.025725645856540361 0.0044049491300630125 0 0.025411508660064676 0.0043858444041634838 0 0.025616377670596671 0.0046410164775751144 0 0.025332304382002107 0.0047112475735763184 0 0.026030270906968717 0.004204892372344911 0 0.025833108030646906 0.0045433860654039383 0 0.02598212943056669 0.0046893073166534068 0 0.026076884951741226 0.0038500553031065462 0 0.025991293414184317 0.0046239008044824956 0 0.026532842874463947 0.0039979297691803842 0 0.026103319567569096 0.0034542267889162239 0 0.02598212943056669 0.0046893073166534068 0 0.026532842874463947 0.0039979297691803842 0 0.02598212943056669 0.0046893073166534068 0 0.026224813756335789 0.0051070961619507048 0 0.026030270906968717 0.004204892372344911 0 0.025725645856540361 0.0044049491300630125 0 0.025833108030646906 0.0045433860654039383 0 0.025616377670596671 0.0046410164775751144 0 0.025833108030646906 0.0045433860654039383 0 0.025819572056118054 0.004763516217107789 0 0.025616377670596671 0.0046410164775751144 0 0.025725645856540361 0.0044049491300630125 0 0.025833108030646906 0.0045433860654039383 0 0.025833108030646906 0.0045433860654039383 0 0.02598212943056669 0.0046893073166534068 0 0.025819572056118054 0.004763516217107789 0 0.026186997204682528 0.0046278743158728528 0 0.025927712228486503 0.0036467488879377498 0 0.02598212943056669 0.0046893073166534068 0 0.025819572056118054 0.004763516217107789 0 0.026224813756335789 0.0051070961619507048 0 0.025819572056118054 0.004763516217107789 0 0.025792013313122787 0.0049063161736731149 0 0.026012759402301747 0.0048919291712799353 0 0.025819572056118054 0.004763516217107789 0 0.025792013313122787 0.0049063161736731149 0 0.025599822641352844 0.0048821453359120708 0 0.025616377670596671 0.0046410164775751144 0 0.025819572056118054 0.004763516217107789 0 0.025599822641352844 0.0048821453359120708 0 0.025792013313122787 0.0049063161736731149 0 0.025599822641352844 0.0048821453359120708 0 0.025728318123647155 0.0050877698325009751 0 0.025792013313122787 0.0049063161736731149 0 0.026012759402301747 0.0048919291712799353 0 0.025728318123647155 0.0050877698325009751 0 0.025246353371123083 0.0051571799665668791 0 0.025599822641352844 0.0048821453359120708 0 0.025728318123647155 0.0050877698325009751 0 0.025246353371123083 0.0051571799665668791 0 0.025332304382002107 0.0047112475735763184 0 0.025599822641352844 0.0048821453359120708 0 0.025616377670596671 0.0046410164775751144 0 0.025332304382002107 0.0047112475735763184 0 0.025599822641352844 0.0048821453359120708 0 0.025246353371123083 0.0051571799665668791 0 0.025520558888040962 0.0054110972596401732 0 0.025728318123647155 0.0050877698325009751 0 0.025246353371123083 0.0051571799665668791 0 0.025131015836321272 0.0056627513106743696 0 0.025520558888040962 0.0054110972596401732 0 0.025927712228486503 0.0036467488879377498 0 0.023284873349484026 0.0037891195755191905 0 0.026012759402301747 0.0048919291712799353 0 0.025728318123647155 0.0050877698325009751 0 0.025887596265952117 0.0053830424547642586 0 0.025520558888040962 0.0054110972596401732 0 0.025728318123647155 0.0050877698325009751 0 0.025887596265952117 0.0053830424547642586 0 0.022758939098637757 0.0029869467431215225 0 0.023668694339262483 0.0024756964157996563 0 0.022481570801539237 0.0016896473543082423 0 0.024675045938795128 0.0025284092066924627 0 0.024340892638842291 0.003928546009625858 0 0.025126997428377731 0.0028267351064407997 0 0.022758939098637757 0.0029869467431215225 0 0.021787984821308112 0.0026463628149956848 0 0.022481570801539237 0.0016896473543082423 0 0.023284873349484026 0.0037891195755191905 0 0.02531275328465896 0.0020208160220445384 0 0.026289998310803257 0.0017823183643588395 0 0.02531275328465896 0.0020208160220445384 0 0.028247808447888684 0.0016233028303552356 0 0.027908560593784527 0.0018118541064109644 0 0.027799197743397532 0.0015197790373020186 0 0.027891562743626926 0.001815129621763626 0 0.027799197743397532 0.0015197790373020186 0 0.027419858038200171 0.0015029618127035075 0 0.026289998310803257 0.0017823183643588395 0 0.027610028607456281 0.0017848705320706055 0 0.027799197743397532 0.0015197790373020186 0 0.027958528225605021 0.0012577003905116532 0 0.027419858038200171 0.0015029618127035075 0 0.027829236742790267 0.00096057730988505219 0 0.027958528225605021 0.0012577003905116532 0 0.027419858038200171 0.0015029618127035075 0 0.028247808447888684 0.0016233028303552356 0 0.027799197743397532 0.0015197790373020186 0 0.027958528225605021 0.0012577003905116532 0 0.028521029082953044 0.00068351073769825125 0 0.02531275328465896 0.0020208160220445384 0 0.027277732833358489 0.00096362762053664864 0 0.027108330255136242 0.0016067583180887789 0 0.027315935388657231 0.0017401016083153204 0 0.025927712228486503 0.0036467488879377498 0 0.02531275328465896 0.0020208160220445384 0 0.027550981289684938 -0.00053941384244669756 0 0.026989352643905881 -6.291651604399671e-07 0 0.028935753267770769 -1.2477113789814286e-06 0 0.027550981289684938 -0.00053941384244669756 0 0.026989352643905881 -6.291651604399671e-07 0 0.026107385542214097 -0.00022023029143771529 0 0.027550981289684938 -0.00053941384244669756 0 0.027329066798610156 -0.00035949569208945062 0 0.026107385542214097 -0.00022023029143771529 0 0.027550981289684938 -0.00053941384244669756 0 0.028290500201745353 -0.00057567976879739754 0 0.027329066798610156 -0.00035949569208945062 0 0.0284513851520765 -0.00035714719535315139 0 0.028290500201745353 -0.00057567976879739754 0 0.02937036609216255 -0.00068103150236730825 0 0.0284513851520765 -0.00035714719535315139 0 0.028290500201745353 -0.00057567976879739754 0 0.027329066798610156 -0.00035949569208945062 0 0.028290500201745353 -0.00057567976879739754 0 0.029928249425764091 -0.00098518700203363368 0 0.02937036609216255 -0.00068103150236730825 0 0.028290500201745353 -0.00057567976879739754 0 0.028036400151885667 -0.00086876411166203265 0 0.029928249425764091 -0.00098518700203363368 0 0.027550981289684938 -0.00053941384244669756 0 0.028290500201745353 -0.00057567976879739754 0 0.028036400151885667 -0.00086876411166203265 0 0.032520969648342953 -0.00037661702412215229 0 0.032606888158433524 0.00024815971397438576 0 0.033103316061398824 -2.4047895646343185e-05 0 0.032520969648342953 -0.00037661702412215229 0 0.032466989967325874 -3.5283497498664153e-05 0 0.033103316061398824 -2.4047895646343185e-05 0 0.030308456069968327 -0.00056245425104358424 0 0.030520054601480551 -1.9179155106375024e-05 0 0.030308456069968327 -0.00056245425104358424 0 0.030033820999624178 -0.00090329786409701959 0 0.032520969648342953 -0.00037661702412215229 0 0.031467959881799665 -0.00040930224018940483 0 0.029928249425764091 -0.00098518700203363368 0 0.032520969648342953 -0.00037661702412215229 0 0.031467959881799665 -0.00040930224018940483 0 0.032466989967325874 -3.5283497498664153e-05 0 0.027550981289684938 -0.00053941384244669756 0 0.028511559906537656 -8.1381234985617606e-05 0 0.028935753267770769 -1.2477113789814286e-06 0 0.027550981289684938 -0.00053941384244669756 0 0.028036400151885667 -0.00086876411166203265 0 0.028511559906537656 -8.1381234985617606e-05 0 0.030520054601480551 -1.9179155106375024e-05 0 0.030881756733707019 -8.5272457811531164e-08 0 0.028511559906537656 -8.1381234985617606e-05 0 0.028935753267770769 -1.2477113789814286e-06 0 0.030879128592499583 1.6115017045354692e-06 0 0.030885908070092023 1.2188302218327121e-06 0 0.032330003371417337 -0.00016504026426381556 0 0.032651357964160882 -1.2914925249047886e-06 0 0.032606888158433524 0.00024815971397438576 0 0.030885908070092023 1.2188302218327121e-06 0 0.032330003371417337 -0.00016504026426381556 0 0.032606888158433524 0.00024815971397438576 0 0.032330003371417337 -0.00016504026426381556 0 0.033103316061398824 -2.4047895646343185e-05 0 0.033477640302995056 -6.2225819233518027e-05 0 0.033191773593537997 2.7672386141956171e-05 0 0.032330003371417337 -0.00016504026426381556 0 0.032482471429998987 -0.00014920162536188398 0 0.033103316061398824 -2.4047895646343185e-05 0 0.032330003371417337 -0.00016504026426381556 0 0.032651357964160882 -1.2914925249047886e-06 0 0.032482471429998987 -0.00014920162536188398 0 0.033477640302995056 -6.2225819233518027e-05 0 0.03442120102217134 -1.5637346351318233e-07 0 0.032651357964160882 -1.2914925249047886e-06 0 0.032482471429998987 -0.00014920162536188398 0 0.034419896424411338 8.8060420622890345e-07 0 0.034448627769960882 7.6808464326018011e-05 0 0.034680968988869749 5.1408213821393052e-05 0 0.034425541517061453 7.4289903578732783e-07 0 0.034680968988869749 5.1408213821393052e-05 0 0.034997607250440467 -4.6126895695908723e-07 0 0.034999008524023115 3.2069290703197989e-07 0 0.034448627769960882 7.6808464326018011e-05 0 0.034680968988869749 5.1408213821393052e-05 0 0.034053053612673946 0.00010430177165567046 0 0.034680968988869749 5.1408213821393052e-05 0 0.034997607250440467 -4.6126895695908723e-07 0 0.034425541517061453 7.4289903578732783e-07 0 0.034999008524023115 3.2069290703197989e-07 0 0.034053053612673946 0.00010430177165567046 0 0.03436327548244842 7.6872935940551696e-05 0 0.034680968988869749 5.1408213821393052e-05 0 0.034999008524023115 3.2069290703197989e-07 0 0.034053053612673946 0.00010430177165567046 0 0.034053053612673946 0.00010430177165567046 0 0.033252550346802197 8.644113949988462e-05 0 0.03436327548244842 7.6872935940551696e-05 0 0.034053053612673946 0.00010430177165567046 0 0.033252550346802197 8.644113949988462e-05 0 0.033103316061398824 -2.4047895646343185e-05 0 0.034448627769960882 7.6808464326018011e-05 0 0.034053053612673946 0.00010430177165567046 0 0.033103316061398824 -2.4047895646343185e-05 0 0.032466989967325874 -3.5283497498664153e-05 0 0.033252550346802197 8.644113949988462e-05 0 0.033103316061398824 -2.4047895646343185e-05 0 0.032466989967325874 -3.5283497498664153e-05 0 0.033252550346802197 8.644113949988462e-05 0 0.032196689113734057 3.1435186850808473e-05 0 0.032624109108722266 0.00014717378680520452 0 0.033231211180588131 0.00013723686571577535 0 0.032672986121333937 0.00015406475860045359 0 0.032624109108722266 0.00014717378680520452 0 0.033231211180588131 0.00013723686571577535 0 0.033785661816421265 0.00014949277033259281 0 0.033231211180588131 0.00013723686571577535 0 0.033785661816421265 0.00014949277033259281 0 0.033814286419612961 0.00016722496152208409 0 0.033252550346802197 8.644113949988462e-05 0 0.032196689113734057 3.1435186850808473e-05 0 0.033705792326434197 0.00011314554184437871 0 0.032393508615808315 5.8357825308452347e-05 0 0.033766256795199241 0.0001209266911901298 0 0.03436327548244842 7.6872935940551696e-05 0 0.033705792326434197 0.00011314554184437871 0 0.034998781704581608 -6.6077650938524656e-09 0 0.033252550346802197 8.644113949988462e-05 0 0.03436327548244842 7.6872935940551696e-05 0 0.033705792326434197 0.00011314554184437871 0 0.034342078020857751 0.00010042973474076367 0 0.034998533599386171 2.0967808338444357e-07 0 0.034998753463873981 -7.9004384961275378e-08 0 0.033785661816421265 0.00014949277033259281 0 0.034342078020857751 0.00010042973474076367 0 0.034998533599386171 2.0967808338444357e-07 0 0.033785661816421265 0.00014949277033259281 0 0.033814286419612961 0.00016722496152208409 0 0.034342078020857751 0.00010042973474076367 0 0.033766256795199241 0.0001209266911901298 0 0.034822356040900324 6.5507494834411058e-06 0 0.034999008524023115 3.2069290703197989e-07 0 0.03436327548244842 7.6872935940551696e-05 0 0.034998781704581608 -6.6077650938524656e-09 0 0.03499995620790429 -1.3341806389479507e-09 0 0.034974375738997907 1.6415159564673209e-05 0 0.034989931492285312 6.1211914484248652e-06 0 0.035000353817785594 -8.3028693360080846e-07 0 0.033519417836667835 0.00059340742630029216 0 0.034342078020857751 0.00010042973474076367 0 0.034998753463873981 -7.9004384961275378e-08 0 0.033842518350449664 0.00023683216135351182 0 0.033814286419612961 0.00016722496152208409 0 0.034342078020857751 0.00010042973474076367 0 0.033842518350449664 0.00023683216135351182 0 0.033842518350449664 0.00023683216135351182 0 0.033392374505068587 0.00029906030309418731 0 0.033517457162879377 0.0001852805151095741 0 0.033853189223534974 0.00037352814820317112 0 0.033519417836667835 0.00059340742630029216 0 0.034998753463873981 -7.9004384961275378e-08 0 0.033842518350449664 0.00023683216135351182 0 0.034086411747252618 0.00023581665398999583 0 0.031758016355520835 0.001443245416033327 0 0.031667029110174959 0.0013271566755190592 0 0.031635096153677031 0.0013956198728383041 0 0.033392374505068587 0.00029906030309418731 0 0.033244777620189764 0.000151099729466931 0 0.032916895665148757 7.8314341512933312e-05 0 0.033519417836667835 0.00059340742630029216 0 0.032229164453299819 0.00069706764065897585 0 0.031758016355520835 0.001443245416033327 0 0.031740598460154472 0.0012782847199073841 0 0.031667029110174959 0.0013271566755190592 0 0.033392374505068587 0.00029906030309418731 0 0.033244777620189764 0.000151099729466931 0 0.033517457162879377 0.0001852805151095741 0 0.033231211180588131 0.00013723686571577535 0 0.033814286419612961 0.00016722496152208409 0 0.033460392432644856 0.00015886708532456562 0 0.033814286419612961 0.00016722496152208409 0 0.033842518350449664 0.00023683216135351182 0 0.033460392432644856 0.00015886708532456562 0 0.033244777620189764 0.000151099729466931 0 0.033460392432644856 0.00015886708532456562 0 0.033517457162879377 0.0001852805151095741 0 0.033842518350449664 0.00023683216135351182 0 0.033460392432644856 0.00015886708532456562 0 0.033517457162879377 0.0001852805151095741 0 0.033244777620189764 0.000151099729466931 0 0.033460392432644856 0.00015886708532456562 0 0.033046917966283292 0.00011274622816490396 0 0.033231211180588131 0.00013723686571577535 0 0.033460392432644856 0.00015886708532456562 0 0.033046917966283292 0.00011274622816490396 0 0.033231211180588131 0.00013723686571577535 0 0.033046917966283292 0.00011274622816490396 0 0.032672986121333937 0.00015406475860045359 0 0.033046917966283292 0.00011274622816490396 0 0.032672986121333937 0.00015406475860045359 0 0.032658877353100628 0.00015365665380118876 0 0.031740598460154472 0.0012782847199073841 0 0.031687534003883071 0.0011993391663908217 0 0.031667029110174959 0.0013271566755190592 0 0.033244777620189764 0.000151099729466931 0 0.033046917966283292 0.00011274622816490396 0 0.032916895665148757 7.8314341512933312e-05 0 0.033046917966283292 0.00011274622816490396 0 0.032916895665148757 7.8314341512933312e-05 0 0.032658877353100628 0.00015365665380118876 0 0.032229164453299819 0.00069706764065897585 0 0.032062489216138974 0.00064383914481298528 0 0.032916895665148757 7.8314341512933312e-05 0 0.032658877353100628 0.00015365665380118876 0 0.032357456881606024 0.00028062833416169983 0 0.031740598460154472 0.0012782847199073841 0 0.031767740670714611 0.0010879432805188255 0 0.031687534003883071 0.0011993391663908217 0 0.032658877353100628 0.00015365665380118876 0 0.032357456881606024 0.00028062833416169983 0 0.032322309756119647 0.00025150731114329347 0 0.032357456881606024 0.00028062833416169983 0 0.03188400094457898 0.00047539403388274201 0 0.031809078515439064 0.00074815522243614364 0 0.032062489216138974 0.00064383914481298528 0 0.031855166196815832 0.00070601808453969489 0 0.032357456881606024 0.00028062833416169983 0 0.03188400094457898 0.00047539403388274201 0 0.032322309756119647 0.00025150731114329347 0 0.03188400094457898 0.00047539403388274201 0 0.03205482100954736 0.00029563765301281642 0 0.032322309756119647 0.00025150731114329347 0 0.03188400094457898 0.00047539403388274201 0 0.03205482100954736 0.00029563765301281642 0 0.03162844340586602 0.00047037588495967703 0 0.032672986121333937 0.00015406475860045359 0 0.03205482100954736 0.00029563765301281642 0 0.032322309756119647 0.00025150731114329347 0 0.032672986121333937 0.00015406475860045359 0 0.032658877353100628 0.00015365665380118876 0 0.032322309756119647 0.00025150731114329347 0 0.032624109108722266 0.00014717378680520452 0 0.03205482100954736 0.00029563765301281642 0 0.031419931835981969 0.00043622929485827771 0 0.032624109108722266 0.00014717378680520452 0 0.032672986121333937 0.00015406475860045359 0 0.03205482100954736 0.00029563765301281642 0 0.031467959881799665 -0.00040930224018940483 0 0.032196689113734057 3.1435186850808473e-05 0 0.030418137504553886 -0.00086706417450344811 0 0.031467959881799665 -0.00040930224018940483 0 0.032466989967325874 -3.5283497498664153e-05 0 0.032196689113734057 3.1435186850808473e-05 0 0.032393508615808315 5.8357825308452347e-05 0 0.030937698637695715 -0.00021110436693169869 0 0.031467959881799665 -0.00040930224018940483 0 0.030418137504553886 -0.00086706417450344811 0 0.029928249425764091 -0.00098518700203363368 0 0.03205482100954736 0.00029563765301281642 0 0.031419931835981969 0.00043622929485827771 0 0.03162844340586602 0.00047037588495967703 0 0.031419931835981969 0.00043622929485827771 0 0.03162844340586602 0.00047037588495967703 0 0.031190900782555989 0.00068192943985425844 0 0.030937698637695715 -0.00021110436693169869 0 0.029643665600371991 0.00018056245805659628 0 0.031419931835981969 0.00043622929485827771 0 0.030075641682981574 0.00085891167788664728 0 0.031190900782555989 0.00068192943985425844 0 0.030418137504553886 -0.00086706417450344811 0 0.02937036609216255 -0.00068103150236730825 0 0.029225371974494405 -0.00053256872783365465 0 0.030418137504553886 -0.00086706417450344811 0 0.029928249425764091 -0.00098518700203363368 0 0.02937036609216255 -0.00068103150236730825 0 0.0284513851520765 -0.00035714719535315139 0 0.02937036609216255 -0.00068103150236730825 0 0.029225371974494405 -0.00053256872783365465 0 0.030075641682981574 0.00085891167788664728 0 0.029687217490250672 0.00080024706869813976 0 0.031190900782555989 0.00068192943985425844 0 0.030609232296115837 0.00068608918136242277 0 0.031018882098892198 0.00060436562534595107 0 0.031569453137641257 0.00080779679829240066 0 0.031668707459216149 0.00076217663216482173 0 0.031190900782555989 0.00068192943985425844 0 0.031569453137641257 0.00080779679829240066 0 0.031668707459216149 0.00076217663216482173 0 0.031594661094942564 0.0006997187042854854 0 0.031668707459216149 0.00076217663216482173 0 0.031809078515439064 0.00074815522243614364 0 0.031594661094942564 0.0006997187042854854 0 0.03188400094457898 0.00047539403388274201 0 0.031668707459216149 0.00076217663216482173 0 0.031809078515439064 0.00074815522243614364 0 0.03188400094457898 0.00047539403388274201 0 0.031668707459216149 0.00076217663216482173 0 0.031190900782555989 0.00068192943985425844 0 0.03188400094457898 0.00047539403388274201 0 0.03162844340586602 0.00047037588495967703 0 0.031190900782555989 0.00068192943985425844 0 0.031531456687295401 0.00077752407164258588 0 0.031413518534934688 0.0009606509728443969 0 0.03161069428362797 0.00097647995937882393 0 0.031531456687295401 0.00077752407164258588 0 0.031359424461634471 0.00080177342528690604 0 0.031413518534934688 0.0009606509728443969 0 0.031809078515439064 0.00074815522243614364 0 0.031531456687295401 0.00077752407164258588 0 0.03161069428362797 0.00097647995937882393 0 0.031809078515439064 0.00074815522243614364 0 0.031531456687295401 0.00077752407164258588 0 0.031594661094942564 0.0006997187042854854 0 0.031531456687295401 0.00077752407164258588 0 0.031445389963328428 0.00068767693137539534 0 0.031594661094942564 0.0006997187042854854 0 0.031531456687295401 0.00077752407164258588 0 0.031359424461634471 0.00080177342528690604 0 0.031445389963328428 0.00068767693137539534 0 0.031359424461634471 0.00080177342528690604 0 0.031245240383303528 0.00076371244766099057 0 0.031445389963328428 0.00068767693137539534 0 0.031359424461634471 0.00080177342528690604 0 0.031167250383429417 0.00084595161098415883 0 0.031245240383303528 0.00076371244766099057 0 0.031167250383429417 0.00084595161098415883 0 0.030989806863970133 0.00088092642701667189 0 0.031245240383303528 0.00076371244766099057 0 0.030941383773945935 0.00083317600722674669 0 0.03092269273988411 0.00082014322132292815 0 0.030618687459021285 0.001058983447368768 0 0.030941383773945935 0.00083317600722674669 0 0.030995199896853329 0.00077613408299262161 0 0.03092269273988411 0.00082014322132292815 0 0.031167250383429417 0.00084595161098415883 0 0.030941383773945935 0.00083317600722674669 0 0.030989806863970133 0.00088092642701667189 0 0.031167250383429417 0.00084595161098415883 0 0.030941383773945935 0.00083317600722674669 0 0.031068025517516817 0.00084349761316467628 0 0.030941383773945935 0.00083317600722674669 0 0.031068025517516817 0.00084349761316467628 0 0.030995199896853329 0.00077613408299262161 0 0.031239188061598623 0.0009653688773046279 0 0.031068025517516817 0.00084349761316467628 0 0.031053271481715234 0.00081057193793245658 0 0.031167250383429417 0.00084595161098415883 0 0.031239188061598623 0.0009653688773046279 0 0.031068025517516817 0.00084349761316467628 0 0.031239188061598623 0.0009653688773046279 0 0.031178216098261848 0.0010008986096100209 0 0.031053271481715234 0.00081057193793245658 0 0.031068025517516817 0.00084349761316467628 0 0.031053271481715234 0.00081057193793245658 0 0.030995199896853329 0.00077613408299262161 0 0.031201590474293432 0.00084353305363276223 0 0.031418137848268954 0.00099323389451868725 0 0.031359424461634471 0.00080177342528690604 0 0.031167250383429417 0.00084595161098415883 0 0.031413518534934688 0.0009606509728443969 0 0.031167250383429417 0.00084595161098415883 0 0.031239188061598623 0.0009653688773046279 0 0.031455275787576759 0.0010184791903351661 0 0.031239188061598623 0.0009653688773046279 0 0.031402595448061059 0.0012155924838552446 0 0.031455275787576759 0.0010184791903351661 0 0.031239188061598623 0.0009653688773046279 0 0.031402595448061059 0.0012155924838552446 0 0.031178216098261848 0.0010008986096100209 0 0.031402595448061059 0.0012155924838552446 0 0.031298848450139402 0.0012649033030748267 0 0.031178216098261848 0.0010008986096100209 0 0.031402595448061059 0.0012155924838552446 0 0.031418082091205196 0.0014238607992762403 0 0.031298848450139402 0.0012649033030748267 0 0.031402595448061059 0.0012155924838552446 0 0.031455275787576759 0.0010184791903351661 0 0.031568348742528146 0.0012150539488124514 0 0.031418137848268954 0.00099323389451868725 0 0.031573352114403139 0.0011847156544141841 0 0.031413518534934688 0.0009606509728443969 0 0.03161069428362797 0.00097647995937882393 0 0.031575497271909225 0.0011547401853856589 0 0.031767740670714611 0.0010879432805188255 0 0.031809078515439064 0.00074815522243614364 0 0.03161069428362797 0.00097647995937882393 0 0.031767740670714611 0.0010879432805188255 0 0.031687534003883071 0.0011993391663908217 0 0.031575497271909225 0.0011547401853856589 0 0.031767740670714611 0.0010879432805188255 0 0.03161069428362797 0.00097647995937882393 0 0.031575497271909225 0.0011547401853856589 0 0.031687534003883071 0.0011993391663908217 0 0.031575497271909225 0.0011547401853856589 0 0.031667029110174959 0.0013271566755190592 0 0.031573352114403139 0.0011847156544141841 0 0.031662349430915587 0.0013226004323823874 0 0.031568348742528146 0.0012150539488124514 0 0.031576930431720003 0.0013163955966633072 0 0.031667029110174959 0.0013271566755190592 0 0.031568348742528146 0.0012150539488124514 0 0.031576930431720003 0.0013163955966633072 0 0.031493304176427282 0.0013526965130671482 0 0.031402595448061059 0.0012155924838552446 0 0.031568348742528146 0.0012150539488124514 0 0.031493304176427282 0.0013526965130671482 0 0.031493304176427282 0.0013526965130671482 0 0.03158328428481938 0.0013679962903308726 0 0.031539822836906928 0.0014375744215679677 0 0.031493304176427282 0.0013526965130671482 0 0.031539822836906928 0.0014375744215679677 0 0.031409322955958732 0.0013846570975985361 0 0.031576930431720003 0.0013163955966633072 0 0.031493304176427282 0.0013526965130671482 0 0.03158328428481938 0.0013679962903308726 0 0.03158328428481938 0.0013679962903308726 0 0.031635096153677031 0.0013956198728383041 0 0.031539822836906928 0.0014375744215679677 0 0.031667029110174959 0.0013271566755190592 0 0.03158328428481938 0.0013679962903308726 0 0.031635096153677031 0.0013956198728383041 0 0.031576930431720003 0.0013163955966633072 0 0.031667029110174959 0.0013271566755190592 0 0.03158328428481938 0.0013679962903308726 0 0.033519417836667835 0.00059340742630029216 0 0.033229228152702156 0.00074210013514370025 0 0.034974375738997907 1.6415159564673209e-05 0 0.034985321698646224 1.0488087597557228e-05 0 0.034989931492285312 6.1211914484248652e-06 0 0.031758016355520835 0.001443245416033327 0 0.031635096153677031 0.0013956198728383041 0 0.031539822836906928 0.0014375744215679677 0 0.033229228152702156 0.00074210013514370025 0 0.033189238899447721 0.00063484675611093179 0 0.034985321698646224 1.0488087597557228e-05 0 0.034995785913931238 9.2566131079041274e-07 0 0.034993959916545476 -3.3216001854376952e-06 0 0.034985321698646224 1.0488087597557228e-05 0 0.034995785913931238 9.2566131079041274e-07 0 0.034999997663724455 2.05414857312961e-08 0 0.034995785913931238 9.2566131079041274e-07 0 0.034999997663724455 2.05414857312961e-08 0 0.034999954339713792 -6.5428847906366901e-08 0 0.034985321698646224 1.0488087597557228e-05 0 0.034999997663724455 2.05414857312961e-08 0 0.034989931492285312 6.1211914484248652e-06 0 0.03499995620790429 -1.3341806389479507e-09 0 0.034999997663724455 2.05414857312961e-08 0 0.034989931492285312 6.1211914484248652e-06 0 0.034999265727101686 -2.1984839871685187e-05 0 0.034993959916545476 -3.3216001854376952e-06 0 0.034984137872944236 -7.6747044369976743e-05 0 0.034999265727101686 -2.1984839871685187e-05 0 0.034999954339713792 -6.5428847906366901e-08 0 0.034993959916545476 -3.3216001854376952e-06 0 0.034999265727101686 -2.1984839871685187e-05 0 0.034999954339713792 -6.5428847906366901e-08 0 0.035000176313624141 1.3202336156654876e-07 0 0.034995785913931238 9.2566131079041274e-07 0 0.034999954339713792 -6.5428847906366901e-08 0 0.034993959916545476 -3.3216001854376952e-06 0 0.031539822836906928 0.0014375744215679677 0 0.031350746440256129 0.0013297913422920544 0 0.031409322955958732 0.0013846570975985361 0 0.031350746440256129 0.0013297913422920544 0 0.031432727372993643 0.0014016409201461041 0 0.03162819267276417 0.00071012766131622917 0 0.033189238899447721 0.00063484675611093179 0 0.033370159594363603 0.00033180447627048193 0 0.031350746440256129 0.0013297913422920544 0 0.031432727372993643 0.0014016409201461041 0 0.031409322955958732 0.0013846570975985361 0 0.031432727372993643 0.0014016409201461041 0 0.031409322955958732 0.0013846570975985361 0 0.031418082091205196 0.0014238607992762403 0 0.031432727372993643 0.0014016409201461041 0 0.031418082091205196 0.0014238607992762403 0 0.031551780785815421 0.0015642094529239002 0 0.031493304176427282 0.0013526965130671482 0 0.031409322955958732 0.0013846570975985361 0 0.031418082091205196 0.0014238607992762403 0 0.031402595448061059 0.0012155924838552446 0 0.031493304176427282 0.0013526965130671482 0 0.031418082091205196 0.0014238607992762403 0 0.031418082091205196 0.0014238607992762403 0 0.031395502432394008 0.0015121167805741489 0 0.031551780785815421 0.0015642094529239002 0 0.031418082091205196 0.0014238607992762403 0 0.031395502432394008 0.0015121167805741489 0 0.031298848450139402 0.0012649033030748267 0 0.031395502432394008 0.0015121167805741489 0 0.030711848340873159 0.0020211621078917519 0 0.030440565816449678 0.001590979540528562 0 0.031395502432394008 0.0015121167805741489 0 0.030440565816449678 0.001590979540528562 0 0.030847722922083421 0.0012017307485297161 0 0.031967030682748344 0.0017325688704150056 0 0.032290063184060566 0.0019364582965031068 0 0.031395502432394008 0.0015121167805741489 0 0.031979002639492916 0.0017259895703184941 0 0.030711848340873159 0.0020211621078917519 0 0.031979002639492916 0.0017259895703184941 0 0.033456188644596617 0.0010579798248128429 0 0.034189152153375604 0.0019813800322131974 0 0.031395502432394008 0.0015121167805741489 0 0.031551780785815421 0.0015642094529239002 0 0.031979002639492916 0.0017259895703184941 0 0.031432727372993643 0.0014016409201461041 0 0.031551780785815421 0.0015642094529239002 0 0.031979002639492916 0.0017259895703184941 0 0.031432727372993643 0.0014016409201461041 0 0.031979002639492916 0.0017259895703184941 0 0.03162819267276417 0.00071012766131622917 0 0.033456188644596617 0.0010579798248128429 0 0.03162819267276417 0.00071012766131622917 0 0.034559637755861843 5.7550544669963716e-05 0 0.031979002639492916 0.0017259895703184941 0 0.033456188644596617 0.0010579798248128429 0 0.03162819267276417 0.00071012766131622917 0 0.033370159594363603 0.00033180447627048193 0 0.034488838133593734 7.1675667846733692e-05 0 0.034984137872944236 -7.6747044369976743e-05 0 0.035000176313624141 1.3202336156654876e-07 0 0.034559637755861843 5.7550544669963716e-05 0 0.035000176313624141 1.3202336156654876e-07 0 0.034998230916676837 -1.300396665750972e-08 0 0.034559637755861843 5.7550544669963716e-05 0 0.034999265727101686 -2.1984839871685187e-05 0 0.034984137872944236 -7.6747044369976743e-05 0 0.035000176313624141 1.3202336156654876e-07 0 0.035001748934639115 3.24678023952495e-07 0 0.034994240152340539 0.00023863185922624557 0 0.034998230916676837 -1.300396665750972e-08 0 0.034994240152340539 0.00023863185922624557 0 0.034998230916676837 -1.300396665750972e-08 0 0.034849085071318293 0.00029995115500661308 0 0.034994240152340539 0.00023863185922624557 0 0.034849085071318293 0.00029995115500661308 0 0.035054927424318046 0.00074570698389054679 0 0.035314378627729244 0.0005404059326713465 0 0.034994240152340539 0.00023863185922624557 0 0.035054927424318046 0.00074570698389054679 0 0.034998230916676837 -1.300396665750972e-08 0 0.034559637755861843 5.7550544669963716e-05 0 0.034849085071318293 0.00029995115500661308 0 0.034559637755861843 5.7550544669963716e-05 0 0.034849085071318293 0.00029995115500661308 0 0.034616493134161604 0.00087033385646701877 0 0.033456188644596617 0.0010579798248128429 0 0.034559637755861843 5.7550544669963716e-05 0 0.034616493134161604 0.00087033385646701877 0 0.033456188644596617 0.0010579798248128429 0 0.034616493134161604 0.00087033385646701877 0 0.034189152153375604 0.0019813800322131974 0 0.034616493134161604 0.00087033385646701877 0 0.035054927424318046 0.00074570698389054679 0 0.035006238654602888 0.0013869525336413593 0 0.034849085071318293 0.00029995115500661308 0 0.034616493134161604 0.00087033385646701877 0 0.035054927424318046 0.00074570698389054679 0 0.035429013915348202 0.0010974477112964663 0 0.035054927424318046 0.00074570698389054679 0 0.035006238654602888 0.0013869525336413593 0 0.032290063184060566 0.0019364582965031068 0 0.032553033189031397 0.0020824173184453023 0 0.035482322544871568 0.0016304280248513421 0 0.035006238654602888 0.0013869525336413593 0 0.03503030929193094 0.0019944741067987625 0 0.035006238654602888 0.0013869525336413593 0 0.034189152153375604 0.0019813800322131974 0 0.03503030929193094 0.0019944741067987625 0 0.034616493134161604 0.00087033385646701877 0 0.035006238654602888 0.0013869525336413593 0 0.034189152153375604 0.0019813800322131974 0 0.030711848340873159 0.0020211621078917519 0 0.030440565816449678 0.001590979540528562 0 0.02947511024376738 0.0020232046301363119 0 0.030440565816449678 0.001590979540528562 0 0.02947511024376738 0.0020232046301363119 0 0.029950251706857417 0.001236620786930983 0 0.028986452677098623 0.001482182596793535 0 0.02947511024376738 0.0020232046301363119 0 0.029950251706857417 0.001236620786930983 0 0.028986452677098623 0.001482182596793535 0 0.029950251706857417 0.001236620786930983 0 0.029278563856719262 0.0010763181611933401 0 0.026889021519481856 0.0018751665171032783 0 0.028277476883554024 0.0010248508423457417 0 0.024998837947053876 0.0021632023025219952 0 0.028277476883554024 0.0010248508423457417 0 0.029278563856719262 0.0010763181611933401 0 0.029889609015414959 0.00044952651460028166 0 0.029950251706857417 0.001236620786930983 0 0.029278563856719262 0.0010763181611933401 0 0.029889609015414959 0.00044952651460028166 0 0.028121107045789843 0.0010528717819410891 0 0.027484837168162104 0.0013832017985980526 0 0.029950251706857417 0.001236620786930983 0 0.029889609015414959 0.00044952651460028166 0 0.030496559978558786 0.00080205109748578759 0 0.029950251706857417 0.001236620786930983 0 0.030496559978558786 0.00080205109748578759 0 0.030847722922083421 0.0012017307485297161 0 0.030440565816449678 0.001590979540528562 0 0.029950251706857417 0.001236620786930983 0 0.030847722922083421 0.0012017307485297161 0 0.030847722922083421 0.0012017307485297161 0 0.031298848450139402 0.0012649033030748267 0 0.030894565522039411 0.00086672081345110809 0 0.031395502432394008 0.0015121167805741489 0 0.030847722922083421 0.0012017307485297161 0 0.031298848450139402 0.0012649033030748267 0 0.031298848450139402 0.0012649033030748267 0 0.031178216098261848 0.0010008986096100209 0 0.030894565522039411 0.00086672081345110809 0 0.031178216098261848 0.0010008986096100209 0 0.030894565522039411 0.00086672081345110809 0 0.031053271481715234 0.00081057193793245658 0 0.030496559978558786 0.00080205109748578759 0 0.030894565522039411 0.00086672081345110809 0 0.03066562192841709 0.00053062813534438815 0 0.030496559978558786 0.00080205109748578759 0 0.030847722922083421 0.0012017307485297161 0 0.030894565522039411 0.00086672081345110809 0 0.030894565522039411 0.00086672081345110809 0 0.030908531798956921 0.00068013497268150803 0 0.03066562192841709 0.00053062813534438815 0 0.030894565522039411 0.00086672081345110809 0 0.030908531798956921 0.00068013497268150803 0 0.031053271481715234 0.00081057193793245658 0 0.030908531798956921 0.00068013497268150803 0 0.031053271481715234 0.00081057193793245658 0 0.030996481567313099 0.0007337095359355708 0 0.031053271481715234 0.00081057193793245658 0 0.030995199896853329 0.00077613408299262161 0 0.030996481567313099 0.0007337095359355708 0 0.031056924906218988 0.00076199939758247396 0 0.03092269273988411 0.00082014322132292815 0 0.030618687459021285 0.001058983447368768 0 0.030995199896853329 0.00077613408299262161 0 0.030994556944611725 0.00076438077002229153 0 0.03092269273988411 0.00082014322132292815 0 0.030995199896853329 0.00077613408299262161 0 0.030994556944611725 0.00076438077002229153 0 0.030996481567313099 0.0007337095359355708 0 0.030908531798956921 0.00068013497268150803 0 0.030996481567313099 0.0007337095359355708 0 0.031056924906218988 0.00076199939758247396 0 0.030994556944611725 0.00076438077002229153 0 0.030996481567313099 0.0007337095359355708 0 0.031056924906218988 0.00076199939758247396 0 0.024177895411709727 0.0040408049512133948 0 0.024030391513223708 0.0041557502732316341 0 0.024237319353982753 0.0039842165994925498 0 0.024177895411709727 0.0040408049512133948 0 0.024040308474195613 0.0045087859251575022 0 0.024030391513223708 0.0041557502732316341 0 0.024177895411709727 0.0040408049512133948 0 0.024483135651460503 0.0037820448896818833 0 0.024237319353982753 0.0039842165994925498 0 0.024177895411709727 0.0040408049512133948 0 0.024483135651460503 0.0037820448896818833 0 0.024040308474195613 0.0045087859251575022 0 0.030994556944611725 0.00076438077002229153 0 0.031056924906218988 0.00076199939758247396 0 0.03092269273988411 0.00082014322132292815 0 0.027220267018622086 0.0021241299412740554 0 0.027704104639154313 0.0025191045038341366 0 0.030908531798956921 0.00068013497268150803 0 0.03066562192841709 0.00053062813534438815 0 0.031056924906218988 0.00076199939758247396 0 0.023780876953989779 0.0037185179579760489 0 0.024040308474195613 0.0045087859251575022 0 0.023928677022492885 0.0041899591856989493 0 0.023780876953989779 0.0037185179579760489 0 0.023928677022492885 0.0041899591856989493 0 0.023981711869343544 0.0041439997797652131 0 0.024040308474195613 0.0045087859251575022 0 0.023928677022492885 0.0041899591856989493 0 0.024030391513223708 0.0041557502732316341 0 0.023928677022492885 0.0041899591856989493 0 0.024030391513223708 0.0041557502732316341 0 0.024006164742005405 0.0041743548286211534 0 0.023928677022492885 0.0041899591856989493 0 0.023985670834645999 0.0042314694038004643 0 0.024006164742005405 0.0041743548286211534 0 0.023928677022492885 0.0041899591856989493 0 0.023981711869343544 0.0041439997797652131 0 0.023985670834645999 0.0042314694038004643 0 0.023981711869343544 0.0041439997797652131 0 0.024301152230563734 0.0041615938906178441 0 0.024083938249781625 0.0043329732367864198 0 0.023981711869343544 0.0041439997797652131 0 0.024083938249781625 0.0043329732367864198 0 0.023985670834645999 0.0042314694038004643 0 0.023780876953989779 0.0037185179579760489 0 0.024301152230563734 0.0041615938906178441 0 0.024674454894690032 0.0035559084916329383 0 0.023780876953989779 0.0037185179579760489 0 0.023981711869343544 0.0041439997797652131 0 0.024301152230563734 0.0041615938906178441 0 0.024301152230563734 0.0041615938906178441 0 0.024273950019806291 0.0043811308457990701 0 0.024083938249781625 0.0043329732367864198 0 0.024301152230563734 0.0041615938906178441 0 0.024273950019806291 0.0043811308457990701 0 0.024706298144702606 0.0041633526555530315 0 0.024273950019806291 0.0043811308457990701 0 0.024706298144702606 0.0041633526555530315 0 0.024133177020977593 0.0045179873163049998 0 0.026179801456377182 0.0036120032327420257 0 0.024706298144702606 0.0041633526555530315 0 0.024674454894690032 0.0035559084916329383 0 0.024940662723192893 0.0043116124612946928 0 0.024706298144702606 0.0041633526555530315 0 0.024133177020977593 0.0045179873163049998 0 0.025554313427609925 0.0044707454959654336 0 0.024853918753828287 0.0045455453119663571 0 0.026179801456377182 0.0036120032327420257 0 0.024940662723192893 0.0043116124612946928 0 0.024706298144702606 0.0041633526555530315 0 0.026869101681827424 0.0034616479359061152 0 0.025554313427609925 0.0044707454959654336 0 0.024301152230563734 0.0041615938906178441 0 0.024706298144702606 0.0041633526555530315 0 0.024674454894690032 0.0035559084916329383 0 0.026179801456377182 0.0036120032327420257 0 0.024998837947053876 0.0021632023025219952 0 0.024674454894690032 0.0035559084916329383 0 0.026889021519481856 0.0018751665171032783 0 0.026179801456377182 0.0036120032327420257 0 0.024998837947053876 0.0021632023025219952 0 0.024998837947053876 0.0021632023025219952 0 0.023780876953989779 0.0037185179579760489 0 0.024674454894690032 0.0035559084916329383 0 0.027484837168162104 0.0013832017985980526 0 0.027220267018622086 0.0021241299412740554 0 0.029889609015414959 0.00044952651460028166 0 0.030496559978558786 0.00080205109748578759 0 0.03066562192841709 0.00053062813534438815 0 0.02385977740193174 0.0044055939641533259 0 0.023977200820195405 0.0042655342021168984 0 0.023579419467846873 0.0044142589727592359 0 0.02385977740193174 0.0044055939641533259 0 0.023999211315039171 0.0043302965840996367 0 0.023977200820195405 0.0042655342021168984 0 0.02385977740193174 0.0044055939641533259 0 0.023999211315039171 0.0043302965840996367 0 0.024015919443437759 0.0043765412220098353 0 0.023558999813341322 0.0044327578255790138 0 0.02385977740193174 0.0044055939641533259 0 0.023579419467846873 0.0044142589727592359 0 0.023558999813341322 0.0044327578255790138 0 0.02385977740193174 0.0044055939641533259 0 0.023876956919478935 0.0044353005641410504 0 0.024067806048531086 0.0044261864843148403 0 0.023876956919478935 0.0044353005641410504 0 0.024133177020977593 0.0045179873163049998 0 0.02385977740193174 0.0044055939641533259 0 0.024067806048531086 0.0044261864843148403 0 0.023876956919478935 0.0044353005641410504 0 0.023558999813341322 0.0044327578255790138 0 0.023729044172479393 0.0044426038626283193 0 0.023876956919478935 0.0044353005641410504 0 0.023729044172479393 0.0044426038626283193 0 0.023876956919478935 0.0044353005641410504 0 0.024133177020977593 0.0045179873163049998 0 0.023711337968560953 0.0045271640838596434 0 0.023757488693631177 0.0046327985827013694 0 0.024133177020977593 0.0045179873163049998 0 0.023729044172479393 0.0044426038626283193 0 0.023711337968560953 0.0045271640838596434 0 0.024133177020977593 0.0045179873163049998 0 0.024273950019806291 0.0043811308457990701 0 0.024067806048531086 0.0044261864843148403 0 0.024133177020977593 0.0045179873163049998 0 0.024067806048531086 0.0044261864843148403 0 0.024015919443437759 0.0043765412220098353 0 0.024083938249781625 0.0043329732367864198 0 0.024273950019806291 0.0043811308457990701 0 0.024067806048531086 0.0044261864843148403 0 0.024083938249781625 0.0043329732367864198 0 0.02385977740193174 0.0044055939641533259 0 0.024067806048531086 0.0044261864843148403 0 0.024015919443437759 0.0043765412220098353 0 0.023999211315039171 0.0043302965840996367 0 0.024015919443437759 0.0043765412220098353 0 0.024021846388315726 0.0043026977201761126 0 0.024015919443437759 0.0043765412220098353 0 0.024021846388315726 0.0043026977201761126 0 0.024083938249781625 0.0043329732367864198 0 0.024021846388315726 0.0043026977201761126 0 0.024083938249781625 0.0043329732367864198 0 0.023985670834645999 0.0042314694038004643 0 0.024021846388315726 0.0043026977201761126 0 0.023985670834645999 0.0042314694038004643 0 0.024032369175900143 0.0042226782790827288 0 0.023985670834645999 0.0042314694038004643 0 0.024032369175900143 0.0042226782790827288 0 0.024006164742005405 0.0041743548286211534 0 0.024006164742005405 0.0041743548286211534 0 0.02409302542995501 0.0040948264311201502 0 0.024070826232665508 0.0041603165621777712 0 0.024030391513223708 0.0041557502732316341 0 0.024006164742005405 0.0041743548286211534 0 0.02409302542995501 0.0040948264311201502 0 0.02409302542995501 0.0040948264311201502 0 0.024070826232665508 0.0041603165621777712 0 0.024178600382211809 0.0040825373977164897 0 0.024032369175900143 0.0042226782790827288 0 0.024006164742005405 0.0041743548286211534 0 0.024070826232665508 0.0041603165621777712 0 0.024094933802683644 0.0042077406795631312 0 0.024178600382211809 0.0040825373977164897 0 0.024170826811071477 0.0041585730372524976 0 0.024032369175900143 0.0042226782790827288 0 0.024070826232665508 0.0041603165621777712 0 0.024094933802683644 0.0042077406795631312 0 0.024070826232665508 0.0041603165621777712 0 0.024094933802683644 0.0042077406795631312 0 0.024178600382211809 0.0040825373977164897 0 0.024021846388315726 0.0043026977201761126 0 0.024032369175900143 0.0042226782790827288 0 0.024094933802683644 0.0042077406795631312 0 0.023999211315039171 0.0043302965840996367 0 0.024021846388315726 0.0043026977201761126 0 0.024094933802683644 0.0042077406795631312 0 0.024483135651460503 0.0037820448896818833 0 0.024266210456480891 0.0040100544345155944 0 0.023899573788655332 0.0041359779685210159 0 0.024483135651460503 0.0037820448896818833 0 0.024040308474195613 0.0045087859251575022 0 0.030618687459021285 0.001058983447368768 0 0.024266210456480891 0.0040100544345155944 0 0.024190785324248294 0.0041056068173693826 0 0.023899573788655332 0.0041359779685210159 0 0.027704104639154313 0.0025191045038341366 0 0.030388818870198762 0.001110750253543627 0 0.024483135651460503 0.0037820448896818833 0 0.024266210456480891 0.0040100544345155944 0 0.024237319353982753 0.0039842165994925498 0 0.024266210456480891 0.0040100544345155944 0 0.024237319353982753 0.0039842165994925498 0 0.024178600382211809 0.0040825373977164897 0 0.024030391513223708 0.0041557502732316341 0 0.02409302542995501 0.0040948264311201502 0 0.024237319353982753 0.0039842165994925498 0 0.02409302542995501 0.0040948264311201502 0 0.024237319353982753 0.0039842165994925498 0 0.024178600382211809 0.0040825373977164897 0 0.024178600382211809 0.0040825373977164897 0 0.024170826811071477 0.0041585730372524976 0 0.024190785324248294 0.0041056068173693826 0 0.024266210456480891 0.0040100544345155944 0 0.024178600382211809 0.0040825373977164897 0 0.024190785324248294 0.0041056068173693826 0 0.024190785324248294 0.0041056068173693826 0 0.024189467972998601 0.0042104070276289063 0 0.023899573788655332 0.0041359779685210159 0 0.024143900091320239 0.0060297865762203133 0 0.024499085026105271 0.0055368018175584515 0 0.025026759823671429 0.0056820507142996395 0 0.024170826811071477 0.0041585730372524976 0 0.024190785324248294 0.0041056068173693826 0 0.024189467972998601 0.0042104070276289063 0 0.024094933802683644 0.0042077406795631312 0 0.024170826811071477 0.0041585730372524976 0 0.024189467972998601 0.0042104070276289063 0 0.023905801416301869 0.0052822326840670846 0 0.023751861815806376 0.0048966103451283322 0 0.023999211315039171 0.0043302965840996367 0 0.024094933802683644 0.0042077406795631312 0 0.024189467972998601 0.0042104070276289063 0 0.023999211315039171 0.0043302965840996367 0 0.024189467972998601 0.0042104070276289063 0 0.023977200820195405 0.0042655342021168984 0 0.023421105021979565 0.0055090156521367221 0 0.023620109848971879 0.0051334331192756629 0 0.023282223997010069 0.0050713653150792574 0 0.024143900091320239 0.0060297865762203133 0 0.023421105021979565 0.0055090156521367221 0 0.023998408784439894 0.0053408578781164347 0 0.023421105021979565 0.0055090156521367221 0 0.023998408784439894 0.0053408578781164347 0 0.023620109848971879 0.0051334331192756629 0 0.023998408784439894 0.0053408578781164347 0 0.024997127589920395 0.0041049867749448771 0 0.024864866537916905 0.0050574594550567469 0 0.024143900091320239 0.0060297865762203133 0 0.023998408784439894 0.0053408578781164347 0 0.024499085026105271 0.0055368018175584515 0 0.023998408784439894 0.0053408578781164347 0 0.024499085026105271 0.0055368018175584515 0 0.024864866537916905 0.0050574594550567469 0 0.023998408784439894 0.0053408578781164347 0 0.02391862544164481 0.0048852791636999756 0 0.024426356318206825 0.0049704362286374908 0 0.024057600760371251 0.0052535180860988871 0 0.024685886758202345 0.0046280149580345768 0 0.023998408784439894 0.0053408578781164347 0 0.02391862544164481 0.0048852791636999756 0 0.023620109848971879 0.0051334331192756629 0 0.02391862544164481 0.0048852791636999756 0 0.023620109848971879 0.0051334331192756629 0 0.023517484110364806 0.0048043515386074253 0 0.023620109848971879 0.0051334331192756629 0 0.023282223997010069 0.0050713653150792574 0 0.023517484110364806 0.0048043515386074253 0 0.023282223997010069 0.0050713653150792574 0 0.022968711752407334 0.0051638112737858281 0 0.02294290528868994 0.0048224903545305798 0 0.023282223997010069 0.0050713653150792574 0 0.02294290528868994 0.0048224903545305798 0 0.023517484110364806 0.0048043515386074253 0 0.023751861815806376 0.0048966103451283322 0 0.02323718998623036 0.0047946069805683252 0 0.023977200820195405 0.0042655342021168984 0 0.023579419467846873 0.0044142589727592359 0 0.023492332192148954 0.0043441086773001311 0 0.023421105021979565 0.0055090156521367221 0 0.023282223997010069 0.0050713653150792574 0 0.022968711752407334 0.0051638112737858281 0 0.023170919173940464 0.004521155076839898 0 0.023579419467846873 0.0044142589727592359 0 0.023492332192148954 0.0043441086773001311 0 0.022725721764458813 0.0048551600908279266 0 0.022968711752407334 0.0051638112737858281 0 0.02294290528868994 0.0048224903545305798 0 0.022839678716155404 0.0048300057707454467 0 0.02323718998623036 0.0047946069805683252 0 0.02294290528868994 0.0048224903545305798 0 0.023205606345670714 0.0044879665270887402 0 0.023517484110364806 0.0048043515386074253 0 0.023351397739254907 0.0041057700472227005 0 0.023205606345670714 0.0044879665270887402 0 0.022843489796710862 0.0042977351490050579 0 0.023351397739254907 0.0041057700472227005 0 0.023205606345670714 0.0044879665270887402 0 0.023704055217366137 0.0044829131535212233 0 0.02294290528868994 0.0048224903545305798 0 0.023205606345670714 0.0044879665270887402 0 0.022843489796710862 0.0042977351490050579 0 0.022542791985829719 0.0048264908424158082 0 0.02294290528868994 0.0048224903545305798 0 0.022843489796710862 0.0042977351490050579 0 0.022385262770464012 0.0034405126995051341 0 0.022843489796710862 0.0042977351490050579 0 0.023140719732801837 0.0036503752460795053 0 0.023351397739254907 0.0041057700472227005 0 0.023140719732801837 0.0036503752460795053 0 0.023514443432870211 0.0038033523447330215 0 0.023351397739254907 0.0041057700472227005 0 0.022843489796710862 0.0042977351490050579 0 0.023140719732801837 0.0036503752460795053 0 0.023140719732801837 0.0036503752460795053 0 0.0233177765575742 0.0034667807014402171 0 0.02306888251234741 0.0028340147742750878 0 0.023181427398424211 0.0034089803165474725 0 0.021593028706195765 0.0024714691495431188 0 0.022385262770464012 0.0034405126995051341 0 0.02306888251234741 0.0028340147742750878 0 0.022285791697681551 0.0026130324033418156 0 0.022385262770464012 0.0034405126995051341 0 0.023140719732801837 0.0036503752460795053 0 0.02306888251234741 0.0028340147742750878 0 0.024162804719886855 0.0034537823830815707 0 0.024080158771271263 0.0029883615542730777 0 0.02381401730616596 0.0034663497651510845 0 0.024162804719886855 0.0034537823830815707 0 0.02381401730616596 0.0034663497651510845 0 0.023967522767686825 0.0036984877259216252 0 0.024162804719886855 0.0034537823830815707 0 0.024080158771271263 0.0029883615542730777 0 0.02451055177908662 0.0033253169266762857 0 0.024162804719886855 0.0034537823830815707 0 0.024346468002334139 0.0037333781076237622 0 0.02451055177908662 0.0033253169266762857 0 0.024677038455739778 0.0027801234988026244 0 0.024554611774644124 0.0024496757116647468 0 0.023978360077603008 0.0025788957620494087 0 0.024080158771271263 0.0029883615542730777 0 0.02451055177908662 0.0033253169266762857 0 0.023978360077603008 0.0025788957620494087 0 0.024545844851051497 0.0030096008837539666 0 0.024021627660221662 0.0025958441698694652 0 0.024080158771271263 0.0029883615542730777 0 0.0233177765575742 0.0034667807014402171 0 0.022714640450040232 0.0014222987214928282 0 0.024080158771271263 0.0029883615542730777 0 0.0233177765575742 0.0034667807014402171 0 0.02381401730616596 0.0034663497651510845 0 0.0233177765575742 0.0034667807014402171 0 0.02381401730616596 0.0034663497651510845 0 0.023514443432870211 0.0038033523447330215 0 0.02381401730616596 0.0034663497651510845 0 0.023514443432870211 0.0038033523447330215 0 0.023967522767686825 0.0036984877259216252 0 0.023140719732801837 0.0036503752460795053 0 0.0233177765575742 0.0034667807014402171 0 0.023514443432870211 0.0038033523447330215 0 0.023351397739254907 0.0041057700472227005 0 0.023514443432870211 0.0038033523447330215 0 0.023938284116870275 0.0040656584060776999 0 0.023514443432870211 0.0038033523447330215 0 0.023967522767686825 0.0036984877259216252 0 0.023938284116870275 0.0040656584060776999 0 0.023967522767686825 0.0036984877259216252 0 0.024346468002334139 0.0037333781076237622 0 0.023938284116870275 0.0040656584060776999 0 0.024346468002334139 0.0037333781076237622 0 0.023938284116870275 0.0040656584060776999 0 0.024510133618514875 0.0040811515156491569 0 0.024162804719886855 0.0034537823830815707 0 0.023967522767686825 0.0036984877259216252 0 0.024346468002334139 0.0037333781076237622 0 0.023938284116870275 0.0040656584060776999 0 0.024248365775733072 0.0044949470378385257 0 0.024510133618514875 0.0040811515156491569 0 0.023938284116870275 0.0040656584060776999 0 0.023704055217366137 0.0044829131535212233 0 0.024248365775733072 0.0044949470378385257 0 0.023351397739254907 0.0041057700472227005 0 0.023938284116870275 0.0040656584060776999 0 0.023704055217366137 0.0044829131535212233 0 0.023205606345670714 0.0044879665270887402 0 0.023704055217366137 0.0044829131535212233 0 0.023517484110364806 0.0048043515386074253 0 0.02391862544164481 0.0048852791636999756 0 0.023704055217366137 0.0044829131535212233 0 0.023517484110364806 0.0048043515386074253 0 0.02391862544164481 0.0048852791636999756 0 0.023704055217366137 0.0044829131535212233 0 0.024248365775733072 0.0044949470378385257 0 0.02391862544164481 0.0048852791636999756 0 0.024248365775733072 0.0044949470378385257 0 0.024426356318206825 0.0049704362286374908 0 0.024248365775733072 0.0044949470378385257 0 0.024818318659433725 0.0043563786204707739 0 0.024426356318206825 0.0049704362286374908 0 0.024992744288635512 0.0044674293147960419 0 0.024818318659433725 0.0043563786204707739 0 0.024426356318206825 0.0049704362286374908 0 0.025530119228365199 0.0032689720766833005 0 0.024685886758202345 0.0046280149580345768 0 0.026047649893776663 0.0029963457530187637 0 0.02721684690789199 0.003753732893584888 0 0.026166496115953057 0.0040864067415913048 0 0.026047649893776663 0.0029963457530187637 0 0.026166496115953057 0.0040864067415913048 0 0.024997127589920395 0.0041049867749448771 0 0.025530119228365199 0.0032689720766833005 0 0.025673320608002884 0.0027602837185559176 0 0.025008623185992219 0.0044699223867913328 0 0.025000224030690694 0.0041951430899601089 0 0.025287365966348719 0.0041733096997874095 0 0.025008623185992219 0.0044699223867913328 0 0.024818318659433725 0.0043563786204707739 0 0.025000224030690694 0.0041951430899601089 0 0.025530119228365199 0.0032689720766833005 0 0.025297288860574734 0.0037431148754683372 0 0.0248045926977579 0.0040700440536362232 0 0.025000224030690694 0.0041951430899601089 0 0.024868826859709925 0.0037829104162804355 0 0.024818318659433725 0.0043563786204707739 0 0.0248045926977579 0.0040700440536362232 0 0.025000224030690694 0.0041951430899601089 0 0.025000224030690694 0.0041951430899601089 0 0.024868826859709925 0.0037829104162804355 0 0.025287365966348719 0.0041733096997874095 0 0.024248365775733072 0.0044949470378385257 0 0.024818318659433725 0.0043563786204707739 0 0.024510133618514875 0.0040811515156491569 0 0.024818318659433725 0.0043563786204707739 0 0.0248045926977579 0.0040700440536362232 0 0.024510133618514875 0.0040811515156491569 0 0.024346468002334139 0.0037333781076237622 0 0.024868826859709925 0.0037829104162804355 0 0.02451055177908662 0.0033253169266762857 0 0.024346468002334139 0.0037333781076237622 0 0.024510133618514875 0.0040811515156491569 0 0.024868826859709925 0.0037829104162804355 0 0.024949507788836305 0.0033906450629513436 0 0.024545844851051497 0.0030096008837539666 0 0.0248045926977579 0.0040700440536362232 0 0.024510133618514875 0.0040811515156491569 0 0.024868826859709925 0.0037829104162804355 0 0.025026278864505997 0.0028480996714183881 0 0.02520240417461091 0.0025829206914374618 0 0.025297815369473193 0.00268613355609574 0 0.025026278864505997 0.0028480996714183881 0 0.025297815369473193 0.00268613355609574 0 0.02528443663409824 0.0030274765449532213 0 0.024949507788836305 0.0033906450629513436 0 0.025673320608002884 0.0027602837185559176 0 0.025026278864505997 0.0028480996714183881 0 0.02520240417461091 0.0025829206914374618 0 0.024931814496642217 0.0025734914130302461 0 0.025026278864505997 0.0028480996714183881 0 0.024931814496642217 0.0025734914130302461 0 0.024677038455739778 0.0027801234988026244 0 0.024931814496642217 0.0025734914130302461 0 0.024677038455739778 0.0027801234988026244 0 0.024554611774644124 0.0024496757116647468 0 0.025386501134410776 0.0025872855992568359 0 0.025316047432669887 0.0025030736822584079 0 0.02520742973120679 0.0026683522232018933 0 0.025386501134410776 0.0025872855992568359 0 0.025379775739837622 0.0025731982578532189 0 0.025577868191147778 0.0025195786056895638 0 0.025386501134410776 0.0025872855992568359 0 0.025577868191147778 0.0025195786056895638 0 0.025316047432669887 0.0025030736822584079 0 0.025379775739837622 0.0025731982578532189 0 0.025297815369473193 0.00268613355609574 0 0.025577868191147778 0.0025195786056895638 0 0.02520240417461091 0.0025829206914374618 0 0.025379775739837622 0.0025731982578532189 0 0.025335583433138711 0.0025249145859298624 0 0.02520240417461091 0.0025829206914374618 0 0.025379775739837622 0.0025731982578532189 0 0.025297815369473193 0.00268613355609574 0 0.025297815369473193 0.00268613355609574 0 0.025577868191147778 0.0025195786056895638 0 0.02528443663409824 0.0030274765449532213 0 0.025648029955733728 0.0024348768453837087 0 0.025673320608002884 0.0027602837185559176 0 0.025577868191147778 0.0025195786056895638 0 0.025567719628665431 0.0019712283034519825 0 0.025316047432669887 0.0025030736822584079 0 0.025577868191147778 0.0025195786056895638 0 0.025567719628665431 0.0019712283034519825 0 0.025804087882313396 0.001879323010102348 0 0.025567719628665431 0.0019712283034519825 0 0.025804087882313396 0.001879323010102348 0 0.025672489660447662 0.0015858262191367131 0 0.025577868191147778 0.0025195786056895638 0 0.025804087882313396 0.001879323010102348 0 0.02623057549143195 0.0019508910219878503 0 0.025804087882313396 0.001879323010102348 0 0.02623057549143195 0.0019508910219878503 0 0.025780461790293974 0.0015616236755718741 0 0.025673320608002884 0.0027602837185559176 0 0.02584356297814807 0.0013549469587275196 0 0.026070946143905128 0.0016650352506705495 0 0.025958710001147724 0.0017776504527628745 0 0.025912882846643233 0.0016280284923628084 0 0.025530119228365199 0.0032689720766833005 0 0.026404071084834675 0.0025746388981679807 0 0.026070946143905128 0.0016650352506705495 0 0.025912882846643233 0.0016280284923628084 0 0.025850790486739907 0.001508704744813044 0 0.025958710001147724 0.0017776504527628745 0 0.025912882846643233 0.0016280284923628084 0 0.025780461790293974 0.0015616236755718741 0 0.025912882846643233 0.0016280284923628084 0 0.025850790486739907 0.001508704744813044 0 0.025780461790293974 0.0015616236755718741 0 0.025850790486739907 0.001508704744813044 0 0.025780461790293974 0.0015616236755718741 0 0.025715270745019232 0.0014992801296454387 0 0.025804087882313396 0.001879323010102348 0 0.025672489660447662 0.0015858262191367131 0 0.025780461790293974 0.0015616236755718741 0 0.025672489660447662 0.0015858262191367131 0 0.025780461790293974 0.0015616236755718741 0 0.025715270745019232 0.0014992801296454387 0 0.025850790486739907 0.001508704744813044 0 0.025715270745019232 0.0014992801296454387 0 0.02570682124878252 0.0014436531193590767 0 0.026404071084834675 0.0025746388981679807 0 0.028289028709072173 0.0022173691507840878 0 0.02721684690789199 0.003753732893584888 0 0.027323493288325163 0.0046167587877445479 0 0.02838512251473101 0.0044971318198255795 0 0.029579210186228614 0.0030441452879033711 0 0.028289028709072173 0.0022173691507840878 0 0.031432535761897716 0.00054702979864352283 0 0.031514770119533034 0.00057614591646231112 0 0.031492606727641474 0.00054655659147596956 0 0.026993204494734274 0.0055327370076932898 0 0.027323493288325163 0.0046167587877445479 0 0.02838512251473101 0.0044971318198255795 0 0.026993204494734274 0.0055327370076932898 0 0.026697893563175243 0.0046816441835497843 0 0.025950947846119829 0.0056146393760093047 0 0.026993204494734274 0.0055327370076932898 0 0.026697893563175243 0.0046816441835497843 0 0.027323493288325163 0.0046167587877445479 0 0.02721684690789199 0.003753732893584888 0 0.026697893563175243 0.0046816441835497843 0 0.026166496115953057 0.0040864067415913048 0 0.02721684690789199 0.003753732893584888 0 0.026697893563175243 0.0046816441835497843 0 0.027323493288325163 0.0046167587877445479 0 0.026697893563175243 0.0046816441835497843 0 0.026166496115953057 0.0040864067415913048 0 0.025639921396833489 0.004873158720138146 0 0.026166496115953057 0.0040864067415913048 0 0.024997127589920395 0.0041049867749448771 0 0.025639921396833489 0.004873158720138146 0 0.024997127589920395 0.0041049867749448771 0 0.024864866537916905 0.0050574594550567469 0 0.025639921396833489 0.004873158720138146 0 0.025950947846119829 0.0056146393760093047 0 0.025639921396833489 0.004873158720138146 0 0.025026759823671429 0.0056820507142996395 0 0.024864866537916905 0.0050574594550567469 0 0.025639921396833489 0.004873158720138146 0 0.025026759823671429 0.0056820507142996395 0 0.024499085026105271 0.0055368018175584515 0 0.024864866537916905 0.0050574594550567469 0 0.025026759823671429 0.0056820507142996395 0 0.026697893563175243 0.0046816441835497843 0 0.025950947846119829 0.0056146393760093047 0 0.025639921396833489 0.004873158720138146 0 0.029579210186228614 0.0030441452879033711 0 0.02795326470514484 0.0032227623173298309 0 0.026993204494734274 0.0055327370076932898 0 0.025950947846119829 0.0056146393760093047 0 0.025581028355896932 0.0065356722071416781 0 0.031432535761897716 0.00054702979864352283 0 0.031179788556463348 0.00029105490717647192 0 0.031358387524044039 0.00053886987175410573 0 0.025950947846119829 0.0056146393760093047 0 0.025026759823671429 0.0056820507142996395 0 0.025191993247972038 0.006116535396489953 0 0.024143900091320239 0.0060297865762203133 0 0.025026759823671429 0.0056820507142996395 0 0.025191993247972038 0.006116535396489953 0 0.025950947846119829 0.0056146393760093047 0 0.025191993247972038 0.006116535396489953 0 0.025581028355896932 0.0065356722071416781 0 0.024143900091320239 0.0060297865762203133 0 0.025191993247972038 0.006116535396489953 0 0.025316778024802793 0.0067184923632899419 0 0.023905801416301869 0.0052822326840670846 0 0.026571725543664569 0.0033861045702513839 0 0.025191993247972038 0.006116535396489953 0 0.025316778024802793 0.0067184923632899419 0 0.025581028355896932 0.0065356722071416781 0 0.024483135651460503 0.0037820448896818833 0 0.030618687459021285 0.001058983447368768 0 0.030881021519079187 0.00035423229505720735 0 0.025025388256496441 0.0033964141309876287 0 0.026571725543664569 0.0033861045702513839 0 0.030618687459021285 0.001058983447368768 0 0.031179788556463348 0.00029105490717647192 0 0.031172902060503403 0.00070598011407014519 0 0.030618687459021285 0.001058983447368768 0 0.030881021519079187 0.00035423229505720735 0 0.031179788556463348 0.00029105490717647192 0 0.026571725543664569 0.0033861045702513839 0 0.02795326470514484 0.0032227623173298309 0 0.030618687459021285 0.001058983447368768 0 0.030989806863970133 0.00088092642701667189 0 0.031172902060503403 0.00070598011407014519 0 0.030941383773945935 0.00083317600722674669 0 0.030618687459021285 0.001058983447368768 0 0.030989806863970133 0.00088092642701667189 0 0.031179788556463348 0.00029105490717647192 0 0.031358387524044039 0.00053886987175410573 0 0.031172902060503403 0.00070598011407014519 0 0.030989806863970133 0.00088092642701667189 0 0.031172902060503403 0.00070598011407014519 0 0.031245240383303528 0.00076371244766099057 0 0.031358387524044039 0.00053886987175410573 0 0.031172902060503403 0.00070598011407014519 0 0.031245240383303528 0.00076371244766099057 0 0.031358387524044039 0.00053886987175410573 0 0.031445389963328428 0.00068767693137539534 0 0.031480753117857696 0.00060369408631104631 0 0.031358387524044039 0.00053886987175410573 0 0.031245240383303528 0.00076371244766099057 0 0.031445389963328428 0.00068767693137539534 0 0.031594661094942564 0.0006997187042854854 0 0.031480753117857696 0.00060369408631104631 0 0.031524248862524376 0.00061245920417825263 0 0.031445389963328428 0.00068767693137539534 0 0.031594661094942564 0.0006997187042854854 0 0.031480753117857696 0.00060369408631104631 0 0.031432535761897716 0.00054702979864352283 0 0.031524248862524376 0.00061245920417825263 0 0.031514770119533034 0.00057614591646231112 0 0.031432535761897716 0.00054702979864352283 0 0.031480753117857696 0.00060369408631104631 0 0.031524248862524376 0.00061245920417825263 0 0.031432535761897716 0.00054702979864352283 0 0.031358387524044039 0.00053886987175410573 0 0.031480753117857696 0.00060369408631104631 0 0.028440647613413542 0.00049981051412607553 0 0.027876834925194171 0.0004672435657530334 0 0.027859397345039734 0.00043403617773671028 0 0.030142612708559374 0.00053584330959205808 0 0.027906982434199538 0.00076150405672209553 0 0.031602278061825743 0.00066178792701786639 0 0.031549997062602184 0.00061560877084991246 0 0.031556445827474154 0.00056575130131767749 0 0.028440647613413542 0.00049981051412607553 0 0.029098538003322419 0.00061716756431449136 0 0.028512756662062252 0.00049054768665764278 0 0.028440647613413542 0.00049981051412607553 0 0.028512756662062252 0.00049054768665764278 0 0.027859397345039734 0.00043403617773671028 0 0.031524248862524376 0.00061245920417825263 0 0.031549997062602184 0.00061560877084991246 0 0.031514770119533034 0.00057614591646231112 0 0.031524248862524376 0.00061245920417825263 0 0.031549997062602184 0.00061560877084991246 0 0.031569219810939443 0.00068423447473570684 0 0.031602278061825743 0.00066178792701786639 0 0.031549997062602184 0.00061560877084991246 0 0.031569219810939443 0.00068423447473570684 0 0.031569453137641257 0.00080779679829240066 0 0.031594661094942564 0.0006997187042854854 0 0.031569219810939443 0.00068423447473570684 0 0.031594661094942564 0.0006997187042854854 0 0.031524248862524376 0.00061245920417825263 0 0.031569219810939443 0.00068423447473570684 0 0.031569453137641257 0.00080779679829240066 0 0.031602278061825743 0.00066178792701786639 0 0.031569219810939443 0.00068423447473570684 0 0.029687217490250672 0.00080024706869813976 0 0.028440647613413542 0.00049981051412607553 0 0.029098538003322419 0.00061716756431449136 0 0.030609232296115837 0.00068608918136242277 0 0.030142612708559374 0.00053584330959205808 0 0.030075641682981574 0.00085891167788664728 0 0.029098538003322419 0.00061716756431449136 0 0.02861830623402738 0.00036197265142688315 0 0.029643665600371991 0.00018056245805659628 0 0.028768078613074028 0.00039487652414100876 0 0.030075641682981574 0.00085891167788664728 0 0.029687217490250672 0.00080024706869813976 0 0.029098538003322419 0.00061716756431449136 0 0.0284513851520765 -0.00035714719535315139 0 0.029225371974494405 -0.00053256872783365465 0 0.028482018263774993 -0.00013236407260703659 0 0.029225371974494405 -0.00053256872783365465 0 0.028482018263774993 -0.00013236407260703659 0 0.02861830623402738 0.00036197265142688315 0 0.028482018263774993 -0.00013236407260703659 0 0.02861830623402738 0.00036197265142688315 0 0.027733826290223043 4.0686901461813109e-06 0 0.02861830623402738 0.00036197265142688315 0 0.028115369540886979 0.00037714712409180751 0 0.027733826290223043 4.0686901461813109e-06 0 0.029098538003322419 0.00061716756431449136 0 0.02861830623402738 0.00036197265142688315 0 0.028512756662062252 0.00049054768665764278 0 0.02861830623402738 0.00036197265142688315 0 0.028512756662062252 0.00049054768665764278 0 0.028410185236304557 0.00046326565825969147 0 0.028512756662062252 0.00049054768665764278 0 0.028410185236304557 0.00046326565825969147 0 0.027859397345039734 0.00043403617773671028 0 0.028410185236304557 0.00046326565825969147 0 0.028565734028796159 0.00042450261763124172 0 0.026605190684346858 -0.00030897120177541209 0 0.028410185236304557 0.00046326565825969147 0 0.028115369540886979 0.00037714712409180751 0 0.028565734028796159 0.00042450261763124172 0 0.028115369540886979 0.00037714712409180751 0 0.028565734028796159 0.00042450261763124172 0 0.027143648314560558 0.0013427552281949082 0 0.02861830623402738 0.00036197265142688315 0 0.028410185236304557 0.00046326565825969147 0 0.028115369540886979 0.00037714712409180751 0 0.023252600393684781 -0.00035412114456472298 0 0.022033454553609971 0.00088009483470104666 0 0.021945298674928414 0.00057401004046405421 0 0.025862192299910901 9.047193532554501e-05 0 0.024582993194870683 0.00085957818813466741 0 0.023252600393684781 -0.00035412114456472298 0 0.025235337417636824 0.00033365055248815901 0 0.024453826033524712 0.0010176757422019247 0 0.025862192299910901 9.047193532554501e-05 0 0.026497544120887635 -0.00026452785220808559 0 0.023252600393684781 -0.00035412114456472298 0 0.025235337417636824 0.00033365055248815901 0 0.026605190684346858 -0.00030897120177541209 0 0.025235337417636824 0.00033365055248815901 0 0.026012130204604956 0.00012482530782240476 0 0.025434667821515572 0.00089571664152588565 0 0.027906982434199538 0.00076150405672209553 0 0.025920276325598648 0.00075610468974069193 0 0.026012130204604956 0.00012482530782240476 0 0.026199414136829129 0.00017970282577509585 0 0.025434667821515572 0.00089571664152588565 0 0.026012130204604956 0.00012482530782240476 0 0.026605190684346858 -0.00030897120177541209 0 0.026199414136829129 0.00017970282577509585 0 0.025235337417636824 0.00033365055248815901 0 0.026012130204604956 0.00012482530782240476 0 0.026605190684346858 -0.00030897120177541209 0 0.028410185236304557 0.00046326565825969147 0 0.026605190684346858 -0.00030897120177541209 0 0.027859397345039734 0.00043403617773671028 0 0.026631261207244794 -0.0001520993418110793 0 0.026605190684346858 -0.00030897120177541209 0 0.026199414136829129 0.00017970282577509585 0 0.026631261207244794 -0.0001520993418110793 0 0.026605190684346858 -0.00030897120177541209 0 0.027859397345039734 0.00043403617773671028 0 0.027906982434199538 0.00076150405672209553 0 0.027544810812296663 0.000346900453566638 0 0.027906982434199538 0.00076150405672209553 0 0.028289028709072173 0.0022173691507840878 0 0.031556445827474154 0.00056575130131767749 0 0.031514770119533034 0.00057614591646231112 0 0.031492606727641474 0.00054655659147596956 0 0.031549997062602184 0.00061560877084991246 0 0.031556445827474154 0.00056575130131767749 0 0.031514770119533034 0.00057614591646231112 0 0.025746724668250655 0.0015254995274900235 0 0.02570043944490889 0.0015033728901010528 0 0.025702409221006268 0.0014887039472906921 0 0.028289028709072173 0.0022173691507840878 0 0.026023715443728793 0.002229480693114697 0 0.025746724668250655 0.0015254995274900235 0 0.025702409221006268 0.0014887039472906921 0 0.025716837570582858 0.0014913303258747431 0 0.025702409221006268 0.0014887039472906921 0 0.025716837570582858 0.0014913303258747431 0 0.025673319119167301 0.0014796980984843023 0 0.025715270745019232 0.0014992801296454387 0 0.025695617200092301 0.0014805910700316479 0 0.025673319119167301 0.0014796980984843023 0 0.025702409221006268 0.0014887039472906921 0 0.025695617200092301 0.0014805910700316479 0 0.025673319119167301 0.0014796980984843023 0 0.02570682124878252 0.0014436531193590767 0 0.025702409221006268 0.0014887039472906921 0 0.025695617200092301 0.0014805910700316479 0 0.025715270745019232 0.0014992801296454387 0 0.02570682124878252 0.0014436531193590767 0 0.025695617200092301 0.0014805910700316479 0 0.025672489660447662 0.0015858262191367131 0 0.025715270745019232 0.0014992801296454387 0 0.025673319119167301 0.0014796980984843023 0 0.025920276325598648 0.00075610468974069193 0 0.025780238483877765 0.0013092685642526779 0 0.025716837570582858 0.0014913303258747431 0 0.025673319119167301 0.0014796980984843023 0 0.025667658946846684 0.0014361929296800393 0 0.025672489660447662 0.0015858262191367131 0 0.025673319119167301 0.0014796980984843023 0 0.025667658946846684 0.0014361929296800393 0 0.025667658946846684 0.0014361929296800393 0 0.025434667821515572 0.00089571664152588565 0 0.024975074424173963 0.0018440554735225673 0 0.025434667821515572 0.00089571664152588565 0 0.024975074424173963 0.0018440554735225673 0 0.024453826033524712 0.0010176757422019247 0 0.026199414136829129 0.00017970282577509585 0 0.025667658946846684 0.0014361929296800393 0 0.025434667821515572 0.00089571664152588565 0 0.025235337417636824 0.00033365055248815901 0 0.025434667821515572 0.00089571664152588565 0 0.024453826033524712 0.0010176757422019247 0 0.025667658946846684 0.0014361929296800393 0 0.024975074424173963 0.0018440554735225673 0 0.025293718491620733 0.0020787561313659951 0 0.025567719628665431 0.0019712283034519825 0 0.025672489660447662 0.0015858262191367131 0 0.025667658946846684 0.0014361929296800393 0 0.025567719628665431 0.0019712283034519825 0 0.025667658946846684 0.0014361929296800393 0 0.025293718491620733 0.0020787561313659951 0 0.025293718491620733 0.0020787561313659951 0 0.025028124878990175 0.0024530258271748657 0 0.025316047432669887 0.0025030736822584079 0 0.025567719628665431 0.0019712283034519825 0 0.025293718491620733 0.0020787561313659951 0 0.025316047432669887 0.0025030736822584079 0 0.024975074424173963 0.0018440554735225673 0 0.025028124878990175 0.0024530258271748657 0 0.024470637942951019 0.0024626957687275048 0 0.025028124878990175 0.0024530258271748657 0 0.024664513841277682 0.0026571217061400064 0 0.024470637942951019 0.0024626957687275048 0 0.024975074424173963 0.0018440554735225673 0 0.025293718491620733 0.0020787561313659951 0 0.025028124878990175 0.0024530258271748657 0 0.025028124878990175 0.0024530258271748657 0 0.024664513841277682 0.0026571217061400064 0 0.025014991818300782 0.0026392999819317819 0 0.024664513841277682 0.0026571217061400064 0 0.025014991818300782 0.0026392999819317819 0 0.024746558344248278 0.0027088267563383818 0 0.025014991818300782 0.0026392999819317819 0 0.025316047432669887 0.0025030736822584079 0 0.02520742973120679 0.0026683522232018933 0 0.025028124878990175 0.0024530258271748657 0 0.025014991818300782 0.0026392999819317819 0 0.025316047432669887 0.0025030736822584079 0 0.020030295499832537 -0.0011759130860406542 0 0.019633681146765967 -0.0015647169054106363 0 0.019415148430471939 -0.0014820404192018382 0 0.024664513841277682 0.0026571217061400064 0 0.024413193468339905 0.0028017026618339974 0 0.024470637942951019 0.0024626957687275048 0 0.024664513841277682 0.0026571217061400064 0 0.024509401618760501 0.0027262056538840877 0 0.024746558344248278 0.0027088267563383818 0 0.024664513841277682 0.0026571217061400064 0 0.024413193468339905 0.0028017026618339974 0 0.024509401618760501 0.0027262056538840877 0 0.024413193468339905 0.0028017026618339974 0 0.024470637942951019 0.0024626957687275048 0 0.023533191508626254 0.0023947040149705041 0 0.024470637942951019 0.0024626957687275048 0 0.023533191508626254 0.0023947040149705041 0 0.024058546689678592 0.0017956979765732001 0 0.020030295499832537 -0.0011759130860406542 0 0.019415148430471939 -0.0014820404192018382 0 0.020066496331436839 -0.00033730811541931742 0 0.021884782810406483 0.0006291919555292527 0 0.021822455578092082 0.00092547057474353343 0 0.020030295499832537 -0.0011759130860406542 0 0.020066496331436839 -0.00033730811541931742 0 0.021296723302444847 -6.2884772245723873e-05 0 0.023533191508626254 0.0023947040149705041 0 0.024058546689678592 0.0017956979765732001 0 0.022033454553609971 0.00088009483470104666 0 0.020066496331436839 -0.00033730811541931742 0 0.022033454553609971 0.00088009483470104666 0 0.021296723302444847 -6.2884772245723873e-05 0 0.021822455578092082 0.00092547057474353343 0 0.02192993099607745 0.00079049346732158797 0 0.024975074424173963 0.0018440554735225673 0 0.024058546689678592 0.0017956979765732001 0 0.024453826033524712 0.0010176757422019247 0 0.024975074424173963 0.0018440554735225673 0 0.024470637942951019 0.0024626957687275048 0 0.024058546689678592 0.0017956979765732001 0 0.024058546689678592 0.0017956979765732001 0 0.024453826033524712 0.0010176757422019247 0 0.022033454553609971 0.00088009483470104666 0 0.023252600393684781 -0.00035412114456472298 0 0.024453826033524712 0.0010176757422019247 0 0.022033454553609971 0.00088009483470104666 0 0.022033454553609971 0.00088009483470104666 0 0.02205415502428373 0.00043308804756594617 0 0.021945298674928414 0.00057401004046405421 0 0.02205415502428373 0.00043308804756594617 0 0.022697597597431823 0.00047811940892598817 0 0.022587911620008748 0.00021372116831711152 0 0.02205415502428373 0.00043308804756594617 0 0.022697597597431823 0.00047811940892598817 0 0.021945298674928414 0.00057401004046405421 0 0.02205415502428373 0.00043308804756594617 0 0.021942928390449451 -0.00016791698942207977 0 0.022587911620008748 0.00021372116831711152 0 0.02205415502428373 0.00043308804756594617 0 0.021296723302444847 -6.2884772245723873e-05 0 0.021942928390449451 -0.00016791698942207977 0 0.022033454553609971 0.00088009483470104666 0 0.02205415502428373 0.00043308804756594617 0 0.021296723302444847 -6.2884772245723873e-05 0 0.020030295499832537 -0.0011759130860406542 0 0.021296723302444847 -6.2884772245723873e-05 0 0.020916706942355742 -0.00082230608784722252 0 0.020916706942355742 -0.00082230608784722252 0 0.021942928390449451 -0.00016791698942207977 0 0.021967427294694031 -0.000968403542336222 0 0.021296723302444847 -6.2884772245723873e-05 0 0.020916706942355742 -0.00082230608784722252 0 0.021942928390449451 -0.00016791698942207977 0 0.020916706942355742 -0.00082230608784722252 0 0.021967427294694031 -0.000968403542336222 0 0.0195055897907047 -0.0019868803644467596 0 0.021967427294694031 -0.000968403542336222 0 0.022065223017539121 -0.0021679196928998446 0 0.0195055897907047 -0.0019868803644467596 0 0.020030295499832537 -0.0011759130860406542 0 0.020916706942355742 -0.00082230608784722252 0 0.0195055897907047 -0.0019868803644467596 0 0.020030295499832537 -0.0011759130860406542 0 0.019633681146765967 -0.0015647169054106363 0 0.0195055897907047 -0.0019868803644467596 0 0.021269111966054469 -0.0005725628563309444 0 0.018339814224843515 -0.00052372959422206317 0 0.02283669075090837 -0.001404075147726799 0 0.023413183856490671 -0.00070130294391390613 0 0.02354472172433713 -0.0020103627994293343 0 0.018830013745037087 -2.5221935711171563e-06 0 0.01732019428827215 4.5576079478643043e-06 0 0.017258208893490806 2.2429724046445922e-07 0 0.02283669075090837 -0.001404075147726799 0 0.022065223017539121 -0.0021679196928998446 0 0.02354472172433713 -0.0020103627994293343 0 0.019203335935679973 -3.4003908677213696e-07 0 0.018830013745037087 -2.5221935711171563e-06 0 0.017258208893490806 2.2429724046445922e-07 0 0.02283669075090837 -0.001404075147726799 0 0.02284049700107588 -0.00073522103661922359 0 0.023413183856490671 -0.00070130294391390613 0 0.02283669075090837 -0.001404075147726799 0 0.021967427294694031 -0.000968403542336222 0 0.022065223017539121 -0.0021679196928998446 0 0.02283669075090837 -0.001404075147726799 0 0.021967427294694031 -0.000968403542336222 0 0.02284049700107588 -0.00073522103661922359 0 0.021942928390449451 -0.00016791698942207977 0 0.021967427294694031 -0.000968403542336222 0 0.022635560632083867 -0.00025398310169282088 0 0.021967427294694031 -0.000968403542336222 0 0.022635560632083867 -0.00025398310169282088 0 0.02284049700107588 -0.00073522103661922359 0 0.021269111966054469 -0.0005725628563309444 0 0.021747440164791795 4.5682614830614264e-05 0 0.023001444665344612 -0.00032708783147223345 0 0.023413183856490671 -0.00070130294391390613 0 0.023110710760335284 0.00032406822569160619 0 0.019203335935679973 -3.4003908677213696e-07 0 0.018830013745037087 -2.5221935711171563e-06 0 0.020321479624007852 -1.6109591224139607e-06 0 0.022635560632083867 -0.00025398310169282088 0 0.023001444665344612 -0.00032708783147223345 0 0.02284049700107588 -0.00073522103661922359 0 0.023001444665344612 -0.00032708783147223345 0 0.02284049700107588 -0.00073522103661922359 0 0.023413183856490671 -0.00070130294391390613 0 0.019203335935679973 -3.4003908677213696e-07 0 0.020321479624007852 -1.6109591224139607e-06 0 0.02115123020467824 9.6977235686183835e-07 0 0.022635560632083867 -0.00025398310169282088 0 0.023001444665344612 -0.00032708783147223345 0 0.023110710760335284 0.00032406822569160619 0 0.021942928390449451 -0.00016791698942207977 0 0.022635560632083867 -0.00025398310169282088 0 0.022587911620008748 0.00021372116831711152 0 0.022635560632083867 -0.00025398310169282088 0 0.023110710760335284 0.00032406822569160619 0 0.022587911620008748 0.00021372116831711152 0 0.023110710760335284 0.00032406822569160619 0 0.022587911620008748 0.00021372116831711152 0 0.022993361370919407 0.00047441797754436428 0 0.022993361370919407 0.00047441797754436428 0 0.022512938632218888 0.00021721208306160541 0 0.023679024198371579 0.00086044922433098337 0 0.022697597597431823 0.00047811940892598817 0 0.022587911620008748 0.00021372116831711152 0 0.022993361370919407 0.00047441797754436428 0 0.022697597597431823 0.00047811940892598817 0 0.022993361370919407 0.00047441797754436428 0 0.023679024198371579 0.00086044922433098337 0 0.021747440164791795 4.5682614830614264e-05 0 0.022329805007508367 3.040258690147673e-05 0 0.023110710760335284 0.00032406822569160619 0 0.022993361370919407 0.00047441797754436428 0 0.022512938632218888 0.00021721208306160541 0 0.020321479624007852 -1.6109591224139607e-06 0 0.022512938632218888 0.00021721208306160541 0 0.02115123020467824 9.6977235686183835e-07 0 0.022512938632218888 0.00021721208306160541 0 0.023409605629450221 0.00033309651935096556 0 0.023679024198371579 0.00086044922433098337 0 0.022512938632218888 0.00021721208306160541 0 0.023409605629450221 0.00033309651935096556 0 0.023097428444653356 5.4626378072524006e-07 0 0.022512938632218888 0.00021721208306160541 0 0.02115123020467824 9.6977235686183835e-07 0 0.023097428444653356 5.4626378072524006e-07 0 0.023409605629450221 0.00033309651935096556 0 0.023097428444653356 5.4626378072524006e-07 0 0.024473113492642987 9.1292668549179619e-05 0 0.023097428444653356 5.4626378072524006e-07 0 0.024473113492642987 9.1292668549179619e-05 0 0.025043368331037315 -4.0384136202124947e-07 0 0.024473113492642987 9.1292668549179619e-05 0 0.025585743713403542 0.00041659177465036611 0 0.026066350232741214 2.5979899972628264e-05 0 0.024473113492642987 9.1292668549179619e-05 0 0.023679024198371579 0.00086044922433098337 0 0.025585743713403542 0.00041659177465036611 0 0.023409605629450221 0.00033309651935096556 0 0.024473113492642987 9.1292668549179619e-05 0 0.023679024198371579 0.00086044922433098337 0 0.022697597597431823 0.00047811940892598817 0 0.023679024198371579 0.00086044922433098337 0 0.021945298674928414 0.00057401004046405421 0 0.02380358118423755 0.00090305236956871504 0 0.024582993194870683 0.00085957818813466741 0 0.023679024198371579 0.00086044922433098337 0 0.027143648314560558 0.0013427552281949082 0 0.025585743713403542 0.00041659177465036611 0 0.028115369540886979 0.00037714712409180751 0 0.027022688940448712 0.00034653116513187624 0 0.027733826290223043 4.0686901461813109e-06 0 0.028115369540886979 0.00037714712409180751 0 0.027143648314560558 0.0013427552281949082 0 0.027022688940448712 0.00034653116513187624 0 0.027143648314560558 0.0013427552281949082 0 0.027022688940448712 0.00034653116513187624 0 0.025585743713403542 0.00041659177465036611 0 0.027022688940448712 0.00034653116513187624 0 0.025585743713403542 0.00041659177465036611 0 0.026066350232741214 2.5979899972628264e-05 0 0.026066350232741214 2.5979899972628264e-05 0 0.027733826290223043 4.0686901461813109e-06 0 0.027329066798610156 -0.00035949569208945062 0 0.027022688940448712 0.00034653116513187624 0 0.026066350232741214 2.5979899972628264e-05 0 0.027733826290223043 4.0686901461813109e-06 0 0.0284513851520765 -0.00035714719535315139 0 0.027733826290223043 4.0686901461813109e-06 0 0.027329066798610156 -0.00035949569208945062 0 0.0284513851520765 -0.00035714719535315139 0 0.028482018263774993 -0.00013236407260703659 0 0.027733826290223043 4.0686901461813109e-06 0 0.026066350232741214 2.5979899972628264e-05 0 0.027329066798610156 -0.00035949569208945062 0 0.026107385542214097 -0.00022023029143771529 0 0.026989352643905881 -6.291651604399671e-07 0 0.026107385542214097 -0.00022023029143771529 0 0.025043368331037315 -4.0384136202124947e-07 0 0.024473113492642987 9.1292668549179619e-05 0 0.026107385542214097 -0.00022023029143771529 0 0.025043368331037315 -4.0384136202124947e-07 0 0.024473113492642987 9.1292668549179619e-05 0 0.026066350232741214 2.5979899972628264e-05 0 0.026107385542214097 -0.00022023029143771529 0 0.014010607642189279 0.0021285606581416643 0 0.013506380019354421 0.0043371856945489604 0 0.011644447320207838 0.00027607183304759984 0 0.014010607642189279 0.0021285606581416643 0 0.013506380019354421 0.0043371856945489604 0 0.015806628868715984 0.0034191835754749044 0 0.011582764094805171 0.002551987920721031 0 0.011344215748558956 4.772431626157214e-05 0 0.010458369534537024 9.2755996863278829e-05 0 0.0096685578672229596 -1.806846699062995e-07 0 0.008949426114512847 -9.7673611609794797e-06 0 0.010458369534537024 9.2755996863278829e-05 0 0.008949426114512847 -9.7673611609794797e-06 0 0.011644447320207838 0.00027607183304759984 0 0.010458369534537024 9.2755996863278829e-05 0 0.0096685578672229596 -1.806846699062995e-07 0 0.011477010614082298 1.0924392457525107e-06 0 0.0096685578672229596 -1.806846699062995e-07 0 0.008949426114512847 -9.7673611609794797e-06 0 0.0081970119166671178 -9.2531659522693483e-05 0 0.013506380019354421 0.0043371856945489604 0 0.015371792918144668 0.0050625745785529488 0 0.014715761028418759 0.0071068594562120179 0 0.013506380019354421 0.0043371856945489604 0 0.015371792918144668 0.0050625745785529488 0 0.015806628868715984 0.0034191835754749044 0 0.015371792918144668 0.0050625745785529488 0 0.016913593431538133 0.004333726160263264 0 0.015806628868715984 0.0034191835754749044 0 0.014775492595358417 0.0025620695789494775 0 0.011864328909907644 0.002525306141623801 0 0.016913593431538133 0.004333726160263264 0 0.018429386779664221 0.0041100639238489649 0 0.01659722725072716 0.0057018796753583135 0 0.015371792918144668 0.0050625745785529488 0 0.016913593431538133 0.004333726160263264 0 0.01659722725072716 0.0057018796753583135 0 0.016913593431538133 0.004333726160263264 0 0.017056804255427542 0.0033814488089169495 0 0.017955408288850391 0.0034929034702120207 0 0.016913593431538133 0.004333726160263264 0 0.017955408288850391 0.0034929034702120207 0 0.018429386779664221 0.0041100639238489649 0 0.017056804255427542 0.0033814488089169495 0 0.017198481952708067 0.0024938189622961317 0 0.017955408288850391 0.0034929034702120207 0 0.016913593431538133 0.004333726160263264 0 0.017056804255427542 0.0033814488089169495 0 0.015806628868715984 0.0034191835754749044 0 0.017056804255427542 0.0033814488089169495 0 0.017198481952708067 0.0024938189622961317 0 0.015806628868715984 0.0034191835754749044 0 0.017198481952708067 0.0024938189622961317 0 0.018296688996774405 0.0026445511911520965 0 0.017955408288850391 0.0034929034702120207 0 0.014010607642189279 0.0021285606581416643 0 0.015806628868715984 0.0034191835754749044 0 0.016100443737136524 0.0014680872586343274 0 0.017198481952708067 0.0024938189622961317 0 0.015806628868715984 0.0034191835754749044 0 0.016100443737136524 0.0014680872586343274 0 0.017198481952708067 0.0024938189622961317 0 0.017886662406820214 0.0015654614590855833 0 0.018296688996774405 0.0026445511911520965 0 0.016100443737136524 0.0014680872586343274 0 0.017886662406820214 0.0015654614590855833 0 0.017096850451001563 0.00089802889854901876 0 0.017198481952708067 0.0024938189622961317 0 0.016100443737136524 0.0014680872586343274 0 0.017886662406820214 0.0015654614590855833 0 0.017886662406820214 0.0015654614590855833 0 0.017096850451001563 0.00089802889854901876 0 0.018618185027220988 0.00071275132960323768 0 0.016100443737136524 0.0014680872586343274 0 0.016284833326087624 0.001111246024013455 0 0.015609347918850328 0.0014062657299741613 0 0.016100443737136524 0.0014680872586343274 0 0.017096850451001563 0.00089802889854901876 0 0.016284833326087624 0.001111246024013455 0 0.017096850451001563 0.00089802889854901876 0 0.016284833326087624 0.001111246024013455 0 0.016375136393241615 0.00047197289781199101 0 0.016284833326087624 0.001111246024013455 0 0.015609347918850328 0.0014062657299741613 0 0.016375136393241615 0.00047197289781199101 0 0.015609347918850328 0.0014062657299741613 0 0.01521725182405406 0.00038900317249834077 0 0.016375136393241615 0.00047197289781199101 0 0.016100443737136524 0.0014680872586343274 0 0.01251239818640138 -0.00031803157931507619 0 0.013514920636535735 0.00088947398728778083 0 0.015936118517018896 0.0014566182299306106 0 0.014143431375179387 0.00054289643890431151 0 0.01251239818640138 -0.00031803157931507619 0 0.013514920636535735 0.00088947398728778083 0 0.011644447320207838 0.00027607183304759984 0 0.014010607642189279 0.0021285606581416643 0 0.013514920636535735 0.00088947398728778083 0 0.011644447320207838 0.00027607183304759984 0 0.014010607642189279 0.0021285606581416643 0 0.016100443737136524 0.0014680872586343274 0 0.013514920636535735 0.00088947398728778083 0 0.010458369534537024 9.2755996863278829e-05 0 0.011477010614082298 1.0924392457525107e-06 0 0.011644447320207838 0.00027607183304759984 0 0.01251239818640138 -0.00031803157931507619 0 0.011644447320207838 0.00027607183304759984 0 0.013281025219023752 -9.2748082893556793e-07 0 0.011477010614082298 1.0924392457525107e-06 0 0.011644447320207838 0.00027607183304759984 0 0.013281025219023752 -9.2748082893556793e-07 0 0.014143431375179387 0.00054289643890431151 0 0.013283695771105527 4.8658920213222089e-08 0 0.015609347918850328 0.0014062657299741613 0 0.013289117113719615 3.8903530094341054e-06 0 0.01521725182405406 0.00038900317249834077 0 0.013289117113719615 3.8903530094341054e-06 0 0.015709975182871375 -0.00011331200777756153 0 0.01513496966164876 -0.00016172057850012122 0 0.013289117113719615 3.8903530094341054e-06 0 0.01521725182405406 0.00038900317249834077 0 0.015709975182871375 -0.00011331200777756153 0 0.015709975182871375 -0.00011331200777756153 0 0.016996879748985175 -0.00025387007111156743 0 0.016375136393241615 0.00047197289781199101 0 0.01521725182405406 0.00038900317249834077 0 0.015709975182871375 -0.00011331200777756153 0 0.016375136393241615 0.00047197289781199101 0 0.015709975182871375 -0.00011331200777756153 0 0.016693761374302975 -0.00080979503744286758 0 0.016996879748985175 -0.00025387007111156743 0 0.015709975182871375 -0.00011331200777756153 0 0.015824206148714225 -0.00052997842858124803 0 0.016693761374302975 -0.00080979503744286758 0 0.013289117113719615 3.8903530094341054e-06 0 0.01513496966164876 -0.00016172057850012122 0 0.015362150929183919 -4.4441850102082551e-06 0 0.015709975182871375 -0.00011331200777756153 0 0.01513496966164876 -0.00016172057850012122 0 0.015824206148714225 -0.00052997842858124803 0 0.015362150929183919 -4.4441850102082551e-06 0 0.015466176552169591 -0.00093369907743966576 0 0.015531391176774137 -0.00053637986472231222 0 0.015362150929183919 -4.4441850102082551e-06 0 0.015466176552169591 -0.00093369907743966576 0 0.015051537942175966 -0.0021045084849997358 0 0.01513496966164876 -0.00016172057850012122 0 0.015362150929183919 -4.4441850102082551e-06 0 0.015531391176774137 -0.00053637986472231222 0 0.014965091650933527 -0.00040475319917799055 0 0.018339814224843515 -0.00052372959422206317 0 0.015466176552169591 -0.00093369907743966576 0 0.015926325097849827 -0.0011648049971876317 0 0.015531391176774137 -0.00053637986472231222 0 0.01513496966164876 -0.00016172057850012122 0 0.015531391176774137 -0.00053637986472231222 0 0.015824206148714225 -0.00052997842858124803 0 0.015926325097849827 -0.0011648049971876317 0 0.015531391176774137 -0.00053637986472231222 0 0.015824206148714225 -0.00052997842858124803 0 0.015926325097849827 -0.0011648049971876317 0 0.015824206148714225 -0.00052997842858124803 0 0.016693761374302975 -0.00080979503744286758 0 0.015926325097849827 -0.0011648049971876317 0 0.016693761374302975 -0.00080979503744286758 0 0.016889378027844511 -0.0021644070809935809 0 0.015926325097849827 -0.0011648049971876317 0 0.016889378027844511 -0.0021644070809935809 0 0.015051537942175966 -0.0021045084849997358 0 0.015466176552169591 -0.00093369907743966576 0 0.015926325097849827 -0.0011648049971876317 0 0.015051537942175966 -0.0021045084849997358 0 0.019685312044499741 -0.0022935721991968663 0 0.018339814224843515 -0.00052372959422206317 0 0.015366558975480416 -2.7368581380660736e-08 0 0.017243558829743853 -1.1382973217214895e-07 0 0.017256789554489255 1.8995802887895673e-08 0 0.018339814224843515 -0.00052372959422206317 0 0.017259245016998298 -1.9847319277843124e-06 0 0.019685312044499741 -0.0022935721991968663 0 0.019416152227433422 -0.0019961314689525113 0 0.016889378027844511 -0.0021644070809935809 0 0.0195055897907047 -0.0019868803644467596 0 0.018193208525493713 -0.00086941950591791354 0 0.016693761374302975 -0.00080979503744286758 0 0.016889378027844511 -0.0021644070809935809 0 0.018193208525493713 -0.00086941950591791354 0 0.016693761374302975 -0.00080979503744286758 0 0.018193208525493713 -0.00086941950591791354 0 0.016996879748985175 -0.00025387007111156743 0 0.0195055897907047 -0.0019868803644467596 0 0.018193208525493713 -0.00086941950591791354 0 0.019127486008410337 -0.0011653278616228346 0 0.018193208525493713 -0.00086941950591791354 0 0.018526986686834279 -0.00052861396775355745 0 0.019127486008410337 -0.0011653278616228346 0 0.018193208525493713 -0.00086941950591791354 0 0.018526986686834279 -0.00052861396775355745 0 0.017776922399479561 2.3350996894169971e-05 0 0.018526986686834279 -0.00052861396775355745 0 0.017776922399479561 2.3350996894169971e-05 0 0.018707240746424596 -5.5263446712425821e-05 0 0.018193208525493713 -0.00086941950591791354 0 0.016996879748985175 -0.00025387007111156743 0 0.017776922399479561 2.3350996894169971e-05 0 0.016996879748985175 -0.00025387007111156743 0 0.016375136393241615 0.00047197289781199101 0 0.017776922399479561 2.3350996894169971e-05 0 0.017096850451001563 0.00089802889854901876 0 0.016375136393241615 0.00047197289781199101 0 0.017776922399479561 2.3350996894169971e-05 0 0.017096850451001563 0.00089802889854901876 0 0.017776922399479561 2.3350996894169971e-05 0 0.018618185027220988 0.00071275132960323768 0 0.017776922399479561 2.3350996894169971e-05 0 0.018707240746424596 -5.5263446712425821e-05 0 0.018618185027220988 0.00071275132960323768 0 0.018707240746424596 -5.5263446712425821e-05 0 0.019328268994054276 8.6509464542628588e-05 0 0.018618185027220988 0.00071275132960323768 0 0.019328268994054276 8.6509464542628588e-05 0 0.019738216883060579 0.00060447803822019142 0 0.018618185027220988 0.00071275132960323768 0 0.019328268994054276 8.6509464542628588e-05 0 0.019479963716122206 -0.00047078922318616079 0 0.020105402967392747 -0.00036290730755742255 0 0.019479963716122206 -0.00047078922318616079 0 0.019433539045382277 -0.0010163097673688054 0 0.020105402967392747 -0.00036290730755742255 0 0.01904367246605676 -0.0013183757078131014 0 0.021158747928791549 0.00039961356019884602 0 0.019328268994054276 8.6509464542628588e-05 0 0.019479963716122206 -0.00047078922318616079 0 0.01907133575950631 -0.00057949521873142747 0 0.019479963716122206 -0.00047078922318616079 0 0.01907133575950631 -0.00057949521873142747 0 0.019433539045382277 -0.0010163097673688054 0 0.018526986686834279 -0.00052861396775355745 0 0.018707240746424596 -5.5263446712425821e-05 0 0.01907133575950631 -0.00057949521873142747 0 0.018707240746424596 -5.5263446712425821e-05 0 0.019328268994054276 8.6509464542628588e-05 0 0.01907133575950631 -0.00057949521873142747 0 0.018526986686834279 -0.00052861396775355745 0 0.01907133575950631 -0.00057949521873142747 0 0.019127486008410337 -0.0011653278616228346 0 0.019127486008410337 -0.0011653278616228346 0 0.019433539045382277 -0.0010163097673688054 0 0.019494998540258861 -0.0013483013309370823 0 0.01907133575950631 -0.00057949521873142747 0 0.019127486008410337 -0.0011653278616228346 0 0.019433539045382277 -0.0010163097673688054 0 0.019433539045382277 -0.0010163097673688054 0 0.019702926035686019 -0.0012940282713699638 0 0.020062565031090777 -0.00048070767776653536 0 0.019433539045382277 -0.0010163097673688054 0 0.019702926035686019 -0.0012940282713699638 0 0.019494998540258861 -0.0013483013309370823 0 0.019415148430471939 -0.0014820404192018382 0 0.019702926035686019 -0.0012940282713699638 0 0.019494998540258861 -0.0013483013309370823 0 0.024515189501529248 0.002652191986308605 0 0.024714783103195595 0.0028251572609465495 0 0.024548867765425898 0.0025587529663719942 0 0.024509401618760501 0.0027262056538840877 0 0.024480807651740353 0.0024836515617718551 0 0.024413193468339905 0.0028017026618339974 0 0.024548867765425898 0.0025587529663719942 0 0.024509401618760501 0.0027262056538840877 0 0.021884782810406483 0.0006291919555292527 0 0.02225476361417662 0.00076889462604732119 0 0.019415148430471939 -0.0014820404192018382 0 0.019494998540258861 -0.0013483013309370823 0 0.019460871644880289 -0.0014838848044469526 0 0.019633681146765967 -0.0015647169054106363 0 0.0195055897907047 -0.0019868803644467596 0 0.019460871644880289 -0.0014838848044469526 0 0.0195055897907047 -0.0019868803644467596 0 0.019127486008410337 -0.0011653278616228346 0 0.019460871644880289 -0.0014838848044469526 0 0.019633681146765967 -0.0015647169054106363 0 0.019415148430471939 -0.0014820404192018382 0 0.019460871644880289 -0.0014838848044469526 0 0.019127486008410337 -0.0011653278616228346 0 0.019494998540258861 -0.0013483013309370823 0 0.019460871644880289 -0.0014838848044469526 0 0.025076387647011832 0.0027740804629547552 0 0.024979468154101611 0.0027351712998590415 0 0.024941770355085185 0.0028150665973962364 0 0.025076387647011832 0.0027740804629547552 0 0.02520742973120679 0.0026683522232018933 0 0.024979468154101611 0.0027351712998590415 0 0.025076387647011832 0.0027740804629547552 0 0.02520742973120679 0.0026683522232018933 0 0.025201407661506175 0.0027296653665507464 0 0.025014991818300782 0.0026392999819317819 0 0.02520742973120679 0.0026683522232018933 0 0.024979468154101611 0.0027351712998590415 0 0.025014991818300782 0.0026392999819317819 0 0.024979468154101611 0.0027351712998590415 0 0.024746558344248278 0.0027088267563383818 0 0.024509401618760501 0.0027262056538840877 0 0.0248056839552078 0.0028348598685129824 0 0.024785723352857659 0.0029055860771151527 0 0.024979468154101611 0.0027351712998590415 0 0.024746558344248278 0.0027088267563383818 0 0.02481225446940976 0.0027739966271333521 0 0.024509401618760501 0.0027262056538840877 0 0.024746558344248278 0.0027088267563383818 0 0.02481225446940976 0.0027739966271333521 0 0.024509401618760501 0.0027262056538840877 0 0.02481225446940976 0.0027739966271333521 0 0.0248056839552078 0.0028348598685129824 0 0.02481225446940976 0.0027739966271333521 0 0.0248056839552078 0.0028348598685129824 0 0.024941770355085185 0.0028150665973962364 0 0.024979468154101611 0.0027351712998590415 0 0.02481225446940976 0.0027739966271333521 0 0.024941770355085185 0.0028150665973962364 0 0.0248056839552078 0.0028348598685129824 0 0.024941770355085185 0.0028150665973962364 0 0.024875248441611573 0.0028832110401662077 0 0.024548867765425898 0.0025587529663719942 0 0.024480807651740353 0.0024836515617718551 0 0.024378172630808905 0.0021171581470930873 0 0.02225476361417662 0.00076889462604732119 0 0.021158747928791549 0.00039961356019884602 0 0.024941770355085185 0.0028150665973962364 0 0.024875248441611573 0.0028832110401662077 0 0.024975572766082567 0.0028682304999191948 0 0.0248056839552078 0.0028348598685129824 0 0.024875248441611573 0.0028832110401662077 0 0.024785723352857659 0.0029055860771151527 0 0.024875248441611573 0.0028832110401662077 0 0.024785723352857659 0.0029055860771151527 0 0.024857391020686175 0.0029192682615987843 0 0.024785723352857659 0.0029055860771151527 0 0.024857391020686175 0.0029192682615987843 0 0.024868584215800887 0.0029625199599582269 0 0.024900664687720918 0.0029260136702213028 0 0.024948421226437902 0.0029357677659318359 0 0.024975572766082567 0.0028682304999191948 0 0.024875248441611573 0.0028832110401662077 0 0.024900664687720918 0.0029260136702213028 0 0.024975572766082567 0.0028682304999191948 0 0.024875248441611573 0.0028832110401662077 0 0.024857391020686175 0.0029192682615987843 0 0.024900664687720918 0.0029260136702213028 0 0.024900664687720918 0.0029260136702213028 0 0.024868584215800887 0.0029625199599582269 0 0.024911980284969867 0.0029621341648658072 0 0.024857391020686175 0.0029192682615987843 0 0.024900664687720918 0.0029260136702213028 0 0.024868584215800887 0.0029625199599582269 0 0.024900664687720918 0.0029260136702213028 0 0.024948421226437902 0.0029357677659318359 0 0.024911980284969867 0.0029621341648658072 0 0.025015126792108433 0.0029049453124479542 0 0.024975572766082567 0.0028682304999191948 0 0.025096530357469737 0.0028148022530993986 0 0.025015126792108433 0.0029049453124479542 0 0.025012867899212459 0.002949863968754849 0 0.024974509449901601 0.0029531064896595534 0 0.024948421226437902 0.0029357677659318359 0 0.025015126792108433 0.0029049453124479542 0 0.024974509449901601 0.0029531064896595534 0 0.025015126792108433 0.0029049453124479542 0 0.025099303122874228 0.0028913577867129042 0 0.025012867899212459 0.002949863968754849 0 0.024948421226437902 0.0029357677659318359 0 0.025015126792108433 0.0029049453124479542 0 0.024975572766082567 0.0028682304999191948 0 0.025076387647011832 0.0027740804629547552 0 0.024941770355085185 0.0028150665973962364 0 0.024975572766082567 0.0028682304999191948 0 0.025076387647011832 0.0027740804629547552 0 0.024975572766082567 0.0028682304999191948 0 0.025096530357469737 0.0028148022530993986 0 0.025076387647011832 0.0027740804629547552 0 0.025096530357469737 0.0028148022530993986 0 0.025201407661506175 0.0027296653665507464 0 0.025096530357469737 0.0028148022530993986 0 0.025210128015168375 0.0027874527035923135 0 0.025201407661506175 0.0027296653665507464 0 0.025096530357469737 0.0028148022530993986 0 0.025099303122874228 0.0028913577867129042 0 0.025210128015168375 0.0027874527035923135 0 0.025015126792108433 0.0029049453124479542 0 0.025096530357469737 0.0028148022530993986 0 0.025099303122874228 0.0028913577867129042 0 0.025099303122874228 0.0028913577867129042 0 0.024992935278968786 0.0030291793756340832 0 0.02527143593617464 0.002872221523061335 0 0.021272579653543022 0.001918043880606245 0 0.022543263117468307 0.0011835475674431091 0 0.020227371667433606 -0.00074709975528363109 0 0.023113210807609492 0.0016000792179301378 0 0.023044847165586167 0.0016860051904432124 0 0.025099303122874228 0.0028913577867129042 0 0.025012867899212459 0.002949863968754849 0 0.024992935278968786 0.0030291793756340832 0 0.024948421226437902 0.0029357677659318359 0 0.024974509449901601 0.0029531064896595534 0 0.024938492204424165 0.0029825320213521522 0 0.025012867899212459 0.002949863968754849 0 0.024975869558709264 0.0029874798878688088 0 0.024992935278968786 0.0030291793756340832 0 0.025012867899212459 0.002949863968754849 0 0.024974509449901601 0.0029531064896595534 0 0.024975869558709264 0.0029874798878688088 0 0.024974509449901601 0.0029531064896595534 0 0.024975869558709264 0.0029874798878688088 0 0.024938492204424165 0.0029825320213521522 0 0.024975869558709264 0.0029874798878688088 0 0.024980366238263767 0.0030166468275899913 0 0.024938492204424165 0.0029825320213521522 0 0.023431345587990062 0.0021179675985495078 0 0.023113210807609492 0.0016000792179301378 0 0.024480807651740353 0.0024836515617718551 0 0.024329465663752901 0.0021096328982920833 0 0.024378172630808905 0.0021171581470930873 0 0.024785723352857659 0.0029055860771151527 0 0.024868584215800887 0.0029625199599582269 0 0.024872314942663818 0.0030446406755248326 0 0.024714783103195595 0.0028251572609465495 0 0.023408124539151417 0.0021486011118778728 0 0.024980366238263767 0.0030166468275899913 0 0.024906933116598792 0.0030014427197194694 0 0.024872314942663818 0.0030446406755248326 0 0.024868584215800887 0.0029625199599582269 0 0.024906933116598792 0.0030014427197194694 0 0.024872314942663818 0.0030446406755248326 0 0.024868584215800887 0.0029625199599582269 0 0.024911980284969867 0.0029621341648658072 0 0.024906933116598792 0.0030014427197194694 0 0.024911980284969867 0.0029621341648658072 0 0.024938492204424165 0.0029825320213521522 0 0.024906933116598792 0.0030014427197194694 0 0.024948421226437902 0.0029357677659318359 0 0.024911980284969867 0.0029621341648658072 0 0.024938492204424165 0.0029825320213521522 0 0.024980366238263767 0.0030166468275899913 0 0.024938492204424165 0.0029825320213521522 0 0.024906933116598792 0.0030014427197194694 0 0.023113210807609492 0.0016000792179301378 0 0.023408124539151417 0.0021486011118778728 0 0.021272579653543022 0.001918043880606245 0 0.022543263117468307 0.0011835475674431091 0 0.022646422004069178 0.0014690580885534409 0 0.022138540231179126 0.00097587213830672233 0 0.023408124539151417 0.0021486011118778728 0 0.021158747928791549 0.00039961356019884602 0 0.020537158020145285 -0.00022567680061057817 0 0.020265703928107958 -0.00022974393345698505 0 0.020117019260716996 -0.00035538159933479988 0 0.020258168620525433 3.2252476670761465e-05 0 0.022138540231179126 0.00097587213830672233 0 0.021158747928791549 0.00039961356019884602 0 0.024310300508513939 0.0020530025179991448 0 0.024329465663752901 0.0021096328982920833 0 0.024378172630808905 0.0021171581470930873 0 0.019328268994054276 8.6509464542628588e-05 0 0.020105402967392747 -0.00036290730755742255 0 0.020258168620525433 3.2252476670761465e-05 0 0.019328268994054276 8.6509464542628588e-05 0 0.020258168620525433 3.2252476670761465e-05 0 0.020473308074259622 0.00035640527622290936 0 0.019328268994054276 8.6509464542628588e-05 0 0.019738216883060579 0.00060447803822019142 0 0.020335110461796608 0.0003504967465998058 0 0.01961531526542332 0.00010324980728992724 0 0.019825058866510138 0.00051271085920195946 0 0.022138540231179126 0.00097587213830672233 0 0.019825058866510138 0.00051271085920195946 0 0.020265703928107958 -0.00022974393345698505 0 0.020258168620525433 3.2252476670761465e-05 0 0.020473308074259622 0.00035640527622290936 0 0.022138540231179126 0.00097587213830672233 0 0.018887263355180248 -0.00046365961719405785 0 0.023113210807609492 0.0016000792179301378 0 0.018887263355180248 -0.00046365961719405785 0 0.02170512881477582 0.00026457305797655996 0 0.021431154329660307 -0.00040627315119332144 0 0.021092433940140862 -3.0610812911507321e-05 0 0.02123473317054559 0.0012747478153191725 0 0.020744861630714904 -7.4693459611205727e-05 0 0.019123257903415569 -0.0004864976383061336 0 0.019825058866510138 0.00051271085920195946 0 0.018887263355180248 -0.00046365961719405785 0 0.018887263355180248 -0.00046365961719405785 0 0.016591185422339998 -0.00057520829337321115 0 0.019825058866510138 0.00051271085920195946 0 0.019652439810554621 0.00098970997651799566 0 0.018426992130466432 0.0014401595777682914 0 0.017389842509035448 0.0011816629244637976 0 0.017840097144364572 -0.00011567967384496393 0 0.017389842509035448 0.0011816629244637976 0 0.017840097144364572 -0.00011567967384496393 0 0.016894368951636981 -3.1899559379913328e-05 0 0.019652439810554621 0.00098970997651799566 0 0.015307392146318023 -0.00029986246027708405 0 0.017840097144364572 -0.00011567967384496393 0 0.01724291405134213 -0.0016828982449014378 0 0.017093132010418167 -0.00077113008014458983 0 0.017840097144364572 -0.00011567967384496393 0 0.017093132010418167 -0.00077113008014458983 0 0.016894368951636981 -3.1899559379913328e-05 0 0.020697206137049281 0.0014324992584969784 0 0.019992625235538075 0.0022048476504136195 0 0.021039007360035104 0.0025338892819554175 0 0.020697206137049281 0.0014324992584969784 0 0.019992625235538075 0.0022048476504136195 0 0.019605664612300146 0.0012963200415276805 0 0.019738216883060579 0.00060447803822019142 0 0.020335110461796608 0.0003504967465998058 0 0.020697206137049281 0.0014324992584969784 0 0.019738216883060579 0.00060447803822019142 0 0.020697206137049281 0.0014324992584969784 0 0.019605664612300146 0.0012963200415276805 0 0.019738216883060579 0.00060447803822019142 0 0.019605664612300146 0.0012963200415276805 0 0.018618185027220988 0.00071275132960323768 0 0.019605664612300146 0.0012963200415276805 0 0.018618185027220988 0.00071275132960323768 0 0.018957712098636455 0.0018458626032416432 0 0.017886662406820214 0.0015654614590855833 0 0.018618185027220988 0.00071275132960323768 0 0.018957712098636455 0.0018458626032416432 0 0.017886662406820214 0.0015654614590855833 0 0.018957712098636455 0.0018458626032416432 0 0.018296688996774405 0.0026445511911520965 0 0.019992625235538075 0.0022048476504136195 0 0.018957712098636455 0.0018458626032416432 0 0.019112060933567883 0.0027463225561709767 0 0.019992625235538075 0.0022048476504136195 0 0.019605664612300146 0.0012963200415276805 0 0.018957712098636455 0.0018458626032416432 0 0.019112060933567883 0.0027463225561709767 0 0.018862120053654483 0.0032244271322224151 0 0.01986765296677933 0.0031791395326947426 0 0.018957712098636455 0.0018458626032416432 0 0.019112060933567883 0.0027463225561709767 0 0.018296688996774405 0.0026445511911520965 0 0.019777910128593021 0.0025459854097655498 0 0.014775492595358417 0.0025620695789494775 0 0.019112060933567883 0.0027463225561709767 0 0.018296688996774405 0.0026445511911520965 0 0.018223079200918282 0.0038047392285589059 0 0.018296688996774405 0.0026445511911520965 0 0.017955408288850391 0.0034929034702120207 0 0.018223079200918282 0.0038047392285589059 0 0.0078964678399410584 -0.0011498922856644734 0 0.0079814229846051892 -0.00088891461176617047 0 0.0076783026029710825 -0.00069080456378428818 0 0.016798611727537549 0.0040300516165662171 0 0.014775492595358417 0.0025620695789494775 0 0.018235194859906805 0.0032279274877507961 0 0.018639196888880338 0.003747850845664296 0 0.018862120053654483 0.0032244271322224151 0 0.019112060933567883 0.0027463225561709767 0 0.018235194859906805 0.0032279274877507961 0 0.018862120053654483 0.0032244271322224151 0 0.0078964678399410584 -0.0011498922856644734 0 0.0080671985783688505 -0.00091389627203994459 0 0.0079814229846051892 -0.00088891461176617047 0 0.014775492595358417 0.0025620695789494775 0 0.012360052207212998 -0.00014424121559681859 0 0.012360052207212998 -0.00014424121559681859 0 0.011142785380204193 0.00016657552423699105 0 0.018639196888880338 0.003747850845664296 0 0.018862120053654483 0.0032244271322224151 0 0.01986765296677933 0.0031791395326947426 0 0.012360052207212998 -0.00014424121559681859 0 0.01554928002897784 0.00094433440187384335 0 0.010034548557921616 -0.0014099420576705259 0 0.01038435047605215 -0.0016197277366143152 0 0.010263338324941721 -0.0013904994107824138 0 0.01038435047605215 -0.0016197277366143152 0 0.010450689022154902 -0.001358858504214331 0 0.010263338324941721 -0.0013904994107824138 0 0.01038435047605215 -0.0016197277366143152 0 0.010627155139909165 -0.0015560794754495328 0 0.010450689022154902 -0.001358858504214331 0 0.010627155139909165 -0.0015560794754495328 0 0.010870511993424807 -0.0015682064758583668 0 0.010703212068185992 -0.0013003529285825306 0 0.01038435047605215 -0.0016197277366143152 0 0.010627155139909165 -0.0015560794754495328 0 0.010797573074697317 -0.0018542702066086322 0 0.01077792860001142 -0.0016913363389128638 0 0.010627155139909165 -0.0015560794754495328 0 0.010870511993424807 -0.0015682064758583668 0 0.01554928002897784 0.00094433440187384335 0 0.015307392146318023 -0.00029986246027708405 0 0.01077792860001142 -0.0016913363389128638 0 0.010627155139909165 -0.0015560794754495328 0 0.010797573074697317 -0.0018542702066086322 0 0.01077792860001142 -0.0016913363389128638 0 0.010815675802434926 -0.0017878131844825153 0 0.010797573074697317 -0.0018542702066086322 0 0.01426094159557849 -0.0014441062214938535 0 0.015307392146318023 -0.00029986246027708405 0 0.019992625235538075 0.0022048476504136195 0 0.019112060933567883 0.0027463225561709767 0 0.01986765296677933 0.0031791395326947426 0 0.019992625235538075 0.0022048476504136195 0 0.01986765296677933 0.0031791395326947426 0 0.021039007360035104 0.0025338892819554175 0 0.011575716925902806 -0.002337354039884363 0 0.011268181286533752 -0.0017810663694712815 0 0.010990849819365513 -0.002585087959255856 0 0.010815675802434926 -0.0017878131844825153 0 0.01111884456278202 -0.0016220480825427654 0 0.010998385020122717 -0.0019563602547923798 0 0.010962591054572202 -0.0018154003275241903 0 0.013223654259451118 -0.0021438626868418077 0 0.015307392146318023 -0.00029986246027708405 0 0.013223654259451118 -0.0021438626868418077 0 0.010815675802434926 -0.0017878131844825153 0 0.01079950398435537 -0.0018524041800759036 0 0.010998385020122717 -0.0019563602547923798 0 0.010815675802434926 -0.0017878131844825153 0 0.010870511993424807 -0.0015682064758583668 0 0.01111884456278202 -0.0016220480825427654 0 0.01077792860001142 -0.0016913363389128638 0 0.010815675802434926 -0.0017878131844825153 0 0.010870511993424807 -0.0015682064758583668 0 0.010870511993424807 -0.0015682064758583668 0 0.01111884456278202 -0.0016220480825427654 0 0.010981184703184824 -0.0013711290373227248 0 0.011575716925902806 -0.002337354039884363 0 0.011268181286533752 -0.0017810663694712815 0 0.011751677763710172 -0.001856058166194097 0 0.011268181286533752 -0.0017810663694712815 0 0.011751677763710172 -0.001856058166194097 0 0.011612609677184683 -0.0013615229972624161 0 0.012110955634790352 -0.001589452553135987 0 0.011751677763710172 -0.001856058166194097 0 0.011612609677184683 -0.0013615229972624161 0 0.012110955634790352 -0.001589452553135987 0 0.012276865904821162 -0.0019733086877904093 0 0.012707868473912007 -0.0017168189095081469 0 0.012110955634790352 -0.001589452553135987 0 0.012276865904821162 -0.0019733086877904093 0 0.011751677763710172 -0.001856058166194097 0 0.012707868473912007 -0.0017168189095081469 0 0.01325362629646188 -0.0016559543723392218 0 0.012961803160839599 -0.0013711774227615733 0 0.012110955634790352 -0.001589452553135987 0 0.012707868473912007 -0.0017168189095081469 0 0.012374783214482548 -0.001282765311102409 0 0.012276865904821162 -0.0019733086877904093 0 0.012707868473912007 -0.0017168189095081469 0 0.012747759470248031 -0.0021710504433958373 0 0.012707868473912007 -0.0017168189095081469 0 0.012747759470248031 -0.0021710504433958373 0 0.01317207521520262 -0.0020114740780712995 0 0.012747759470248031 -0.0021710504433958373 0 0.013218126528302293 -0.0024543707704742183 0 0.01317207521520262 -0.0020114740780712995 0 0.012276865904821162 -0.0019733086877904093 0 0.012747759470248031 -0.0021710504433958373 0 0.012357735454650748 -0.0023936788747104458 0 0.012747759470248031 -0.0021710504433958373 0 0.012357735454650748 -0.0023936788747104458 0 0.012754166114380398 -0.0026392366175224933 0 0.012747759470248031 -0.0021710504433958373 0 0.012754166114380398 -0.0026392366175224933 0 0.013218126528302293 -0.0024543707704742183 0 0.011575716925902806 -0.002337354039884363 0 0.011751677763710172 -0.001856058166194097 0 0.012001982595077745 -0.0022355886267182777 0 0.012276865904821162 -0.0019733086877904093 0 0.011751677763710172 -0.001856058166194097 0 0.012001982595077745 -0.0022355886267182777 0 0.012276865904821162 -0.0019733086877904093 0 0.012001982595077745 -0.0022355886267182777 0 0.012357735454650748 -0.0023936788747104458 0 0.012001982595077745 -0.0022355886267182777 0 0.012357735454650748 -0.0023936788747104458 0 0.012047267913765931 -0.0026106300380671077 0 0.011575716925902806 -0.002337354039884363 0 0.012001982595077745 -0.0022355886267182777 0 0.012047267913765931 -0.0026106300380671077 0 0.013362857415654857 -0.0035920067399995686 0 0.013314540696459447 -0.0029822359954594555 0 0.012047267913765931 -0.0026106300380671077 0 0.012347139325826914 -0.0028176573712722602 0 0.011714854888274191 -0.0028978065460013649 0 0.012347139325826914 -0.0028176573712722602 0 0.012518760365684126 -0.0032554492768392148 0 0.011714854888274191 -0.0028978065460013649 0 0.011950325427726404 -0.0030295131546282245 0 0.013314540696459447 -0.0029822359954594555 0 0.012357735454650748 -0.0023936788747104458 0 0.012047267913765931 -0.0026106300380671077 0 0.012347139325826914 -0.0028176573712722602 0 0.012754166114380398 -0.0026392366175224933 0 0.013128960904272289 -0.0030648560586203437 0 0.013218126528302293 -0.0024543707704742183 0 0.012347139325826914 -0.0028176573712722602 0 0.012754166114380398 -0.0026392366175224933 0 0.012683883332065745 -0.0029505239031311975 0 0.012357735454650748 -0.0023936788747104458 0 0.012347139325826914 -0.0028176573712722602 0 0.012754166114380398 -0.0026392366175224933 0 0.012683883332065745 -0.0029505239031311975 0 0.013128960904272289 -0.0030648560586203437 0 0.012518760365684126 -0.0032554492768392148 0 0.012347139325826914 -0.0028176573712722602 0 0.012683883332065745 -0.0029505239031311975 0 0.012518760365684126 -0.0032554492768392148 0 0.012754166114380398 -0.0026392366175224933 0 0.012683883332065745 -0.0029505239031311975 0 0.013128960904272289 -0.0030648560586203437 0 0.013362857415654857 -0.0035920067399995686 0 0.013384944738720726 -0.0034603297559794135 0 0.013128960904272289 -0.0030648560586203437 0 0.012518760365684126 -0.0032554492768392148 0 0.013461367533644807 -0.0034802768378911051 0 0.013870496772772561 -0.0036495620198114102 0 0.013862414934505039 -0.00338328228498109 0 0.013461367533644807 -0.0034802768378911051 0 0.014029970118765556 -0.0037520145267284674 0 0.013870496772772561 -0.0036495620198114102 0 0.013461367533644807 -0.0034802768378911051 0 0.014029970118765556 -0.0037520145267284674 0 0.014550776662447844 -0.0036211189412040964 0 0.015292810894408686 -0.0044716461437024286 0 0.013264432163201906 -0.0037698115044404374 0 0.01640132355417501 -0.0028230287686082938 0 0.013870496772772561 -0.0036495620198114102 0 0.014311721867273359 -0.0035577499748854712 0 0.013862414934505039 -0.00338328228498109 0 0.013870496772772561 -0.0036495620198114102 0 0.014550776662447844 -0.0036211189412040964 0 0.014922092212948681 -0.0032225819293704829 0 0.014550776662447844 -0.0036211189412040964 0 0.014922092212948681 -0.0032225819293704829 0 0.015108860656505265 -0.0036973178572893262 0 0.014550776662447844 -0.0036211189412040964 0 0.015108860656505265 -0.0036973178572893262 0 0.015292810894408686 -0.0044716461437024286 0 0.014029970118765556 -0.0037520145267284674 0 0.013870496772772561 -0.0036495620198114102 0 0.014550776662447844 -0.0036211189412040964 0 0.01640132355417501 -0.0028230287686082938 0 0.015472350610981791 -0.0030861018209240657 0 0.014846659251901694 -0.0030593531133881824 0 0.015707050932873497 -0.0034873529758956846 0 0.016355673881983217 -0.002702423604320308 0 0.01640132355417501 -0.0028230287686082938 0 0.018958289790405237 -0.0015331232710097337 0 0.015707050932873497 -0.0034873529758956846 0 0.016559132149467328 -0.0035500011597914267 0 0.016355673881983217 -0.002702423604320308 0 0.015707050932873497 -0.0034873529758956846 0 0.015292810894408686 -0.0044716461437024286 0 0.016559132149467328 -0.0035500011597914267 0 0.015707050932873497 -0.0034873529758956846 0 0.015108860656505265 -0.0036973178572893262 0 0.015292810894408686 -0.0044716461437024286 0 0.014922092212948681 -0.0032225819293704829 0 0.015707050932873497 -0.0034873529758956846 0 0.015108860656505265 -0.0036973178572893262 0 0.013548943835952971 -0.0024270627603910824 0 0.015376192357138328 -0.0033614300531959727 0 0.015157078431551235 -0.0022263452568910417 0 0.013314540696459447 -0.0029822359954594555 0 0.013223654259451118 -0.0021438626868418077 0 0.011575716925902806 -0.002337354039884363 0 0.011651655656337518 -0.0029345398639734912 0 0.010990849819365513 -0.002585087959255856 0 0.013548943835952971 -0.0024270627603910824 0 0.015157078431551235 -0.0022263452568910417 0 0.015182015653754847 -0.0010638261102826865 0 0.013314540696459447 -0.0029822359954594555 0 0.015755380295905317 -0.0024281030501752485 0 0.011575716925902806 -0.002337354039884363 0 0.012047267913765931 -0.0026106300380671077 0 0.011651655656337518 -0.0029345398639734912 0 0.013223654259451118 -0.0021438626868418077 0 0.016591185422339998 -0.00057520829337321115 0 0.017093132010418167 -0.00077113008014458983 0 0.016393935967692896 -0.0012541208241471742 0 0.016894368951636981 -3.1899559379913328e-05 0 0.015376192357138328 -0.0033614300531959727 0 0.015157078431551235 -0.0022263452568910417 0 0.016106505527651461 -0.0015360157727544305 0 0.01724291405134213 -0.0016828982449014378 0 0.017093132010418167 -0.00077113008014458983 0 0.016393935967692896 -0.0012541208241471742 0 0.017967423090763341 -0.0023848732949087949 0 0.016559132149467328 -0.0035500011597914267 0 0.016355673881983217 -0.002702423604320308 0 0.016850244537994771 0.00030568233605715855 0 0.016106505527651461 -0.0015360157727544305 0 0.015182015653754847 -0.0010638261102826865 0 0.015157078431551235 -0.0022263452568910417 0 0.016106505527651461 -0.0015360157727544305 0 0.015182015653754847 -0.0010638261102826865 0 0.018887263355180248 -0.00046365961719405785 0 0.015755380295905317 -0.0024281030501752485 0 0.021092433940140862 -3.0610812911507321e-05 0 0.020892283849458404 -0.00050451185123211249 0 0.020601961529835646 7.0492775867752182e-05 0 0.018887263355180248 -0.00046365961719405785 0 0.018958289790405237 -0.0015331232710097337 0 0.021431154329660307 -0.00040627315119332144 0 0.021092433940140862 -3.0610812911507321e-05 0 0.020892283849458404 -0.00050451185123211249 0 0.020347911323915089 -0.00063842818463490591 0 0.020892283849458404 -0.00050451185123211249 0 0.020374181666097013 -0.00025022895117794903 0 0.020892283849458404 -0.00050451185123211249 0 0.020601961529835646 7.0492775867752182e-05 0 0.020374181666097013 -0.00025022895117794903 0 0.020601961529835646 7.0492775867752182e-05 0 0.020217210084324654 -2.0168843719178655e-06 0 0.020374181666097013 -0.00025022895117794903 0 0.020601961529835646 7.0492775867752182e-05 0 0.02110013232947805 0.00045260945501665253 0 0.020508111540023865 0.00062983286296090985 0 0.020601961529835646 7.0492775867752182e-05 0 0.020508111540023865 0.00062983286296090985 0 0.020163090044105429 0.00026840150704943768 0 0.021092433940140862 -3.0610812911507321e-05 0 0.020601961529835646 7.0492775867752182e-05 0 0.02110013232947805 0.00045260945501665253 0 0.02170512881477582 0.00026457305797655996 0 0.021092433940140862 -3.0610812911507321e-05 0 0.02110013232947805 0.00045260945501665253 0 0.025210128015168375 0.0027874527035923135 0 0.025325592836884778 0.0026623929511669637 0 0.02527143593617464 0.002872221523061335 0 0.025099303122874228 0.0028913577867129042 0 0.025210128015168375 0.0027874527035923135 0 0.02527143593617464 0.002872221523061335 0 0.025201407661506175 0.0027296653665507464 0 0.025325592836884778 0.0026623929511669637 0 0.025314928046536341 0.0026287604898090791 0 0.025210128015168375 0.0027874527035923135 0 0.025201407661506175 0.0027296653665507464 0 0.025325592836884778 0.0026623929511669637 0 0.025325592836884778 0.0026623929511669637 0 0.02527143593617464 0.002872221523061335 0 0.025609611047086225 0.0027084363478656866 0 0.025794091447331472 0.0027031457442011344 0 0.024100568533757919 0.0018383211166604308 0 0.025325592836884778 0.0026623929511669637 0 0.025294266130090913 0.0023867963448433119 0 0.025335583433138711 0.0025249145859298624 0 0.023044847165586167 0.0016860051904432124 0 0.024100568533757919 0.0018383211166604308 0 0.025386501134410776 0.0025872855992568359 0 0.025379775739837622 0.0025731982578532189 0 0.025335583433138711 0.0025249145859298624 0 0.025294266130090913 0.0023867963448433119 0 0.025335583433138711 0.0025249145859298624 0 0.025146838139157471 0.0024322891551204658 0 0.025386501134410776 0.0025872855992568359 0 0.025335583433138711 0.0025249145859298624 0 0.025314928046536341 0.0026287604898090791 0 0.025386501134410776 0.0025872855992568359 0 0.02520742973120679 0.0026683522232018933 0 0.025314928046536341 0.0026287604898090791 0 0.02520742973120679 0.0026683522232018933 0 0.025201407661506175 0.0027296653665507464 0 0.025314928046536341 0.0026287604898090791 0 0.025325592836884778 0.0026623929511669637 0 0.025335583433138711 0.0025249145859298624 0 0.025314928046536341 0.0026287604898090791 0 0.024931814496642217 0.0025734914130302461 0 0.024794083418396753 0.0021150660859896595 0 0.024554611774644124 0.0024496757116647468 0 0.024931814496642217 0.0025734914130302461 0 0.024794083418396753 0.0021150660859896595 0 0.025146838139157471 0.0024322891551204658 0 0.024794083418396753 0.0021150660859896595 0 0.024554611774644124 0.0024496757116647468 0 0.024226990533811599 0.0020164163343626114 0 0.02520240417461091 0.0025829206914374618 0 0.024931814496642217 0.0025734914130302461 0 0.025146838139157471 0.0024322891551204658 0 0.02520240417461091 0.0025829206914374618 0 0.025335583433138711 0.0025249145859298624 0 0.025146838139157471 0.0024322891551204658 0 0.025294266130090913 0.0023867963448433119 0 0.024794083418396753 0.0021150660859896595 0 0.025146838139157471 0.0024322891551204658 0 0.025986970583092121 0.0016888984536493866 0 0.024794083418396753 0.0021150660859896595 0 0.024744520443052823 0.0014034841109215044 0 0.020508111540023865 0.00062983286296090985 0 0.019711359044324649 0.00041012162799776447 0 0.020163090044105429 0.00026840150704943768 0 0.024100568533757919 0.0018383211166604308 0 0.025448818505732385 0.0021242716228809704 0 0.024100568533757919 0.0018383211166604308 0 0.022000651206172374 0.00084239284169147278 0 0.024794083418396753 0.0021150660859896595 0 0.024744520443052823 0.0014034841109215044 0 0.024226990533811599 0.0020164163343626114 0 0.019711359044324649 0.00041012162799776447 0 0.020163090044105429 0.00026840150704943768 0 0.019968867248060643 9.2100680142476819e-05 0 0.019711359044324649 0.00041012162799776447 0 0.019767911591596642 6.900747962146876e-05 0 0.019439418488418729 -1.5962874625653661e-05 0 0.019767911591596642 6.900747962146876e-05 0 0.019968867248060643 9.2100680142476819e-05 0 0.019989428383974904 -0.00018095285278513329 0 0.019711359044324649 0.00041012162799776447 0 0.019767911591596642 6.900747962146876e-05 0 0.019968867248060643 9.2100680142476819e-05 0 0.020163090044105429 0.00026840150704943768 0 0.019968867248060643 9.2100680142476819e-05 0 0.020217210084324654 -2.0168843719178655e-06 0 0.020601961529835646 7.0492775867752182e-05 0 0.020163090044105429 0.00026840150704943768 0 0.020217210084324654 -2.0168843719178655e-06 0 0.01640132355417501 -0.0028230287686082938 0 0.01677239492059257 -0.0018906080985566691 0 0.020347911323915089 -0.00063842818463490591 0 0.019989428383974904 -0.00018095285278513329 0 0.019706710426832121 -0.00036925233021674531 0 0.020217210084324654 -2.0168843719178655e-06 0 0.020374181666097013 -0.00025022895117794903 0 0.019989428383974904 -0.00018095285278513329 0 0.019968867248060643 9.2100680142476819e-05 0 0.020217210084324654 -2.0168843719178655e-06 0 0.019989428383974904 -0.00018095285278513329 0 0.020347911323915089 -0.00063842818463490591 0 0.020374181666097013 -0.00025022895117794903 0 0.019989428383974904 -0.00018095285278513329 0 0.020687128952987303 -3.6065418310147969e-05 0 0.017261830538820501 -0.00092567166126387795 0 0.013862414934505039 -0.00338328228498109 0 0.01355118218021412 -0.0034895598399560662 0 0.013461367533644807 -0.0034802768378911051 0 0.019989428383974904 -0.00018095285278513329 0 0.019706710426832121 -0.00036925233021674531 0 0.018866514789759297 1.4873325463337992e-05 0 0.019767911591596642 6.900747962146876e-05 0 0.019989428383974904 -0.00018095285278513329 0 0.019439418488418729 -1.5962874625653661e-05 0 0.01677239492059257 -0.0018906080985566691 0 0.017261830538820501 -0.00092567166126387795 0 0.01355118218021412 -0.0034895598399560662 0 0.013690086159304936 -0.0034650537134946697 0 0.013461367533644807 -0.0034802768378911051 0 0.017117166630916732 -0.0019528369602923481 0 0.013974486941598767 -0.0030388484513056585 0 0.01355118218021412 -0.0034895598399560662 0 0.013690086159304936 -0.0034650537134946697 0 0.013833141075145133 -0.0036755541357091966 0 0.013690086159304936 -0.0034650537134946697 0 0.013833141075145133 -0.0036755541357091966 0 0.01406939946406971 -0.0032674799506548502 0 0.014646222809422745 -0.0023371279054561645 0 0.014679665595166645 -0.0022947485068296001 0 0.014638105765064406 -0.0022502156770402076 0 0.019439418488418729 -1.5962874625653661e-05 0 0.019076233705671655 0.00017655994925277978 0 0.019093875214231552 0.00025584255186194123 0 0.017393249663763911 -0.00066186818256144548 0 0.018748998733955372 -0.0009102740399422976 0 0.018668715412109991 -0.0012885854753559574 0 0.022658327438211497 -0.00054034384567357401 0 0.022378460425240151 1.2529628556851699e-05 0 0.021924796191719387 -7.6399498134919515e-05 0 0.017117166630916732 -0.0019528369602923481 0 0.019900261532440837 -0.00034665616382961869 0 0.022658327438211497 -0.00054034384567357401 0 0.0227326670253531 -0.00016630249479524396 0 0.022378460425240151 1.2529628556851699e-05 0 0.019900261532440837 -0.00034665616382961869 0 0.021432364520092041 0.00026887249913306569 0 0.023314065888593329 0.00011239187920847805 0 0.022755506650996959 -1.0847293879496372e-05 0 0.022641276258262299 0.001060834514703866 0 0.021432364520092041 0.00026887249913306569 0 0.021880003266454489 -0.00015579039071696664 0 0.020713497598528599 -7.5866084684166413e-05 0 0.020637366637864325 -0.00042975075952732565 0 0.021205700895638849 -0.00031823735751653723 0 0.019900261532440837 -0.00034665616382961869 0 0.021880003266454489 -0.00015579039071696664 0 0.019711359044324649 0.00041012162799776447 0 0.019439418488418729 -1.5962874625653661e-05 0 0.019093875214231552 0.00025584255186194123 0 0.022000651206172374 0.00084239284169147278 0 0.021432364520092041 0.00026887249913306569 0 0.017261830538820501 -0.00092567166126387795 0 0.017117166630916732 -0.0019528369602923481 0 0.017261830538820501 -0.00092567166126387795 0 0.019900261532440837 -0.00034665616382961869 0 0.024744520443052823 0.0014034841109215044 0 0.023423689780893948 0.00099567317332844977 0 0.024226990533811599 0.0020164163343626114 0 0.024226990533811599 0.0020164163343626114 0 0.02360822427396057 0.0017390688062328254 0 0.023719309719430495 0.0021741966169978801 0 0.021432364520092041 0.00026887249913306569 0 0.023599873850741693 0.0018190273251308302 0 0.022641276258262299 0.001060834514703866 0 0.02360822427396057 0.0017390688062328254 0 0.022849074857853899 0.0024383504502616376 0 0.023423689780893948 0.00099567317332844977 0 0.024226990533811599 0.0020164163343626114 0 0.02360822427396057 0.0017390688062328254 0 0.023314065888593329 0.00011239187920847805 0 0.022641276258262299 0.001060834514703866 0 0.02360822427396057 0.0017390688062328254 0 0.023719309719430495 0.0021741966169978801 0 0.022849074857853899 0.0024383504502616376 0 0.023978360077603008 0.0025788957620494087 0 0.024080158771271263 0.0029883615542730777 0 0.022849074857853899 0.0024383504502616376 0 0.023978360077603008 0.0025788957620494087 0 0.02360822427396057 0.0017390688062328254 0 0.023719309719430495 0.0021741966169978801 0 0.022849074857853899 0.0024383504502616376 0 0.023978098762936724 0.0029011591176519966 0 0.022690320585745768 0.0018814655007844104 0 0.024554611774644124 0.0024496757116647468 0 0.024226990533811599 0.0020164163343626114 0 0.023978360077603008 0.0025788957620494087 0 0.024226990533811599 0.0020164163343626114 0 0.023719309719430495 0.0021741966169978801 0 0.023978360077603008 0.0025788957620494087 0 0.02306888251234741 0.0028340147742750878 0 0.022112762278814067 0.0016524777698600193 0 0.022285791697681551 0.0026130324033418156 0 0.021593028706195765 0.0024714691495431188 0 0.019542996619161319 0.00090499081822826449 0 0.020149109982479294 0.0021982085126608453 0 0.018421560138133113 -0.00054691937092150812 0 0.01692401391147445 0.00018702802554379782 0 0.0233177765575742 0.0034667807014402171 0 0.022714640450040232 0.0014222987214928282 0 0.020149109982479294 0.0021982085126608453 0 0.022714640450040232 0.0014222987214928282 0 0.020149109982479294 0.0021982085126608453 0 0.020294703005937009 -0.00046085399856114415 0 0.022690320585745768 0.0018814655007844104 0 0.02094490940067956 0.00056485513817619711 0 0.022641276258262299 0.001060834514703866 0 0.022849074857853899 0.0024383504502616376 0 0.022010507044327929 0.0013478987769058909 0 0.022849074857853899 0.0024383504502616376 0 0.022010507044327929 0.0013478987769058909 0 0.021056178565947804 0.0012563735591716771 0 0.022641276258262299 0.001060834514703866 0 0.022010507044327929 0.0013478987769058909 0 0.021479742559223473 0.00057563245374693214 0 0.022010507044327929 0.0013478987769058909 0 0.021056178565947804 0.0012563735591716771 0 0.021479742559223473 0.00057563245374693214 0 0.021056178565947804 0.0012563735591716771 0 0.021479742559223473 0.00057563245374693214 0 0.020993523481032693 0.00063059101461355408 0 0.020149109982479294 0.0021982085126608453 0 0.020294703005937009 -0.00046085399856114415 0 0.018421560138133113 -0.00054691937092150812 0 0.02094490940067956 0.00056485513817619711 0 0.017135259252083705 -0.001455599541593104 0 0.021056178565947804 0.0012563735591716771 0 0.020993523481032693 0.00063059101461355408 0 0.020427964780637704 0.0003637607472044844 0 0.020294703005937009 -0.00046085399856114415 0 0.018421560138133113 -0.00054691937092150812 0 0.017823690057490786 -0.0019738236496690464 0 0.01823535919437122 -0.0013721222911040332 0 0.017135259252083705 -0.001455599541593104 0 0.021056178565947804 0.0012563735591716771 0 0.020427964780637704 0.0003637607472044844 0 0.019426131796602384 -7.3296127309093712e-05 0 0.014721945219353575 -0.0023848203957627847 0 0.014809477955611453 -0.0022952952000143282 0 0.014907493091111145 -0.002503394546595684 0 0.020427964780637704 0.0003637607472044844 0 0.021237029345201924 -0.00033339172388910935 0 0.019426131796602384 -7.3296127309093712e-05 0 0.020427964780637704 0.0003637607472044844 0 0.02100415408387192 0.00032899526247578059 0 0.021237029345201924 -0.00033339172388910935 0 0.020993523481032693 0.00063059101461355408 0 0.020427964780637704 0.0003637607472044844 0 0.02100415408387192 0.00032899526247578059 0 0.017117166630916732 -0.0019528369602923481 0 0.01823535919437122 -0.0013721222911040332 0 0.022658327438211497 -0.00054034384567357401 0 0.021924796191719387 -7.6399498134919515e-05 0 0.021237029345201924 -0.00033339172388910935 0 0.021880003266454489 -0.00015579039071696664 0 0.021740406291631383 0.00036716914062114503 0 0.022755506650996959 -1.0847293879496372e-05 0 0.022641276258262299 0.001060834514703866 0 0.021479742559223473 0.00057563245374693214 0 0.022403795107361051 5.2218547876386666e-06 0 0.021479742559223473 0.00057563245374693214 0 0.021924796191719387 -7.6399498134919515e-05 0 0.021880003266454489 -0.00015579039071696664 0 0.022047746672540371 -9.977362429026008e-05 0 0.021479742559223473 0.00057563245374693214 0 0.02100415408387192 0.00032899526247578059 0 0.021237029345201924 -0.00033339172388910935 0 0.021479742559223473 0.00057563245374693214 0 0.021924796191719387 -7.6399498134919515e-05 0 0.021237029345201924 -0.00033339172388910935 0 0.021479742559223473 0.00057563245374693214 0 0.020993523481032693 0.00063059101461355408 0 0.02100415408387192 0.00032899526247578059 0 0.014646222809422745 -0.0023371279054561645 0 0.014721945219353575 -0.0023848203957627847 0 0.014679665595166645 -0.0022947485068296001 0 0.014721945219353575 -0.0023848203957627847 0 0.014732294586104314 -0.0023113663920667506 0 0.014679665595166645 -0.0022947485068296001 0 0.014732294586104314 -0.0023113663920667506 0 0.014679665595166645 -0.0022947485068296001 0 0.014716974219911716 -0.0022427838699719763 0 0.014809477955611453 -0.0022952952000143282 0 0.014870803102083684 -0.0021642977841418495 0 0.014716974219911716 -0.0022427838699719763 0 0.014809477955611453 -0.0022952952000143282 0 0.015006712704110714 -0.0022081463207099241 0 0.014907493091111145 -0.002503394546595684 0 0.014721945219353575 -0.0023848203957627847 0 0.014732294586104314 -0.0023113663920667506 0 0.014809477955611453 -0.0022952952000143282 0 0.014732294586104314 -0.0023113663920667506 0 0.014809477955611453 -0.0022952952000143282 0 0.014716974219911716 -0.0022427838699719763 0 0.014809477955611453 -0.0022952952000143282 0 0.014870803102083684 -0.0021642977841418495 0 0.015006712704110714 -0.0022081463207099241 0 0.014870803102083684 -0.0021642977841418495 0 0.014672023481535077 -0.0022390224539488922 0 0.014716974219911716 -0.0022427838699719763 0 0.014870803102083684 -0.0021642977841418495 0 0.014672023481535077 -0.0022390224539488922 0 0.014851858564983401 -0.002144932824939323 0 0.014672023481535077 -0.0022390224539488922 0 0.014782507605793214 -0.0021802809576651678 0 0.014398560723567164 -0.0023158221605275326 0 0.014672023481535077 -0.0022390224539488922 0 0.014782507605793214 -0.0021802809576651678 0 0.014851858564983401 -0.002144932824939323 0 0.014672023481535077 -0.0022390224539488922 0 0.014638105765064406 -0.0022502156770402076 0 0.014398560723567164 -0.0023158221605275326 0 0.013974486941598767 -0.0030388484513056585 0 0.014507825908291579 -0.002187299522293731 0 0.014672023481535077 -0.0022390224539488922 0 0.014716974219911716 -0.0022427838699719763 0 0.014638105765064406 -0.0022502156770402076 0 0.014679665595166645 -0.0022947485068296001 0 0.014716974219911716 -0.0022427838699719763 0 0.014638105765064406 -0.0022502156770402076 0 0.013690086159304936 -0.0034650537134946697 0 0.01406939946406971 -0.0032674799506548502 0 0.01362447418443808 -0.0032459872720414641 0 0.01406939946406971 -0.0032674799506548502 0 0.01362447418443808 -0.0032459872720414641 0 0.013703197112121207 -0.0028121514740366864 0 0.013128960904272289 -0.0030648560586203437 0 0.01362447418443808 -0.0032459872720414641 0 0.013703197112121207 -0.0028121514740366864 0 0.013690086159304936 -0.0034650537134946697 0 0.013461367533644807 -0.0034802768378911051 0 0.01362447418443808 -0.0032459872720414641 0 0.013128960904272289 -0.0030648560586203437 0 0.013461367533644807 -0.0034802768378911051 0 0.01362447418443808 -0.0032459872720414641 0 0.013128960904272289 -0.0030648560586203437 0 0.013703197112121207 -0.0028121514740366864 0 0.013218126528302293 -0.0024543707704742183 0 0.01406939946406971 -0.0032674799506548502 0 0.013703197112121207 -0.0028121514740366864 0 0.014398560723567164 -0.0023158221605275326 0 0.013703197112121207 -0.0028121514740366864 0 0.013776014946639265 -0.0020090102657545081 0 0.014398560723567164 -0.0023158221605275326 0 0.013703197112121207 -0.0028121514740366864 0 0.013776014946639265 -0.0020090102657545081 0 0.013218126528302293 -0.0024543707704742183 0 0.013776014946639265 -0.0020090102657545081 0 0.013218126528302293 -0.0024543707704742183 0 0.01317207521520262 -0.0020114740780712995 0 0.013776014946639265 -0.0020090102657545081 0 0.01325362629646188 -0.0016559543723392218 0 0.01364011688864184 -0.0015469298983759277 0 0.013776014946639265 -0.0020090102657545081 0 0.01317207521520262 -0.0020114740780712995 0 0.01325362629646188 -0.0016559543723392218 0 0.012707868473912007 -0.0017168189095081469 0 0.01317207521520262 -0.0020114740780712995 0 0.01325362629646188 -0.0016559543723392218 0 0.013776014946639265 -0.0020090102657545081 0 0.014069129357155633 -0.0015506317889154282 0 0.01364011688864184 -0.0015469298983759277 0 0.014469219327486038 -0.0019816921686922348 0 0.014561507188437711 -0.0015821379112116636 0 0.014069129357155633 -0.0015506317889154282 0 0.013776014946639265 -0.0020090102657545081 0 0.014469219327486038 -0.0019816921686922348 0 0.014069129357155633 -0.0015506317889154282 0 0.014469219327486038 -0.0019816921686922348 0 0.014836665988048364 -0.0020115246859181701 0 0.014561507188437711 -0.0015821379112116636 0 0.014469219327486038 -0.0019816921686922348 0 0.014836665988048364 -0.0020115246859181701 0 0.014782507605793214 -0.0021802809576651678 0 0.014469219327486038 -0.0019816921686922348 0 0.014782507605793214 -0.0021802809576651678 0 0.014398560723567164 -0.0023158221605275326 0 0.013776014946639265 -0.0020090102657545081 0 0.014469219327486038 -0.0019816921686922348 0 0.014398560723567164 -0.0023158221605275326 0 0.014321091182586012 -0.0011415098052766509 0 0.014252694964879398 -0.0007630255936344378 0 0.014676004566795563 -0.00067272898130707221 0 0.014321091182586012 -0.0011415098052766509 0 0.013818930862201371 -0.0011634404017307034 0 0.013996757975288213 -0.00090316993189191422 0 0.014321091182586012 -0.0011415098052766509 0 0.014252694964879398 -0.0007630255936344378 0 0.013996757975288213 -0.00090316993189191422 0 0.014252694964879398 -0.0007630255936344378 0 0.013996757975288213 -0.00090316993189191422 0 0.013898709152199056 -0.00064868400242724022 0 0.014321091182586012 -0.0011415098052766509 0 0.014676004566795563 -0.00067272898130707221 0 0.014904155262158084 -0.0013073212310135294 0 0.014836665988048364 -0.0020115246859181701 0 0.014561507188437711 -0.0015821379112116636 0 0.014904155262158084 -0.0013073212310135294 0 0.014321091182586012 -0.0011415098052766509 0 0.014561507188437711 -0.0015821379112116636 0 0.014904155262158084 -0.0013073212310135294 0 0.014321091182586012 -0.0011415098052766509 0 0.014069129357155633 -0.0015506317889154282 0 0.013818930862201371 -0.0011634404017307034 0 0.014321091182586012 -0.0011415098052766509 0 0.014561507188437711 -0.0015821379112116636 0 0.014069129357155633 -0.0015506317889154282 0 0.014069129357155633 -0.0015506317889154282 0 0.01364011688864184 -0.0015469298983759277 0 0.013818930862201371 -0.0011634404017307034 0 0.013818930862201371 -0.0011634404017307034 0 0.013397677117556194 -0.0012526730668828375 0 0.013470886150552122 -0.00097881975410127396 0 0.01364011688864184 -0.0015469298983759277 0 0.013818930862201371 -0.0011634404017307034 0 0.013397677117556194 -0.0012526730668828375 0 0.01325362629646188 -0.0016559543723392218 0 0.013397677117556194 -0.0012526730668828375 0 0.012961803160839599 -0.0013711774227615733 0 0.01325362629646188 -0.0016559543723392218 0 0.01364011688864184 -0.0015469298983759277 0 0.013397677117556194 -0.0012526730668828375 0 0.013397677117556194 -0.0012526730668828375 0 0.01298362423122828 -0.0009658635270512276 0 0.012961803160839599 -0.0013711774227615733 0 0.013397677117556194 -0.0012526730668828375 0 0.013470886150552122 -0.00097881975410127396 0 0.01298362423122828 -0.0009658635270512276 0 0.013470886150552122 -0.00097881975410127396 0 0.013421417050499903 -0.00072626436107343277 0 0.01298362423122828 -0.0009658635270512276 0 0.013035484990402621 -0.00057553948700674431 0 0.012879477052085937 -0.00091456531553197609 0 0.013470886150552122 -0.00097881975410127396 0 0.013421417050499903 -0.00072626436107343277 0 0.01369749258634966 -0.00080035125622373649 0 0.013818930862201371 -0.0011634404017307034 0 0.01369749258634966 -0.00080035125622373649 0 0.013996757975288213 -0.00090316993189191422 0 0.013818930862201371 -0.0011634404017307034 0 0.013470886150552122 -0.00097881975410127396 0 0.01369749258634966 -0.00080035125622373649 0 0.01369749258634966 -0.00080035125622373649 0 0.013996757975288213 -0.00090316993189191422 0 0.013898709152199056 -0.00064868400242724022 0 0.012911571692370838 -0.00047598055451345727 0 0.012167204871054394 -0.00089615437550219198 0 0.012203243844176863 -0.0011251750025244084 0 0.01369749258634966 -0.00080035125622373649 0 0.013898709152199056 -0.00064868400242724022 0 0.01387989061379066 -0.00053603037661470682 0 0.013898709152199056 -0.00064868400242724022 0 0.013879096904851184 -0.00053930270605135624 0 0.014078182052178501 -0.00043310339808156067 0 0.013421417050499903 -0.00072626436107343277 0 0.01369749258634966 -0.00080035125622373649 0 0.01387989061379066 -0.00053603037661470682 0 0.013035484990402621 -0.00057553948700674431 0 0.012755728087085935 -0.00091985597699035518 0 0.012937868463403505 -0.00082825476048018463 0 0.012755728087085935 -0.00091985597699035518 0 0.013035484990402621 -0.00057553948700674431 0 0.011641757434756617 -0.0011737414523153888 0 0.011641757434756617 -0.0011737414523153888 0 0.011065072344371622 -0.0017706931147077371 0 0.012755728087085935 -0.00091985597699035518 0 0.011755922336860887 -0.0021419666983201187 0 0.011910997466029995 -0.0015854724317015379 0 0.011893655736934045 -0.0017030928621808302 0 0.011776918318907734 -0.0016636067772672033 0 0.012755728087085935 -0.00091985597699035518 0 0.011641757434756617 -0.0011737414523153888 0 0.011910997466029995 -0.0015854724317015379 0 0.011923625119426184 -0.0016752969604399959 0 0.011893655736934045 -0.0017030928621808302 0 0.012529703124413491 -0.00072010358729438396 0 0.012518719740474924 -0.00072718054830193718 0 0.01242068739599746 -0.00076107528901477766 0 0.012529703124413491 -0.00072010358729438396 0 0.012433335661622549 -0.00074380847751924571 0 0.012518719740474924 -0.00072718054830193718 0 0.012046458162788818 -0.00063349142397664451 0 0.010410431980870612 -0.001795221149255024 0 0.011065033475065576 -0.00096496434730440823 0 0.011029422697214054 -0.0010416993992947824 0 0.011109481604810812 -0.0010046543975514455 0 0.011065033475065576 -0.00096496434730440823 0 0.010924431339802657 -0.0010470383933386561 0 0.011029422697214054 -0.0010416993992947824 0 0.0091627700612141628 -0.0012681507550653505 0 0.0089671712943358104 -0.0014463630679796484 0 0.0095335826708583381 -0.0036679905437501164 0 0.012433335661622549 -0.00074380847751924571 0 0.012518719740474924 -0.00072718054830193718 0 0.01242653947365545 -0.00084994033687397141 0 0.011641757434756617 -0.0011737414523153888 0 0.010410431980870612 -0.001795221149255024 0 0.0089671712943358104 -0.0014463630679796484 0 0.0085675422576291672 -0.0027382944767702258 0 0.0095335826708583381 -0.0036679905437501164 0 0.011065072344371622 -0.0017706931147077371 0 0.0061940535305055533 -0.0050042564052686939 0 0.0081641221175217556 -0.0053265351278777651 0 0.0099370673228846192 -0.0022066589071137537 0 0.0068228358766577119 -0.00397298430767664 0 0.0089671712943358104 -0.0014463630679796484 0 0.0085675422576291672 -0.0027382944767702258 0 0.0070213031639818216 -0.0032255200100186452 0 0.011755922336860887 -0.0021419666983201187 0 0.0072911786859447452 -0.0051920945291781201 0 0.011109323561359881 -0.0026203823216343998 0 0.0081641221175217556 -0.0053265351278777651 0 0.0099370673228846192 -0.0022066589071137537 0 0.011755922336860887 -0.0021419666983201187 0 0.012925415061965513 -0.0020245474111066876 0 0.014252694964879398 -0.0007630255936344378 0 0.014078182052178501 -0.00043310339808156067 0 0.014676004566795563 -0.00067272898130707221 0 0.011065072344371622 -0.0017706931147077371 0 0.011755922336860887 -0.0021419666983201187 0 0.014252694964879398 -0.0007630255936344378 0 0.013898709152199056 -0.00064868400242724022 0 0.014078182052178501 -0.00043310339808156067 0 0.010145175879847604 -0.0034677396205548446 0 0.010238367918430354 -0.0039814579511994923 0 0.009888338137289886 -0.0036167565463801413 0 0.01077633666674464 -0.0036729064364245285 0 0.010145175879847604 -0.0034677396205548446 0 0.010238367918430354 -0.0039814579511994923 0 0.0072911786859447452 -0.0051920945291781201 0 0.0072330504601796032 -0.0053236929014428506 0 0.0044060922910270335 -0.0068297968515356466 0 0.0044661266659653471 -0.00673212853501866 0 0.0047535662365539621 -0.0068597108909667151 0 0.0044060922910270335 -0.0068297968515356466 0 0.0047535662365539621 -0.0068597108909667151 0 0.0047437118601826398 -0.0071578283124974947 0 0.0044060922910270335 -0.0068297968515356466 0 0.0043586686596271389 -0.0068567163270803174 0 0.0047437118601826398 -0.0071578283124974947 0 0.0044060922910270335 -0.0068297968515356466 0 0.0043526688934855161 -0.0068564588840784695 0 0.0043797326188588625 -0.0067504928186886276 0 0.0068375908096572893 -0.0054487777823001215 0 0.0072911786859447452 -0.0051920945291781201 0 0.0041360826663656754 -0.0066586620250351737 0 0.0043797326188588625 -0.0067504928186886276 0 0.0043581631786416631 -0.0066405768693931803 0 0.0041360826663656754 -0.0066586620250351737 0 0.0043581631786416631 -0.0066405768693931803 0 0.0042462870801716034 -0.0065432173753837367 0 0.0041360826663656754 -0.0066586620250351737 0 0.0043526688934855161 -0.0068564588840784695 0 0.0043797326188588625 -0.0067504928186886276 0 0.0061940535305055533 -0.0050042564052686939 0 0.0072911786859447452 -0.0051920945291781201 0 0.0043797326188588625 -0.0067504928186886276 0 0.0043581631786416631 -0.0066405768693931803 0 0.0044661266659653471 -0.00673212853501866 0 0.0044661266659653471 -0.00673212853501866 0 0.0045453658266190987 -0.0066560867416848553 0 0.0047535662365539621 -0.0068597108909667151 0 0.0044060922910270335 -0.0068297968515356466 0 0.0043797326188588625 -0.0067504928186886276 0 0.0044661266659653471 -0.00673212853501866 0 0.0043581631786416631 -0.0066405768693931803 0 0.0044661266659653471 -0.00673212853501866 0 0.0045453658266190987 -0.0066560867416848553 0 0.0045453658266190987 -0.0066560867416848553 0 0.0044338340842714668 -0.0064941766206229783 0 0.0047455165375741258 -0.0065193906122715988 0 0.0044338340842714668 -0.0064941766206229783 0 0.0045018302020783559 -0.0062857868701626423 0 0.0047455165375741258 -0.0065193906122715988 0 0.0043581631786416631 -0.0066405768693931803 0 0.0045453658266190987 -0.0066560867416848553 0 0.0044338340842714668 -0.0064941766206229783 0 0.0042462870801716034 -0.0065432173753837367 0 0.004227648486806344 -0.0063213665112210656 0 0.0039543085208777898 -0.0063635744763484723 0 0.0043581631786416631 -0.0066405768693931803 0 0.0044338340842714668 -0.0064941766206229783 0 0.0042462870801716034 -0.0065432173753837367 0 0.0061940535305055533 -0.0050042564052686939 0 0.0044390151003812824 -0.0065137775789228976 0 0.0044338340842714668 -0.0064941766206229783 0 0.0042462870801716034 -0.0065432173753837367 0 0.004227648486806344 -0.0063213665112210656 0 0.004227648486806344 -0.0063213665112210656 0 0.0045018302020783559 -0.0062857868701626423 0 0.004233287387585989 -0.006079188089501919 0 0.004227648486806344 -0.0063213665112210656 0 0.0039851270379017596 -0.0061669378187402734 0 0.004233287387585989 -0.006079188089501919 0 0.0044338340842714668 -0.0064941766206229783 0 0.004227648486806344 -0.0063213665112210656 0 0.0045018302020783559 -0.0062857868701626423 0 0.0085675422576291672 -0.0027382944767702258 0 0.0070213031639818216 -0.0032255200100186452 0 0.0085639053591905229 -0.0047783078083748071 0 0.0061940535305055533 -0.0050042564052686939 0 0.0059246197998360116 -0.005050210397621136 0 0.0040410369091326429 -0.0067281523585859789 0 0.0042462870801716034 -0.0065432173753837367 0 0.0039543085208777898 -0.0063635744763484723 0 0.0040410369091326429 -0.0067281523585859789 0 0.0039543085208777898 -0.0063635744763484723 0 0.0035672542036303836 -0.0062972401767440742 0 0.0039851270379017596 -0.0061669378187402734 0 0.0039543085208777898 -0.0063635744763484723 0 0.0036994993461953629 -0.0061370311866156962 0 0.004227648486806344 -0.0063213665112210656 0 0.0039851270379017596 -0.0061669378187402734 0 0.0039543085208777898 -0.0063635744763484723 0 0.0039543085208777898 -0.0063635744763484723 0 0.0035672542036303836 -0.0062972401767440742 0 0.0036994993461953629 -0.0061370311866156962 0 0.0059246197998360116 -0.005050210397621136 0 0.0043297683865481228 -0.0063345889777825888 0 0.0035394483632355382 -0.0063103058698955267 0 0.0036994993461953629 -0.0061370311866156962 0 0.0034569656700899182 -0.0058758699269798008 0 0.0036994993461953629 -0.0061370311866156962 0 0.0039038957330498145 -0.0058223505578029302 0 0.0034569656700899182 -0.0058758699269798008 0 0.0039851270379017596 -0.0061669378187402734 0 0.0039038957330498145 -0.0058223505578029302 0 0.004233287387585989 -0.006079188089501919 0 0.0039851270379017596 -0.0061669378187402734 0 0.0036994993461953629 -0.0061370311866156962 0 0.0039038957330498145 -0.0058223505578029302 0 0.0039038957330498145 -0.0058223505578029302 0 0.0034845711612542219 -0.0055825337568112315 0 0.0034569656700899182 -0.0058758699269798008 0 0.0039038957330498145 -0.0058223505578029302 0 0.004233287387585989 -0.006079188089501919 0 0.0045566420001060389 -0.0057373290004711416 0 0.0045018302020783559 -0.0062857868701626423 0 0.0045412474822860141 -0.0060413349026497533 0 0.004233287387585989 -0.006079188089501919 0 0.0045412474822860141 -0.0060413349026497533 0 0.004233287387585989 -0.006079188089501919 0 0.0045566420001060389 -0.0057373290004711416 0 0.0045566420001060389 -0.0057373290004711416 0 0.0041243114119586238 -0.0054371623898585705 0 0.004620133273701291 -0.0052843326609234645 0 0.0039038957330498145 -0.0058223505578029302 0 0.0045566420001060389 -0.0057373290004711416 0 0.0041243114119586238 -0.0054371623898585705 0 0.0041243114119586238 -0.0054371623898585705 0 0.0038955046488794737 -0.0048891432281778554 0 0.004620133273701291 -0.0052843326609234645 0 0.0039038957330498145 -0.0058223505578029302 0 0.0041243114119586238 -0.0054371623898585705 0 0.0034845711612542219 -0.0055825337568112315 0 0.0034845711612542219 -0.0055825337568112315 0 0.0038955046488794737 -0.0048891432281778554 0 0.0032491086899664712 -0.0050028275501248828 0 0.0041243114119586238 -0.0054371623898585705 0 0.0034845711612542219 -0.0055825337568112315 0 0.0038955046488794737 -0.0048891432281778554 0 0.0038955046488794737 -0.0048891432281778554 0 0.0032491086899664712 -0.0050028275501248828 0 0.0033895236881387532 -0.0044604603705595556 0 0.0038955046488794737 -0.0048891432281778554 0 0.0046683204372463347 -0.0046779354654830759 0 0.004620133273701291 -0.0052843326609234645 0 -0.0019750079718536496 -0.0045312374636877631 0 0.00039347444036272496 -0.0056063101666729313 0 -0.0071245052522409327 -0.0048353533695572387 0 -0.0066562535684198607 -0.0042548749909637655 0 -0.0062877221074364269 -0.0056707738490171114 0 -0.0071245052522409327 -0.0048353533695572387 0 -0.0071216260830338713 -0.0055628861424782206 0 -0.0079303435821620021 -0.004750848019305795 0 -0.0071245052522409327 -0.0048353533695572387 0 -0.0066562535684198607 -0.0042548749909637655 0 -0.0075868647513298365 -0.0039789927786473079 0 0.0025706775194051018 -0.0045672078406293615 0 0.0032491086899664712 -0.0050028275501248828 0 0.0033895236881387532 -0.0044604603705595556 0 0.0025706775194051018 -0.0045672078406293615 0 0.0032491086899664712 -0.0050028275501248828 0 0.0027997211246451421 -0.0055367855008181506 0 0.0034845711612542219 -0.0055825337568112315 0 0.0032491086899664712 -0.0050028275501248828 0 0.0027997211246451421 -0.0055367855008181506 0 0.0034845711612542219 -0.0055825337568112315 0 0.0030654587143453677 -0.0055191340199420612 0 0.0034569656700899182 -0.0058758699269798008 0 0.0040992983178872256 -0.0057162527897413632 0 0.00039347444036272496 -0.0056063101666729313 0 0.00039347444036272496 -0.0056063101666729313 0 0.0024685318561411492 -0.0033704619438417859 0 0.003859079577107496 -0.0035869078961013375 0 0.0026531489026463046 -0.0034225867775428461 0 0.0040781336923154015 -0.0048400858098439038 0 -0.0071245052522409327 -0.0048353533695572387 0 -0.0062877221074364269 -0.0056707738490171114 0 -0.0071216260830338713 -0.0055628861424782206 0 0.0024685318561411492 -0.0033704619438417859 0 0.006721727871787664 -0.0038905378047649724 0 0.010925472021956083 -0.0011500354430153603 0 0.010909832056977712 -0.0011229432811895653 0 0.010973981608007671 -0.0010875835702223891 0 0.010925472021956083 -0.0011500354430153603 0 0.010973981608007671 -0.0010875835702223891 0 0.011011315768778902 -0.0010898635419289762 0 0.0030654587143453677 -0.0055191340199420612 0 0.0034569656700899182 -0.0058758699269798008 0 0.0031475880673173242 -0.0059309325509324159 0 0.00039347444036272496 -0.0056063101666729313 0 0.006721727871787664 -0.0038905378047649724 0 0.0059246197998360116 -0.005050210397621136 0 0.006721727871787664 -0.0038905378047649724 0 0.0035394483632355382 -0.0063103058698955267 0 0.0034569656700899182 -0.0058758699269798008 0 0.0031475880673173242 -0.0059309325509324159 0 0.0074937034488795733 -0.0034637712862559994 0 0.0080535055618704485 -0.0040355390254152518 0 0.0079067310807999277 -0.0029948728848978382 0 0.006721727871787664 -0.0038905378047649724 0 0.010410431980870612 -0.001795221149255024 0 0.0085675422576291672 -0.0027382944767702258 0 0.0085639053591905229 -0.0047783078083748071 0 0.0095335826708583381 -0.0036679905437501164 0 0.010909832056977712 -0.0011229432811895653 0 0.010924431339802657 -0.0010470383933386561 0 0.010973981608007671 -0.0010875835702223891 0 0.0059246197998360116 -0.005050210397621136 0 0.010410431980870612 -0.001795221149255024 0 0.010973981608007671 -0.0010875835702223891 0 0.011029422697214054 -0.0010416993992947824 0 0.011011315768778902 -0.0010898635419289762 0 0.010924431339802657 -0.0010470383933386561 0 0.010973981608007671 -0.0010875835702223891 0 0.011029422697214054 -0.0010416993992947824 0 0.011029422697214054 -0.0010416993992947824 0 0.011080998505667041 -0.0010414051005978142 0 0.011011315768778902 -0.0010898635419289762 0 0.011080998505667041 -0.0010414051005978142 0 0.011066185868843292 -0.0010644748150811061 0 0.011011315768778902 -0.0010898635419289762 0 0.011080998505667041 -0.0010414051005978142 0 0.01111129328294173 -0.001038530507389995 0 0.011143899887500664 -0.0010088952324319338 0 0.011080998505667041 -0.0010414051005978142 0 0.01111129328294173 -0.001038530507389995 0 0.011066185868843292 -0.0010644748150811061 0 0.01111129328294173 -0.001038530507389995 0 0.011074885070168983 -0.0010658401951347358 0 0.011066185868843292 -0.0010644748150811061 0 0.011074885070168983 -0.0010658401951347358 0 0.011066185868843292 -0.0010644748150811061 0 0.011032028097978168 -0.0010960186987624429 0 0.011066185868843292 -0.0010644748150811061 0 0.011032028097978168 -0.0010960186987624429 0 0.011011315768778902 -0.0010898635419289762 0 0.011074885070168983 -0.0010658401951347358 0 0.011032028097978168 -0.0010960186987624429 0 0.011060362418481481 -0.00110274007272573 0 0.010925472021956083 -0.0011500354430153603 0 0.011011315768778902 -0.0010898635419289762 0 0.010979653388047378 -0.0011273295239582208 0 0.011032028097978168 -0.0010960186987624429 0 0.011011315768778902 -0.0010898635419289762 0 0.010979653388047378 -0.0011273295239582208 0 0.001492889879793922 -0.0034584418121144226 0 -0.00010896183737461915 -0.0032336065127185234 0 0.00072899499451751831 -0.0027035811655449233 0 0.010925472021956083 -0.0011500354430153603 0 0.010979653388047378 -0.0011273295239582208 0 0.010973616624844484 -0.001133471705174225 0 0.0024685318561411492 -0.0033704619438417859 0 0.0072446095113517708 -0.0015663603918924362 0 0.0024685318561411492 -0.0033704619438417859 0 -0.0039575837475254181 -0.0034649884716117948 0 0.011043178875947544 -0.0019688601144578675 0 0.0072446095113517708 -0.0015663603918924362 0 0.011032028097978168 -0.0010960186987624429 0 0.010979653388047378 -0.0011273295239582208 0 0.011018653785735275 -0.0011542548089111728 0 0.011032028097978168 -0.0010960186987624429 0 0.011060362418481481 -0.00110274007272573 0 0.011018653785735275 -0.0011542548089111728 0 0.011060362418481481 -0.00110274007272573 0 0.011018653785735275 -0.0011542548089111728 0 0.011061112408076194 -0.0011582390647149128 0 0.0072446095113517708 -0.0015663603918924362 0 0.0073623949808089952 -0.000767948541546598 0 0.0064040362830743323 -0.0020536582139295389 0 0.0048341296489558296 -0.00083953163062454555 0 0.0046116794872980427 -0.0018103553155174969 0 0.0072446095113517708 -0.0015663603918924362 0 0.0022621034684888182 -0.0012626011552206674 0 -0.00010896183737461915 -0.0032336065127185234 0 -0.00010827241610382003 -0.0025572584796317104 0 0.00072899499451751831 -0.0027035811655449233 0 -0.00010896183737461915 -0.0032336065127185234 0 -0.00010827241610382003 -0.0025572584796317104 0 -0.00063084679149673546 -0.0028341585614499519 0 -0.00010827241610382003 -0.0025572584796317104 0 -4.4310580488847665e-05 -0.0019581028741636718 0 -0.00048219290601467241 -0.002058090306429046 0 -0.00010827241610382003 -0.0025572584796317104 0 -0.00063084679149673546 -0.0028341585614499519 0 -0.00048219290601467241 -0.002058090306429046 0 -0.0079303435821620021 -0.004750848019305795 0 -0.0084266702795910125 -0.0039424487348946186 0 -0.0086267288095242898 -0.0039860975563930992 0 -0.00010827241610382003 -0.0025572584796317104 0 0.00072899499451751831 -0.0027035811655449233 0 -4.4310580488847665e-05 -0.0019581028741636718 0 -0.0039575837475254181 -0.0034649884716117948 0 -0.0055560711065556464 -0.0036303885149227238 0 -0.0079303435821620021 -0.004750848019305795 0 -0.0080425841968736131 -0.0041048678012737816 0 -0.0084266702795910125 -0.0039424487348946186 0 -0.0079303435821620021 -0.004750848019305795 0 -0.0075868647513298365 -0.0039789927786473079 0 -0.0080425841968736131 -0.0041048678012737816 0 -0.0071245052522409327 -0.0048353533695572387 0 -0.0079303435821620021 -0.004750848019305795 0 -0.0075868647513298365 -0.0039789927786473079 0 0.0031222860245282689 0.0011850845629332951 0 0.005690117687212057 0.0024733311880474327 0 0.010021625616419845 0.0016839156838617227 0 0.0099571761955819012 0.0017347766987000691 0 0.010083440774318973 0.0016348414266446243 0 -0.0011182757833726861 0.0021209681972506581 0 0.00035965346016149369 0.0024585052239948094 0 -0.00042280822030359085 0.0016744738919368188 0 0.010021625616419845 0.0016839156838617227 0 0.0099616460624099776 0.0016286933884867808 0 0.010046516856834787 0.001771206643452597 0 0.0086161391907194091 0.00099087861217221108 0 0.010676445433797369 0.001603728465372169 0 0.0031222860245282689 0.0011850845629332951 0 0.0086161391907194091 0.00099087861217221108 0 0.002532619918525391 0.0012787620928679541 0 0.0034713311930934052 0.00051311136176151334 0 0.0027619635372360899 -8.8479808525774006e-05 0 0.010021625616419845 0.0016839156838617227 0 0.0099616460624099776 0.0016286933884867808 0 0.0099571761955819012 0.0017347766987000691 0 0.0031222860245282689 0.0011850845629332951 0 0.0023563727498033386 0.0017275307735737102 0 -0.0011182757833726861 0.0021209681972506581 0 -0.0010742942937523405 0.0017522806195007527 0 -0.00042280822030359085 0.0016744738919368188 0 -0.0011242963748977796 0.002096964500975539 0 -0.0015671268552711734 0.0020024705017652853 0 -0.0010742942937523405 0.0017522806195007527 0 0.0031222860245282689 0.0011850845629332951 0 -0.0044431043991835176 0.00035656530635975146 0 -0.003221889759769365 -0.00082371723234285531 0 -0.0028359934368758777 -0.0011169672414546991 0 -0.0027681596812294414 -0.00073197995090726711 0 0.002532619918525391 0.0012787620928679541 0 0.0031032616932175103 0.0014071726843051904 0 0.0034713311930934052 0.00051311136176151334 0 -0.0044431043991835176 0.00035656530635975146 0 -0.0067042623478744305 -0.0021534908939453371 0 0.0022621034684888182 -0.0012626011552206674 0 -0.0067042623478744305 -0.0021534908939453371 0 0.0045470516091679824 0.00028903831129880599 0 0.0034713311930934052 0.00051311136176151334 0 0.0044129293455754089 -0.00031867221103747177 0 0.0034713311930934052 0.00051311136176151334 0 0.0044129293455754089 -0.00031867221103747177 0 0.0027619635372360899 -8.8479808525774006e-05 0 -0.0044431043991835176 0.00035656530635975146 0 0.0022621034684888182 -0.0012626011552206674 0 0.0031032616932175103 0.0014071726843051904 0 0.0045470516091679824 0.00028903831129880599 0 0.0034713311930934052 0.00051311136176151334 0 0.011156085448020606 -0.00067233845881626848 0 0.011058115898859045 -0.00084629193752289102 0 0.01090837153777845 -0.00062842320101343877 0 0.011060362418481481 -0.00110274007272573 0 0.011061112408076194 -0.0011582390647149128 0 0.011100384594141767 -0.0010402078755631919 0 0.011156085448020606 -0.00067233845881626848 0 0.011058115898859045 -0.00084629193752289102 0 0.011100384594141767 -0.0010402078755631919 0 0.0073623949808089952 -0.000767948541546598 0 0.0086161391907194091 0.00099087861217221108 0 0.0073623949808089952 -0.000767948541546598 0 0.011929885050754888 -0.00092457189194503368 0 0.011058115898859045 -0.00084629193752289102 0 0.01090837153777845 -0.00062842320101343877 0 0.011055268286936187 -0.0010272279318780204 0 0.0022621034684888182 -0.0012626011552206674 0 0.0073623949808089952 -0.000767948541546598 0 0.010655521569415592 0.001100610457561411 0 0.010767495793663184 0.0016229744204142261 0 0.010991968382386551 0.0007232615547454179 0 0.0086161391907194091 0.00099087861217221108 0 0.011274819547669299 -0.00028790443760103084 0 0.010767495793663184 0.0016229744204142261 0 0.010344860284248554 0.0014544895467826814 0 0.010083440774318973 0.0016348414266446243 0 0.010655521569415592 0.001100610457561411 0 0.010767495793663184 0.0016229744204142261 0 0.010512892580210802 0.0013524976184302467 0 0.010767495793663184 0.0016229744204142261 0 0.010344860284248554 0.0014544895467826814 0 0.010512892580210802 0.0013524976184302467 0 0.010512892580210802 0.0013524976184302467 0 0.010461310932677824 0.0011899383920635804 0 0.010278445268908016 0.0012650428573281443 0 0.010344860284248554 0.0014544895467826814 0 0.010512892580210802 0.0013524976184302467 0 0.010278445268908016 0.0012650428573281443 0 0.010655521569415592 0.001100610457561411 0 0.010512892580210802 0.0013524976184302467 0 0.010461310932677824 0.0011899383920635804 0 0.010655521569415592 0.001100610457561411 0 0.010461310932677824 0.0011899383920635804 0 0.010400736422008717 0.0010420251176942381 0 0.010461310932677824 0.0011899383920635804 0 0.010400736422008717 0.0010420251176942381 0 0.010278445268908016 0.0012650428573281443 0 0.010655521569415592 0.001100610457561411 0 0.010542250309573767 0.00091749278675744132 0 0.010698745281506723 0.00080461737063277652 0 0.010400736422008717 0.0010420251176942381 0 0.010408120845760788 0.00082068260312945565 0 0.010242909987473266 0.00087696724512169332 0 0.010400736422008717 0.0010420251176942381 0 0.010542250309573767 0.00091749278675744132 0 0.010408120845760788 0.00082068260312945565 0 0.010655521569415592 0.001100610457561411 0 0.010400736422008717 0.0010420251176942381 0 0.010542250309573767 0.00091749278675744132 0 0.010655521569415592 0.001100610457561411 0 0.010698745281506723 0.00080461737063277652 0 0.010991968382386551 0.0007232615547454179 0 0.010698745281506723 0.00080461737063277652 0 0.010792139167359296 0.00060256433558410747 0 0.010583409176744536 0.00069878391882727937 0 0.010698745281506723 0.00080461737063277652 0 0.010792139167359296 0.00060256433558410747 0 0.010991968382386551 0.0007232615547454179 0 0.010792139167359296 0.00060256433558410747 0 0.010583409176744536 0.00069878391882727937 0 0.010670388407891964 0.00049862803844399688 0 0.010583409176744536 0.00069878391882727937 0 0.010406372536011586 0.00053777822054367917 0 0.010670388407891964 0.00049862803844399688 0 0.010408120845760788 0.00082068260312945565 0 0.010583409176744536 0.00069878391882727937 0 0.010406372536011586 0.00053777822054367917 0 0.010542250309573767 0.00091749278675744132 0 0.010698745281506723 0.00080461737063277652 0 0.010583409176744536 0.00069878391882727937 0 0.010542250309573767 0.00091749278675744132 0 0.010408120845760788 0.00082068260312945565 0 0.010583409176744536 0.00069878391882727937 0 0.011074885070168983 -0.0010658401951347358 0 0.011060362418481481 -0.00110274007272573 0 0.011100384594141767 -0.0010402078755631919 0 0.011058115898859045 -0.00084629193752289102 0 0.011100384594141767 -0.0010402078755631919 0 0.011055268286936187 -0.0010272279318780204 0 0.01111129328294173 -0.001038530507389995 0 0.011074885070168983 -0.0010658401951347358 0 0.011100384594141767 -0.0010402078755631919 0 0.01111129328294173 -0.001038530507389995 0 0.011100384594141767 -0.0010402078755631919 0 0.011168887173560738 -0.0010154808448343238 0 0.011274819547669299 -0.00028790443760103084 0 0.011127329406562102 -0.00058041777783523888 0 0.011100384594141767 -0.0010402078755631919 0 0.011055268286936187 -0.0010272279318780204 0 0.011168887173560738 -0.0010154808448343238 0 0.010991968382386551 0.0007232615547454179 0 0.010875271450234914 9.8723540917848826e-05 0 0.011161286036527015 -0.00022722376328569317 0 0.010792139167359296 0.00060256433558410747 0 0.010991968382386551 0.0007232615547454179 0 0.010875271450234914 9.8723540917848826e-05 0 0.010606552206914999 0.00034021497500770232 0 0.010406372536011586 0.00053777822054367917 0 0.010466987962964107 0.00023103544894669198 0 0.010606552206914999 0.00034021497500770232 0 0.010406372536011586 0.00053777822054367917 0 0.010670388407891964 0.00049862803844399688 0 0.010792139167359296 0.00060256433558410747 0 0.010670388407891964 0.00049862803844399688 0 0.010875271450234914 9.8723540917848826e-05 0 0.010606552206914999 0.00034021497500770232 0 0.010670388407891964 0.00049862803844399688 0 0.010875271450234914 9.8723540917848826e-05 0 0.010875271450234914 9.8723540917848826e-05 0 0.010466987962964107 0.00023103544894669198 0 0.010462082411200863 -1.0132922695993987e-05 0 0.010606552206914999 0.00034021497500770232 0 0.010875271450234914 9.8723540917848826e-05 0 0.010466987962964107 0.00023103544894669198 0 0.010875271450234914 9.8723540917848826e-05 0 0.010462082411200863 -1.0132922695993987e-05 0 0.010575393681746557 -0.00027233370482125766 0 0.010780826718926764 -0.00042239736250056334 0 0.010820368307156047 -0.00074156578544368169 0 0.011161286036527015 -0.00022722376328569317 0 0.010875271450234914 9.8723540917848826e-05 0 0.010575393681746557 -0.00027233370482125766 0 0.010780826718926764 -0.00042239736250056334 0 0.010875271450234914 9.8723540917848826e-05 0 0.010780826718926764 -0.00042239736250056334 0 0.011161286036527015 -0.00022722376328569317 0 0.010575393681746557 -0.00027233370482125766 0 0.010780826718926764 -0.00042239736250056334 0 0.010571762855746458 -0.00049530343266356751 0 0.010780826718926764 -0.00042239736250056334 0 0.010571762855746458 -0.00049530343266356751 0 0.010628108856212862 -0.00065049318708603691 0 0.010571762855746458 -0.00049530343266356751 0 0.010628108856212862 -0.00065049318708603691 0 0.010474478948589 -0.00064283364701087423 0 0.010628108856212862 -0.00065049318708603691 0 0.010820368307156047 -0.00074156578544368169 0 0.010518246847480518 -0.00080939168804760556 0 0.010780826718926764 -0.00042239736250056334 0 0.010628108856212862 -0.00065049318708603691 0 0.010820368307156047 -0.00074156578544368169 0 0.010820368307156047 -0.00074156578544368169 0 0.011216367387260525 -0.00093376098697408141 0 0.010838561665151054 -0.00096420215327252027 0 0.010820368307156047 -0.00074156578544368169 0 0.010838561665151054 -0.00096420215327252027 0 0.010518246847480518 -0.00080939168804760556 0 0.011216367387260525 -0.00093376098697408141 0 0.011168887173560738 -0.0010154808448343238 0 0.011201356857961838 -0.00096200520077157345 0 0.011221224465134972 -0.00092680594910661096 0 0.011127329406562102 -0.00058041777783523888 0 0.010820368307156047 -0.00074156578544368169 0 0.011216367387260525 -0.00093376098697408141 0 0.011161286036527015 -0.00022722376328569317 0 0.011216367387260525 -0.00093376098697408141 0 0.011201356857961838 -0.00096200520077157345 0 0.011290086157636197 -0.0010091537687190583 0 0.01111129328294173 -0.001038530507389995 0 0.011168887173560738 -0.0010154808448343238 0 0.011143899887500664 -0.0010088952324319338 0 0.011168887173560738 -0.0010154808448343238 0 0.011143899887500664 -0.0010088952324319338 0 0.011201356857961838 -0.00096200520077157345 0 0.011143899887500664 -0.0010088952324319338 0 0.011201356857961838 -0.00096200520077157345 0 0.011178126676434152 -0.00098237293867232218 0 0.011029422697214054 -0.0010416993992947824 0 0.011080998505667041 -0.0010414051005978142 0 0.011109481604810812 -0.0010046543975514455 0 0.011080998505667041 -0.0010414051005978142 0 0.011143899887500664 -0.0010088952324319338 0 0.011109481604810812 -0.0010046543975514455 0 0.011143899887500664 -0.0010088952324319338 0 0.011109481604810812 -0.0010046543975514455 0 0.011178126676434152 -0.00098237293867232218 0 0.012046458162788818 -0.00063349142397664451 0 0.011778506416813519 -0.00096293088593285916 0 0.011065033475065576 -0.00096496434730440823 0 0.011182490374196745 -0.00097862206357576505 0 0.011290561936569462 -0.00097888768207549603 0 0.011182490374196745 -0.00097862206357576505 0 0.011256270217071878 -0.00098338640951792212 0 0.011290561936569462 -0.00097888768207549603 0 0.011065033475065576 -0.00096496434730440823 0 0.011109481604810812 -0.0010046543975514455 0 0.011182490374196745 -0.00097862206357576505 0 0.011109481604810812 -0.0010046543975514455 0 0.011182490374196745 -0.00097862206357576505 0 0.011178126676434152 -0.00098237293867232218 0 0.011182490374196745 -0.00097862206357576505 0 0.011178126676434152 -0.00098237293867232218 0 0.011256270217071878 -0.00098338640951792212 0 0.011201356857961838 -0.00096200520077157345 0 0.011256270217071878 -0.00098338640951792212 0 0.011290086157636197 -0.0010091537687190583 0 0.011201356857961838 -0.00096200520077157345 0 0.011178126676434152 -0.00098237293867232218 0 0.011256270217071878 -0.00098338640951792212 0 0.011256270217071878 -0.00098338640951792212 0 0.011290086157636197 -0.0010091537687190583 0 0.011357677967096006 -0.001054218013192561 0 0.011290086157636197 -0.0010091537687190583 0 0.011357677967096006 -0.001054218013192561 0 0.011612609677184683 -0.0013615229972624161 0 0.011256270217071878 -0.00098338640951792212 0 0.011357677967096006 -0.001054218013192561 0 0.011290561936569462 -0.00097888768207549603 0 0.012529703124413491 -0.00072010358729438396 0 0.01242068739599746 -0.00076107528901477766 0 0.012401995418844404 -0.00092997639157470832 0 0.013199016388314527 -0.00047913639631095315 0 0.012775191567613618 -0.0008686997512338296 0 0.012401995418844404 -0.00092997639157470832 0 0.013035484990402621 -0.00057553948700674431 0 0.01234553495750181 -0.00093216480356672952 0 0.01242068739599746 -0.00076107528901477766 0 0.012401995418844404 -0.00092997639157470832 0 0.012178408214319585 -0.0011667436486414561 0 0.01298362423122828 -0.0009658635270512276 0 0.012374783214482548 -0.001282765311102409 0 0.012961803160839599 -0.0013711774227615733 0 0.012775191567613618 -0.0008686997512338296 0 0.012401995418844404 -0.00092997639157470832 0 0.012374783214482548 -0.001282765311102409 0 0.012879477052085937 -0.00091456531553197609 0 0.012426034017896338 -0.0012683924456524357 0 0.012401995418844404 -0.00092997639157470832 0 0.012374783214482548 -0.001282765311102409 0 0.012178408214319585 -0.0011667436486414561 0 0.012707868473912007 -0.0017168189095081469 0 0.012374783214482548 -0.001282765311102409 0 0.012961803160839599 -0.0013711774227615733 0 0.01242068739599746 -0.00076107528901477766 0 0.012178408214319585 -0.0011667436486414561 0 0.011612609677184683 -0.0013615229972624161 0 0.011357677967096006 -0.001054218013192561 0 0.011290561936569462 -0.00097888768207549603 0 0.011612609677184683 -0.0013615229972624161 0 0.011778506416813519 -0.00096293088593285916 0 0.011614634240593195 -0.0013227869626387027 0 0.012110955634790352 -0.001589452553135987 0 0.012374783214482548 -0.001282765311102409 0 0.012178408214319585 -0.0011667436486414561 0 0.012110955634790352 -0.001589452553135987 0 0.012178408214319585 -0.0011667436486414561 0 0.011612609677184683 -0.0013615229972624161 0 0.01111884456278202 -0.0016220480825427654 0 0.011340160935254362 -0.0011965373787867616 0 0.010981184703184824 -0.0013711290373227248 0 0.010962591054572202 -0.0018154003275241903 0 0.011396498404936352 -0.0011586434355104803 0 0.011268181286533752 -0.0017810663694712815 0 0.011612609677184683 -0.0013615229972624161 0 0.011340160935254362 -0.0011965373787867616 0 0.011290086157636197 -0.0010091537687190583 0 0.011612609677184683 -0.0013615229972624161 0 0.011340160935254362 -0.0011965373787867616 0 0.011340160935254362 -0.0011965373787867616 0 0.010981184703184824 -0.0013711290373227248 0 0.010937058911841694 -0.0011472263487832695 0 0.010870511993424807 -0.0015682064758583668 0 0.010981184703184824 -0.0013711290373227248 0 0.010703212068185992 -0.0013003529285825306 0 0.010981184703184824 -0.0013711290373227248 0 0.010937058911841694 -0.0011472263487832695 0 0.010703212068185992 -0.0013003529285825306 0 0.010937058911841694 -0.0011472263487832695 0 0.010838561665151054 -0.00096420215327252027 0 0.011161096894798635 -0.0010547039951776535 0 0.010937058911841694 -0.0011472263487832695 0 0.010610187633886402 -0.0010009575165996288 0 0.010703212068185992 -0.0013003529285825306 0 0.010937058911841694 -0.0011472263487832695 0 0.010838561665151054 -0.00096420215327252027 0 0.010610187633886402 -0.0010009575165996288 0 0.011340160935254362 -0.0011965373787867616 0 0.010937058911841694 -0.0011472263487832695 0 0.011161096894798635 -0.0010547039951776535 0 0.011216367387260525 -0.00093376098697408141 0 0.010838561665151054 -0.00096420215327252027 0 0.011161096894798635 -0.0010547039951776535 0 0.011216367387260525 -0.00093376098697408141 0 0.011290086157636197 -0.0010091537687190583 0 0.011161096894798635 -0.0010547039951776535 0 0.011290086157636197 -0.0010091537687190583 0 0.011340160935254362 -0.0011965373787867616 0 0.011161096894798635 -0.0010547039951776535 0 0.0088455828204324054 -0.0012436293245167076 0 0.0095873967948622244 -0.00044934295056887679 0 0.010450729813603767 -0.0011178309783114757 0 0.010327071539502073 -0.0009245776246887455 0 0.010425059736142411 -0.00084948473864926845 0 0.010450729813603767 -0.0011178309783114757 0 0.010187667156786474 -0.0011781071819948914 0 0.010327071539502073 -0.0009245776246887455 0 0.010450729813603767 -0.0011178309783114757 0 0.010610187633886402 -0.0010009575165996288 0 0.010425059736142411 -0.00084948473864926845 0 0.010450729813603767 -0.0011178309783114757 0 0.010610187633886402 -0.0010009575165996288 0 0.010703212068185992 -0.0013003529285825306 0 0.010838561665151054 -0.00096420215327252027 0 0.010610187633886402 -0.0010009575165996288 0 0.010518246847480518 -0.00080939168804760556 0 0.010450729813603767 -0.0011178309783114757 0 0.010703212068185992 -0.0013003529285825306 0 0.010450689022154902 -0.001358858504214331 0 0.010627155139909165 -0.0015560794754495328 0 0.010703212068185992 -0.0013003529285825306 0 0.010450689022154902 -0.001358858504214331 0 0.010450689022154902 -0.001358858504214331 0 0.010187667156786474 -0.0011781071819948914 0 0.010263338324941721 -0.0013904994107824138 0 0.010450729813603767 -0.0011178309783114757 0 0.010450689022154902 -0.001358858504214331 0 0.010187667156786474 -0.0011781071819948914 0 0.0080491283093551257 -0.00092736270763518053 0 0.0083506856708878315 -0.00057044562057812311 0 0.0079774899967558124 -0.00059840733762438908 0 0.012360052207212998 -0.00014424121559681859 0 0.0088455828204324054 -0.0012436293245167076 0 0.010034548557921616 -0.0014099420576705259 0 0.010187667156786474 -0.0011781071819948914 0 0.010263338324941721 -0.0013904994107824138 0 0.0080491283093551257 -0.00092736270763518053 0 0.0079814229846051892 -0.00088891461176617047 0 0.0079774899967558124 -0.00059840733762438908 0 0.0079814229846051892 -0.00088891461176617047 0 0.0079774899967558124 -0.00059840733762438908 0 0.0076783026029710825 -0.00069080456378428818 0 0.0079774899967558124 -0.00059840733762438908 0 0.0076674001260906904 -0.00028348988771396044 0 0.0082208350298527584 -0.00010699369202516392 0 0.0079774899967558124 -0.00059840733762438908 0 0.0076674001260906904 -0.00028348988771396044 0 0.0076783026029710825 -0.00069080456378428818 0 0.0083506856708878315 -0.00057044562057812311 0 0.0079774899967558124 -0.00059840733762438908 0 0.0082208350298527584 -0.00010699369202516392 0 0.0083506856708878315 -0.00057044562057812311 0 0.0082208350298527584 -0.00010699369202516392 0 0.0087150505034728834 -0.00014853152321439651 0 0.0082208350298527584 -0.00010699369202516392 0 0.0084111913780360367 0.00050745564541798487 0 0.0086321405279746587 0.00016669049961530786 0 0.0082208350298527584 -0.00010699369202516392 0 0.0077694435343285484 0.00021225511476794824 0 0.0084111913780360367 0.00050745564541798487 0 0.0076674001260906904 -0.00028348988771396044 0 0.0082208350298527584 -0.00010699369202516392 0 0.0077694435343285484 0.00021225511476794824 0 0.0077694435343285484 0.00021225511476794824 0 0.0077228855761703394 0.00073920710485489969 0 0.0084111913780360367 0.00050745564541798487 0 0.0075072148821563045 0.00038953717802206207 0 0.0084189664389234843 7.8669558371990058e-05 0 0.0070516432583166769 5.8118974799456488e-05 0 0.0085592281392595521 -0.00037779763621008925 0 0.0079715679035605568 0.00035023535630399592 0 0.0085592281392595521 -0.00037779763621008925 0 0.0099517447799182951 -0.00033528554148412284 0 0.0087102053933788108 0.00083023534167757829 0 0.0084111913780360367 0.00050745564541798487 0 0.0086321405279746587 0.00016669049961530786 0 0.0090822597739816987 0.00030159577930075803 0 0.0084189664389234843 7.8669558371990058e-05 0 0.0097638441865541895 -0.00021392926861619693 0 0.0085592281392595521 -0.00037779763621008925 0 0.010052731665539659 -0.00075048926449861031 0 0.0099517447799182951 -0.00033528554148412284 0 0.0082208350298527584 -0.00010699369202516392 0 0.0086321405279746587 0.00016669049961530786 0 0.0087150505034728834 -0.00014853152321439651 0 0.0095873967948622244 -0.00044934295056887679 0 0.0097638441865541895 -0.00021392926861619693 0 0.010327071539502073 -0.0009245776246887455 0 0.010425059736142411 -0.00084948473864926845 0 0.010372007888054527 -0.00069353382865963644 0 0.0086321405279746587 0.00016669049961530786 0 0.0087150505034728834 -0.00014853152321439651 0 0.0090822597739816987 0.00030159577930075803 0 0.010610187633886402 -0.0010009575165996288 0 0.010518246847480518 -0.00080939168804760556 0 0.010425059736142411 -0.00084948473864926845 0 0.010518246847480518 -0.00080939168804760556 0 0.010425059736142411 -0.00084948473864926845 0 0.010368130867969699 -0.00069274339304090614 0 0.010425059736142411 -0.00084948473864926845 0 0.010368130867969699 -0.00069274339304090614 0 0.010372007888054527 -0.00069353382865963644 0 0.010518246847480518 -0.00080939168804760556 0 0.010368130867969699 -0.00069274339304090614 0 0.010474478948589 -0.00064283364701087423 0 0.010628108856212862 -0.00065049318708603691 0 0.010518246847480518 -0.00080939168804760556 0 0.010474478948589 -0.00064283364701087423 0 0.010571762855746458 -0.00049530343266356751 0 0.010474478948589 -0.00064283364701087423 0 0.010397823592293238 -0.0004660012312098642 0 0.010368130867969699 -0.00069274339304090614 0 0.010474478948589 -0.00064283364701087423 0 0.010330999397761245 -0.00057690983292110179 0 0.010474478948589 -0.00064283364701087423 0 0.010330999397761245 -0.00057690983292110179 0 0.010397823592293238 -0.0004660012312098642 0 0.010330999397761245 -0.00057690983292110179 0 0.010397823592293238 -0.0004660012312098642 0 0.010195310070099325 -0.00040525860699938335 0 0.010397823592293238 -0.0004660012312098642 0 0.010195310070099325 -0.00040525860699938335 0 0.010322621235254939 -0.00022150230015848348 0 0.010575393681746557 -0.00027233370482125766 0 0.010571762855746458 -0.00049530343266356751 0 0.010397823592293238 -0.0004660012312098642 0 0.01015323989007889 -0.0006262666133586526 0 0.010052731665539659 -0.00075048926449861031 0 0.0099517447799182951 -0.00033528554148412284 0 0.0097713725485931938 -0.00024713454177587783 0 0.0097638441865541895 -0.00021392926861619693 0 0.010368130867969699 -0.00069274339304090614 0 0.010330999397761245 -0.00057690983292110179 0 0.01015323989007889 -0.0006262666133586526 0 0.010027367937373471 -0.00033750445534720447 0 0.0097638441865541895 -0.00021392926861619693 0 0.010368130867969699 -0.00069274339304090614 0 0.01015323989007889 -0.0006262666133586526 0 0.010095180197033064 -0.00070397206917897275 0 0.010330999397761245 -0.00057690983292110179 0 0.01015323989007889 -0.0006262666133586526 0 0.010195310070099325 -0.00040525860699938335 0 0.01015323989007889 -0.0006262666133586526 0 0.010195310070099325 -0.00040525860699938335 0 0.0099517447799182951 -0.00033528554148412284 0 0.0099517447799182951 -0.00033528554148412284 0 0.010041486710593258 -0.00014708178878525407 0 0.0095692810252678475 0.00019158524094330258 0 0.010195310070099325 -0.00040525860699938335 0 0.0099517447799182951 -0.00033528554148412284 0 0.010041486710593258 -0.00014708178878525407 0 0.010575393681746557 -0.00027233370482125766 0 0.010397823592293238 -0.0004660012312098642 0 0.010322621235254939 -0.00022150230015848348 0 0.010195310070099325 -0.00040525860699938335 0 0.010041486710593258 -0.00014708178878525407 0 0.010322621235254939 -0.00022150230015848348 0 0.010041486710593258 -0.00014708178878525407 0 0.010322621235254939 -0.00022150230015848348 0 0.010163437817396764 2.743262333494739e-05 0 0.010462082411200863 -1.0132922695993987e-05 0 0.010322621235254939 -0.00022150230015848348 0 0.010163437817396764 2.743262333494739e-05 0 0.010462082411200863 -1.0132922695993987e-05 0 0.010575393681746557 -0.00027233370482125766 0 0.010322621235254939 -0.00022150230015848348 0 0.010462082411200863 -1.0132922695993987e-05 0 0.010309275624333982 0.00013207603942851087 0 0.010163437817396764 2.743262333494739e-05 0 0.010466987962964107 0.00023103544894669198 0 0.010309275624333982 0.00013207603942851087 0 0.010140032588412531 0.00031112319910856162 0 0.010466987962964107 0.00023103544894669198 0 0.010462082411200863 -1.0132922695993987e-05 0 0.010309275624333982 0.00013207603942851087 0 0.010309275624333982 0.00013207603942851087 0 0.010163437817396764 2.743262333494739e-05 0 0.010140032588412531 0.00031112319910856162 0 0.010163437817396764 2.743262333494739e-05 0 0.010140032588412531 0.00031112319910856162 0 0.0095692810252678475 0.00019158524094330258 0 0.010041486710593258 -0.00014708178878525407 0 0.010163437817396764 2.743262333494739e-05 0 0.0095692810252678475 0.00019158524094330258 0 0.010140032588412531 0.00031112319910856162 0 0.0095692810252678475 0.00019158524094330258 0 0.0099574302525973924 0.00059940268856267125 0 0.010466987962964107 0.00023103544894669198 0 0.010213080267364118 0.00049430930852250731 0 0.010140032588412531 0.00031112319910856162 0 0.010406372536011586 0.00053777822054367917 0 0.010466987962964107 0.00023103544894669198 0 0.010213080267364118 0.00049430930852250731 0 0.010213080267364118 0.00049430930852250731 0 0.010140032588412531 0.00031112319910856162 0 0.0099574302525973924 0.00059940268856267125 0 0.0099517447799182951 -0.00033528554148412284 0 0.0095692810252678475 0.00019158524094330258 0 0.0088426077128978039 0.00043700299202474298 0 0.0097624223367671053 -0.00024570815190827581 0 0.0091001369186135793 0.00058893785649083506 0 0.0095692810252678475 0.00019158524094330258 0 0.0094008771108972031 0.00077923394340380662 0 0.0088426077128978039 0.00043700299202474298 0 0.0095692810252678475 0.00019158524094330258 0 0.0094008771108972031 0.00077923394340380662 0 0.0096516848247908769 0.0012506865048069434 0 0.0094535109079925128 0.00018574562405297476 0 0.010282551682307073 0.0012248832060970465 0 0.0090355936029376666 0.00089865829959018565 0 0.0094008771108972031 0.00077923394340380662 0 0.0088426077128978039 0.00043700299202474298 0 0.0090355936029376666 0.00089865829959018565 0 0.0094008771108972031 0.00077923394340380662 0 0.0090857494268319853 0.0011910547910971919 0 0.0094008771108972031 0.00077923394340380662 0 0.0094062797520286495 0.0011495065320047634 0 0.0090857494268319853 0.0011910547910971919 0 0.0094062797520286495 0.0011495065320047634 0 0.0090857494268319853 0.0011910547910971919 0 0.0094175411989943173 0.0013530676137362566 0 0.0094008771108972031 0.00077923394340380662 0 0.0094062797520286495 0.0011495065320047634 0 0.0096516848247908769 0.0012506865048069434 0 0.0094062797520286495 0.0011495065320047634 0 0.0096516848247908769 0.0012506865048069434 0 0.0094175411989943173 0.0013530676137362566 0 0.0090355936029376666 0.00089865829959018565 0 0.0090857494268319853 0.0011910547910971919 0 0.0087100491989322258 0.0011317222572723874 0 0.0095692810252678475 0.00019158524094330258 0 0.0099574302525973924 0.00059940268856267125 0 0.0099168307129153931 0.001112655360096079 0 0.010218295161911639 0.00071225998048993395 0 0.0099574302525973924 0.00059940268856267125 0 0.010092349490741432 0.00091349003401595724 0 0.010218295161911639 0.00071225998048993395 0 0.010092349490741432 0.00091349003401595724 0 0.010242909987473266 0.00087696724512169332 0 0.010408120845760788 0.00082068260312945565 0 0.010218295161911639 0.00071225998048993395 0 0.010242909987473266 0.00087696724512169332 0 0.010406372536011586 0.00053777822054367917 0 0.010213080267364118 0.00049430930852250731 0 0.010218295161911639 0.00071225998048993395 0 0.010408120845760788 0.00082068260312945565 0 0.010406372536011586 0.00053777822054367917 0 0.010218295161911639 0.00071225998048993395 0 0.010213080267364118 0.00049430930852250731 0 0.010218295161911639 0.00071225998048993395 0 0.0099574302525973924 0.00059940268856267125 0 0.0099574302525973924 0.00059940268856267125 0 0.0099168307129153931 0.001112655360096079 0 0.010092349490741432 0.00091349003401595724 0 0.0099168307129153931 0.001112655360096079 0 0.010062173540132467 0.0010804836120058476 0 0.010088681801336081 0.0012037671118742114 0 0.0099168307129153931 0.001112655360096079 0 0.010062173540132467 0.0010804836120058476 0 0.010092349490741432 0.00091349003401595724 0 0.010062173540132467 0.0010804836120058476 0 0.010178376054380021 0.0010348119866407401 0 0.010092349490741432 0.00091349003401595724 0 0.010062173540132467 0.0010804836120058476 0 0.010178376054380021 0.0010348119866407401 0 0.010088681801336081 0.0012037671118742114 0 0.010178376054380021 0.0010348119866407401 0 0.010092349490741432 0.00091349003401595724 0 0.010242909987473266 0.00087696724512169332 0 0.010400736422008717 0.0010420251176942381 0 0.010178376054380021 0.0010348119866407401 0 0.010242909987473266 0.00087696724512169332 0 0.010400736422008717 0.0010420251176942381 0 0.010178376054380021 0.0010348119866407401 0 0.010278445268908016 0.0012650428573281443 0 0.010282551682307073 0.0012248832060970465 0 0.005690117687212057 0.0024733311880474327 0 0.0099168307129153931 0.001112655360096079 0 0.010128535065173735 0.0013552971808140583 0 0.010083440774318973 0.0016348414266446243 0 0.0096516848247908769 0.0012506865048069434 0 0.0094337533365335333 0.0020987342955372584 0 0.0099529611514042101 0.0026020654858309087 0 0.0099168307129153931 0.001112655360096079 0 0.010046516856834787 0.001771206643452597 0 0.010083440774318973 0.0016348414266446243 0 0.010178376054380021 0.0010348119866407401 0 0.010088681801336081 0.0012037671118742114 0 0.010278445268908016 0.0012650428573281443 0 0.010088681801336081 0.0012037671118742114 0 0.010128535065173735 0.0013552971808140583 0 0.010278445268908016 0.0012650428573281443 0 0.010344860284248554 0.0014544895467826814 0 0.010128535065173735 0.0013552971808140583 0 0.010278445268908016 0.0012650428573281443 0 0.010344860284248554 0.0014544895467826814 0 0.010128535065173735 0.0013552971808140583 0 0.010083440774318973 0.0016348414266446243 0 0.0099168307129153931 0.001112655360096079 0 0.010088681801336081 0.0012037671118742114 0 0.010128535065173735 0.0013552971808140583 0 0.0096516848247908769 0.0012506865048069434 0 0.0093856336887545438 0.0016450237662846891 0 0.0094337533365335333 0.0020987342955372584 0 0.0094175411989943173 0.0013530676137362566 0 0.0093856336887545438 0.0016450237662846891 0 0.0090020259706205339 0.0018923410784467236 0 0.0096516848247908769 0.0012506865048069434 0 0.0094175411989943173 0.0013530676137362566 0 0.0093856336887545438 0.0016450237662846891 0 0.010177417710654035 0.0011396089728587153 0 0.0059728772897790225 0.0019734098222390591 0 0.0090857494268319853 0.0011910547910971919 0 0.0094175411989943173 0.0013530676137362566 0 0.0085756255826393308 0.0017906015437131175 0 0.0094175411989943173 0.0013530676137362566 0 0.0090020259706205339 0.0018923410784467236 0 0.0080894383732749622 0.001899168316534877 0 0.0090020259706205339 0.0018923410784467236 0 0.0086838339836837492 0.0023543616782145949 0 0.0080894383732749622 0.001899168316534877 0 0.0090020259706205339 0.0018923410784467236 0 0.0094337533365335333 0.0020987342955372584 0 0.0086838339836837492 0.0023543616782145949 0 0.0093856336887545438 0.0016450237662846891 0 0.0090020259706205339 0.0018923410784467236 0 0.0094337533365335333 0.0020987342955372584 0 0.0094337533365335333 0.0020987342955372584 0 0.0086838339836837492 0.0023543616782145949 0 0.0099529611514042101 0.0026020654858309087 0 0.0020456212196934497 0.0028188994139049252 0 0.005690117687212057 0.0024733311880474327 0 0.002035488112413341 0.0035614731654145825 0 0.00063998437326634699 0.0024551412250520756 0 -0.0002948455313208266 0.0030396645143016699 0 -0.0049126017255085993 0.003208009960190166 0 -0.0053913779017616976 0.002845798147139156 0 -0.0046195530008247892 0.0028999779772804547 0 0.0020456212196934497 0.0028188994139049252 0 -0.0025451436042655206 0.0025064932670043213 0 0.00063998437326634699 0.0024551412250520756 0 -0.0002948455313208266 0.0030396645143016699 0 -0.00078007995488279158 0.0013390380798829133 0 0.010021625616419845 0.0016839156838617227 0 0.010046516856834787 0.001771206643452597 0 0.010083440774318973 0.0016348414266446243 0 -0.0038018347096385697 0.0030705233732992933 0 -0.0043425698028588004 0.003332906411196569 0 -0.0042359903827117037 0.0027163202946864878 0 -0.0020925554268335328 0.0025611606818033367 0 -0.00014000200489223952 0.0025980601137735385 0 -0.0038018347096385697 0.0030705233732992933 0 -0.0037594022513294878 0.0025716768371569286 0 -0.0042359903827117037 0.0027163202946864878 0 0.0020456212196934497 0.0028188994139049252 0 -0.00014000200489223952 0.0025980601137735385 0 -0.0049126017255085993 0.003208009960190166 0 -0.0046195530008247892 0.0028999779772804547 0 -0.0043425698028588004 0.003332906411196569 0 -0.0046195530008247892 0.0028999779772804547 0 -0.0043425698028588004 0.003332906411196569 0 -0.0042359903827117037 0.0027163202946864878 0 0.0029824761254744112 0.0027599678611367555 0 0.0021845121483154051 0.0025927131122764923 0 0.0025449970154027852 0.0024168150426179475 0 0.003596163962535006 0.0022280809477511865 0 0.0039027944125613794 0.0020811422746768414 0 0.0033264552586470698 0.0016196488129562596 0 0.0085756255826393308 0.0017906015437131175 0 0.0079022223170812488 0.0012858752301598017 0 0.0087100491989322258 0.0011317222572723874 0 -0.00014000200489223952 0.0025980601137735385 0 0.0059728772897790225 0.0019734098222390591 0 0.0020456212196934497 0.0028188994139049252 0 0.0059728772897790225 0.0019734098222390591 0 0.0090857494268319853 0.0011910547910971919 0 0.0085756255826393308 0.0017906015437131175 0 0.0087100491989322258 0.0011317222572723874 0 0.0059728772897790225 0.0019734098222390591 0 0.0059285718925710757 0.0013636321955732963 0 0.003596163962535006 0.0022280809477511865 0 0.0033264552586470698 0.0016196488129562596 0 0.0028519223852958762 0.0020623702582745051 0 -0.00014000200489223952 0.0025980601137735385 0 0.0024276793648958686 0.0019752033020765261 0 0.00044084833626683044 0.0016544824952470854 0 -7.2020649405803511e-05 0.0019055761352849293 0 0.00052899586701488403 0.0020322997080569113 0 0.0044843737360836574 0.0011706576024699063 0 0.0042655814577408991 0.0011621779184559911 0 0.0043373547034223124 0.0012993846013185568 0 0.0059285718925710757 0.0013636321955732963 0 0.0024276793648958686 0.0019752033020765261 0 0.0059285718925710757 0.0013636321955732963 0 0.0053249666738837643 0.0011075078524578697 0 0.0074469692826499611 0.0020088323845508598 0 0.0075631992014377428 0.00088975263408727797 0 0.0065031277681923067 0.0012553621127549652 0 0.0059285718925710757 0.0013636321955732963 0 0.0091001369186135793 0.00058893785649083506 0 0.0079022223170812488 0.0012858752301598017 0 0.0087100491989322258 0.0011317222572723874 0 0.0088426077128978039 0.00043700299202474298 0 0.0074469692826499611 0.0020088323845508598 0 0.0087102053933788108 0.00083023534167757829 0 0.0075631992014377428 0.00088975263408727797 0 0.0090355936029376666 0.00089865829959018565 0 0.0087100491989322258 0.0011317222572723874 0 0.0088426077128978039 0.00043700299202474298 0 0.0087102053933788108 0.00083023534167757829 0 0.0079715679035605568 0.00035023535630399592 0 0.0075631992014377428 0.00088975263408727797 0 0.0085592281392595521 -0.00037779763621008925 0 0.0087102053933788108 0.00083023534167757829 0 0.0079715679035605568 0.00035023535630399592 0 0.0070516432583166769 5.8118974799456488e-05 0 0.0075631992014377428 0.00088975263408727797 0 0.0065031277681923067 0.0012553621127549652 0 0.0070516432583166769 5.8118974799456488e-05 0 0.0079715679035605568 0.00035023535630399592 0 0.0075631992014377428 0.00088975263408727797 0 0.0075072148821563045 0.00038953717802206207 0 0.0056732494022108636 0.00069624808797255687 0 0.0070516432583166769 5.8118974799456488e-05 0 0.0055579330636346845 0.00050300052583220447 0 0.0065031277681923067 0.0012553621127549652 0 0.0041451666484397347 0.00089337532717363082 0 0.0041593397042127842 0.0010522988231838983 0 0.0043093335590355768 0.0010301959943528455 0 0.0056732494022108636 0.00069624808797255687 0 0.0053249666738837643 0.0011075078524578697 0 0.0055106857969580677 0.00051255970719466773 0 0.0054562494029462309 0.00052803288502926429 0 0.0054333726095049592 0.00045057960343868227 0 0.0041451666484397347 0.00089337532717363082 0 0.0041593397042127842 0.0010522988231838983 0 0.0040114151049284444 0.00093112192506117309 0 0.0056732494022108636 0.00069624808797255687 0 0.0049235409857218363 0.0005446661541407353 0 0.0025445642123330548 0.00094182878115251542 0 0.0049235409857218363 0.0005446661541407353 0 0.0041593397042127842 0.0010522988231838983 0 0.0042655814577408991 0.0011621779184559911 0 0.0040892224644727051 0.0012352122824324753 0 0.0041593397042127842 0.0010522988231838983 0 0.0040892224644727051 0.0012352122824324753 0 0.0040114151049284444 0.00093112192506117309 0 0.0051613626817436035 0.00089369185847176238 0 0.0046475676223966134 0.00019861861974445629 0 0.0048245895781970846 -0.00014635734767724898 0 0.0044843737360836574 0.0011706576024699063 0 0.0043093335590355768 0.0010301959943528455 0 0.0042655814577408991 0.0011621779184559911 0 0.0041593397042127842 0.0010522988231838983 0 0.0043093335590355768 0.0010301959943528455 0 0.0042655814577408991 0.0011621779184559911 0 0.0024276793648958686 0.0019752033020765261 0 0.0025445642123330548 0.00094182878115251542 0 0.00054371451403354885 0.0020150526359327568 0 0.00069677056657419412 0.0018652008823701845 0 0.0011902715778587419 0.0021544269196000364 0 0.0042655814577408991 0.0011621779184559911 0 0.0043373547034223124 0.0012993846013185568 0 0.0040892224644727051 0.0012352122824324753 0 0.0024276793648958686 0.0019752033020765261 0 0.0012624637467865893 0.0023754291591974001 0 0.0025445642123330548 0.00094182878115251542 0 -0.00071376099250014524 0.0011524343238751838 0 -0.00011250736643121753 0.00019506522945574763 0 -7.4216481914441494e-05 -0.00015735989115302736 0 -0.00030349970966480543 -0.00021424921602842644 0 -7.4216481914441494e-05 -0.00015735989115302736 0 -0.00018075852242436353 -0.00022410516177483314 0 -0.00019542256516491064 -0.00024223300903626277 0 -7.4216481914441494e-05 -0.00015735989115302736 0 -0.00030349970966480543 -0.00021424921602842644 0 -0.00019542256516491064 -0.00024223300903626277 0 0.00044084833626683044 0.0016544824952470854 0 0.00069677056657419412 0.0018652008823701845 0 0.00093218203218184772 0.0014194573920334886 0 -0.0038018347096385697 0.0030705233732992933 0 -0.0032098465295581822 0.0027950601167705666 0 -0.0037594022513294878 0.0025716768371569286 0 0.00069677056657419412 0.0018652008823701845 0 0.0011902715778587419 0.0021544269196000364 0 0.00093218203218184772 0.0014194573920334886 0 -0.0020925554268335328 0.0025611606818033367 0 -0.00071376099250014524 0.0011524343238751838 0 0.00044084833626683044 0.0016544824952470854 0 0.00052899586701488403 0.0020322997080569113 0 0.00069677056657419412 0.0018652008823701845 0 0.00085298390266144166 -8.8046140030133359e-07 0 3.1927987405951519e-05 -0.00020490849031077501 0 0.00025962614397027667 -1.4401834320269447e-05 0 0.00085298390266144166 -8.8046140030133359e-07 0 3.1927987405951519e-05 -0.00020490849031077501 0 -0.00073536839176856759 -8.329610714083074e-07 0 -7.4216481914441494e-05 -0.00015735989115302736 0 3.1927987405951519e-05 -0.00020490849031077501 0 -0.00018075852242436353 -0.00022410516177483314 0 -7.4216481914441494e-05 -0.00015735989115302736 0 3.1927987405951519e-05 -0.00020490849031077501 0 0.00025962614397027667 -1.4401834320269447e-05 0 0.0025445642123330548 0.00094182878115251542 0 0.0024530871086140896 0.00041536725083491158 0 -0.00011250736643121753 0.00019506522945574763 0 0.00062813119238085276 0.00024584952850532129 0 0.00025962614397027667 -1.4401834320269447e-05 0 -0.00011250736643121753 0.00019506522945574763 0 -7.4216481914441494e-05 -0.00015735989115302736 0 0.00025962614397027667 -1.4401834320269447e-05 0 0.00085298390266144166 -8.8046140030133359e-07 0 0.00062813119238085276 0.00024584952850532129 0 0.00025962614397027667 -1.4401834320269447e-05 0 0.00085298390266144166 -8.8046140030133359e-07 0 0.00062813119238085276 0.00024584952850532129 0 0.0024359230153545462 1.9044737494322501e-06 0 0.0043298249695771221 0.00075743319542491243 0 0.0024423689445765831 1.9689335013639656e-06 0 0.0040045504306681599 -8.6004980132435647e-05 0 0.0024530871086140896 0.00041536725083491158 0 0.0024393117197615867 2.4984617001987865e-07 0 0.0051613626817436035 0.00089369185847176238 0 0.0043298249695771221 0.00075743319542491243 0 0.0046475676223966134 0.00019861861974445629 0 0.0043298249695771221 0.00075743319542491243 0 0.0046475676223966134 0.00019861861974445629 0 0.0040045504306681599 -8.6004980132435647e-05 0 0.0049235409857218363 0.0005446661541407353 0 0.0057509470591489836 0.00030936080249958171 0 0.0047137901321174687 -0.00011028171739827464 0 0.0047907479116436344 -0.00010743444988187917 0 0.00532424583401153 -4.6013655192972266e-05 0 0.0046475676223966134 0.00019861861974445629 0 0.0047487172302277591 -0.00011843665699595164 0 0.0048245895781970846 -0.00014635734767724898 0 0.0046475676223966134 0.00019861861974445629 0 0.0047487172302277591 -0.00011843665699595164 0 0.0045626431803592847 -8.309601798204087e-05 0 0.0047487172302277591 -0.00011843665699595164 0 0.0047137901321174687 -0.00011028171739827464 0 0.0047907479116436344 -0.00010743444988187917 0 0.0049197899381459862 0.00051478400884229366 0 0.0049235409857218363 0.0005446661541407353 0 0.0047487172302277591 -0.00011843665699595164 0 0.0045626431803592847 -8.309601798204087e-05 0 0.0047907479116436344 -0.00010743444988187917 0 0.0046475676223966134 0.00019861861974445629 0 0.0045626431803592847 -8.309601798204087e-05 0 0.0040045504306681599 -8.6004980132435647e-05 0 0.0045626431803592847 -8.309601798204087e-05 0 0.0040045504306681599 -8.6004980132435647e-05 0 0.0045465393015095236 -8.6346637948637347e-05 0 0.0045626431803592847 -8.309601798204087e-05 0 0.0047907479116436344 -0.00010743444988187917 0 0.0045465393015095236 -8.6346637948637347e-05 0 0.0047907479116436344 -0.00010743444988187917 0 0.0045465393015095236 -8.6346637948637347e-05 0 0.0050395274332786094 -6.9311612220699064e-05 0 0.0024423689445765831 1.9689335013639656e-06 0 0.0040045504306681599 -8.6004980132435647e-05 0 0.0042466951310015108 -8.6076010512019524e-07 0 0.0040045504306681599 -8.6004980132435647e-05 0 0.0045465393015095236 -8.6346637948637347e-05 0 0.0042466951310015108 -8.6076010512019524e-07 0 0.0045465393015095236 -8.6346637948637347e-05 0 0.0042466951310015108 -8.6076010512019524e-07 0 0.0050395274332786094 -6.9311612220699064e-05 0 0.0050395274332786094 -6.9311612220699064e-05 0 0.0053530824920984708 -4.320052032974835e-05 0 0.0059673538914309645 1.3052071397913599e-05 0 0.0042466951310015108 -8.6076010512019524e-07 0 0.0053530824920984708 -4.320052032974835e-05 0 0.0060544539987676862 8.2894539300054722e-08 0 0.0042466951310015108 -8.6076010512019524e-07 0 0.0050395274332786094 -6.9311612220699064e-05 0 0.0053530824920984708 -4.320052032974835e-05 0 0.0053530824920984708 -4.320052032974835e-05 0 0.0060544539987676862 8.2894539300054722e-08 0 0.0059673538914309645 1.3052071397913599e-05 0 0.0060544539987676862 8.2894539300054722e-08 0 0.0059673538914309645 1.3052071397913599e-05 0 0.006880915461082846 -4.4454866289654694e-05 0 0.0065592517194150088 -8.3020249396249422e-05 0 0.0059673538914309645 1.3052071397913599e-05 0 0.006880915461082846 -4.4454866289654694e-05 0 0.0065592517194150088 -8.3020249396249422e-05 0 0.0059673538914309645 1.3052071397913599e-05 0 0.0065185562082934623 0.00018262504864970442 0 0.0047907479116436344 -0.00010743444988187917 0 0.0050395274332786094 -6.9311612220699064e-05 0 0.0059673538914309645 1.3052071397913599e-05 0 0.0059673538914309645 1.3052071397913599e-05 0 0.0062179444484894951 0.00056443640800501321 0 0.0065185562082934623 0.00018262504864970442 0 0.0047907479116436344 -0.00010743444988187917 0 0.0059673538914309645 1.3052071397913599e-05 0 0.00532424583401153 -4.6013655192972266e-05 0 0.0058049843061863809 1.1945435432430508e-05 0 0.0057509470591489836 0.00030936080249958171 0 0.0069216528018086606 0.0010258287801316196 0 0.0062179444484894951 0.00056443640800501321 0 0.0067879552248694503 0.00051475695483917767 0 0.0069216528018086606 0.0010258287801316196 0 0.0067879552248694503 0.00051475695483917767 0 0.0072660108624270211 0.00042108816772542574 0 0.0056732494022108636 0.00069624808797255687 0 0.0057509470591489836 0.00030936080249958171 0 0.0067879552248694503 0.00051475695483917767 0 0.0072660108624270211 0.00042108816772542574 0 0.006920444270040892 0.00011593750529683124 0 0.0062179444484894951 0.00056443640800501321 0 0.0067879552248694503 0.00051475695483917767 0 0.0065185562082934623 0.00018262504864970442 0 0.0067879552248694503 0.00051475695483917767 0 0.0065185562082934623 0.00018262504864970442 0 0.006920444270040892 0.00011593750529683124 0 0.0077228855761703394 0.00073920710485489969 0 0.0069216528018086606 0.0010258287801316196 0 0.0072660108624270211 0.00042108816772542574 0 0.0077694435343285484 0.00021225511476794824 0 0.0077228855761703394 0.00073920710485489969 0 0.0072660108624270211 0.00042108816772542574 0 0.0077694435343285484 0.00021225511476794824 0 0.0072660108624270211 0.00042108816772542574 0 0.0073777338132867522 -2.0784518137052448e-05 0 0.0073777338132867522 -2.0784518137052448e-05 0 0.006920444270040892 0.00011593750529683124 0 0.0072706901130064833 -0.00036462399012402407 0 0.0076674001260906904 -0.00028348988771396044 0 0.0077694435343285484 0.00021225511476794824 0 0.0073777338132867522 -2.0784518137052448e-05 0 0.0072660108624270211 0.00042108816772542574 0 0.0073777338132867522 -2.0784518137052448e-05 0 0.006920444270040892 0.00011593750529683124 0 0.0065592517194150088 -8.3020249396249422e-05 0 0.0065185562082934623 0.00018262504864970442 0 0.006920444270040892 0.00011593750529683124 0 0.006920444270040892 0.00011593750529683124 0 0.0068852330027328974 -0.00054727479887403652 0 0.0072706901130064833 -0.00036462399012402407 0 0.0059549406199187818 -0.00080654070738685733 0 0.0096188025678861904 0.0015006605567372089 0 0.0065592517194150088 -8.3020249396249422e-05 0 0.006920444270040892 0.00011593750529683124 0 0.0065684857105422411 -0.00017295114807140533 0 0.0076674001260906904 -0.00028348988771396044 0 0.0072706901130064833 -0.00036462399012402407 0 0.0076783026029710825 -0.00069080456378428818 0 0.0076674001260906904 -0.00028348988771396044 0 0.0073777338132867522 -2.0784518137052448e-05 0 0.0072706901130064833 -0.00036462399012402407 0 0.0078964678399410584 -0.0011498922856644734 0 0.0076783026029710825 -0.00069080456378428818 0 0.0073672044076068853 -0.00086936395453787794 0 0.0072706901130064833 -0.00036462399012402407 0 0.0076783026029710825 -0.00069080456378428818 0 0.0073672044076068853 -0.00086936395453787794 0 0.015371792918144668 0.0050625745785529488 0 0.014715761028418759 0.0071068594562120179 0 0.01659722725072716 0.0057018796753583135 0 0.0068852330027328974 -0.00054727479887403652 0 0.0072706901130064833 -0.00036462399012402407 0 0.0073672044076068853 -0.00086936395453787794 0 0.0096188025678861904 0.0015006605567372089 0 0.011864328909907644 0.002525306141623801 0 0.008949426114512847 -9.7673611609794797e-06 0 0.0078647601743005811 -7.7562295018902659e-05 0 0.0081970119166671178 -9.2531659522693483e-05 0 0.011582764094805171 0.002551987920721031 0 0.0096188025678861904 0.0015006605567372089 0 0.0081970119166671178 -9.2531659522693483e-05 0 0.007861400045367577 -2.4959980845272048e-07 0 0.006880915461082846 -4.4454866289654694e-05 0 0.0096685578672229596 -1.806846699062995e-07 0 0.0081970119166671178 -9.2531659522693483e-05 0 0.007861400045367577 -2.4959980845272048e-07 0 0.0060544539987676862 8.2894539300054722e-08 0 0.007861400045367577 -2.4959980845272048e-07 0 0.006880915461082846 -4.4454866289654694e-05 0 0.0078647601743005811 -7.7562295018902659e-05 0 0.0081970119166671178 -9.2531659522693483e-05 0 0.006880915461082846 -4.4454866289654694e-05 0 0.0096188025678861904 0.0015006605567372089 0 0.0065680424993111979 -5.7456853076985422e-05 0 0.0065592517194150088 -8.3020249396249422e-05 0 0.0065684857105422411 -0.00017295114807140533 0 0.006880915461082846 -4.4454866289654694e-05 0 0.0088695257090970984 -0.002957897881302705 0 0.0076075436727760341 -0.0029042520575761747 0 0.0082143787075387928 -0.0036389565909857651 0 0.0088695257090970984 -0.002957897881302705 0 0.0076075436727760341 -0.0029042520575761747 0 0.0082891551666162393 -0.0020900051028269031 0 0.0076075436727760341 -0.0029042520575761747 0 0.0082891551666162393 -0.0020900051028269031 0 0.0072924252138699235 -0.0019819630252041124 0 0.0082891551666162393 -0.0020900051028269031 0 0.0072924252138699235 -0.0019819630252041124 0 0.0083994953468456666 -0.00098897119909113155 0 0.0088695257090970984 -0.002957897881302705 0 0.0082891551666162393 -0.0020900051028269031 0 0.0094478722557850697 -0.0018616017413650482 0 0.0082891551666162393 -0.0020900051028269031 0 0.0094478722557850697 -0.0018616017413650482 0 0.0083994953468456666 -0.00098897119909113155 0 0.0094478722557850697 -0.0018616017413650482 0 0.010763355169838663 -0.0016382552587298552 0 0.01094330163895651 -0.0029171640445481047 0 0.0088695257090970984 -0.002957897881302705 0 0.0094478722557850697 -0.0018616017413650482 0 0.01094330163895651 -0.0029171640445481047 0 0.010763355169838663 -0.0016382552587298552 0 0.012070852439755064 -0.0018459334189859407 0 0.01094330163895651 -0.0029171640445481047 0 0.012070852439755064 -0.0018459334189859407 0 0.01094330163895651 -0.0029171640445481047 0 0.012882354297553411 -0.0031086387260248942 0 0.01094330163895651 -0.0029171640445481047 0 0.011916713158209998 -0.0045430047106200713 0 0.012882354297553411 -0.0031086387260248942 0 0.0088695257090970984 -0.002957897881302705 0 0.01094330163895651 -0.0029171640445481047 0 0.010191883615329685 -0.0046063229974051614 0 0.0088499741463381187 -0.0030469318534208697 0 0.0093291356639919974 -0.0040587249452441474 0 0.010191883615329685 -0.0046063229974051614 0 0.011916713158209998 -0.0045430047106200713 0 0.011258132871406135 -0.005932772474575564 0 0.01094330163895651 -0.0029171640445481047 0 0.010191883615329685 -0.0046063229974051614 0 0.011916713158209998 -0.0045430047106200713 0 0.011916713158209998 -0.0045430047106200713 0 0.011258132871406135 -0.005932772474575564 0 0.012539900921778764 -0.0055997130218228492 0 0.011258132871406135 -0.005932772474575564 0 0.012539900921778764 -0.0055997130218228492 0 0.012213331165567965 -0.0072816014559226577 0 0.0085415195583116877 -0.0036851284290911504 0 0.0084513530013422405 -0.0043337149717773043 0 0.0082777816935519343 -0.0040760176433759475 0 0.0084513530013422405 -0.0043337149717773043 0 0.0082777816935519343 -0.0040760176433759475 0 0.0081701513913433176 -0.0045361349585490178 0 0.0093291356639919974 -0.0040587249452441474 0 0.009895897348190047 -0.0052216473248512122 0 0.0082777816935519343 -0.0040760176433759475 0 0.0079380936185368105 -0.004172145762740242 0 0.0081701513913433176 -0.0045361349585490178 0 0.0082777816935519343 -0.0040760176433759475 0 0.0079380936185368105 -0.004172145762740242 0 0.0082143787075387928 -0.0036389565909857651 0 0.0085415195583116877 -0.0036851284290911504 0 0.0082777816935519343 -0.0040760176433759475 0 0.0082143787075387928 -0.0036389565909857651 0 0.0088695257090970984 -0.002957897881302705 0 0.0085415195583116877 -0.0036851284290911504 0 0.0082143787075387928 -0.0036389565909857651 0 0.0079380936185368105 -0.004172145762740242 0 0.0082143787075387928 -0.0036389565909857651 0 0.007513695104997835 -0.0036240192028181321 0 0.0076075436727760341 -0.0029042520575761747 0 0.0082143787075387928 -0.0036389565909857651 0 0.007513695104997835 -0.0036240192028181321 0 0.0079380936185368105 -0.004172145762740242 0 0.007513695104997835 -0.0036240192028181321 0 0.0071279934092031072 -0.0041838799621959988 0 0.0071279934092031072 -0.0041838799621959988 0 0.0065800566819634431 -0.0033192817088210269 0 0.0061983224570419642 -0.0043433249512173783 0 0.007513695104997835 -0.0036240192028181321 0 0.0071279934092031072 -0.0041838799621959988 0 0.0065800566819634431 -0.0033192817088210269 0 0.0065800566819634431 -0.0033192817088210269 0 0.0055328059956717265 -0.0034212772425475102 0 0.0061983224570419642 -0.0043433249512173783 0 0.0065800566819634431 -0.0033192817088210269 0 0.0055328059956717265 -0.0034212772425475102 0 0.0056321043822008072 -0.0025029398858673183 0 0.0076075436727760341 -0.0029042520575761747 0 0.007513695104997835 -0.0036240192028181321 0 0.0065800566819634431 -0.0033192817088210269 0 0.0055328059956717265 -0.0034212772425475102 0 0.0053235950156441661 -0.0042136593449619859 0 0.0061983224570419642 -0.0043433249512173783 0 0.0045865105933768219 -0.0036580741782490656 0 0.0055328059956717265 -0.0034212772425475102 0 0.0053235950156441661 -0.0042136593449619859 0 0.0055328059956717265 -0.0034212772425475102 0 0.0045347075191619719 -0.0026322546346178328 0 0.0056321043822008072 -0.0025029398858673183 0 0.0045865105933768219 -0.0036580741782490656 0 0.0055328059956717265 -0.0034212772425475102 0 0.0045347075191619719 -0.0026322546346178328 0 0.004113976190981139 -0.0016979272460649639 0 0.0045347075191619719 -0.0026322546346178328 0 0.0050046020976933841 -0.0017353727032586583 0 0.0045347075191619719 -0.0026322546346178328 0 0.0056321043822008072 -0.0025029398858673183 0 0.0050046020976933841 -0.0017353727032586583 0 0.0057750583514572847 -0.0017208262721388862 0 0.0050046020976933841 -0.0017353727032586583 0 0.0055599889546579066 -0.00119329069295596 0 0.0057750583514572847 -0.0017208262721388862 0 0.0063676011096143216 -0.0011943016972290699 0 0.0055599889546579066 -0.00119329069295596 0 0.0056321043822008072 -0.0025029398858673183 0 0.0057750583514572847 -0.0017208262721388862 0 0.0050046020976933841 -0.0017353727032586583 0 0.004113976190981139 -0.0016979272460649639 0 0.0050046020976933841 -0.0017353727032586583 0 0.0050285249103048171 -0.00092717760274693218 0 0.01184252756955991 -0.0025776459231625589 0 0.01307595484170568 -0.0017990147050163433 0 0.0076075436727760341 -0.0029042520575761747 0 0.0065576381066224793 -0.0022788586392210363 0 0.0072924252138699235 -0.0019819630252041124 0 0.0076075436727760341 -0.0029042520575761747 0 0.0065800566819634431 -0.0033192817088210269 0 0.0065576381066224793 -0.0022788586392210363 0 0.0056321043822008072 -0.0025029398858673183 0 0.0057750583514572847 -0.0017208262721388862 0 0.0065576381066224793 -0.0022788586392210363 0 0.0065800566819634431 -0.0033192817088210269 0 0.0056321043822008072 -0.0025029398858673183 0 0.0065576381066224793 -0.0022788586392210363 0 0.0057750583514572847 -0.0017208262721388862 0 0.0065576381066224793 -0.0022788586392210363 0 0.0063676011096143216 -0.0011943016972290699 0 0.0065576381066224793 -0.0022788586392210363 0 0.0072924252138699235 -0.0019819630252041124 0 0.0063676011096143216 -0.0011943016972290699 0 0.0072967696692254787 -0.0018736571199080801 0 0.0072831929437797505 -0.0005976828800941487 0 0.0072924252138699235 -0.0019819630252041124 0 0.0072701968034256164 -0.00060173025580165088 0 0.0063676011096143216 -0.0011943016972290699 0 0.0063676011096143216 -0.0011943016972290699 0 0.0065752203736072004 -0.00019525386081996148 0 0.0057487989794067253 -0.00058249178530018521 0 0.0072701968034256164 -0.00060173025580165088 0 0.0063676011096143216 -0.0011943016972290699 0 0.0065752203736072004 -0.00019525386081996148 0 0.0065752203736072004 -0.00019525386081996148 0 0.0057487989794067253 -0.00058249178530018521 0 0.0059788433218298702 3.5780680139511642e-06 0 0.0065752203736072004 -0.00019525386081996148 0 0.0059788433218298702 3.5780680139511642e-06 0 0.006571225844130872 0.00052103288852516549 0 0.0072701968034256164 -0.00060173025580165088 0 0.0065752203736072004 -0.00019525386081996148 0 0.0072176304741664171 0.00063855131653140114 0 0.0072831929437797505 -0.0005976828800941487 0 0.0068675854766559359 0.0010685910548096362 0 0.00723999901652333 -0.0004908319144087789 0 0.0071225817125525719 0.0012196475016001749 0 0.007955999971825169 0.00041843286159801 0 0.0050046020976933841 -0.0017353727032586583 0 0.0050285249103048171 -0.00092717760274693218 0 0.0055599889546579066 -0.00119329069295596 0 0.0063676011096143216 -0.0011943016972290699 0 0.0055599889546579066 -0.00119329069295596 0 0.0057487989794067253 -0.00058249178530018521 0 0.0050285249103048171 -0.00092717760274693218 0 0.0055599889546579066 -0.00119329069295596 0 0.0057487989794067253 -0.00058249178530018521 0 0.01307595484170568 -0.0017990147050163433 0 0.0096962864616224817 -0.00018918459544195633 0 0.0050285249103048171 -0.00092717760274693218 0 0.0057487989794067253 -0.00058249178530018521 0 0.005967693106533143 -2.8398343036133887e-05 0 0.020148274572404191 -0.0026323704927055107 0 0.020022809361668375 -0.0023533819383238395 0 0.02007603284500064 -0.0024065369371485431 0 0.020022809361668375 -0.0023533819383238395 0 0.02007603284500064 -0.0024065369371485431 0 0.020072335544224777 -0.0023824113871463112 0 0.006622624837058293 -0.00096905347730537209 0 0.0096962864616224817 -0.00018918459544195633 0 0.019945918058714176 -0.0022897757464705412 0 0.020148274572404191 -0.0026323704927055107 0 0.02007603284500064 -0.0024065369371485431 0 0.019945918058714176 -0.0022897757464705412 0 0.02007603284500064 -0.0024065369371485431 0 0.020072335544224777 -0.0023824113871463112 0 0.019656017991018616 -0.0023328151537733593 0 0.021234220631715473 -0.0020748389092164463 0 0.019997377636715014 -0.0016565994378113114 0 0.020762319184452774 -0.0016347039912379736 0 0.020266745037202841 -0.0012616032072082491 0 0.019945918058714176 -0.0022897757464705412 0 0.019997377636715014 -0.0016565994378113114 0 0.020762319184452774 -0.0016347039912379736 0 0.020022809361668375 -0.0023533819383238395 0 0.020072335544224777 -0.0023824113871463112 0 0.019934041626062382 -0.0023909778760282025 0 0.020762319184452774 -0.0016347039912379736 0 0.020768878100861411 -0.001133417100957986 0 0.021244765621368195 -0.0012190087238443611 0 0.021234220631715473 -0.0020748389092164463 0 0.016085487567138554 -0.00021541494333448909 0 0.020762319184452774 -0.0016347039912379736 0 0.020768878100861411 -0.001133417100957986 0 0.020266745037202841 -0.0012616032072082491 0 0.0072176304741664171 0.00063855131653140114 0 0.006571225844130872 0.00052103288852516549 0 0.0067981782795947746 0.0010039422200056182 0 0.0071225817125525719 0.0012196475016001749 0 0.007790128600213421 0.002248082986560135 0 0.0079604627275955582 0.0014282334488187941 0 0.0065752203736072004 -0.00019525386081996148 0 0.0072176304741664171 0.00063855131653140114 0 0.006571225844130872 0.00052103288852516549 0 0.020072335544224777 -0.0023824113871463112 0 0.019934041626062382 -0.0023909778760282025 0 0.019866680622398707 -0.0024741194558668073 0 0.0096962864616224817 -0.00018918459544195633 0 0.0062844963225249587 -0.00024273674189964815 0 0.0062712266815367996 0.00017167312113823877 0 0.006571225844130872 0.00052103288852516549 0 0.0063931585965873077 0.00070065530288507716 0 0.0096962864616224817 -0.00018918459544195633 0 0.01309273126108391 -0.00096813154275107445 0 0.006571225844130872 0.00052103288852516549 0 0.0063931585965873077 0.00070065530288507716 0 0.0067981782795947746 0.0010039422200056182 0 0.0063931585965873077 0.00070065530288507716 0 0.0067981782795947746 0.0010039422200056182 0 0.0066474434452871416 0.0013998017311289276 0 0.0071689610577104143 0.0017621881164231843 0 0.0067981782795947746 0.0010039422200056182 0 0.0066474434452871416 0.0013998017311289276 0 0.01309273126108391 -0.00096813154275107445 0 0.016085487567138554 -0.00021541494333448909 0 0.0099677112457834168 0.0019125778100012284 0 0.016085487567138554 -0.00021541494333448909 0 0.0099677112457834168 0.0019125778100012284 0 0.0068675854766559359 0.0010685910548096362 0 0.0071689610577104143 0.0017621881164231843 0 0.0072176304741664171 0.00063855131653140114 0 0.0067981782795947746 0.0010039422200056182 0 0.0069865467659786457 0.0030309881449453917 0 0.0071225817125525719 0.0012196475016001749 0 0.007790128600213421 0.002248082986560135 0 0.0077950055625129085 0.002967941242555784 0 0.0069865467659786457 0.0030309881449453917 0 0.007790128600213421 0.002248082986560135 0 0.0085126881762617092 0.0029012429776353386 0 0.0086057625589462221 0.0021513502017260753 0 0.007790128600213421 0.002248082986560135 0 0.0077950055625129085 0.002967941242555784 0 0.0085126881762617092 0.0029012429776353386 0 0.007790128600213421 0.002248082986560135 0 0.0085126881762617092 0.0029012429776353386 0 0.0086057625589462221 0.0021513502017260753 0 0.0091629041886927987 0.0029163473845342709 0 0.0086057625589462221 0.0021513502017260753 0 0.007790128600213421 0.002248082986560135 0 0.0079604627275955582 0.0014282334488187941 0 0.0091629041886927987 0.0029163473845342709 0 0.0094659258995023199 0.0021699253204275383 0 0.010248684029085346 0.0028517658517875515 0 0.0086057625589462221 0.0021513502017260753 0 0.0091629041886927987 0.0029163473845342709 0 0.0094659258995023199 0.0021699253204275383 0 0.0086057625589462221 0.0021513502017260753 0 0.0094659258995023199 0.0021699253204275383 0 0.008775283293547452 0.0012654464588607278 0 0.0094659258995023199 0.0021699253204275383 0 0.0098196682205958855 0.001190999780936088 0 0.01047743681491385 0.002107596554947821 0 0.0094659258995023199 0.0021699253204275383 0 0.0098196682205958855 0.001190999780936088 0 0.008775283293547452 0.0012654464588607278 0 0.0098196682205958855 0.001190999780936088 0 0.008775283293547452 0.0012654464588607278 0 0.0092163501191839855 0.00023011522378896466 0 0.0086057625589462221 0.0021513502017260753 0 0.0079604627275955582 0.0014282334488187941 0 0.008775283293547452 0.0012654464588607278 0 0.0071225817125525719 0.0012196475016001749 0 0.0079604627275955582 0.0014282334488187941 0 0.007955999971825169 0.00041843286159801 0 0.0079604627275955582 0.0014282334488187941 0 0.008775283293547452 0.0012654464588607278 0 0.007955999971825169 0.00041843286159801 0 0.008775283293547452 0.0012654464588607278 0 0.007955999971825169 0.00041843286159801 0 0.0092163501191839855 0.00023011522378896466 0 0.00723999901652333 -0.0004908319144087789 0 0.007955999971825169 0.00041843286159801 0 0.0083994953468456666 -0.00098897119909113155 0 0.007955999971825169 0.00041843286159801 0 0.0092163501191839855 0.00023011522378896466 0 0.0083994953468456666 -0.00098897119909113155 0 0.0092163501191839855 0.00023011522378896466 0 0.0098755339030612444 -0.00078559875234660102 0 0.010406938198835447 0.00029392129323728395 0 0.0098196682205958855 0.001190999780936088 0 0.0092163501191839855 0.00023011522378896466 0 0.010406938198835447 0.00029392129323728395 0 0.0092163501191839855 0.00023011522378896466 0 0.0083994953468456666 -0.00098897119909113155 0 0.0098755339030612444 -0.00078559875234660102 0 0.0094478722557850697 -0.0018616017413650482 0 0.0083994953468456666 -0.00098897119909113155 0 0.0098755339030612444 -0.00078559875234660102 0 0.0072924252138699235 -0.0019819630252041124 0 0.00723999901652333 -0.0004908319144087789 0 0.0083994953468456666 -0.00098897119909113155 0 0.010763355169838663 -0.0016382552587298552 0 0.012070852439755064 -0.0018459334189859407 0 0.011245496408323776 -0.0007078691019192948 0 0.012070852439755064 -0.0018459334189859407 0 0.011245496408323776 -0.0007078691019192948 0 0.012631283581194572 -0.00065510569366667207 0 0.0094478722557850697 -0.0018616017413650482 0 0.010763355169838663 -0.0016382552587298552 0 0.0098755339030612444 -0.00078559875234660102 0 0.010763355169838663 -0.0016382552587298552 0 0.011245496408323776 -0.0007078691019192948 0 0.0098755339030612444 -0.00078559875234660102 0 0.011245496408323776 -0.0007078691019192948 0 0.0098755339030612444 -0.00078559875234660102 0 0.010406938198835447 0.00029392129323728395 0 0.011245496408323776 -0.0007078691019192948 0 0.010406938198835447 0.00029392129323728395 0 0.011616994495958211 0.0003565086793600153 0 0.010406938198835447 0.00029392129323728395 0 0.011616994495958211 0.0003565086793600153 0 0.010859909149610124 0.0012015479696463281 0 0.011245496408323776 -0.0007078691019192948 0 0.011616994495958211 0.0003565086793600153 0 0.012631283581194572 -0.00065510569366667207 0 0.011616994495958211 0.0003565086793600153 0 0.012631283581194572 -0.00065510569366667207 0 0.012673235238488838 0.00043686586602518921 0 0.012130135474295574 0.0013664771691944673 0 0.010859909149610124 0.0012015479696463281 0 0.011336990254771475 0.0018875823763012253 0 0.011616994495958211 0.0003565086793600153 0 0.012130135474295574 0.0013664771691944673 0 0.012673235238488838 0.00043686586602518921 0 0.011616994495958211 0.0003565086793600153 0 0.012130135474295574 0.0013664771691944673 0 0.010859909149610124 0.0012015479696463281 0 0.0098196682205958855 0.001190999780936088 0 0.010406938198835447 0.00029392129323728395 0 0.010859909149610124 0.0012015479696463281 0 0.010859909149610124 0.0012015479696463281 0 0.01047743681491385 0.002107596554947821 0 0.011336990254771475 0.0018875823763012253 0 0.0098196682205958855 0.001190999780936088 0 0.010859909149610124 0.0012015479696463281 0 0.01047743681491385 0.002107596554947821 0 0.01047743681491385 0.002107596554947821 0 0.011204264860776803 0.0025015730411421986 0 0.011336990254771475 0.0018875823763012253 0 0.011251049469130633 0.0032741945497085393 0 0.011204264860776803 0.0025015730411421986 0 0.010248684029085346 0.0028517658517875515 0 0.0094659258995023199 0.0021699253204275383 0 0.01047743681491385 0.002107596554947821 0 0.010248684029085346 0.0028517658517875515 0 0.01047743681491385 0.002107596554947821 0 0.011204264860776803 0.0025015730411421986 0 0.010248684029085346 0.0028517658517875515 0 0.012130135474295574 0.0013664771691944673 0 0.012043495877004894 0.0022493575556768097 0 0.013119942744621025 0.002169332774203244 0 0.011204264860776803 0.0025015730411421986 0 0.012043495877004894 0.0022493575556768097 0 0.011336990254771475 0.0018875823763012253 0 0.012130135474295574 0.0013664771691944673 0 0.012043495877004894 0.0022493575556768097 0 0.011336990254771475 0.0018875823763012253 0 0.011204264860776803 0.0025015730411421986 0 0.012043495877004894 0.0022493575556768097 0 0.011879094348574449 0.0029174313579267042 0 0.011251049469130633 0.0032741945497085393 0 0.011204264860776803 0.0025015730411421986 0 0.011879094348574449 0.0029174313579267042 0 0.012043495877004894 0.0022493575556768097 0 0.011879094348574449 0.0029174313579267042 0 0.012566993135695806 0.002810790372100541 0 0.012566993135695806 0.002810790372100541 0 0.01319808409218878 0.0029138651425718882 0 0.013119942744621025 0.002169332774203244 0 0.012043495877004894 0.0022493575556768097 0 0.012566993135695806 0.002810790372100541 0 0.013119942744621025 0.002169332774203244 0 0.013119942744621025 0.002169332774203244 0 0.013466676104524121 0.0011525299952190099 0 0.01461095644300792 0.0018665999675743087 0 0.014170203345863167 0.0029630946841294743 0 0.01319808409218878 0.0029138651425718882 0 0.013119942744621025 0.002169332774203244 0 0.012130135474295574 0.0013664771691944673 0 0.013466676104524121 0.0011525299952190099 0 0.012673235238488838 0.00043686586602518921 0 0.012130135474295574 0.0013664771691944673 0 0.013119942744621025 0.002169332774203244 0 0.013466676104524121 0.0011525299952190099 0 0.013466676104524121 0.0011525299952190099 0 0.012673235238488838 0.00043686586602518921 0 0.013528355691835232 -3.1233271394542736e-06 0 0.014634756197949319 0.00061714507288805653 0 0.01461095644300792 0.0018665999675743087 0 0.015765613970875041 0.00099681266088445558 0 0.013466676104524121 0.0011525299952190099 0 0.014634756197949319 0.00061714507288805653 0 0.01461095644300792 0.0018665999675743087 0 0.013466676104524121 0.0011525299952190099 0 0.014634756197949319 0.00061714507288805653 0 0.013528355691835232 -3.1233271394542736e-06 0 0.015238512299954567 0.0031053771992417328 0 0.014170203345863167 0.0029630946841294743 0 0.01461095644300792 0.0018665999675743087 0 0.015238512299954567 0.0031053771992417328 0 0.01461095644300792 0.0018665999675743087 0 0.015778516509858696 0.0020738644384057279 0 0.014170203345863167 0.0029630946841294743 0 0.013119942744621025 0.002169332774203244 0 0.01461095644300792 0.0018665999675743087 0 0.015238512299954567 0.0031053771992417328 0 0.016549055466375338 0.0027396715248387696 0 0.015778516509858696 0.0020738644384057279 0 0.016549055466375338 0.0027396715248387696 0 0.015778516509858696 0.0020738644384057279 0 0.01685494383835193 0.0018093346703307069 0 0.015778516509858696 0.0020738644384057279 0 0.01685494383835193 0.0018093346703307069 0 0.015765613970875041 0.00099681266088445558 0 0.01461095644300792 0.0018665999675743087 0 0.015778516509858696 0.0020738644384057279 0 0.015765613970875041 0.00099681266088445558 0 0.017902592589700551 0.0025475963465799614 0 0.01685494383835193 0.0018093346703307069 0 0.018236867561065413 0.0017364118579410611 0 0.016549055466375338 0.0027396715248387696 0 0.017902592589700551 0.0025475963465799614 0 0.01685494383835193 0.0018093346703307069 0 0.01685494383835193 0.0018093346703307069 0 0.016911734876509453 0.00074482974244499103 0 0.018236867561065413 0.0017364118579410611 0 0.01685494383835193 0.0018093346703307069 0 0.016911734876509453 0.00074482974244499103 0 0.015765613970875041 0.00099681266088445558 0 0.016911734876509453 0.00074482974244499103 0 0.015765613970875041 0.00099681266088445558 0 0.015698871487092116 -0.0003793685883011258 0 0.014634756197949319 0.00061714507288805653 0 0.015765613970875041 0.00099681266088445558 0 0.015698871487092116 -0.0003793685883011258 0 0.016911734876509453 0.00074482974244499103 0 0.017034572023453577 -0.00043803799057216131 0 0.018841657319764619 0.00076166305591122594 0 0.016911734876509453 0.00074482974244499103 0 0.015698871487092116 -0.0003793685883011258 0 0.017034572023453577 -0.00043803799057216131 0 0.016053430265065043 -0.0018862209286956881 0 0.017248236046966538 -0.0013633157786760428 0 0.015698871487092116 -0.0003793685883011258 0 0.017034572023453577 -0.00043803799057216131 0 0.015936752534076209 -0.0018840100851552515 0 0.017034572023453577 -0.00043803799057216131 0 0.015936752534076209 -0.0018840100851552515 0 0.01842685561468246 -0.00091131728685995563 0 0.015936752534076209 -0.0018840100851552515 0 0.01614118081337533 -0.001889788218852889 0 0.01619386243438976 -0.0020622436548195784 0 0.015698871487092116 -0.0003793685883011258 0 0.015936752534076209 -0.0018840100851552515 0 0.014338331102015699 -0.0011430534487360236 0 0.012070852439755064 -0.0018459334189859407 0 0.012631283581194572 -0.00065510569366667207 0 0.01356467425062245 -0.0021192634795800078 0 0.014338331102015699 -0.0011430534487360236 0 0.012631283581194572 -0.00065510569366667207 0 0.01356467425062245 -0.0021192634795800078 0 0.014338331102015699 -0.0011430534487360236 0 0.012631283581194572 -0.00065510569366667207 0 0.013528355691835232 -3.1233271394542736e-06 0 0.012631283581194572 -0.00065510569366667207 0 0.012673235238488838 0.00043686586602518921 0 0.013528355691835232 -3.1233271394542736e-06 0 0.014634756197949319 0.00061714507288805653 0 0.015698871487092116 -0.0003793685883011258 0 0.014338331102015699 -0.0011430534487360236 0 0.014634756197949319 0.00061714507288805653 0 0.014338331102015699 -0.0011430534487360236 0 0.013528355691835232 -3.1233271394542736e-06 0 0.018421560138133113 -0.00054691937092150812 0 0.017610714281754831 -0.0010930579224290218 0 0.01692401391147445 0.00018702802554379782 0 0.017610714281754831 -0.0010930579224290218 0 0.01692401391147445 0.00018702802554379782 0 0.016872950231962034 -0.0011928309447794246 0 0.018421560138133113 -0.00054691937092150812 0 0.017610714281754831 -0.0010930579224290218 0 0.017823690057490786 -0.0019738236496690464 0 0.01692401391147445 0.00018702802554379782 0 0.016314141824577438 -0.0012903922808679827 0 0.016872950231962034 -0.0011928309447794246 0 0.022112762278814067 0.0016524777698600193 0 0.022285791697681551 0.0026130324033418156 0 0.021416153148838265 0.0024895195602453214 0 0.02093906003911758 0.0034849551619029299 0 0.021416153148838265 0.0024895195602453214 0 0.019869007727646177 0.0020672944620058246 0 0.022112762278814067 0.0016524777698600193 0 0.021416153148838265 0.0024895195602453214 0 0.020736620666960519 0.0014843095276232427 0 0.021416153148838265 0.0024895195602453214 0 0.020736620666960519 0.0014843095276232427 0 0.019869007727646177 0.0020672944620058246 0 0.01692401391147445 0.00018702802554379782 0 0.015723978184822702 -0.0015553047568208137 0 0.016314141824577438 -0.0012903922808679827 0 0.022112762278814067 0.0016524777698600193 0 0.020736620666960519 0.0014843095276232427 0 0.020471838464799171 0.00031696774056287337 0 0.019542996619161319 0.00090499081822826449 0 0.018134885223154401 -0.00056699529469426762 0 0.020736620666960519 0.0014843095276232427 0 0.019869007727646177 0.0020672944620058246 0 0.018841657319764619 0.00076166305591122594 0 0.020736620666960519 0.0014843095276232427 0 0.018841657319764619 0.00076166305591122594 0 0.020471838464799171 0.00031696774056287337 0 0.019417639721113687 0.0033719864521737494 0 0.019869007727646177 0.0020672944620058246 0 0.018965272372557875 0.0024854088462780261 0 0.019869007727646177 0.0020672944620058246 0 0.018965272372557875 0.0024854088462780261 0 0.018236867561065413 0.0017364118579410611 0 0.017902592589700551 0.0025475963465799614 0 0.018965272372557875 0.0024854088462780261 0 0.018236867561065413 0.0017364118579410611 0 0.016911734876509453 0.00074482974244499103 0 0.018236867561065413 0.0017364118579410611 0 0.018841657319764619 0.00076166305591122594 0 0.019869007727646177 0.0020672944620058246 0 0.018236867561065413 0.0017364118579410611 0 0.018841657319764619 0.00076166305591122594 0 0.017034572023453577 -0.00043803799057216131 0 0.018841657319764619 0.00076166305591122594 0 0.01842685561468246 -0.00091131728685995563 0 0.01614118081337533 -0.001889788218852889 0 0.016187334783212017 -0.0019207305375364594 0 0.01619386243438976 -0.0020622436548195784 0 0.01577221920810332 -0.0018293104403198559 0 0.015395971186060115 -0.0019296117701191782 0 0.01614118081337533 -0.001889788218852889 0 0.015976569321269365 -0.0018231262720461512 0 0.016187334783212017 -0.0019207305375364594 0 0.015976569321269365 -0.0018231262720461512 0 0.015854646030097574 -0.0018226801455914162 0 0.016187334783212017 -0.0019207305375364594 0 0.017248236046966538 -0.0013633157786760428 0 0.018134885223154401 -0.00056699529469426762 0 0.018841657319764619 0.00076166305591122594 0 0.01842685561468246 -0.00091131728685995563 0 0.020471838464799171 0.00031696774056287337 0 0.01614118081337533 -0.001889788218852889 0 0.015976569321269365 -0.0018231262720461512 0 0.015723978184822702 -0.0015553047568208137 0 0.015976569321269365 -0.0018231262720461512 0 0.015723978184822702 -0.0015553047568208137 0 0.015854646030097574 -0.0018226801455914162 0 0.015723978184822702 -0.0015553047568208137 0 0.016314141824577438 -0.0012903922808679827 0 0.015854646030097574 -0.0018226801455914162 0 0.016314141824577438 -0.0012903922808679827 0 0.015854646030097574 -0.0018226801455914162 0 0.016517119741252775 -0.0017062779645800339 0 0.015854646030097574 -0.0018226801455914162 0 0.01540658408638945 -0.0020563126430734953 0 0.014638650546841915 -0.0018243359805471542 0 0.015854646030097574 -0.0018226801455914162 0 0.01540658408638945 -0.0020563126430734953 0 0.016517119741252775 -0.0017062779645800339 0 0.015136473349532668 -0.0023828594791666527 0 0.017135259252083705 -0.001455599541593104 0 0.01540658408638945 -0.0020563126430734953 0 0.015006712704110714 -0.0022081463207099241 0 0.014907493091111145 -0.002503394546595684 0 0.01540658408638945 -0.0020563126430734953 0 0.015104676846973801 -0.0020702273821999739 0 0.015006712704110714 -0.0022081463207099241 0 0.014870803102083684 -0.0021642977841418495 0 0.015104676846973801 -0.0020702273821999739 0 0.015006712704110714 -0.0022081463207099241 0 0.01540658408638945 -0.0020563126430734953 0 0.016517119741252775 -0.0017062779645800339 0 0.017508878276577242 -0.0018385060846111423 0 0.016314141824577438 -0.0012903922808679827 0 0.016517119741252775 -0.0017062779645800339 0 0.016872950231962034 -0.0011928309447794246 0 0.016517119741252775 -0.0017062779645800339 0 0.016872950231962034 -0.0011928309447794246 0 0.017147550891505194 -0.0016955861051990569 0 0.016517119741252775 -0.0017062779645800339 0 0.017508878276577242 -0.0018385060846111423 0 0.017147550891505194 -0.0016955861051990569 0 0.017610714281754831 -0.0010930579224290218 0 0.016872950231962034 -0.0011928309447794246 0 0.017147550891505194 -0.0016955861051990569 0 0.017610714281754831 -0.0010930579224290218 0 0.017823690057490786 -0.0019738236496690464 0 0.017147550891505194 -0.0016955861051990569 0 0.017135259252083705 -0.001455599541593104 0 0.0172817632929399 -0.0015451495363311006 0 0.014782507605793214 -0.0021802809576651678 0 0.014851858564983401 -0.002144932824939323 0 0.014882149515086511 -0.0021027382003929356 0 0.014851858564983401 -0.002144932824939323 0 0.014983927410999048 -0.0020788980223974819 0 0.014882149515086511 -0.0021027382003929356 0 0.014870803102083684 -0.0021642977841418495 0 0.014851858564983401 -0.002144932824939323 0 0.014983927410999048 -0.0020788980223974819 0 0.014870803102083684 -0.0021642977841418495 0 0.015104676846973801 -0.0020702273821999739 0 0.014983927410999048 -0.0020788980223974819 0 0.01540658408638945 -0.0020563126430734953 0 0.015014931364364669 -0.002001595883899354 0 0.014638650546841915 -0.0018243359805471542 0 0.014983927410999048 -0.0020788980223974819 0 0.015014931364364669 -0.002001595883899354 0 0.014882149515086511 -0.0021027382003929356 0 0.01540658408638945 -0.0020563126430734953 0 0.015104676846973801 -0.0020702273821999739 0 0.015014931364364669 -0.002001595883899354 0 0.015104676846973801 -0.0020702273821999739 0 0.014983927410999048 -0.0020788980223974819 0 0.015014931364364669 -0.002001595883899354 0 0.015014931364364669 -0.002001595883899354 0 0.014882149515086511 -0.0021027382003929356 0 0.014643943683668203 -0.0019583175740814788 0 0.014882149515086511 -0.0021027382003929356 0 0.014643943683668203 -0.0019583175740814788 0 0.014524174063690465 -0.0021847452488007392 0 0.015014931364364669 -0.002001595883899354 0 0.014643943683668203 -0.0019583175740814788 0 0.014638650546841915 -0.0018243359805471542 0 0.016187334783212017 -0.0019207305375364594 0 0.01619386243438976 -0.0020622436548195784 0 0.016364897495914247 -0.0027671319672459001 0 0.014643943683668203 -0.0019583175740814788 0 0.014638650546841915 -0.0018243359805471542 0 0.013801000789179523 -0.0016216863044105497 0 0.015395971186060115 -0.0019296117701191782 0 0.015001410939277579 -0.0022418515651494416 0 0.014643943683668203 -0.0019583175740814788 0 0.014524174063690465 -0.0021847452488007392 0 0.013801000789179523 -0.0016216863044105497 0 0.013950205226674891 -0.0026077941255179837 0 0.014524174063690465 -0.0021847452488007392 0 0.013801000789179523 -0.0016216863044105497 0 0.013950205226674891 -0.0026077941255179837 0 0.014924822921267178 -0.0036885891292502545 0 0.013893425620328264 -0.004687447063708783 0 0.013967637161525539 -0.0025634043880247964 0 0.014784655288158775 -0.0032375235854019231 0 0.013950205226674891 -0.0026077941255179837 0 0.01448394816821057 -0.0024198341706174534 0 0.014448099123375586 -0.0025621246284887088 0 0.01448394816821057 -0.0024198341706174534 0 0.014448099123375586 -0.0025621246284887088 0 0.014667785683305753 -0.0024457985582786923 0 0.013950205226674891 -0.0026077941255179837 0 0.01448394816821057 -0.0024198341706174534 0 0.014524174063690465 -0.0021847452488007392 0 0.01448394816821057 -0.0024198341706174534 0 0.014524174063690465 -0.0021847452488007392 0 0.014707831860012014 -0.0023077342631662437 0 0.014882149515086511 -0.0021027382003929356 0 0.014707831860012014 -0.0023077342631662437 0 0.01484680510922504 -0.002153636490985981 0 0.014882149515086511 -0.0021027382003929356 0 0.014524174063690465 -0.0021847452488007392 0 0.014707831860012014 -0.0023077342631662437 0 0.014707831860012014 -0.0023077342631662437 0 0.014667785683305753 -0.0024457985582786923 0 0.014797443829070667 -0.0023660722842260553 0 0.01448394816821057 -0.0024198341706174534 0 0.014707831860012014 -0.0023077342631662437 0 0.014667785683305753 -0.0024457985582786923 0 0.014707831860012014 -0.0023077342631662437 0 0.01484680510922504 -0.002153636490985981 0 0.014797443829070667 -0.0023660722842260553 0 0.014836665988048364 -0.0020115246859181701 0 0.01484680510922504 -0.002153636490985981 0 0.014797443829070667 -0.0023660722842260553 0 0.014793714335820838 -0.002085123532931808 0 0.015199229357387952 -0.0018900984218690714 0 0.014836665988048364 -0.0020115246859181701 0 0.014782507605793214 -0.0021802809576651678 0 0.01484680510922504 -0.002153636490985981 0 0.014782507605793214 -0.0021802809576651678 0 0.014882149515086511 -0.0021027382003929356 0 0.01484680510922504 -0.002153636490985981 0 0.012882354297553411 -0.0031086387260248942 0 0.014698094421716304 -0.0027844081511660687 0 0.013564651703401728 -0.0043322595997235518 0 0.014698094421716304 -0.0027844081511660687 0 0.015312214894304475 -0.0042501704013997452 0 0.013564651703401728 -0.0043322595997235518 0 0.012070852439755064 -0.0018459334189859407 0 0.012882354297553411 -0.0031086387260248942 0 0.01356467425062245 -0.0021192634795800078 0 0.014338331102015699 -0.0011430534487360236 0 0.01356467425062245 -0.0021192634795800078 0 0.014698094421716304 -0.0027844081511660687 0 0.012882354297553411 -0.0031086387260248942 0 0.01356467425062245 -0.0021192634795800078 0 0.014698094421716304 -0.0027844081511660687 0 0.015936752534076209 -0.0018840100851552515 0 0.014338331102015699 -0.0011430534487360236 0 0.014698094421716304 -0.0027844081511660687 0 0.015936752534076209 -0.0018840100851552515 0 0.014698094421716304 -0.0027844081511660687 0 0.016364897495914247 -0.0027671319672459001 0 0.014698094421716304 -0.0027844081511660687 0 0.016364897495914247 -0.0027671319672459001 0 0.015312214894304475 -0.0042501704013997452 0 0.015936752534076209 -0.0018840100851552515 0 0.01619386243438976 -0.0020622436548195784 0 0.016364897495914247 -0.0027671319672459001 0 0.015001410939277579 -0.0022418515651494416 0 0.013726037749289368 -0.0031776310017493335 0 0.013950205226674891 -0.0026077941255179837 0 0.013801000789179523 -0.0016216863044105497 0 0.012197805212713167 -0.0020615546757877619 0 0.013950205226674891 -0.0026077941255179837 0 0.012397440239648319 -0.0038190839291058522 0 0.013893425620328264 -0.004687447063708783 0 0.013950205226674891 -0.0026077941255179837 0 0.012197805212713167 -0.0020615546757877619 0 0.012397440239648319 -0.0038190839291058522 0 0.012197805212713167 -0.0020615546757877619 0 0.010194047510540923 -0.0031811951932262526 0 0.012397440239648319 -0.0038190839291058522 0 0.013726037749289368 -0.0031776310017493335 0 0.011994097236052756 -0.0045873833445570352 0 0.015312214894304475 -0.0042501704013997452 0 0.013839094749216109 -0.0058185971037603076 0 0.013564651703401728 -0.0043322595997235518 0 0.011916713158209998 -0.0045430047106200713 0 0.012882354297553411 -0.0031086387260248942 0 0.013564651703401728 -0.0043322595997235518 0 0.011916713158209998 -0.0045430047106200713 0 0.013564651703401728 -0.0043322595997235518 0 0.012539900921778764 -0.0055997130218228492 0 0.013839094749216109 -0.0058185971037603076 0 0.013564651703401728 -0.0043322595997235518 0 0.012539900921778764 -0.0055997130218228492 0 0.013839094749216109 -0.0058185971037603076 0 0.012539900921778764 -0.0055997130218228492 0 0.012213331165567965 -0.0072816014559226577 0 0.011994097236052756 -0.0045873833445570352 0 0.010126031778541513 -0.0054875923761509484 0 0.0082097037200187534 -0.0045657024696208227 0 0.0089725248409953072 -0.0048650911088997956 0 0.0096268182812380369 -0.0043610769828948074 0 0.010194047510540923 -0.0031811951932262526 0 0.0082097037200187534 -0.0045657024696208227 0 0.0096268182812380369 -0.0043610769828948074 0 0.0089725248409953072 -0.0048650911088997956 0 0.0093780015343194034 -0.0051727658177484247 0 0.0096268182812380369 -0.0043610769828948074 0 0.010126031778541513 -0.0054875923761509484 0 0.0085938146067451142 -0.0048437545789848874 0 0.0082097037200187534 -0.0045657024696208227 0 0.0086660011825792031 -0.0054108835257135942 0 0.0089725248409953072 -0.0048650911088997956 0 0.0084037210743500949 -0.0049124766561664509 0 0.0084688363913653381 -0.0054704667528416391 0 0.0082758828205458743 -0.005318692777720388 0 0.0084037210743500949 -0.0049124766561664509 0 0.0086660011825792031 -0.0054108835257135942 0 0.0084688363913653381 -0.0054704667528416391 0 0.0086660011825792031 -0.0054108835257135942 0 0.0089725248409953072 -0.0048650911088997956 0 0.0093780015343194034 -0.0051727658177484247 0 0.0086660011825792031 -0.0054108835257135942 0 0.0093780015343194034 -0.0051727658177484247 0 0.0094285464868238533 -0.0059694170590178673 0 0.0086660011825792031 -0.0054108835257135942 0 0.0094285464868238533 -0.0059694170590178673 0 0.0084688363913653381 -0.0054704667528416391 0 0.0084688363913653381 -0.0054704667528416391 0 0.0080229057059783507 -0.0056217740803670285 0 0.0081493054516371035 -0.0054908404887717222 0 0.0084688363913653381 -0.0054704667528416391 0 0.0082758828205458743 -0.005318692777720388 0 0.0081493054516371035 -0.0054908404887717222 0 0.010052789483233886 -0.0054018787291040095 0 0.0096268182812380369 -0.0043610769828948074 0 0.011200997875517406 -0.0051971645600689337 0 0.010052789483233886 -0.0054018787291040095 0 0.011200997875517406 -0.0051971645600689337 0 0.010544770926123648 -0.0066166638744311612 0 0.0093780015343194034 -0.0051727658177484247 0 0.0094285464868238533 -0.0059694170590178673 0 0.010052789483233886 -0.0054018787291040095 0 0.0094285464868238533 -0.0059694170590178673 0 0.010052789483233886 -0.0054018787291040095 0 0.010544770926123648 -0.0066166638744311612 0 0.0093780015343194034 -0.0051727658177484247 0 0.010052789483233886 -0.0054018787291040095 0 0.0096268182812380369 -0.0043610769828948074 0 0.010194047510540923 -0.0031811951932262526 0 0.0096268182812380369 -0.0043610769828948074 0 0.011200997875517406 -0.0051971645600689337 0 0.012397440239648319 -0.0038190839291058522 0 0.012731083246132386 -0.0054487316680378014 0 0.011200997875517406 -0.0051971645600689337 0 0.010194047510540923 -0.0031811951932262526 0 0.012397440239648319 -0.0038190839291058522 0 0.011200997875517406 -0.0051971645600689337 0 0.012397440239648319 -0.0038190839291058522 0 0.012731083246132386 -0.0054487316680378014 0 0.013893425620328264 -0.004687447063708783 0 0.012731083246132386 -0.0054487316680378014 0 0.011200997875517406 -0.0051971645600689337 0 0.012256668319538659 -0.0074047916189766572 0 0.011200997875517406 -0.0051971645600689337 0 0.012256668319538659 -0.0074047916189766572 0 0.010544770926123648 -0.0066166638744311612 0 0.012256668319538659 -0.0074047916189766572 0 0.010577543961850729 -0.0085369382681235867 0 0.010544770926123648 -0.0066166638744311612 0 0.0065206373548201517 -0.0069623418900907367 0 0.0061470323332785551 -0.007265789715911488 0 0.0060978878504287072 -0.0067942197652458873 0 0.0094623057229039163 -0.0072432759697840703 0 0.0098286597673592352 -0.0069095013924951416 0 0.012731083246132386 -0.0054487316680378014 0 0.012256668319538659 -0.0074047916189766572 0 0.013844612109135708 -0.0062743647997733371 0 0.0065206373548201517 -0.0069623418900907367 0 0.0063213809272785002 -0.0066558137446133502 0 0.0060978878504287072 -0.0067942197652458873 0 0.0065206373548201517 -0.0069623418900907367 0 0.0063213809272785002 -0.0066558137446133502 0 0.0065348607852562654 -0.0065876071169363604 0 0.0094623057229039163 -0.0072432759697840703 0 0.0082028406104105028 -0.0067496734130656922 0 0.0065206373548201517 -0.0069623418900907367 0 0.0068809433710819668 -0.0067023375401009892 0 0.0065348607852562654 -0.0065876071169363604 0 0.0078506302889110278 -0.0058668517767051292 0 0.0076708012861064325 -0.0058002095993496998 0 0.0078725465928212342 -0.0056732743876588294 0 0.0082028406104105028 -0.0067496734130656922 0 0.0088848165684048547 -0.0064763471921601441 0 0.0078506302889110278 -0.0058668517767051292 0 0.0076708012861064325 -0.0058002095993496998 0 0.0074003869208764343 -0.0060245872640959531 0 0.0076708012861064325 -0.0058002095993496998 0 0.0074586767011109913 -0.0058946921892101441 0 0.0077253273577897125 -0.0057494981358129065 0 0.0076708012861064325 -0.0058002095993496998 0 0.0080229057059783507 -0.0056217740803670285 0 0.0077253273577897125 -0.0057494981358129065 0 0.0083845201298474517 -0.0054757413494390074 0 0.0088848165684048547 -0.0064763471921601441 0 0.0076708012861064325 -0.0058002095993496998 0 0.0080229057059783507 -0.0056217740803670285 0 0.0078725465928212342 -0.0056732743876588294 0 0.0084688363913653381 -0.0054704667528416391 0 0.0080229057059783507 -0.0056217740803670285 0 0.0078725465928212342 -0.0056732743876588294 0 0.0094285464868238533 -0.0059694170590178673 0 0.0084688363913653381 -0.0054704667528416391 0 0.0096279538117487254 -0.0070994567725099836 0 0.010577543961850729 -0.0085369382681235867 0 0.010544770926123648 -0.0066166638744311612 0 0.0096279538117487254 -0.0070994567725099836 0 0.0094285464868238533 -0.0059694170590178673 0 0.010544770926123648 -0.0066166638744311612 0 0.0096279538117487254 -0.0070994567725099836 0 0.014676004566795563 -0.00067272898130707221 0 0.015280507326064553 -0.00092534676032214646 0 0.014904155262158084 -0.0013073212310135294 0 0.015280507326064553 -0.00092534676032214646 0 0.014904155262158084 -0.0013073212310135294 0 0.015297006198802426 -0.0013105483666848228 0 0.014836665988048364 -0.0020115246859181701 0 0.014904155262158084 -0.0013073212310135294 0 0.01529698955782093 -0.0016533263789959068 0 0.014904155262158084 -0.0013073212310135294 0 0.01529698955782093 -0.0016533263789959068 0 0.015297006198802426 -0.0013105483666848228 0 0.01529698955782093 -0.0016533263789959068 0 0.015297006198802426 -0.0013105483666848228 0 0.015703439259474337 -0.0013611938730224047 0 0.015199229357387952 -0.0018900984218690714 0 0.014481976250645977 -0.0030979011792059653 0 0.014667785683305753 -0.0024457985582786923 0 0.014797443829070667 -0.0023660722842260553 0 0.014649372429355894 -0.002589452607330693 0 0.0099132717856865882 -0.0038453239734173306 0 0.011152700505389725 -0.0055907371739834797 0 0.0051121149434014317 -0.0074390881763212197 0 0.0057193704520651844 -0.0076019334718273029 0 0.0054832804756991312 -0.00729788021023621 0 0.010776323010870472 -0.0037719141664601147 0 0.011874893320932044 -0.0048735936395420841 0 0.012567552456647211 -0.0044160758961167904 0 0.0099132717856865882 -0.0038453239734173306 0 0.014481976250645977 -0.0030979011792059653 0 0.015280507326064553 -0.00092534676032214646 0 0.015297006198802426 -0.0013105483666848228 0 0.015703439259474337 -0.0013611938730224047 0 0.0057193704520651844 -0.0076019334718273029 0 0.0061470323332785551 -0.007265789715911488 0 0.0057646376055465274 -0.0072362734611703169 0 0.0057193704520651844 -0.0076019334718273029 0 0.0057646376055465274 -0.0072362734611703169 0 0.0054832804756991312 -0.00729788021023621 0 0.014481976250645977 -0.0030979011792059653 0 0.011152700505389725 -0.0055907371739834797 0 0.014924822921267178 -0.0036885891292502545 0 0.015884841746308838 -0.0047043595605256693 0 0.015247341734477341 -0.0051405647125775875 0 0.014924822921267178 -0.0036885891292502545 0 0.015247341734477341 -0.0051405647125775875 0 0.013893425620328264 -0.004687447063708783 0 0.014448099123375586 -0.0025621246284887088 0 0.014667785683305753 -0.0024457985582786923 0 0.014649372429355894 -0.002589452607330693 0 0.014784655288158775 -0.0032375235854019231 0 0.014481976250645977 -0.0030979011792059653 0 0.011152700505389725 -0.0055907371739834797 0 0.015397148601667365 -0.0050292270775941332 0 0.012731083246132386 -0.0054487316680378014 0 0.013893425620328264 -0.004687447063708783 0 0.013844612109135708 -0.0062743647997733371 0 0.015322205733208435 -0.0052349836093082552 0 0.013893425620328264 -0.004687447063708783 0 0.013844612109135708 -0.0062743647997733371 0 0.011152700505389725 -0.0055907371739834797 0 0.0098286597673592352 -0.0069095013924951416 0 0.0061470323332785551 -0.007265789715911488 0 0.0060978878504287072 -0.0067942197652458873 0 0.0058743503238864701 -0.0069968858909958799 0 0.0061470323332785551 -0.007265789715911488 0 0.0058743503238864701 -0.0069968858909958799 0 0.0057646376055465274 -0.0072362734611703169 0 0.0060978878504287072 -0.0067942197652458873 0 0.0056599638792990872 -0.0066719000044346277 0 0.0058743503238864701 -0.0069968858909958799 0 0.0063213809272785002 -0.0066558137446133502 0 0.0060978878504287072 -0.0067942197652458873 0 0.0059903097950839111 -0.0064476278901340837 0 0.0060978878504287072 -0.0067942197652458873 0 0.0056599638792990872 -0.0066719000044346277 0 0.0059903097950839111 -0.0064476278901340837 0 0.0056599638792990872 -0.0066719000044346277 0 0.0055528610266225792 -0.0070200699781462518 0 0.0058743503238864701 -0.0069968858909958799 0 0.0055528610266225792 -0.0070200699781462518 0 0.0058743503238864701 -0.0069968858909958799 0 0.0057646376055465274 -0.0072362734611703169 0 0.0055528610266225792 -0.0070200699781462518 0 0.0057646376055465274 -0.0072362734611703169 0 0.0054832804756991312 -0.00729788021023621 0 0.0055528610266225792 -0.0070200699781462518 0 0.0054832804756991312 -0.00729788021023621 0 0.0051475765278452606 -0.0071013288443381815 0 0.0055528610266225792 -0.0070200699781462518 0 0.0051475765278452606 -0.0071013288443381815 0 0.0052006255424524557 -0.0068148288558876301 0 0.0051121149434014317 -0.0074390881763212197 0 0.0054832804756991312 -0.00729788021023621 0 0.0051475765278452606 -0.0071013288443381815 0 0.0056599638792990872 -0.0066719000044346277 0 0.0055528610266225792 -0.0070200699781462518 0 0.0052006255424524557 -0.0068148288558876301 0 0.0056599638792990872 -0.0066719000044346277 0 0.0052006255424524557 -0.0068148288558876301 0 0.0052001317009894091 -0.0064244901950343096 0 0.0052006255424524557 -0.0068148288558876301 0 0.0049700994629639679 -0.006673085390599953 0 0.0052001317009894091 -0.0064244901950343096 0 0.0051475765278452606 -0.0071013288443381815 0 0.0052006255424524557 -0.0068148288558876301 0 0.0047535662365539621 -0.0068597108909667151 0 0.0052006255424524557 -0.0068148288558876301 0 0.0049700994629639679 -0.006673085390599953 0 0.0047535662365539621 -0.0068597108909667151 0 0.0049700994629639679 -0.006673085390599953 0 0.0047535662365539621 -0.0068597108909667151 0 0.0047455165375741258 -0.0065193906122715988 0 0.0045453658266190987 -0.0066560867416848553 0 0.0047535662365539621 -0.0068597108909667151 0 0.0047455165375741258 -0.0065193906122715988 0 0.0051475765278452606 -0.0071013288443381815 0 0.0047535662365539621 -0.0068597108909667151 0 0.0047437118601826398 -0.0071578283124974947 0 0.010145175879847604 -0.0034677396205548446 0 0.0095443706373295727 -0.0032783476367586602 0 0.009888338137289886 -0.0036167565463801413 0 0.012925415061965513 -0.0020245474111066876 0 0.0099132717856865882 -0.0038453239734173306 0 0.0099132717856865882 -0.0038453239734173306 0 0.0072330504601796032 -0.0053236929014428506 0 0.0051121149434014317 -0.0074390881763212197 0 0.0051475765278452606 -0.0071013288443381815 0 0.0047437118601826398 -0.0071578283124974947 0 0.0048533906050361522 -0.0061072790717149926 0 0.0053329609872327793 -0.0058998888716940198 0 0.0049459091173944111 -0.0056751707094714427 0 0.0045566420001060389 -0.0057373290004711416 0 0.0048533906050361522 -0.0061072790717149926 0 0.0049459091173944111 -0.0056751707094714427 0 0.0045412474822860141 -0.0060413349026497533 0 0.0045566420001060389 -0.0057373290004711416 0 0.0048533906050361522 -0.0061072790717149926 0 0.0045018302020783559 -0.0062857868701626423 0 0.0045412474822860141 -0.0060413349026497533 0 0.0048533906050361522 -0.0061072790717149926 0 0.0049700994629639679 -0.006673085390599953 0 0.0047455165375741258 -0.0065193906122715988 0 0.0052001317009894091 -0.0064244901950343096 0 0.0048533906050361522 -0.0061072790717149926 0 0.0047455165375741258 -0.0065193906122715988 0 0.0052001317009894091 -0.0064244901950343096 0 0.0045018302020783559 -0.0062857868701626423 0 0.0048533906050361522 -0.0061072790717149926 0 0.0047455165375741258 -0.0065193906122715988 0 0.0052001317009894091 -0.0064244901950343096 0 0.0053329609872327793 -0.0058998888716940198 0 0.0056262852352673871 -0.0062709574059058876 0 0.0048533906050361522 -0.0061072790717149926 0 0.0052001317009894091 -0.0064244901950343096 0 0.0053329609872327793 -0.0058998888716940198 0 0.0059045905264067441 -0.005885532455029879 0 0.0056262852352673871 -0.0062709574059058876 0 0.0059903097950839111 -0.0064476278901340837 0 0.0053329609872327793 -0.0058998888716940198 0 0.0059045905264067441 -0.005885532455029879 0 0.0056262852352673871 -0.0062709574059058876 0 0.0056599638792990872 -0.0066719000044346277 0 0.0052001317009894091 -0.0064244901950343096 0 0.0056262852352673871 -0.0062709574059058876 0 0.0056599638792990872 -0.0066719000044346277 0 0.0056262852352673871 -0.0062709574059058876 0 0.0059903097950839111 -0.0064476278901340837 0 0.0056938533998169083 -0.0062079109986328063 0 0.0062966695543188213 -0.0063935133594555989 0 0.0060853474665071988 -0.0061610762220672558 0 0.0057818262594384641 -0.0060360880782065049 0 0.0062587494333973138 -0.0063673665099078418 0 0.0059045905264067441 -0.005885532455029879 0 0.0059903097950839111 -0.0064476278901340837 0 0.0062966695543188213 -0.0063935133594555989 0 0.0056938533998169083 -0.0062079109986328063 0 0.0060853474665071988 -0.0061610762220672558 0 0.006125383103462936 -0.0058383066139917365 0 0.0056938533998169083 -0.0062079109986328063 0 0.0058187726803002066 -0.0057364768257652816 0 0.006125383103462936 -0.0058383066139917365 0 0.0058187726803002066 -0.0057364768257652816 0 0.00611988441261597 -0.0056488578678454545 0 0.0057144226845636335 -0.0052244406262483495 0 0.0058187726803002066 -0.0057364768257652816 0 0.0050252438335598284 -0.0059494055666074281 0 0.0057144226845636335 -0.0052244406262483495 0 0.0057818262594384641 -0.0060360880782065049 0 0.0052038970563290706 -0.0056394491653038526 0 0.0056938533998169083 -0.0062079109986328063 0 0.0058187726803002066 -0.0057364768257652816 0 0.0050252438335598284 -0.0059494055666074281 0 0.0053329609872327793 -0.0058998888716940198 0 0.0059045905264067441 -0.005885532455029879 0 0.0053485595495508693 -0.0053157348776385321 0 0.0050252438335598284 -0.0059494055666074281 0 0.0041368375353774108 -0.0055104971879750509 0 0.0048380913385077254 -0.0048218230297756397 0 0.0053329609872327793 -0.0058998888716940198 0 0.0053485595495508693 -0.0053157348776385321 0 0.0049459091173944111 -0.0056751707094714427 0 0.0053485595495508693 -0.0053157348776385321 0 0.0046683204372463347 -0.0046779354654830759 0 0.004620133273701291 -0.0052843326609234645 0 0.0052038970563290706 -0.0056394491653038526 0 0.0042373180493689676 -0.0050161360911956604 0 0.0053485595495508693 -0.0053157348776385321 0 0.004620133273701291 -0.0052843326609234645 0 0.0049459091173944111 -0.0056751707094714427 0 0.0045566420001060389 -0.0057373290004711416 0 0.004620133273701291 -0.0052843326609234645 0 0.0049459091173944111 -0.0056751707094714427 0 0.0069303503169726955 -0.0059055166651672255 0 0.0069436148509772165 -0.0060622126965498803 0 0.0065423605156347429 -0.0060073437504875185 0 0.0069303503169726955 -0.0059055166651672255 0 0.0072162765698010282 -0.0058600007391955838 0 0.0074003869208764343 -0.0060245872640959531 0 0.0072162765698010282 -0.0058600007391955838 0 0.0074003869208764343 -0.0060245872640959531 0 0.0074586767011109913 -0.0058946921892101441 0 0.0076708012861064325 -0.0058002095993496998 0 0.0074003869208764343 -0.0060245872640959531 0 0.0074586767011109913 -0.0058946921892101441 0 0.0069303503169726955 -0.0059055166651672255 0 0.0074003869208764343 -0.0060245872640959531 0 0.0069436148509772165 -0.0060622126965498803 0 0.0082028406104105028 -0.0067496734130656922 0 0.0073037170736072882 -0.0060876852256505172 0 0.0069346853475862206 -0.0063949562414246383 0 0.0074003869208764343 -0.0060245872640959531 0 0.0069436148509772165 -0.0060622126965498803 0 0.0068809433710819668 -0.0067023375401009892 0 0.0065348607852562654 -0.0065876071169363604 0 0.0065435910855541034 -0.0062736738339866354 0 0.0069346853475862206 -0.0063949562414246383 0 0.0069436148509772165 -0.0060622126965498803 0 0.0065423605156347429 -0.0060073437504875185 0 0.0082028406104105028 -0.0067496734130656922 0 0.0063069646720799637 -0.0060364495246384674 0 0.0063213809272785002 -0.0066558137446133502 0 0.0059903097950839111 -0.0064476278901340837 0 0.0062966695543188213 -0.0063935133594555989 0 0.0065348607852562654 -0.0065876071169363604 0 0.0062966695543188213 -0.0063935133594555989 0 0.0065435910855541034 -0.0062736738339866354 0 0.0063213809272785002 -0.0066558137446133502 0 0.0065348607852562654 -0.0065876071169363604 0 0.0062966695543188213 -0.0063935133594555989 0 0.0060853474665071988 -0.0061610762220672558 0 0.0065435910855541034 -0.0062736738339866354 0 0.006125383103462936 -0.0058383066139917365 0 0.0062966695543188213 -0.0063935133594555989 0 0.0060853474665071988 -0.0061610762220672558 0 0.0065435910855541034 -0.0062736738339866354 0 0.0069303503169726955 -0.0059055166651672255 0 0.0065423605156347429 -0.0060073437504875185 0 0.0065197630179491574 -0.0058035368854916702 0 0.0065423605156347429 -0.0060073437504875185 0 0.0065197630179491574 -0.0058035368854916702 0 0.006125383103462936 -0.0058383066139917365 0 0.0063069646720799637 -0.0060364495246384674 0 0.0062389073324577871 -0.0058909601020274349 0 0.0065197630179491574 -0.0058035368854916702 0 0.006125383103462936 -0.0058383066139917365 0 0.00611988441261597 -0.0056488578678454545 0 0.0058187726803002066 -0.0057364768257652816 0 0.006125383103462936 -0.0058383066139917365 0 0.00611988441261597 -0.0056488578678454545 0 0.0065197630179491574 -0.0058035368854916702 0 0.00611988441261597 -0.0056488578678454545 0 0.00653985699566408 -0.0056093183844141562 0 0.00653985699566408 -0.0056093183844141562 0 0.0068594730142957907 -0.005783407595409097 0 0.006803386960926425 -0.0056367350475002437 0 0.0065197630179491574 -0.0058035368854916702 0 0.00653985699566408 -0.0056093183844141562 0 0.0068594730142957907 -0.005783407595409097 0 0.0069303503169726955 -0.0059055166651672255 0 0.0065197630179491574 -0.0058035368854916702 0 0.0068594730142957907 -0.005783407595409097 0 0.0069303503169726955 -0.0059055166651672255 0 0.0072162765698010282 -0.0058600007391955838 0 0.0068594730142957907 -0.005783407595409097 0 0.0072162765698010282 -0.0058600007391955838 0 0.0068594730142957907 -0.005783407595409097 0 0.0070154127630646891 -0.0057696368887317955 0 0.0068594730142957907 -0.005783407595409097 0 0.006803386960926425 -0.0056367350475002437 0 0.0070154127630646891 -0.0057696368887317955 0 0.006803386960926425 -0.0056367350475002437 0 0.0070154127630646891 -0.0057696368887317955 0 0.0069675297677779706 -0.0056146904952665564 0 0.0070154127630646891 -0.0057696368887317955 0 0.0071012147292501262 -0.0058331981774817016 0 0.0069675297677779706 -0.0056146904952665564 0 0.0070154127630646891 -0.0057696368887317955 0 0.0071012147292501262 -0.0058331981774817016 0 0.0071549493561587456 -0.0058187211646103408 0 0.0071012147292501262 -0.0058331981774817016 0 0.0071024287976558494 -0.0058360918397788765 0 0.0071321092674770112 -0.0059754519577430694 0 0.0071012147292501262 -0.0058331981774817016 0 0.0071024287976558494 -0.0058360918397788765 0 0.0071549493561587456 -0.0058187211646103408 0 0.0071024287976558494 -0.0058360918397788765 0 0.0071549493561587456 -0.0058187211646103408 0 0.0072237858226297334 -0.0057772240368546678 0 0.0072162765698010282 -0.0058600007391955838 0 0.0070154127630646891 -0.0057696368887317955 0 0.0071549493561587456 -0.0058187211646103408 0 0.0072162765698010282 -0.0058600007391955838 0 0.0071549493561587456 -0.0058187211646103408 0 0.0072237858226297334 -0.0057772240368546678 0 0.0061243231398956637 -0.0064775011927673482 0 0.0061189995532587955 -0.0059273930391497767 0 0.0058229463030583708 -0.0062779575300556988 0 0.0061243231398956637 -0.0064775011927673482 0 0.0065748901379457979 -0.0061801084785136871 0 0.0061189995532587955 -0.0059273930391497767 0 0.0065748901379457979 -0.0061801084785136871 0 0.0067655463734836814 -0.0058884222954360401 0 0.0061189995532587955 -0.0059273930391497767 0 0.0061243231398956637 -0.0064775011927673482 0 0.0065748901379457979 -0.0061801084785136871 0 0.0065395174568833028 -0.006571781116089242 0 0.0065748901379457979 -0.0061801084785136871 0 0.0067655463734836814 -0.0058884222954360401 0 0.0071321092674770112 -0.0059754519577430694 0 0.0071024287976558494 -0.0058360918397788765 0 0.0067655463734836814 -0.0058884222954360401 0 0.0071321092674770112 -0.0059754519577430694 0 0.0071024287976558494 -0.0058360918397788765 0 0.0067655463734836814 -0.0058884222954360401 0 0.0067917329154584174 -0.0055364515507711565 0 0.0067655463734836814 -0.0058884222954360401 0 0.0061189995532587955 -0.0059273930391497767 0 0.0063078567911741702 -0.005514314447361464 0 0.0067917329154584174 -0.0055364515507711565 0 0.0068023361337627023 -0.0050629987679731365 0 0.0071624700805021889 -0.0056297350347336017 0 0.0063078567911741702 -0.005514314447361464 0 0.0067917329154584174 -0.0055364515507711565 0 0.0068023361337627023 -0.0050629987679731365 0 0.0067655463734836814 -0.0058884222954360401 0 0.0063078567911741702 -0.005514314447361464 0 0.0067917329154584174 -0.0055364515507711565 0 0.0068418974476746851 -0.0061165077933473455 0 0.0075017285003398174 -0.0056757703324528874 0 0.0077823452380621182 -0.0066518964447235679 0 0.0083023245401127842 -0.0065848933944856001 0 0.0077940162329279807 -0.0064502521691474383 0 0.0077823452380621182 -0.0066518964447235679 0 0.0073215750035300394 -0.0067232161221309067 0 0.0077940162329279807 -0.0064502521691474383 0 0.0068418974476746851 -0.0061165077933473455 0 0.0063750235944188792 -0.006647494504584182 0 0.0057325394067042944 -0.0062020480638238619 0 0.0068418974476746851 -0.0061165077933473455 0 0.0053954571313252608 -0.00695048694668859 0 0.005624394257437001 -0.0066686399486306832 0 0.0054679317670016433 -0.006686500450899269 0 0.0053954571313252608 -0.00695048694668859 0 0.0054679317670016433 -0.006686500450899269 0 0.0053070375446134556 -0.0068324671007364141 0 0.0072162765698010282 -0.0058600007391955838 0 0.0072237858226297334 -0.0057772240368546678 0 0.0073391887373161543 -0.0058063089220018061 0 0.0071024287976558494 -0.0058360918397788765 0 0.0067917329154584174 -0.0055364515507711565 0 0.0071624700805021889 -0.0056297350347336017 0 0.0071024287976558494 -0.0058360918397788765 0 0.0072237858226297334 -0.0057772240368546678 0 0.0071624700805021889 -0.0056297350347336017 0 0.0072237858226297334 -0.0057772240368546678 0 0.0071624700805021889 -0.0056297350347336017 0 0.0073391887373161543 -0.0058063089220018061 0 0.0068023361337627023 -0.0050629987679731365 0 0.0071624700805021889 -0.0056297350347336017 0 0.0071937850233521347 -0.0050313500958400889 0 0.0071624700805021889 -0.0056297350347336017 0 0.007373970864782569 -0.0057954556402152546 0 0.0073391887373161543 -0.0058063089220018061 0 0.0071835468092478144 -0.0055415648397992472 0 0.0075017285003398174 -0.0056757703324528874 0 0.0071624700805021889 -0.0056297350347336017 0 0.0074367821986857773 -0.0058171516074852232 0 0.007373970864782569 -0.0057954556402152546 0 0.0074367821986857773 -0.0058171516074852232 0 0.007373970864782569 -0.0057954556402152546 0 0.0074677168092908896 -0.0058323608815433236 0 0.0073391887373161543 -0.0058063089220018061 0 0.0074586767011109913 -0.0058946921892101441 0 0.0075056470832972101 -0.0058268202966504107 0 0.0072162765698010282 -0.0058600007391955838 0 0.0073391887373161543 -0.0058063089220018061 0 0.0074586767011109913 -0.0058946921892101441 0 0.007373970864782569 -0.0057954556402152546 0 0.0073391887373161543 -0.0058063089220018061 0 0.0075056470832972101 -0.0058268202966504107 0 0.0074586767011109913 -0.0058946921892101441 0 0.0075056470832972101 -0.0058268202966504107 0 0.0077253273577897125 -0.0057494981358129065 0 0.0075056470832972101 -0.0058268202966504107 0 0.0077253273577897125 -0.0057494981358129065 0 0.0076666715780250912 -0.0057079694603223109 0 0.0080229057059783507 -0.0056217740803670285 0 0.0077253273577897125 -0.0057494981358129065 0 0.0079171401175168465 -0.0055746029045575926 0 0.0077253273577897125 -0.0057494981358129065 0 0.0076666715780250912 -0.0057079694603223109 0 0.0079171401175168465 -0.0055746029045575926 0 0.0080229057059783507 -0.0056217740803670285 0 0.0079171401175168465 -0.0055746029045575926 0 0.0081493054516371035 -0.0054908404887717222 0 0.0083080000686348906 -0.0063432726651611333 0 0.0078441882693024434 -0.00595829238908137 0 0.0082993350470884665 -0.0053258336388357945 0 0.0076666715780250912 -0.0057079694603223109 0 0.0079171401175168465 -0.0055746029045575926 0 0.007643124866194036 -0.0054419862646232133 0 0.0076666715780250912 -0.0057079694603223109 0 0.0074677168092908896 -0.0058323608815433236 0 0.007643124866194036 -0.0054419862646232133 0 0.007762787217911681 -0.0060499399488030013 0 0.0080004549057804495 -0.0053998406604130076 0 0.0075056470832972101 -0.0058268202966504107 0 0.0076666715780250912 -0.0057079694603223109 0 0.0074677168092908896 -0.0058323608815433236 0 0.007373970864782569 -0.0057954556402152546 0 0.0075056470832972101 -0.0058268202966504107 0 0.0074677168092908896 -0.0058323608815433236 0 0.0075017285003398174 -0.0056757703324528874 0 0.007762787217911681 -0.0060499399488030013 0 0.0083023245401127842 -0.0065848933944856001 0 0.0083080000686348906 -0.0063432726651611333 0 0.0080617112745601811 -0.0063950226813514 0 0.0083023245401127842 -0.0065848933944856001 0 0.0080617112745601811 -0.0063950226813514 0 0.0077940162329279807 -0.0064502521691474383 0 0.0080617112745601811 -0.0063950226813514 0 0.0077940162329279807 -0.0064502521691474383 0 0.0078441882693024434 -0.00595829238908137 0 0.0077940162329279807 -0.0064502521691474383 0 0.0078441882693024434 -0.00595829238908137 0 0.0074263633292887586 -0.0063256977363956883 0 0.0083080000686348906 -0.0063432726651611333 0 0.0080617112745601811 -0.0063950226813514 0 0.0078441882693024434 -0.00595829238908137 0 0.0078441882693024434 -0.00595829238908137 0 0.0074263633292887586 -0.0063256977363956883 0 0.0071941291806690219 -0.0059332671985093833 0 0.0073215750035300394 -0.0067232161221309067 0 0.0077940162329279807 -0.0064502521691474383 0 0.0074263633292887586 -0.0063256977363956883 0 0.0073215750035300394 -0.0067232161221309067 0 0.0069490985937258644 -0.0063934610913821792 0 0.0074263633292887586 -0.0063256977363956883 0 0.0069490985937258644 -0.0063934610913821792 0 0.0074263633292887586 -0.0063256977363956883 0 0.0071941291806690219 -0.0059332671985093833 0 0.0078441882693024434 -0.00595829238908137 0 0.0071941291806690219 -0.0059332671985093833 0 0.0074897154342416635 -0.0053002543012032558 0 0.0071941291806690219 -0.0059332671985093833 0 0.0074897154342416635 -0.0053002543012032558 0 0.0067014844679488166 -0.0055782050006636091 0 0.0078441882693024434 -0.00595829238908137 0 0.0074897154342416635 -0.0053002543012032558 0 0.0082993350470884665 -0.0053258336388357945 0 0.0074897154342416635 -0.0053002543012032558 0 0.0078786157086869965 -0.0047770968022039706 0 0.0082993350470884665 -0.0053258336388357945 0 0.0074897154342416635 -0.0053002543012032558 0 0.0074527437368113545 -0.0046663693124010313 0 0.0068880157244934348 -0.004881240508776208 0 0.0074897154342416635 -0.0053002543012032558 0 0.0068880157244934348 -0.004881240508776208 0 0.0067014844679488166 -0.0055782050006636091 0 0.0074897154342416635 -0.0053002543012032558 0 0.0074527437368113545 -0.0046663693124010313 0 0.0078786157086869965 -0.0047770968022039706 0 0.0071279934092031072 -0.0041838799621959988 0 0.0074527437368113545 -0.0046663693124010313 0 0.0068880157244934348 -0.004881240508776208 0 0.0079380936185368105 -0.004172145762740242 0 0.0071279934092031072 -0.0041838799621959988 0 0.0074527437368113545 -0.0046663693124010313 0 0.0079380936185368105 -0.004172145762740242 0 0.0078786157086869965 -0.0047770968022039706 0 0.0081701513913433176 -0.0045361349585490178 0 0.0079380936185368105 -0.004172145762740242 0 0.0074527437368113545 -0.0046663693124010313 0 0.0078786157086869965 -0.0047770968022039706 0 0.0084513530013422405 -0.0043337149717773043 0 0.0081701513913433176 -0.0045361349585490178 0 0.0081659187252939875 -0.004880085568502811 0 0.0081701513913433176 -0.0045361349585490178 0 0.0081659187252939875 -0.004880085568502811 0 0.007643124866194036 -0.0054419862646232133 0 0.009895897348190047 -0.0052216473248512122 0 0.010126031778541513 -0.0054875923761509484 0 0.0084513530013422405 -0.0043337149717773043 0 0.0084037210743500949 -0.0049124766561664509 0 0.0081659187252939875 -0.004880085568502811 0 0.0079171401175168465 -0.0055746029045575926 0 0.0081098115397464556 -0.0052816955378601916 0 0.007643124866194036 -0.0054419862646232133 0 0.0084037210743500949 -0.0049124766561664509 0 0.0082758828205458743 -0.005318692777720388 0 0.0081098115397464556 -0.0052816955378601916 0 0.0084037210743500949 -0.0049124766561664509 0 0.0081659187252939875 -0.004880085568502811 0 0.0081098115397464556 -0.0052816955378601916 0 0.0079171401175168465 -0.0055746029045575926 0 0.0081493054516371035 -0.0054908404887717222 0 0.0081098115397464556 -0.0052816955378601916 0 0.0082758828205458743 -0.005318692777720388 0 0.0081493054516371035 -0.0054908404887717222 0 0.0081098115397464556 -0.0052816955378601916 0 0.0081302222094672208 -0.0046141207586584609 0 0.0080004549057804495 -0.0053998406604130076 0 0.0078786157086869965 -0.0047770968022039706 0 0.0081701513913433176 -0.0045361349585490178 0 0.0082993350470884665 -0.0053258336388357945 0 0.0081659187252939875 -0.004880085568502811 0 0.0081098115397464556 -0.0052816955378601916 0 0.007643124866194036 -0.0054419862646232133 0 0.005590828131362525 -0.0050323887416763753 0 0.0047143555116253262 -0.0046736052781472231 0 0.0050864086376858665 -0.0056079253946830897 0 0.0047143555116253262 -0.0046736052781472231 0 0.0050864086376858665 -0.0056079253946830897 0 0.004431540728374002 -0.0055377507644669179 0 0.0035091140703463011 -0.0043124508278256455 0 0.0045865105933768219 -0.0036580741782490656 0 0.0047143555116253262 -0.0046736052781472231 0 0.0045865105933768219 -0.0036580741782490656 0 0.0047143555116253262 -0.0046736052781472231 0 0.0053235950156441661 -0.0042136593449619859 0 0.005590828131362525 -0.0050323887416763753 0 0.0047143555116253262 -0.0046736052781472231 0 0.0053235950156441661 -0.0042136593449619859 0 0.005590828131362525 -0.0050323887416763753 0 0.0053235950156441661 -0.0042136593449619859 0 0.0061983224570419642 -0.0043433249512173783 0 0.0071279934092031072 -0.0041838799621959988 0 0.0061983224570419642 -0.0043433249512173783 0 0.0068880157244934348 -0.004881240508776208 0 0.0061983224570419642 -0.0043433249512173783 0 0.0068880157244934348 -0.004881240508776208 0 0.0062382662804828124 -0.005209942166953945 0 0.0068880157244934348 -0.004881240508776208 0 0.0062382662804828124 -0.005209942166953945 0 0.0067014844679488166 -0.0055782050006636091 0 0.005590828131362525 -0.0050323887416763753 0 0.0061983224570419642 -0.0043433249512173783 0 0.0062382662804828124 -0.005209942166953945 0 0.005590828131362525 -0.0050323887416763753 0 0.0062382662804828124 -0.005209942166953945 0 0.0057549981388955113 -0.0059400950672746896 0 0.0062382662804828124 -0.005209942166953945 0 0.0057549981388955113 -0.0059400950672746896 0 0.0067014844679488166 -0.0055782050006636091 0 0.0057549981388955113 -0.0059400950672746896 0 0.0067014844679488166 -0.0055782050006636091 0 0.0065464130871406246 -0.006168757112440703 0 0.0071941291806690219 -0.0059332671985093833 0 0.0067014844679488166 -0.0055782050006636091 0 0.0065464130871406246 -0.006168757112440703 0 0.0069490985937258644 -0.0063934610913821792 0 0.0065464130871406246 -0.006168757112440703 0 0.0062457915566961012 -0.0068259476293918587 0 0.0069490985937258644 -0.0063934610913821792 0 0.0071941291806690219 -0.0059332671985093833 0 0.0065464130871406246 -0.006168757112440703 0 0.0057549981388955113 -0.0059400950672746896 0 0.0065464130871406246 -0.006168757112440703 0 0.0062457915566961012 -0.0068259476293918587 0 0.0057549981388955113 -0.0059400950672746896 0 0.0050401958387457065 -0.0067828099291796506 0 0.0062457915566961012 -0.0068259476293918587 0 0.0057549981388955113 -0.0059400950672746896 0 0.0047702199439846214 -0.0061893670637776085 0 0.0050401958387457065 -0.0067828099291796506 0 0.0057549981388955113 -0.0059400950672746896 0 0.0050864086376858665 -0.0056079253946830897 0 0.0047702199439846214 -0.0061893670637776085 0 0.005590828131362525 -0.0050323887416763753 0 0.0057549981388955113 -0.0059400950672746896 0 0.0050864086376858665 -0.0056079253946830897 0 0.0050864086376858665 -0.0056079253946830897 0 0.004431540728374002 -0.0055377507644669179 0 0.0047702199439846214 -0.0061893670637776085 0 0.0043665107024064478 -0.0066156213376684647 0 0.0050401958387457065 -0.0067828099291796506 0 0.0045639601140435044 -0.0069382390813554524 0 0.0043665107024064478 -0.0066156213376684647 0 0.0047702199439846214 -0.0061893670637776085 0 0.0050401958387457065 -0.0067828099291796506 0 0.0050401958387457065 -0.0067828099291796506 0 0.0049020410301951643 -0.0069631020205670703 0 0.0050738847128727798 -0.006939116062926725 0 0.0049020410301951643 -0.0069631020205670703 0 0.0050738847128727798 -0.006939116062926725 0 0.0049989994125594853 -0.007072733013432456 0 0.0049020410301951643 -0.0069631020205670703 0 0.0045639601140435044 -0.0069382390813554524 0 0.0047993309157799233 -0.0071581746955548141 0 0.0050401958387457065 -0.0067828099291796506 0 0.0049020410301951643 -0.0069631020205670703 0 0.0045639601140435044 -0.0069382390813554524 0 0.0063750235944188792 -0.006647494504584182 0 0.0057115276702410503 -0.0067883042611068568 0 0.0054679317670016433 -0.006686500450899269 0 0.0051750357052023918 -0.0067582212659728896 0 0.0053070375446134556 -0.0068324671007364141 0 0.0073215750035300394 -0.0067232161221309067 0 0.0069490985937258644 -0.0063934610913821792 0 0.0062457915566961012 -0.0068259476293918587 0 0.005088240857661774 -0.0067930454049062892 0 0.0057115276702410503 -0.0067883042611068568 0 0.0050401958387457065 -0.0067828099291796506 0 0.0051750357052023918 -0.0067582212659728896 0 0.0050738847128727798 -0.006939116062926725 0 0.0050738847128727798 -0.006939116062926725 0 0.0052017740724912623 -0.0069366774065266297 0 0.0051188466936240105 -0.0070562670808199581 0 0.0051750357052023918 -0.0067582212659728896 0 0.0050738847128727798 -0.006939116062926725 0 0.0052017740724912623 -0.0069366774065266297 0 0.0053954571313252608 -0.00695048694668859 0 0.0052017740724912623 -0.0069366774065266297 0 0.0053070375446134556 -0.0068324671007364141 0 0.0051750357052023918 -0.0067582212659728896 0 0.0052017740724912623 -0.0069366774065266297 0 0.0053070375446134556 -0.0068324671007364141 0 0.0061189995532587955 -0.0059273930391497767 0 0.0063078567911741702 -0.005514314447361464 0 0.0053875543798240777 -0.0061067835246194878 0 0.0053954571313252608 -0.00695048694668859 0 0.0052017740724912623 -0.0069366774065266297 0 0.0051568604530818013 -0.0070048956285437766 0 0.0057325394067042944 -0.0062020480638238619 0 0.0052221900060097212 -0.0065942678914875973 0 0.0053954571313252608 -0.00695048694668859 0 0.0051568604530818013 -0.0070048956285437766 0 0.0050219733576048519 -0.0070311754431136913 0 0.0052017740724912623 -0.0069366774065266297 0 0.0051568604530818013 -0.0070048956285437766 0 0.0051188466936240105 -0.0070562670808199581 0 0.0051568604530818013 -0.0070048956285437766 0 0.0051188466936240105 -0.0070562670808199581 0 0.0050895128088318921 -0.0073096288287454111 0 0.0051188466936240105 -0.0070562670808199581 0 0.0050895128088318921 -0.0073096288287454111 0 0.0049989994125594853 -0.007072733013432456 0 0.0050738847128727798 -0.006939116062926725 0 0.0051188466936240105 -0.0070562670808199581 0 0.0049989994125594853 -0.007072733013432456 0 0.0051568604530818013 -0.0070048956285437766 0 0.0045854758474841786 -0.0069492338333447135 0 0.0050219733576048519 -0.0070311754431136913 0 0.0051291002294489253 -0.0070101999282929641 0 0.004752100175235246 -0.0071698789706106355 0 0.0045854758474841786 -0.0069492338333447135 0 0.0050219733576048519 -0.0070311754431136913 0 0.0044607508726163788 -0.0073760814261251417 0 0.0052221900060097212 -0.0065942678914875973 0 0.0045078239316977851 -0.0073299886202169854 0 0.0053875543798240777 -0.0061067835246194878 0 0.0056048373351986602 -0.0066249739987947033 0 0.0051043878133108485 -0.0070433737564693068 0 0.0061243231398956637 -0.0064775011927673482 0 0.0056048373351986602 -0.0066249739987947033 0 0.0058229463030583708 -0.0062779575300556988 0 0.0053875543798240777 -0.0061067835246194878 0 0.0056048373351986602 -0.0066249739987947033 0 0.0058229463030583708 -0.0062779575300556988 0 0.0061189995532587955 -0.0059273930391497767 0 0.0053875543798240777 -0.0061067835246194878 0 0.0058229463030583708 -0.0062779575300556988 0 0.0043406348644193333 -0.0071322690338816545 0 0.0045639601140435044 -0.0069382390813554524 0 0.0047993309157799233 -0.0071581746955548141 0 0.0043406348644193333 -0.0071322690338816545 0 0.0043518406071359492 -0.0073252310616997883 0 0.0047993309157799233 -0.0071581746955548141 0 0.0050895128088318921 -0.0073096288287454111 0 0.0049989994125594853 -0.007072733013432456 0 0.0047993309157799233 -0.0071581746955548141 0 0.0049020410301951643 -0.0069631020205670703 0 0.0049989994125594853 -0.007072733013432456 0 0.0047993309157799233 -0.0071581746955548141 0 0.004752100175235246 -0.0071698789706106355 0 0.0046347361466930097 -0.0073339922049154528 0 0.0050895128088318921 -0.0073096288287454111 0 0.0047993309157799233 -0.0071581746955548141 0 0.0047530857628650018 -0.0076575924501722124 0 0.0043518406071359492 -0.0073252310616997883 0 0.0047993309157799233 -0.0071581746955548141 0 0.0047530857628650018 -0.0076575924501722124 0 0.0043518406071359492 -0.0073252310616997883 0 0.0047530857628650018 -0.0076575924501722124 0 0.0041451383518392709 -0.0081108811328795636 0 0.0046347361466930097 -0.0073339922049154528 0 0.0018302863458660432 -0.0074903166766278244 0 0.0039057530734273806 -0.0071106438687662645 0 0.0040161543343423152 -0.007500969448690757 0 0.0032057425469890458 -0.0074366044794607691 0 0.0039057530734273806 -0.0071106438687662645 0 0.0040161543343423152 -0.007500969448690757 0 0.0044607508726163788 -0.0073760814261251417 0 0.0045854758474841786 -0.0069492338333447135 0 0.0039057530734273806 -0.0071106438687662645 0 0.0044607508726163788 -0.0073760814261251417 0 -0.0061886121803124894 -0.0057239577470701861 0 -0.0060819463194131474 -0.0054885107887679601 0 -0.0061695317529445372 -0.0057364805409556834 0 -0.0013982805188223505 -0.0070557322729883423 0 -0.00060815686987920404 -0.0065381788705588181 0 0.0040161543343423152 -0.007500969448690757 0 0.0044607508726163788 -0.0073760814261251417 0 0.0045533398314324056 -0.0077222577307876419 0 -0.0061886121803124894 -0.0057239577470701861 0 -0.0061949024877638367 -0.0057224675240212589 0 -0.0060819463194131474 -0.0054885107887679601 0 0.0040161543343423152 -0.007500969448690757 0 0.0038377690630163881 -0.0079337096870059215 0 0.0045533398314324056 -0.0077222577307876419 0 -0.0061886121803124894 -0.0057239577470701861 0 -0.0061878771089319672 -0.005730269712730318 0 -0.0061925927980572282 -0.0057597336466221373 0 -0.0017011185999733607 -0.0071519652563212946 0 -0.0020389832436494256 -0.0068941328398042703 0 -0.0020431467280718914 -0.0072620150619090726 0 0.0040161543343423152 -0.007500969448690757 0 0.0038377690630163881 -0.0079337096870059215 0 0.0032057425469890458 -0.0074366044794607691 0 -0.0013982805188223505 -0.0070557322729883423 0 0.0018302863458660432 -0.0074903166766278244 0 -0.0013982805188223505 -0.0070557322729883423 0 -0.0049483821938353136 -0.0066163961597002913 0 -0.0018971605241689506 -0.0067528379569830252 0 -0.0013982805188223505 -0.0070557322729883423 0 0.0061243231398956637 -0.0064775011927673482 0 0.0056048373351986602 -0.0066249739987947033 0 0.0055324098189436215 -0.0073439303533700392 0 0.0056048373351986602 -0.0066249739987947033 0 0.0055324098189436215 -0.0073439303533700392 0 0.0051043878133108485 -0.0070433737564693068 0 0.0055324098189436215 -0.0073439303533700392 0 0.0051043878133108485 -0.0070433737564693068 0 0.0045533398314324056 -0.0077222577307876419 0 0.0053875543798240777 -0.0061067835246194878 0 0.0051043878133108485 -0.0070433737564693068 0 0.0044607508726163788 -0.0073760814261251417 0 0.0051043878133108485 -0.0070433737564693068 0 0.0044607508726163788 -0.0073760814261251417 0 0.0045533398314324056 -0.0077222577307876419 0 -0.0060819463194131474 -0.0054885107887679601 0 -0.0058722948141121554 -0.0056970421210604536 0 -0.0060362959045238687 -0.0057182599115240609 0 -0.00048521447476773867 -0.006330126866777178 0 -0.00060815686987920404 -0.0065381788705588181 0 -0.0056366209927271472 -0.0051122119461985745 0 -0.0060819463194131474 -0.0054885107887679601 0 -0.0058722948141121554 -0.0056970421210604536 0 -0.0056366209927271472 -0.0051122119461985745 0 -0.0058722948141121554 -0.0056970421210604536 0 -0.0052838846181928944 -0.0054244768672305913 0 -0.0058722948141121554 -0.0056970421210604536 0 -0.0059859258603838809 -0.0059810969939234531 0 -0.0056595065413368303 -0.0060196291730974282 0 -0.0060819463194131474 -0.0054885107887679601 0 -0.0060362959045238687 -0.0057182599115240609 0 -0.0061365323539310096 -0.0057940869076397502 0 -0.0058722948141121554 -0.0056970421210604536 0 -0.0060362959045238687 -0.0057182599115240609 0 -0.0060830268932849339 -0.0058641424981227619 0 -0.0060362959045238687 -0.0057182599115240609 0 -0.0060830268932849339 -0.0058641424981227619 0 -0.0061365323539310096 -0.0057940869076397502 0 -0.0060830268932849339 -0.0058641424981227619 0 -0.0061552842145148456 -0.0059374481859095721 0 -0.0059859258603838809 -0.0059810969939234531 0 -0.0060830268932849339 -0.0058641424981227619 0 -0.0061552842145148456 -0.0059374481859095721 0 -0.0061549587052199201 -0.0058720769945191731 0 -0.0058722948141121554 -0.0056970421210604536 0 -0.0060830268932849339 -0.0058641424981227619 0 -0.0059859258603838809 -0.0059810969939234531 0 -0.0061878771089319672 -0.005730269712730318 0 -0.0062076964603368905 -0.0057998294178050408 0 -0.0062293108959445226 -0.0058435187054242518 0 -0.0062049651934893814 -0.0058292739960107472 0 -0.0062080143919972675 -0.005822695817179627 0 -0.0062103440995997378 -0.005842181291730128 0 -0.0062049651934893814 -0.0058292739960107472 0 -0.0062080143919972675 -0.005822695817179627 0 -0.0062024716540981907 -0.0058108862441244189 0 -0.0062024716540981907 -0.0058108862441244189 0 -0.0061975252854551193 -0.0058229596549717781 0 -0.0061922755499434394 -0.0057898296060806915 0 -0.0062049651934893814 -0.0058292739960107472 0 -0.0062024716540981907 -0.0058108862441244189 0 -0.0061975252854551193 -0.0058229596549717781 0 -0.0062049651934893814 -0.0058292739960107472 0 -0.0061975252854551193 -0.0058229596549717781 0 -0.0062049106885383471 -0.0058467200432341096 0 -0.0061975252854551193 -0.0058229596549717781 0 -0.0061941354669459176 -0.005843478194765328 0 -0.0062049106885383471 -0.0058467200432341096 0 -0.0062049106885383471 -0.0058467200432341096 0 -0.0062103440995997378 -0.005842181291730128 0 -0.006211588379710275 -0.0058631085150779288 0 -0.0062049651934893814 -0.0058292739960107472 0 -0.0062049106885383471 -0.0058467200432341096 0 -0.0062103440995997378 -0.005842181291730128 0 -0.0062103440995997378 -0.005842181291730128 0 -0.0062161856265526734 -0.0058520237018304206 0 -0.006211588379710275 -0.0058631085150779288 0 -0.0062103440995997378 -0.005842181291730128 0 -0.0062161856265526734 -0.0058520237018304206 0 -0.006213871593370569 -0.0058365457389230723 0 -0.0062161856265526734 -0.0058520237018304206 0 -0.0062193091294902173 -0.0058599462288234667 0 -0.0062170505708793585 -0.0058686156476132206 0 -0.0062161856265526734 -0.0058520237018304206 0 -0.0062193091294902173 -0.0058599462288234667 0 -0.0062205325579697754 -0.0058520990818968837 0 -0.0062161856265526734 -0.0058520237018304206 0 -0.0062205325579697754 -0.0058520990818968837 0 -0.006217767817303866 -0.0058416950311663361 0 -0.0062193091294902173 -0.0058599462288234667 0 -0.0062205325579697754 -0.0058520990818968837 0 -0.0062213050512687764 -0.0058593841130056539 0 -0.0062205325579697754 -0.0058520990818968837 0 -0.006217767817303866 -0.0058416950311663361 0 -0.0062215280746097529 -0.0058436094162272649 0 -0.006217767817303866 -0.0058416950311663361 0 -0.0062215280746097529 -0.0058436094162272649 0 -0.0062162704767551279 -0.0058293365690308954 0 -0.0062080143919972675 -0.005822695817179627 0 -0.0062103440995997378 -0.005842181291730128 0 -0.006213871593370569 -0.0058365457389230723 0 -0.0062161856265526734 -0.0058520237018304206 0 -0.006217767817303866 -0.0058416950311663361 0 -0.006213871593370569 -0.0058365457389230723 0 -0.006213871593370569 -0.0058365457389230723 0 -0.0062115862788928557 -0.0058224647020674982 0 -0.0062162704767551279 -0.0058293365690308954 0 -0.006217767817303866 -0.0058416950311663361 0 -0.006213871593370569 -0.0058365457389230723 0 -0.0062162704767551279 -0.0058293365690308954 0 -0.0062080143919972675 -0.005822695817179627 0 -0.006213871593370569 -0.0058365457389230723 0 -0.0062115862788928557 -0.0058224647020674982 0 -0.0062076964603368905 -0.0057998294178050408 0 -0.0062293108959445226 -0.0058435187054242518 0 -0.0062220407063343676 -0.0058343399296815297 0 -0.0062115862788928557 -0.0058224647020674982 0 -0.0062076964603368905 -0.0057998294178050408 0 -0.0062162704767551279 -0.0058293365690308954 0 -0.0062080143919972675 -0.005822695817179627 0 -0.0062115862788928557 -0.0058224647020674982 0 -0.0062076964603368905 -0.0057998294178050408 0 -0.0062076964603368905 -0.0057998294178050408 0 -0.0062162704767551279 -0.0058293365690308954 0 -0.0062220407063343676 -0.0058343399296815297 0 -0.0062215280746097529 -0.0058436094162272649 0 -0.0062162704767551279 -0.0058293365690308954 0 -0.0062220407063343676 -0.0058343399296815297 0 -0.0062076964603368905 -0.0057998294178050408 0 -0.0061993255240207403 -0.0057914040247108271 0 -0.0061925927980572282 -0.0057597336466221373 0 -0.0062080143919972675 -0.005822695817179627 0 -0.0062024716540981907 -0.0058108862441244189 0 -0.0062076964603368905 -0.0057998294178050408 0 -0.0062024716540981907 -0.0058108862441244189 0 -0.0062076964603368905 -0.0057998294178050408 0 -0.0061993255240207403 -0.0057914040247108271 0 -0.0062024716540981907 -0.0058108862441244189 0 -0.0061993255240207403 -0.0057914040247108271 0 -0.0061922755499434394 -0.0057898296060806915 0 -0.0061993255240207403 -0.0057914040247108271 0 -0.0061922755499434394 -0.0057898296060806915 0 -0.0061925927980572282 -0.0057597336466221373 0 -0.0061878771089319672 -0.005730269712730318 0 -0.0062076964603368905 -0.0057998294178050408 0 -0.0061925927980572282 -0.0057597336466221373 0 -0.0061922755499434394 -0.0057898296060806915 0 -0.0061925927980572282 -0.0057597336466221373 0 -0.0061695317529445372 -0.0057364805409556834 0 -0.0061695317529445372 -0.0057364805409556834 0 -0.0061365323539310096 -0.0057940869076397502 0 -0.0061820328657617961 -0.0058126109404434525 0 -0.0061922755499434394 -0.0057898296060806915 0 -0.0061695317529445372 -0.0057364805409556834 0 -0.0061820328657617961 -0.0058126109404434525 0 -0.0061886121803124894 -0.0057239577470701861 0 -0.0061925927980572282 -0.0057597336466221373 0 -0.0061695317529445372 -0.0057364805409556834 0 -0.0060819463194131474 -0.0054885107887679601 0 -0.0061695317529445372 -0.0057364805409556834 0 -0.0061365323539310096 -0.0057940869076397502 0 -0.0060830268932849339 -0.0058641424981227619 0 -0.0061365323539310096 -0.0057940869076397502 0 -0.0061549587052199201 -0.0058720769945191731 0 -0.0061365323539310096 -0.0057940869076397502 0 -0.0061798817144109027 -0.0058558339802281881 0 -0.0061549587052199201 -0.0058720769945191731 0 -0.0061365323539310096 -0.0057940869076397502 0 -0.0061820328657617961 -0.0058126109404434525 0 -0.0061798817144109027 -0.0058558339802281881 0 -0.0061975252854551193 -0.0058229596549717781 0 -0.0061922755499434394 -0.0057898296060806915 0 -0.0061820328657617961 -0.0058126109404434525 0 -0.0061941354669459176 -0.005843478194765328 0 -0.0061820328657617961 -0.0058126109404434525 0 -0.0061798817144109027 -0.0058558339802281881 0 -0.0061975252854551193 -0.0058229596549717781 0 -0.0061941354669459176 -0.005843478194765328 0 -0.0061820328657617961 -0.0058126109404434525 0 -0.0061941354669459176 -0.005843478194765328 0 -0.0061798817144109027 -0.0058558339802281881 0 -0.0062021294349256456 -0.0058702100506251593 0 -0.0061798817144109027 -0.0058558339802281881 0 -0.0061549587052199201 -0.0058720769945191731 0 -0.0061929195735291303 -0.0058907141838453617 0 -0.0061798817144109027 -0.0058558339802281881 0 -0.0061929195735291303 -0.0058907141838453617 0 -0.0062021294349256456 -0.0058702100506251593 0 -0.0061552842145148456 -0.0059374481859095721 0 -0.0061549587052199201 -0.0058720769945191731 0 -0.0061850092441309229 -0.0059206064411331215 0 -0.0061850092441309229 -0.0059206064411331215 0 -0.0061929195735291303 -0.0058907141838453617 0 -0.0062023457905695202 -0.0059119822743749313 0 -0.0061549587052199201 -0.0058720769945191731 0 -0.0061850092441309229 -0.0059206064411331215 0 -0.0061929195735291303 -0.0058907141838453617 0 -0.0061929195735291303 -0.0058907141838453617 0 -0.0062077122809398727 -0.0058919217715987611 0 -0.0062023457905695202 -0.0059119822743749313 0 -0.0062077122809398727 -0.0058919217715987611 0 -0.0062095043805043834 -0.0059084568312640527 0 -0.0062023457905695202 -0.0059119822743749313 0 -0.0061929195735291303 -0.0058907141838453617 0 -0.0062077122809398727 -0.0058919217715987611 0 -0.0062021294349256456 -0.0058702100506251593 0 -0.0062077122809398727 -0.0058919217715987611 0 -0.0062021294349256456 -0.0058702100506251593 0 -0.0062089833006011745 -0.0058763656324949953 0 -0.0062021294349256456 -0.0058702100506251593 0 -0.0062089833006011745 -0.0058763656324949953 0 -0.006211588379710275 -0.0058631085150779288 0 -0.0062049106885383471 -0.0058467200432341096 0 -0.0062021294349256456 -0.0058702100506251593 0 -0.006211588379710275 -0.0058631085150779288 0 -0.0061941354669459176 -0.005843478194765328 0 -0.0062049106885383471 -0.0058467200432341096 0 -0.0062021294349256456 -0.0058702100506251593 0 -0.0062170505708793585 -0.0058686156476132206 0 -0.0062181123404758164 -0.0058789028963728718 0 -0.0062203632103100875 -0.0058741317928311648 0 -0.0062193091294902173 -0.0058599462288234667 0 -0.0062170505708793585 -0.0058686156476132206 0 -0.0062203632103100875 -0.0058741317928311648 0 -0.0062170505708793585 -0.0058686156476132206 0 -0.006211588379710275 -0.0058631085150779288 0 -0.0062141444233371002 -0.0058812875194083894 0 -0.0062161856265526734 -0.0058520237018304206 0 -0.0062170505708793585 -0.0058686156476132206 0 -0.006211588379710275 -0.0058631085150779288 0 -0.0062089833006011745 -0.0058763656324949953 0 -0.006211588379710275 -0.0058631085150779288 0 -0.0062141444233371002 -0.0058812875194083894 0 -0.0062077122809398727 -0.0058919217715987611 0 -0.0062089833006011745 -0.0058763656324949953 0 -0.0062141444233371002 -0.0058812875194083894 0 -0.0062170505708793585 -0.0058686156476132206 0 -0.0062141444233371002 -0.0058812875194083894 0 -0.0062181123404758164 -0.0058789028963728718 0 -0.0062141444233371002 -0.0058812875194083894 0 -0.0062181123404758164 -0.0058789028963728718 0 -0.0062171324075939328 -0.0058872197900234182 0 -0.0062171324075939328 -0.0058872197900234182 0 -0.0062142227957539802 -0.0058976450856699104 0 -0.0062168146227672087 -0.0058948979444732154 0 -0.0062141444233371002 -0.0058812875194083894 0 -0.0062171324075939328 -0.0058872197900234182 0 -0.0062142227957539802 -0.0058976450856699104 0 -0.0062077122809398727 -0.0058919217715987611 0 -0.0062141444233371002 -0.0058812875194083894 0 -0.0062142227957539802 -0.0058976450856699104 0 -0.0062077122809398727 -0.0058919217715987611 0 -0.0062142227957539802 -0.0058976450856699104 0 -0.0062095043805043834 -0.0059084568312640527 0 -0.0062095043805043834 -0.0059084568312640527 0 -0.0062078590835635021 -0.0059148208871463298 0 -0.0062116237749132658 -0.0059076240106243965 0 -0.0062142227957539802 -0.0058976450856699104 0 -0.0062095043805043834 -0.0059084568312640527 0 -0.0062116237749132658 -0.0059076240106243965 0 -0.0062095043805043834 -0.0059084568312640527 0 -0.0062066465849369675 -0.0059218380058215165 0 -0.0062078590835635021 -0.0059148208871463298 0 -0.0062095043805043834 -0.0059084568312640527 0 -0.0062023457905695202 -0.0059119822743749313 0 -0.0062066465849369675 -0.0059218380058215165 0 -0.0062023457905695202 -0.0059119822743749313 0 -0.0062066465849369675 -0.0059218380058215165 0 -0.0061998845751170713 -0.0059280103779547925 0 -0.0062066465849369675 -0.0059218380058215165 0 -0.0062078305360427875 -0.0059301218456708328 0 -0.0061998845751170713 -0.0059280103779547925 0 -0.0062066465849369675 -0.0059218380058215165 0 -0.0062085390109525383 -0.0059116849946121873 0 -0.0062078305360427875 -0.0059301218456708328 0 -0.0062066465849369675 -0.0059218380058215165 0 -0.0062078590835635021 -0.0059148208871463298 0 -0.0062085390109525383 -0.0059116849946121873 0 -0.0062078590835635021 -0.0059148208871463298 0 -0.0062085390109525383 -0.0059116849946121873 0 -0.006200414158155327 -0.0059053830454703082 0 -0.0062085390109525383 -0.0059116849946121873 0 -0.006217638648204152 -0.0059112427842670659 0 -0.0062078305360427875 -0.0059301218456708328 0 -0.0062085390109525383 -0.0059116849946121873 0 -0.006217638648204152 -0.0059112427842670659 0 -0.0062193361379485491 -0.0058661648271740767 0 -0.0062085390109525383 -0.0059116849946121873 0 -0.0062193361379485491 -0.0058661648271740767 0 -0.0061945181423854936 -0.0058703206587750736 0 -0.0062085390109525383 -0.0059116849946121873 0 -0.006200414158155327 -0.0059053830454703082 0 -0.0061945181423854936 -0.0058703206587750736 0 -0.0062171640441442124 -0.0059464963667620113 0 -0.0062476053779419553 -0.005957658553515848 0 -0.0062381176784375592 -0.0058852139739087551 0 -0.006217638648204152 -0.0059112427842670659 0 -0.0062171640441442124 -0.0059464963667620113 0 -0.0062381176784375592 -0.0058852139739087551 0 -0.006217638648204152 -0.0059112427842670659 0 -0.0062193361379485491 -0.0058661648271740767 0 -0.0062381176784375592 -0.0058852139739087551 0 -0.006217638648204152 -0.0059112427842670659 0 -0.0062171640441442124 -0.0059464963667620113 0 -0.0062078305360427875 -0.0059301218456708328 0 -0.0062171640441442124 -0.0059464963667620113 0 -0.0061909932433610064 -0.0059448382942614798 0 -0.0062078305360427875 -0.0059301218456708328 0 -0.0061909932433610064 -0.0059448382942614798 0 -0.0062078305360427875 -0.0059301218456708328 0 -0.0061998845751170713 -0.0059280103779547925 0 -0.0061850092441309229 -0.0059206064411331215 0 -0.0061909932433610064 -0.0059448382942614798 0 -0.0061998845751170713 -0.0059280103779547925 0 -0.0061850092441309229 -0.0059206064411331215 0 -0.0062023457905695202 -0.0059119822743749313 0 -0.0061998845751170713 -0.0059280103779547925 0 -0.0061552842145148456 -0.0059374481859095721 0 -0.0061850092441309229 -0.0059206064411331215 0 -0.0061909932433610064 -0.0059448382942614798 0 -0.0061552842145148456 -0.0059374481859095721 0 -0.0061909932433610064 -0.0059448382942614798 0 -0.0061561713309929893 -0.0059824958656926677 0 -0.0061552842145148456 -0.0059374481859095721 0 -0.0059859258603838809 -0.0059810969939234531 0 -0.0061561713309929893 -0.0059824958656926677 0 -0.0062171640441442124 -0.0059464963667620113 0 -0.0061909932433610064 -0.0059448382942614798 0 -0.0061561713309929893 -0.0059824958656926677 0 -0.0059859258603838809 -0.0059810969939234531 0 -0.0061561713309929893 -0.0059824958656926677 0 -0.0060329944406182492 -0.0059928041769969874 0 -0.0061561713309929893 -0.0059824958656926677 0 -0.0063221853007082692 -0.0060228665917839933 0 -0.0060329944406182492 -0.0059928041769969874 0 -0.0061561713309929893 -0.0059824958656926677 0 -0.0062476053779419553 -0.005957658553515848 0 -0.0063221853007082692 -0.0060228665917839933 0 -0.0062171640441442124 -0.0059464963667620113 0 -0.0061561713309929893 -0.0059824958656926677 0 -0.0062476053779419553 -0.005957658553515848 0 -0.0062476053779419553 -0.005957658553515848 0 -0.0062959996910213461 -0.0058075790592562624 0 -0.0063221853007082692 -0.0060228665917839933 0 -0.0062476053779419553 -0.005957658553515848 0 -0.0062959996910213461 -0.0058075790592562624 0 -0.0062381176784375592 -0.0058852139739087551 0 -0.0063221853007082692 -0.0060228665917839933 0 -0.0064623636983397624 -0.0056889568254697874 0 -0.0071465418877928533 -0.0060624766769224857 0 -0.0062959996910213461 -0.0058075790592562624 0 -0.0063221853007082692 -0.0060228665917839933 0 -0.0064623636983397624 -0.0056889568254697874 0 -0.0062959996910213461 -0.0058075790592562624 0 -0.0064623636983397624 -0.0056889568254697874 0 -0.0063615736163212169 -0.0056428004441427546 0 -0.0062959996910213461 -0.0058075790592562624 0 -0.0063615736163212169 -0.0056428004441427546 0 -0.0063136838284064412 -0.0056613163089633111 0 -0.0063136838284064412 -0.0056613163089633111 0 -0.0062497122632389846 -0.0057034849189055601 0 -0.0062542780225348571 -0.0057904030546996384 0 -0.0062959996910213461 -0.0058075790592562624 0 -0.0063136838284064412 -0.0056613163089633111 0 -0.0062542780225348571 -0.0057904030546996384 0 -0.0062497122632389846 -0.0057034849189055601 0 -0.0062074718445253836 -0.0058028979072914655 0 -0.006175747408929926 -0.0057261170820750882 0 -0.0062497122632389846 -0.0057034849189055601 0 -0.0062074718445253836 -0.0058028979072914655 0 -0.0062542780225348571 -0.0057904030546996384 0 -0.0062074718445253836 -0.0058028979072914655 0 -0.0062193361379485491 -0.0058661648271740767 0 -0.0062542780225348571 -0.0057904030546996384 0 -0.0062074718445253836 -0.0058028979072914655 0 -0.0062193361379485491 -0.0058661648271740767 0 -0.0061945181423854936 -0.0058703206587750736 0 -0.0062193361379485491 -0.0058661648271740767 0 -0.0062381176784375592 -0.0058852139739087551 0 -0.0062542780225348571 -0.0057904030546996384 0 -0.0062959996910213461 -0.0058075790592562624 0 -0.0062381176784375592 -0.0058852139739087551 0 -0.0062542780225348571 -0.0057904030546996384 0 -0.0063714934993037257 -0.0056297676988972525 0 -0.0067222690893799456 -0.0058451532602552406 0 -0.0063496545345723705 -0.0059137625298228734 0 -0.0063714934993037257 -0.0056297676988972525 0 -0.0067222690893799456 -0.0058451532602552406 0 -0.0070666202298416856 -0.0053423587485636505 0 -0.0067222690893799456 -0.0058451532602552406 0 -0.007127108441451778 -0.0057331253981038593 0 -0.0070666202298416856 -0.0053423587485636505 0 -0.0067222690893799456 -0.0058451532602552406 0 -0.007127108441451778 -0.0057331253981038593 0 -0.007081099301926257 -0.0061360000360006547 0 -0.0082085111967409759 -0.005464919687767732 0 -0.0080730281019304913 -0.0055401862374687607 0 -0.0081720615287906567 -0.0054509762122661332 0 -0.0071785580134173296 -0.0057129610802747069 0 -0.0076232651171587824 -0.0054323762746239209 0 -0.0079978620747498154 -0.0058132147124240491 0 -0.0082085111967409759 -0.005464919687767732 0 -0.0080730281019304913 -0.0055401862374687607 0 -0.0079978620747498154 -0.0058132147124240491 0 -0.0080730281019304913 -0.0055401862374687607 0 -0.0078425802881958752 -0.0055587948206690784 0 -0.0080730281019304913 -0.0055401862374687607 0 -0.0078425802881958752 -0.0055587948206690784 0 -0.0080128346563560562 -0.0054770257712609492 0 -0.0078088985504250448 -0.0055713393951775372 0 -0.0072638292171271135 -0.0054981881147012669 0 -0.0078425802881958752 -0.0055587948206690784 0 -0.0071465418877928533 -0.0060624766769224857 0 -0.0067994771726540958 -0.0053582646692193212 0 -0.0064623636983397624 -0.0056889568254697874 0 -0.0071465418877928533 -0.0060624766769224857 0 -0.0067994771726540958 -0.0053582646692193212 0 -0.0063666266621608221 -0.0060225570997789928 0 -0.0066517382053865089 -0.0059579203401498113 0 -0.0071785580134173296 -0.0057129610802747069 0 -0.0066517382053865089 -0.0059579203401498113 0 -0.0063714934993037257 -0.0056297676988972525 0 -0.0061179869698054353 -0.005896040374345185 0 -0.0063496545345723705 -0.0059137625298228734 0 -0.0079978620747498154 -0.0058132147124240491 0 -0.0078425802881958752 -0.0055587948206690784 0 -0.0071465418877928533 -0.0060624766769224857 0 -0.0061179869698054353 -0.005896040374345185 0 -0.0061529769015231332 -0.006001034498387868 0 -0.0063496545345723705 -0.0059137625298228734 0 -0.0061179869698054353 -0.005896040374345185 0 -0.0061529769015231332 -0.006001034498387868 0 -0.0060329944406182492 -0.0059928041769969874 0 -0.0063221853007082692 -0.0060228665917839933 0 -0.0061179869698054353 -0.005896040374345185 0 -0.0060329944406182492 -0.0059928041769969874 0 -0.0061529769015231332 -0.006001034498387868 0 -0.0064222602454217237 -0.0061085745821365172 0 -0.0060847141583928923 -0.0060851365779686136 0 -0.0061529769015231332 -0.006001034498387868 0 -0.0060329944406182492 -0.0059928041769969874 0 -0.0060847141583928923 -0.0060851365779686136 0 -0.0050626728234423298 -0.006875563194032288 0 -0.0054831682115538344 -0.0063741954640796515 0 -0.0039937875524432382 -0.0073964494768100977 0 -0.0038684252995950389 -0.0065784985910752021 0 -0.0047928005640698775 -0.0067634360019994547 0 -0.0061529769015231332 -0.006001034498387868 0 -0.0064222602454217237 -0.0061085745821365172 0 -0.0063496545345723705 -0.0059137625298228734 0 -0.0067222690893799456 -0.0058451532602552406 0 -0.0064222602454217237 -0.0061085745821365172 0 -0.0063496545345723705 -0.0059137625298228734 0 -0.0039937875524432382 -0.0073964494768100977 0 -0.0032065068338584645 -0.0080326777353225236 0 -0.0032635239003408548 -0.0072130204654377817 0 -0.0050626728234423298 -0.006875563194032288 0 -0.0057084988452891505 -0.0063001737965605251 0 -0.0067222690893799456 -0.0058451532602552406 0 -0.0064222602454217237 -0.0061085745821365172 0 -0.0068301220440765064 -0.0059446935972577103 0 -0.0066953695846236764 -0.0062089413192449342 0 -0.0057084988452891505 -0.0063001737965605251 0 -0.0039937875524432382 -0.0073964494768100977 0 -0.0032635239003408548 -0.0072130204654377817 0 -0.0038684252995950389 -0.0065784985910752021 0 -0.0032635239003408548 -0.0072130204654377817 0 -0.0038684252995950389 -0.0065784985910752021 0 -0.0028026064773145078 -0.0064417918147416124 0 -0.0038684252995950389 -0.0065784985910752021 0 -0.0036190249903916456 -0.0057750789028561764 0 -0.0028026064773145078 -0.0064417918147416124 0 -0.0038684252995950389 -0.0065784985910752021 0 -0.0047928005640698775 -0.0067634360019994547 0 -0.0046128270589600156 -0.0059248108944900315 0 -0.0038684252995950389 -0.0065784985910752021 0 -0.0036190249903916456 -0.0057750789028561764 0 -0.0046128270589600156 -0.0059248108944900315 0 -0.0036190249903916456 -0.0057750789028561764 0 -0.0046128270589600156 -0.0059248108944900315 0 -0.004397766477375312 -0.0052151344055147014 0 0.0070405407481944635 -0.0049645727779156117 0 0.0068693376692473291 -0.0052702772521629158 0 0.0066938535047196398 -0.004916005937945324 0 0.001700732579106535 -0.005365229919930538 0 0.002228908058557202 -0.0056443023943076919 0 -0.0059859258603838809 -0.0059810969939234531 0 -0.0060329944406182492 -0.0059928041769969874 0 -0.0056595065413368303 -0.0060196291730974282 0 -0.0060329944406182492 -0.0059928041769969874 0 -0.0060847141583928923 -0.0060851365779686136 0 -0.0056595065413368303 -0.0060196291730974282 0 -0.0047928005640698775 -0.0067634360019994547 0 -0.0046128270589600156 -0.0059248108944900315 0 -0.0056595065413368303 -0.0060196291730974282 0 -0.0054831682115538344 -0.0063741954640796515 0 -0.0056594289852819977 -0.0060721931669190229 0 -0.0046128270589600156 -0.0059248108944900315 0 -0.0056595065413368303 -0.0060196291730974282 0 -0.0052838846181928944 -0.0054244768672305913 0 -0.0058722948141121554 -0.0056970421210604536 0 -0.0056595065413368303 -0.0060196291730974282 0 -0.0052838846181928944 -0.0054244768672305913 0 -0.0046128270589600156 -0.0059248108944900315 0 -0.0052838846181928944 -0.0054244768672305913 0 -0.004397766477375312 -0.0052151344055147014 0 -0.0052838846181928944 -0.0054244768672305913 0 -0.0049660400045021102 -0.0047524868645263041 0 -0.004397766477375312 -0.0052151344055147014 0 0.0029420804844801974 -0.0057087981311193334 0 0.0084174651949866126 -0.0057182017449033985 0 0.0065748901379457979 -0.0061801084785136871 0 0.0065395174568833028 -0.006571781116089242 0 0.0071321092674770112 -0.0059754519577430694 0 0.0075542641815328051 -0.00580669437494167 0 0.0072318593364122889 -0.005389903747534377 0 0.0071321092674770112 -0.0059754519577430694 0 0.0029420804844801974 -0.0057087981311193334 0 0.0011438500654570418 -0.0051455753968568533 0 -0.0056366209927271472 -0.0051122119461985745 0 -0.0052838846181928944 -0.0054244768672305913 0 -0.0049660400045021102 -0.0047524868645263041 0 -0.00048521447476773867 -0.006330126866777178 0 0.0029420804844801974 -0.0057087981311193334 0 0.0061243231398956637 -0.0064775011927673482 0 0.0055324098189436215 -0.0073439303533700392 0 0.0064478085076213791 -0.0069236513897746208 0 0.0065628089704345234 -0.0072373657016794341 0 0.0029420804844801974 -0.0057087981311193334 0 0.0070405407481944635 -0.0049645727779156117 0 0.0070453336956254227 -0.0055356711897891391 0 0.0068693376692473291 -0.0052702772521629158 0 0.001700732579106535 -0.005365229919930538 0 0.0011438500654570418 -0.0051455753968568533 0 0.0070405407481944635 -0.0049645727779156117 0 0.0072318593364122889 -0.005389903747534377 0 0.0070453336956254227 -0.0055356711897891391 0 0.0071012147292501262 -0.0058331981774817016 0 0.0071321092674770112 -0.0059754519577430694 0 0.0070453336956254227 -0.0055356711897891391 0 0.0072318593364122889 -0.005389903747534377 0 0.0071321092674770112 -0.0059754519577430694 0 0.0070453336956254227 -0.0055356711897891391 0 0.0070453336956254227 -0.0055356711897891391 0 0.0069675297677779706 -0.0056146904952665564 0 0.0068693376692473291 -0.0052702772521629158 0 0.0071012147292501262 -0.0058331981774817016 0 0.0070453336956254227 -0.0055356711897891391 0 0.0069675297677779706 -0.0056146904952665564 0 0.0069675297677779706 -0.0056146904952665564 0 0.0068693376692473291 -0.0052702772521629158 0 0.0065945688772919443 -0.0053189037026184329 0 0.006803386960926425 -0.0056367350475002437 0 0.0069675297677779706 -0.0056146904952665564 0 0.0065945688772919443 -0.0053189037026184329 0 0.0068693376692473291 -0.0052702772521629158 0 0.0065945688772919443 -0.0053189037026184329 0 0.0066938535047196398 -0.004916005937945324 0 0.0065945688772919443 -0.0053189037026184329 0 0.0066938535047196398 -0.004916005937945324 0 0.006334762794345865 -0.0047535635528369868 0 0.0065945688772919443 -0.0053189037026184329 0 0.0060320140063324203 -0.0051062452095860756 0 0.006334762794345865 -0.0047535635528369868 0 0.00653985699566408 -0.0056093183844141562 0 0.006803386960926425 -0.0056367350475002437 0 0.0065945688772919443 -0.0053189037026184329 0 0.00653985699566408 -0.0056093183844141562 0 0.0065945688772919443 -0.0053189037026184329 0 0.0062619176958477445 -0.005442679567920306 0 0.00611988441261597 -0.0056488578678454545 0 0.00653985699566408 -0.0056093183844141562 0 0.0062619176958477445 -0.005442679567920306 0 0.00611988441261597 -0.0056488578678454545 0 0.0062619176958477445 -0.005442679567920306 0 0.0055512685891633178 -0.0053391026545928956 0 0.00611988441261597 -0.0056488578678454545 0 0.0055512685891633178 -0.0053391026545928956 0 0.0047442584941532664 -0.0057822346141555084 0 0.0055512685891633178 -0.0053391026545928956 0 0.0060320140063324203 -0.0051062452095860756 0 0.0053366061887550314 -0.0044461451757411953 0 0.0062619176958477445 -0.005442679567920306 0 0.0055512685891633178 -0.0053391026545928956 0 0.0060320140063324203 -0.0051062452095860756 0 0.0065945688772919443 -0.0053189037026184329 0 0.0062619176958477445 -0.005442679567920306 0 0.0060320140063324203 -0.0051062452095860756 0 0.0059374866469148 -0.0046411099614844667 0 0.0059482733556737296 -0.0042926986950795913 0 0.006334762794345865 -0.0047535635528369868 0 0.0060320140063324203 -0.0051062452095860756 0 0.0059374866469148 -0.0046411099614844667 0 0.006334762794345865 -0.0047535635528369868 0 0.0059374866469148 -0.0046411099614844667 0 0.0053366061887550314 -0.0044461451757411953 0 0.0059482733556737296 -0.0042926986950795913 0 0.0060320140063324203 -0.0051062452095860756 0 0.0059374866469148 -0.0046411099614844667 0 0.0053366061887550314 -0.0044461451757411953 0 0.0058093677969743001 -0.0038312450309914963 0 0.0049873094171339763 -0.0038997085258241286 0 0.0054636599218464447 -0.0033004903931995854 0 0.0053366061887550314 -0.0044461451757411953 0 0.0058093677969743001 -0.0038312450309914963 0 0.0049873094171339763 -0.0038997085258241286 0 0.0049894677504778292 -0.0046868360492557486 0 0.0068621969576792572 -0.003541169742631555 0 0.0068621969576792572 -0.003541169742631555 0 0.00063229340275692929 -0.0049233249018463213 0 0.0059482733556737296 -0.0042926986950795913 0 0.006334762794345865 -0.0047535635528369868 0 0.006317297732191896 -0.0040587242982019611 0 0.0067265263307033814 -0.0044874348175643307 0 0.006334762794345865 -0.0047535635528369868 0 0.006317297732191896 -0.0040587242982019611 0 0.002228908058557202 -0.0056443023943076919 0 0.00063229340275692929 -0.0049233249018463213 0 0.0067265263307033814 -0.0044874348175643307 0 0.0066938535047196398 -0.004916005937945324 0 0.006334762794345865 -0.0047535635528369868 0 0.0070405407481944635 -0.0049645727779156117 0 0.0067265263307033814 -0.0044874348175643307 0 0.0066938535047196398 -0.004916005937945324 0 0.0039229377365456322 -0.0051407637766158597 0 0.0035979767319415583 -0.0049677922028580797 0 0.0034045101794853848 -0.0055590507701155818 0 0.0032740164940144425 -0.0045604794522175604 0 0.0026047465661519376 -0.0046703754547574444 0 0.0034045101794853848 -0.0055590507701155818 0 0.0026047465661519376 -0.0046703754547574444 0 0.0019653832890807756 -0.0052636840840526713 0 0.0041368375353774108 -0.0055104971879750509 0 0.0048380913385077254 -0.0048218230297756397 0 0.0036422988818781308 -0.0043334409690182702 0 0.0034045101794853848 -0.0055590507701155818 0 0.0039915157124909457 -0.0044348995733578672 0 0.0032740164940144425 -0.0045604794522175604 0 0.0050252438335598284 -0.0059494055666074281 0 0.0048380913385077254 -0.0048218230297756397 0 0.0057144226845636335 -0.0052244406262483495 0 0.0034045101794853848 -0.0055590507701155818 0 0.0046953678554588364 -0.0047994425538132931 0 0.0039915157124909457 -0.0044348995733578672 0 0.0034045101794853848 -0.0055590507701155818 0 0.0047442584941532664 -0.0057822346141555084 0 0.0046953678554588364 -0.0047994425538132931 0 0.0039229377365456322 -0.0051407637766158597 0 0.0052578299385163466 -0.0054998662474015627 0 0.0060182907138333699 -0.0056400501892921017 0 0.0052578299385163466 -0.0054998662474015627 0 0.0055512685891633178 -0.0053391026545928956 0 0.0047442584941532664 -0.0057822346141555084 0 0.0046953678554588364 -0.0047994425538132931 0 0.0055512685891633178 -0.0053391026545928956 0 0.0053366061887550314 -0.0044461451757411953 0 0.0046953678554588364 -0.0047994425538132931 0 0.0053366061887550314 -0.0044461451757411953 0 0.0046953678554588364 -0.0047994425538132931 0 0.0049873094171339763 -0.0038997085258241286 0 0.0046953678554588364 -0.0047994425538132931 0 0.0049873094171339763 -0.0038997085258241286 0 0.0044007203918713057 -0.0037862623927921689 0 0.0049873094171339763 -0.0038997085258241286 0 0.0044007203918713057 -0.0037862623927921689 0 0.0048545374775401159 -0.0033401753059874488 0 0.0044007203918713057 -0.0037862623927921689 0 0.0039915157124909457 -0.0044348995733578672 0 0.0038269177903742136 -0.0037122996110316078 0 0.0044007203918713057 -0.0037862623927921689 0 0.0038269177903742136 -0.0037122996110316078 0 0.0039137993435476252 -0.0031542764300931136 0 0.0046953678554588364 -0.0047994425538132931 0 0.0044007203918713057 -0.0037862623927921689 0 0.0039915157124909457 -0.0044348995733578672 0 0.0032740164940144425 -0.0045604794522175604 0 0.0033768071542656102 -0.0040106715392129681 0 0.0029140160011293676 -0.0042526980159769152 0 0.0039915157124909457 -0.0044348995733578672 0 0.0032740164940144425 -0.0045604794522175604 0 0.0033768071542656102 -0.0040106715392129681 0 0.0039915157124909457 -0.0044348995733578672 0 0.0038269177903742136 -0.0037122996110316078 0 0.0033768071542656102 -0.0040106715392129681 0 0.0038269177903742136 -0.0037122996110316078 0 0.0033768071542656102 -0.0040106715392129681 0 0.003354557505068368 -0.00340091861273314 0 0.0033768071542656102 -0.0040106715392129681 0 0.0027674958793488425 -0.0038617334689223532 0 0.003354557505068368 -0.00340091861273314 0 0.0027674958793488425 -0.0038617334689223532 0 0.0025292122691258183 -0.0041700352082616431 0 0.0029140160011293676 -0.0042526980159769152 0 0.0033768071542656102 -0.0040106715392129681 0 0.0027674958793488425 -0.0038617334689223532 0 0.0029140160011293676 -0.0042526980159769152 0 -0.0025650157998214421 -0.0029326709633713333 0 0.00046933507485170088 -0.003283707397494976 0 0.0027674958793488425 -0.0038617334689223532 0 0.002427026557409648 -0.003776427535025423 0 0.0032583831661458259 -0.0033371388062398612 0 0.0032109226105616804 -0.0033418416224361585 0 0.00046933507485170088 -0.003283707397494976 0 0.0027674958793488425 -0.0038617334689223532 0 0.002427026557409648 -0.003776427535025423 0 0.0025292122691258183 -0.0041700352082616431 0 0.0025292122691258183 -0.0041700352082616431 0 0.0029140160011293676 -0.0042526980159769152 0 0.0026047465661519376 -0.0046703754547574444 0 0.0032740164940144425 -0.0045604794522175604 0 0.0029140160011293676 -0.0042526980159769152 0 0.0026047465661519376 -0.0046703754547574444 0 -0.0068109711205958491 -0.0014123736741084379 0 -0.007195489241587737 -0.001466063181433294 0 -0.007157835666780357 -0.0011509200043708174 0 -0.0068109711205958491 -0.0014123736741084379 0 -0.0069831237133762382 -0.0016972035613656634 0 -0.007195489241587737 -0.001466063181433294 0 -0.0069820605478241116 -0.0020041181225183306 0 -0.0069831237133762382 -0.0016972035613656634 0 -0.0066369839223402987 -0.0018460310828423204 0 -0.0068109711205958491 -0.0014123736741084379 0 -0.0069831237133762382 -0.0016972035613656634 0 -0.0066369839223402987 -0.0018460310828423204 0 0.00046933507485170088 -0.003283707397494976 0 -0.0010744595456875735 -0.001852426417101611 0 0.00046933507485170088 -0.003283707397494976 0 0.0044134538253507872 -0.0027201484432113846 0 0.0038269177903742136 -0.0037122996110316078 0 0.003354557505068368 -0.00340091861273314 0 0.0039137993435476252 -0.0031542764300931136 0 -0.0068109711205958491 -0.0014123736741084379 0 -0.0062698773892338128 -0.0015028372521913842 0 -0.0065202822702089425 -0.0012061750661713328 0 -0.0068109711205958491 -0.0014123736741084379 0 -0.0066369839223402987 -0.0018460310828423204 0 -0.0062698773892338128 -0.0015028372521913842 0 0.0033476913602096597 -0.0034323580403121741 0 0.0041417137226501038 -0.0027009988454959814 0 0.0039137993435476252 -0.0031542764300931136 0 0.0044007203918713057 -0.0037862623927921689 0 0.0039137993435476252 -0.0031542764300931136 0 0.0044434537367960322 -0.003148459511248924 0 0.0041417137226501038 -0.0027009988454959814 0 0.0039137993435476252 -0.0031542764300931136 0 0.0044434537367960322 -0.003148459511248924 0 0.0044434537367960322 -0.003148459511248924 0 0.0048545374775401159 -0.0033401753059874488 0 0.0048867673649026977 -0.0027910901744219985 0 0.0044007203918713057 -0.0037862623927921689 0 0.0044434537367960322 -0.003148459511248924 0 0.0048545374775401159 -0.0033401753059874488 0 0.0041417137226501038 -0.0027009988454959814 0 0.0048867673649026977 -0.0027910901744219985 0 0.0048067815747613206 -0.0019790534173047469 0 0.0041417137226501038 -0.0027009988454959814 0 0.0044434537367960322 -0.003148459511248924 0 0.0048867673649026977 -0.0027910901744219985 0 -0.0062698773892338128 -0.0015028372521913842 0 -0.0058611761412886813 -0.0011226004703897047 0 -0.0062258368429517694 -0.0011788920260577811 0 -0.0010744595456875735 -0.001852426417101611 0 -0.0022162994535786327 -0.0024193068349727741 0 -0.0058611761412886813 -0.0011226004703897047 0 -0.0061906271843746863 -0.00086080218904738661 0 -0.0062258368429517694 -0.0011788920260577811 0 -0.0022162994535786327 -0.0024193068349727741 0 -0.0073792449331819268 -0.0043458771799578834 0 -0.0051507719338320067 -0.0019346232071120139 0 -0.0058942367269349564 -0.0012532477158386907 0 -0.0048556419858827764 -0.0016161299598155057 0 -0.0058942367269349564 -0.0012532477158386907 0 -0.0048556419858827764 -0.0016161299598155057 0 -0.0057027557861213897 -0.00089262114555914906 0 -0.0082209756104278438 -0.0052182544641140721 0 -0.008227000822934389 -0.0053034832791137463 0 -0.0081732428509206107 -0.0052613134690464849 0 -0.0073792449331819268 -0.0043458771799578834 0 -0.0067453017252930708 -0.0030734635145171127 0 -0.0022162994535786327 -0.0024193068349727741 0 -0.0065210593037212175 -0.00070053762465386432 0 -0.0058942367269349564 -0.0012532477158386907 0 -0.0064985226879692454 -0.0006260383741916373 0 -0.0057027557861213897 -0.00089262114555914906 0 -0.0061906271843746863 -0.00086080218904738661 0 -0.0063672780077781588 -0.0010054458760542612 0 -0.0062258368429517694 -0.0011788920260577811 0 -0.0065210593037212175 -0.00070053762465386432 0 -0.0062888667248639472 -0.0008145231741948101 0 -0.0061906271843746863 -0.00086080218904738661 0 -0.0064387197802383027 -0.00084726371676193595 0 -0.0064985226879692454 -0.0006260383741916373 0 -0.0061906271843746863 -0.00086080218904738661 0 -0.0064387197802383027 -0.00084726371676193595 0 -0.0063672780077781588 -0.0010054458760542612 0 -0.0064387197802383027 -0.00084726371676193595 0 -0.0063672780077781588 -0.0010054458760542612 0 -0.0065612607463418314 -0.0009711571840804494 0 -0.0062698773892338128 -0.0015028372521913842 0 -0.0062258368429517694 -0.0011788920260577811 0 -0.0065202822702089425 -0.0012061750661713328 0 -0.0063672780077781588 -0.0010054458760542612 0 -0.0062258368429517694 -0.0011788920260577811 0 -0.0065202822702089425 -0.0012061750661713328 0 -0.0068109711205958491 -0.0014123736741084379 0 -0.0065202822702089425 -0.0012061750661713328 0 -0.0068334057498652843 -0.00097899635521209302 0 -0.0065202822702089425 -0.0012061750661713328 0 -0.0065612607463418314 -0.0009711571840804494 0 -0.0068334057498652843 -0.00097899635521209302 0 -0.0063672780077781588 -0.0010054458760542612 0 -0.0065202822702089425 -0.0012061750661713328 0 -0.0065612607463418314 -0.0009711571840804494 0 -0.0066245241520654025 -0.00082152888300492187 0 -0.0068334057498652843 -0.00097899635521209302 0 -0.00677162405275038 -0.00066045507178474298 0 -0.0064387197802383027 -0.00084726371676193595 0 -0.0065612607463418314 -0.0009711571840804494 0 -0.0066245241520654025 -0.00082152888300492187 0 -0.0064387197802383027 -0.00084726371676193595 0 -0.0066245241520654025 -0.00082152888300492187 0 -0.0064985226879692454 -0.0006260383741916373 0 -0.0065612607463418314 -0.0009711571840804494 0 -0.0066245241520654025 -0.00082152888300492187 0 -0.0068334057498652843 -0.00097899635521209302 0 -0.0068334057498652843 -0.00097899635521209302 0 -0.0072650175903396499 -0.00081121475641872192 0 -0.007157835666780357 -0.0011509200043708174 0 -0.0068334057498652843 -0.00097899635521209302 0 -0.0069987363740564631 -0.00071339343597710434 0 -0.00677162405275038 -0.00066045507178474298 0 -0.0068334057498652843 -0.00097899635521209302 0 -0.0069987363740564631 -0.00071339343597710434 0 -0.0072650175903396499 -0.00081121475641872192 0 -0.0068109711205958491 -0.0014123736741084379 0 -0.0068334057498652843 -0.00097899635521209302 0 -0.007157835666780357 -0.0011509200043708174 0 -0.0077332143332098334 -0.0057582777089808714 0 -0.0075465213077204737 -0.0058963655889575552 0 -0.0076625767245845156 -0.0059937166426006841 0 -0.0077332143332098334 -0.0057582777089808714 0 -0.0075493060980222348 -0.005796632670821999 0 -0.0075465213077204737 -0.0058963655889575552 0 -0.0077332143332098334 -0.0057582777089808714 0 -0.0075493060980222348 -0.005796632670821999 0 -0.0075509600321383274 -0.0057265754732667472 0 -0.0032065068338584645 -0.0080326777353225236 0 -0.0032635239003408548 -0.0072130204654377817 0 -0.0026082876994966307 -0.0075869249540569368 0 -0.0074321186074139643 -0.0058001413940538217 0 -0.0075493060980222348 -0.005796632670821999 0 -0.0075509600321383274 -0.0057265754732667472 0 -0.0074321186074139643 -0.0058001413940538217 0 -0.0075493060980222348 -0.005796632670821999 0 -0.0075465213077204737 -0.0058963655889575552 0 -0.0057084988452891505 -0.0063001737965605251 0 -0.005740569960994841 -0.0072836160157123131 0 -0.0028026064773145078 -0.0064417918147416124 0 -0.0026082876994966307 -0.0075869249540569368 0 -0.0019960297028847455 -0.0071247595157778376 0 -0.0032635239003408548 -0.0072130204654377817 0 -0.0028026064773145078 -0.0064417918147416124 0 -0.0026082876994966307 -0.0075869249540569368 0 -0.005740569960994841 -0.0072836160157123131 0 0.00063229340275692929 -0.0049233249018463213 0 0.0058093677969743001 -0.0038312450309914963 0 0.0063441268227095258 -0.003347351401728186 0 0.0054636599218464447 -0.0033004903931995854 0 0.0063441268227095258 -0.003347351401728186 0 0.0054636599218464447 -0.0033004903931995854 0 0.0056166764238247584 -0.0026664651420359475 0 0.0049873094171339763 -0.0038997085258241286 0 0.0048545374775401159 -0.0033401753059874488 0 0.0054636599218464447 -0.0033004903931995854 0 0.0048545374775401159 -0.0033401753059874488 0 0.0048867673649026977 -0.0027910901744219985 0 0.0054636599218464447 -0.0033004903931995854 0 0.0048867673649026977 -0.0027910901744219985 0 0.0054636599218464447 -0.0033004903931995854 0 0.0056166764238247584 -0.0026664651420359475 0 0.0048867673649026977 -0.0027910901744219985 0 0.0048067815747613206 -0.0019790534173047469 0 0.0056166764238247584 -0.0026664651420359475 0 -0.0077332143332098334 -0.0057582777089808714 0 -0.0076625767245845156 -0.0059937166426006841 0 -0.0079232768674798917 -0.005750096543162192 0 0.00063229340275692929 -0.0049233249018463213 0 -0.0012284945459464704 -0.0043567305201002316 0 -0.0077332143332098334 -0.0057582777089808714 0 -0.0079232768674798917 -0.005750096543162192 0 -0.0079165081583278951 -0.0055175085111851679 0 -0.0079232768674798917 -0.005750096543162192 0 -0.0079165081583278951 -0.0055175085111851679 0 -0.0079701596448679256 -0.0055584146305628114 0 -0.0079165081583278951 -0.0055175085111851679 0 -0.0079701596448679256 -0.0055584146305628114 0 -0.0079702427995762687 -0.005471522737165546 0 -0.0022162994535786327 -0.0024193068349727741 0 -0.0012284945459464704 -0.0043567305201002316 0 -0.0080698124228532637 -0.0055253976859211806 0 -0.0079701596448679256 -0.0055584146305628114 0 -0.0080276668886376489 -0.0055037004061935825 0 -0.0080698124228532637 -0.0055253976859211806 0 -0.0079232768674798917 -0.005750096543162192 0 -0.0079701596448679256 -0.0055584146305628114 0 -0.0079701596448679256 -0.0055584146305628114 0 -0.0080276668886376489 -0.0055037004061935825 0 -0.0080018308613336742 -0.005506803625697494 0 -0.0080698124228532637 -0.0055253976859211806 0 -0.0080363270700005863 -0.0054923343376402662 0 -0.0080276668886376489 -0.0055037004061935825 0 -0.0082209756104278438 -0.0052182544641140721 0 -0.0082746824814233805 -0.0052924893080318501 0 -0.008227000822934389 -0.0053034832791137463 0 -0.0073792449331819268 -0.0043458771799578834 0 -0.0082884859203577813 -0.0055392392971944796 0 -0.0080369685277579244 -0.0054962435447380399 0 -0.0079702427995762687 -0.005471522737165546 0 -0.0079660573786670564 -0.0053938213335967501 0 -0.0073792449331819268 -0.0043458771799578834 0 -0.0073855800893048301 -0.0044171832371994657 0 -0.0080369685277579244 -0.0054962435447380399 0 -0.0080276668886376489 -0.0055037004061935825 0 -0.0080018308613336742 -0.005506803625697494 0 -0.0079701596448679256 -0.0055584146305628114 0 -0.0079702427995762687 -0.005471522737165546 0 -0.0080018308613336742 -0.005506803625697494 0 -0.0080369685277579244 -0.0054962435447380399 0 -0.0079702427995762687 -0.005471522737165546 0 -0.0080018308613336742 -0.005506803625697494 0 -0.0079165081583278951 -0.0055175085111851679 0 -0.0079191052469966827 -0.0053477369462260537 0 -0.0079660573786670564 -0.0053938213335967501 0 -0.0079165081583278951 -0.0055175085111851679 0 -0.0079702427995762687 -0.005471522737165546 0 -0.0079660573786670564 -0.0053938213335967501 0 -0.0079165081583278951 -0.0055175085111851679 0 -0.0079191052469966827 -0.0053477369462260537 0 -0.0077978865526962208 -0.0055956625491337423 0 -0.0077332143332098334 -0.0057582777089808714 0 -0.0079165081583278951 -0.0055175085111851679 0 -0.0077978865526962208 -0.0055956625491337423 0 -0.0079191052469966827 -0.0053477369462260537 0 -0.0077978865526962208 -0.0055956625491337423 0 -0.0075509600321383274 -0.0057265754732667472 0 -0.0077332143332098334 -0.0057582777089808714 0 -0.0077978865526962208 -0.0055956625491337423 0 -0.0075509600321383274 -0.0057265754732667472 0 -0.007127108441451778 -0.0057331253981038593 0 -0.007081099301926257 -0.0061360000360006547 0 -0.0075509600321383274 -0.0057265754732667472 0 -0.0057084988452891505 -0.0063001737965605251 0 -0.0078154666175694314 -0.0054563763173483965 0 -0.007127108441451778 -0.0057331253981038593 0 -0.0070666202298416856 -0.0053423587485636505 0 -0.0075509600321383274 -0.0057265754732667472 0 -0.0076232651171587824 -0.0054323762746239209 0 -0.0078765570718533819 -0.0053503089470545362 0 -0.0070666202298416856 -0.0053423587485636505 0 -0.0079191052469966827 -0.0053477369462260537 0 -0.0075509600321383274 -0.0057265754732667472 0 -0.0082085111967409759 -0.005464919687767732 0 -0.0079191052469966827 -0.0053477369462260537 0 -0.0082195598533018905 -0.0054184092926250699 0 -0.0079191052469966827 -0.0053477369462260537 0 -0.0082195598533018905 -0.0054184092926250699 0 -0.008191877160937994 -0.0054051919371669874 0 -0.0082195598533018905 -0.0054184092926250699 0 -0.008191877160937994 -0.0054051919371669874 0 -0.0083647226378279326 -0.0053795925827501883 0 -0.008191877160937994 -0.0054051919371669874 0 -0.008265909797921427 -0.005430559562997264 0 -0.0083647226378279326 -0.0053795925827501883 0 -0.0082977571509241527 -0.0053706333235679074 0 -0.0082870714315277458 -0.005400423804295524 0 -0.008265909797921427 -0.005430559562997264 0 -0.008191877160937994 -0.0054051919371669874 0 -0.0080271329468910163 -0.005402431648461564 0 -0.008265909797921427 -0.005430559562997264 0 -0.0081255889169766869 -0.0053374209317384675 0 -0.0082575897367205119 -0.0054383810329443026 0 -0.0079191052469966827 -0.0053477369462260537 0 -0.0080271329468910163 -0.005402431648461564 0 -0.0079660573786670564 -0.0053938213335967501 0 -0.0079191052469966827 -0.0053477369462260537 0 -0.008191877160937994 -0.0054051919371669874 0 -0.0080271329468910163 -0.005402431648461564 0 -0.0081255889169766869 -0.0053374209317384675 0 -0.0082884859203577813 -0.0055392392971944796 0 -0.0082977571509241527 -0.0053706333235679074 0 -0.0082746824814233805 -0.0052924893080318501 0 -0.0082627203066344915 -0.0053616973585075625 0 -0.0082746824814233805 -0.0052924893080318501 0 -0.008227000822934389 -0.0053034832791137463 0 -0.0082627203066344915 -0.0053616973585075625 0 -0.008227000822934389 -0.0053034832791137463 0 -0.0082627203066344915 -0.0053616973585075625 0 -0.0082058342408763731 -0.0053731087435103563 0 -0.0082977571509241527 -0.0053706333235679074 0 -0.0082627203066344915 -0.0053616973585075625 0 -0.0082870714315277458 -0.005400423804295524 0 -0.0082870714315277458 -0.005400423804295524 0 -0.008272597907003602 -0.005420205908860198 0 -0.0082936271750751259 -0.0054203487847272009 0 -0.0082627203066344915 -0.0053616973585075625 0 -0.0082870714315277458 -0.005400423804295524 0 -0.008272597907003602 -0.005420205908860198 0 -0.0082627203066344915 -0.0053616973585075625 0 -0.008272597907003602 -0.005420205908860198 0 -0.0082058342408763731 -0.0053731087435103563 0 -0.0095958133630830045 -0.0047692076585861215 0 -0.010059173250906838 -0.0051787110383607667 0 -0.011179641270586486 -0.0042743095074543975 0 -0.011178592099612186 -0.0042473397852828276 0 -0.011218848164593181 -0.0042633745403077824 0 -0.012602519241173275 -0.0043651014777378871 0 -0.012876116767614722 -0.0045378385273832844 0 -0.013452259755587347 -0.004466992141170926 0 -0.014933592826056934 -0.0049704026570649108 0 -0.014185577009578048 -0.0038870007039114524 0 -0.008272597907003602 -0.005420205908860198 0 -0.0082936271750751259 -0.0054203487847272009 0 -0.0083055204912820587 -0.0054299734450554528 0 -0.0095958133630830045 -0.0047692076585861215 0 -0.0099648643925757448 -0.0047602171414828608 0 -0.011179641270586486 -0.0042743095074543975 0 -0.011178592099612186 -0.0042473397852828276 0 -0.011053908924845151 -0.0042332933724180581 0 -0.012602519241173275 -0.0043651014777378871 0 -0.0099648643925757448 -0.0047602171414828608 0 -0.0082936271750751259 -0.0054203487847272009 0 -0.0083120159517598227 -0.0054239236235467184 0 -0.0083055204912820587 -0.0054299734450554528 0 -0.0082936271750751259 -0.0054203487847272009 0 -0.0083120159517598227 -0.0054239236235467184 0 -0.0083042330132790075 -0.0054492372813646139 0 -0.0083042330132790075 -0.0054492372813646139 0 -0.008265909797921427 -0.005430559562997264 0 -0.0083647226378279326 -0.0053795925827501883 0 -0.0082936271750751259 -0.0054203487847272009 0 -0.0083042330132790075 -0.0054492372813646139 0 -0.008265909797921427 -0.005430559562997264 0 -0.0085595564735685831 -0.005204675163530203 0 -0.0084266603463454808 -0.0053170550398738171 0 -0.0082870714315277458 -0.005400423804295524 0 -0.0082936271750751259 -0.0054203487847272009 0 -0.008265909797921427 -0.005430559562997264 0 -0.011197589906714904 -0.0024843015251891894 0 -0.0072502210859311253 -1.7811104939042722e-05 0 -0.0071104781232352691 -0.0004998433308241409 0 -0.0069774917839797897 -0.00011657132200491437 0 -0.0073984894286264133 -0.00024155512798136218 0 -0.0071104781232352691 -0.0004998433308241409 0 -0.00677162405275038 -0.00066045507178474298 0 -0.0069774917839797897 -0.00011657132200491437 0 -0.0071104781232352691 -0.0004998433308241409 0 -0.0069987363740564631 -0.00071339343597710434 0 -0.00677162405275038 -0.00066045507178474298 0 -0.0071104781232352691 -0.0004998433308241409 0 -0.0069987363740564631 -0.00071339343597710434 0 -0.0072650175903396499 -0.00081121475641872192 0 -0.0066245241520654025 -0.00082152888300492187 0 -0.00677162405275038 -0.00066045507178474298 0 -0.0064985226879692454 -0.0006260383741916373 0 -0.00677162405275038 -0.00066045507178474298 0 -0.0064985226879692454 -0.0006260383741916373 0 -0.0064279580484207406 -0.00031789722363501007 0 -0.0059878508344185935 -6.6214123039752743e-05 0 -0.0082731729501299943 -0.002919846383468636 0 -0.00677162405275038 -0.00066045507178474298 0 -0.0065559658372532107 -0.00048098326526140717 0 -0.0069774917839797897 -0.00011657132200491437 0 -0.0082731729501299943 -0.002919846383468636 0 -0.011197589906714904 -0.0024843015251891894 0 -0.011169607314316866 -0.004196648713796259 0 -0.011194871209188478 -0.0042548625338204478 0 -0.011146847050660911 -0.004222148974770498 0 -0.0082731729501299943 -0.002919846383468636 0 -0.010059173250906838 -0.0051787110383607667 0 -0.011169607314316866 -0.004196648713796259 0 -0.011212558960433737 -0.0042521837983195976 0 -0.011194871209188478 -0.0042548625338204478 0 -0.0081265395539175667 -0.0052953464546515051 0 -0.0081732428509206107 -0.0052613134690464849 0 -0.0082058342408763731 -0.0053731087435103563 0 -0.0082731729501299943 -0.002919846383468636 0 -0.0067453017252930708 -0.0030734635145171127 0 -0.0064985226879692454 -0.0006260383741916373 0 -0.0064279580484207406 -0.00031789722363501007 0 -0.0057027557861213897 -0.00089262114555914906 0 -0.008227000822934389 -0.0053034832791137463 0 -0.0081732428509206107 -0.0052613134690464849 0 -0.0082058342408763731 -0.0053731087435103563 0 -0.011179641270586486 -0.0042743095074543975 0 -0.011212558960433737 -0.0042521837983195976 0 -0.011218848164593181 -0.0042633745403077824 0 -0.014933592826056934 -0.0049704026570649108 0 -0.015675774716963704 -0.0042606071296401784 0 -0.014185577009578048 -0.0038870007039114524 0 -0.014933592826056934 -0.0049704026570649108 0 -0.015675774716963704 -0.0042606071296401784 0 -0.016280102658668874 -0.0053755658601381748 0 -0.012876116767614722 -0.0045378385273832844 0 -0.014412270770984574 -0.0051730394581430989 0 -0.011212558960433737 -0.0042521837983195976 0 -0.011218848164593181 -0.0042633745403077824 0 -0.011194871209188478 -0.0042548625338204478 0 -0.014412270770984574 -0.0051730394581430989 0 -0.011197589906714904 -0.0024843015251891894 0 -0.016280102658668874 -0.0053755658601381748 0 -0.017002792818307168 -0.0051344909345205072 0 -0.017264441207364964 -0.0055919851665039893 0 -0.016280102658668874 -0.0053755658601381748 0 -0.017002792818307168 -0.0051344909345205072 0 -0.01697427720663891 -0.0046543870708443081 0 -0.015675774716963704 -0.0042606071296401784 0 -0.016280102658668874 -0.0053755658601381748 0 -0.01697427720663891 -0.0046543870708443081 0 -0.016165397553980249 -0.0045681198307187237 0 -0.01697427720663891 -0.0046543870708443081 0 -0.016854373741379044 -0.0041647968779108509 0 -0.015922259669552793 -0.0044249799858367238 0 -0.016888063574865182 -0.0046334567513163999 0 -0.01697427720663891 -0.0046543870708443081 0 -0.017247289468639349 -0.0044175300645990425 0 -0.016854373741379044 -0.0041647968779108509 0 -0.017147570654378688 -0.0044180075847817281 0 -0.018402034310349352 -0.0045417460005054153 0 -0.017247289468639349 -0.0044175300645990425 0 -0.017401892737040375 -0.0048583956818726085 0 -0.017766258960959454 -0.0045300648859889856 0 -0.017002792818307168 -0.0051344909345205072 0 -0.01697427720663891 -0.0046543870708443081 0 -0.017401892737040375 -0.0048583956818726085 0 -0.01697427720663891 -0.0046543870708443081 0 -0.017247289468639349 -0.0044175300645990425 0 -0.017401892737040375 -0.0048583956818726085 0 -0.017002792818307168 -0.0051344909345205072 0 -0.017401892737040375 -0.0048583956818726085 0 -0.017264441207364964 -0.0055919851665039893 0 -0.011197589906714904 -0.0024843015251891894 0 -0.013290646869389111 -0.0029070951338150369 0 -0.017401892737040375 -0.0048583956818726085 0 -0.017264441207364964 -0.0055919851665039893 0 -0.017812694543841882 -0.0050083126571618831 0 -0.017665713893249321 -0.0033841753695646602 0 -0.017227906095245361 -0.0037416657648749923 0 -0.017010412144388271 -0.0032331334666082633 0 -0.018915954676150742 -0.0040332456178749608 0 -0.019126434427768683 -0.0034672880331501894 0 -0.01937420333038312 -0.0040377933683619143 0 -0.017665713893249321 -0.0033841753695646602 0 -0.017650855311944429 -0.0039974357722136365 0 -0.017227906095245361 -0.0037416657648749923 0 -0.017665713893249321 -0.0033841753695646602 0 -0.017650855311944429 -0.0039974357722136365 0 -0.017944411839171958 -0.0039914284478888944 0 -0.017247289468639349 -0.0044175300645990425 0 -0.017650855311944429 -0.0039974357722136365 0 -0.018015385787440986 -0.0044750609333754181 0 -0.017650855311944429 -0.0039974357722136365 0 -0.018015385787440986 -0.0044750609333754181 0 -0.017944411839171958 -0.0039914284478888944 0 -0.017247289468639349 -0.0044175300645990425 0 -0.017650855311944429 -0.0039974357722136365 0 -0.017272455507377642 -0.0040772379663288035 0 -0.017650855311944429 -0.0039974357722136365 0 -0.017272455507377642 -0.0040772379663288035 0 -0.017227906095245361 -0.0037416657648749923 0 -0.017272455507377642 -0.0040772379663288035 0 -0.017227906095245361 -0.0037416657648749923 0 -0.016854373741379044 -0.0041647968779108509 0 -0.017227906095245361 -0.0037416657648749923 0 -0.016854373741379044 -0.0041647968779108509 0 -0.016754040897336047 -0.0036351871005663532 0 -0.017247289468639349 -0.0044175300645990425 0 -0.017272455507377642 -0.0040772379663288035 0 -0.016854373741379044 -0.0041647968779108509 0 -0.016854373741379044 -0.0041647968779108509 0 -0.016754040897336047 -0.0036351871005663532 0 -0.01626496230919721 -0.0038877347362654426 0 -0.017665713893249321 -0.0033841753695646602 0 -0.017010412144388271 -0.0032331334666082633 0 -0.016910552427694479 -0.0025324021305883275 0 -0.016754040897336047 -0.0036351871005663532 0 -0.017010412144388271 -0.0032331334666082633 0 -0.016238753046555591 -0.0030435573802158455 0 -0.017227906095245361 -0.0037416657648749923 0 -0.016754040897336047 -0.0036351871005663532 0 -0.017010412144388271 -0.0032331334666082633 0 -0.016238753046555591 -0.0030435573802158455 0 -0.01626496230919721 -0.0038877347362654426 0 -0.015782339433443756 -0.0036745405731656708 0 -0.016754040897336047 -0.0036351871005663532 0 -0.016238753046555591 -0.0030435573802158455 0 -0.01626496230919721 -0.0038877347362654426 0 -0.016165397553980249 -0.0045681198307187237 0 -0.016854373741379044 -0.0041647968779108509 0 -0.01626496230919721 -0.0038877347362654426 0 -0.016165397553980249 -0.0045681198307187237 0 -0.01626496230919721 -0.0038877347362654426 0 -0.015714421264303152 -0.0041257783272573593 0 -0.015714421264303152 -0.0041257783272573593 0 -0.015217059522011186 -0.0038391213758452798 0 -0.015782339433443756 -0.0036745405731656708 0 -0.01626496230919721 -0.0038877347362654426 0 -0.015714421264303152 -0.0041257783272573593 0 -0.015782339433443756 -0.0036745405731656708 0 -0.015922259669552793 -0.0044249799858367238 0 -0.014575105845773583 -0.0042160881557022096 0 -0.016165397553980249 -0.0045681198307187237 0 -0.015714421264303152 -0.0041257783272573593 0 -0.015074735513134704 -0.0045495320036299395 0 -0.015714421264303152 -0.0041257783272573593 0 -0.015217059522011186 -0.0038391213758452798 0 -0.015074735513134704 -0.0045495320036299395 0 -0.016238753046555591 -0.0030435573802158455 0 -0.015782339433443756 -0.0036745405731656708 0 -0.015420549901136657 -0.0032364393727343909 0 -0.015217059522011186 -0.0038391213758452798 0 -0.015782339433443756 -0.0036745405731656708 0 -0.015420549901136657 -0.0032364393727343909 0 -0.015420549901136657 -0.0032364393727343909 0 -0.015523143823914455 -0.0025015078244639854 0 -0.014758393322484513 -0.0032519353403613681 0 -0.016238753046555591 -0.0030435573802158455 0 -0.015523143823914455 -0.0025015078244639854 0 -0.015992671594322053 -0.001527410339823143 0 -0.016238753046555591 -0.0030435573802158455 0 -0.015420549901136657 -0.0032364393727343909 0 -0.015523143823914455 -0.0025015078244639854 0 -0.015992671594322053 -0.001527410339823143 0 -0.015242671760832665 -0.0015734551057168553 0 -0.015252927632325579 -0.00084899252658245854 0 -0.015523143823914455 -0.0025015078244639854 0 -0.015992671594322053 -0.001527410339823143 0 -0.015242671760832665 -0.0015734551057168553 0 -0.016191637013655356 -0.0017705331985139114 0 -0.017451732084142097 -0.0028450690898056087 0 -0.017646331808798859 -0.0016417554140655999 0 -0.016084241209347844 -0.0016426606648365036 0 -0.017183159056449508 -0.0026944770362190666 0 -0.016238753046555591 -0.0030435573802158455 0 -0.015992671594322053 -0.001527410339823143 0 -0.016910552427694479 -0.0025324021305883275 0 -0.018266874961003623 -0.0036255378448759156 0 -0.017183159056449508 -0.0026944770362190666 0 -0.017010412144388271 -0.0032331334666082633 0 -0.016238753046555591 -0.0030435573802158455 0 -0.016910552427694479 -0.0025324021305883275 0 -0.017451732084142097 -0.0028450690898056087 0 -0.017646331808798859 -0.0016417554140655999 0 -0.019183066820247369 -0.0028641384785009945 0 -0.020971792362685721 -0.0036611422723870643 0 -0.021820257923760421 -0.0038036040091585636 0 -0.021796885343579629 -0.0043280098793094897 0 -0.019306171509939657 -0.0026560188672443393 0 -0.020491722066215728 -0.0035989961401730322 0 -0.020971792362685721 -0.0036611422723870643 0 -0.021820257923760421 -0.0038036040091585636 0 -0.021680775049077915 -0.0032425572651288074 0 -0.017451732084142097 -0.0028450690898056087 0 -0.019183066820247369 -0.0028641384785009945 0 -0.019126434427768683 -0.0034672880331501894 0 -0.018915954676150742 -0.0040332456178749608 0 -0.017451732084142097 -0.0028450690898056087 0 -0.019126434427768683 -0.0034672880331501894 0 -0.01228102838392822 -0.0037091304394750169 0 -0.012951322904546064 -0.0039520299840949099 0 -0.011947265702350239 -0.0043877067458447192 0 -0.01228102838392822 -0.0037091304394750169 0 -0.011669908402265956 -0.0037668092083967758 0 -0.011947265702350239 -0.0043877067458447192 0 -0.01228102838392822 -0.0037091304394750169 0 -0.012951322904546064 -0.0039520299840949099 0 -0.012906396344621436 -0.0032405322963258059 0 -0.01228102838392822 -0.0037091304394750169 0 -0.012906396344621436 -0.0032405322963258059 0 -0.011961671457678234 -0.0031791642822480062 0 -0.01228102838392822 -0.0037091304394750169 0 -0.011961671457678234 -0.0031791642822480062 0 -0.011669908402265956 -0.0037668092083967758 0 -0.011961671457678234 -0.0031791642822480062 0 -0.010949032133631973 -0.0036966354883333418 0 -0.011669908402265956 -0.0037668092083967758 0 -0.010095181691775595 -0.0038211675187408618 0 -0.0098286895190692978 -0.00360096447794891 0 -0.0096669876145613811 -0.0039231856747408223 0 -0.010219255774867082 -0.0038471034570824489 0 -0.0100230392231589 -0.0037118358472296355 0 -0.010095181691775595 -0.0038211675187408618 0 -0.010072575337191062 -0.0043717441893470609 0 -0.0096669876145613811 -0.0039231856747408223 0 -0.010219255774867082 -0.0038471034570824489 0 -0.0092487289488380996 -0.0045408400045539102 0 -0.010219255774867082 -0.0038471034570824489 0 -0.010626699617342916 -0.0042265517823210476 0 -0.010011431795871516 -0.0039434454178285455 0 -0.0099925407077196948 -0.0041690884348147151 0 -0.010415780133034127 -0.0042653522883396196 0 -0.010949032133631973 -0.0036966354883333418 0 -0.011669908402265956 -0.0037668092083967758 0 -0.011947265702350239 -0.0043877067458447192 0 -0.0083042330132790075 -0.0054492372813646139 0 -0.0083068381350143456 -0.0053682412695305447 0 -0.0083225294435508614 -0.0053909951160691838 0 -0.0092487289488380996 -0.0045408400045539102 0 -0.010626699617342916 -0.0042265517823210476 0 -0.0083120159517598227 -0.0054239236235467184 0 -0.0083042330132790075 -0.0054492372813646139 0 -0.0083225294435508614 -0.0053909951160691838 0 -0.0083068381350143456 -0.0053682412695305447 0 -0.0083225294435508614 -0.0053909951160691838 0 -0.0085466645620608274 -0.0053527179961887911 0 -0.0085595564735685831 -0.005204675163530203 0 -0.0092487289488380996 -0.0045408400045539102 0 -0.0083120159517598227 -0.0054239236235467184 0 -0.0083225294435508614 -0.0053909951160691838 0 -0.0083055204912820587 -0.0054299734450554528 0 -0.010960834376730209 -0.0031772429511548006 0 -0.011909467225055108 -0.0039130813498977259 0 -0.012588475047512227 -0.0035266030242521789 0 -0.012951322904546064 -0.0039520299840949099 0 -0.011947265702350239 -0.0043877067458447192 0 -0.013667154463808041 -0.0045404737042425633 0 -0.0083225294435508614 -0.0053909951160691838 0 -0.0085466645620608274 -0.0053527179961887911 0 -0.0088239392480612532 -0.0055417110839421678 0 -0.010626699617342916 -0.0042265517823210476 0 -0.013262993953497183 -0.0040085701473131057 0 -0.0078270612285339554 -0.0054806122921541326 0 -0.0099648643925757448 -0.0047602171414828608 0 -0.010626699617342916 -0.0042265517823210476 0 -0.0099648643925757448 -0.0047602171414828608 0 -0.013452259755587347 -0.004466992141170926 0 -0.011909467225055108 -0.0039130813498977259 0 -0.012588475047512227 -0.0035266030242521789 0 -0.013667154463808041 -0.0045404737042425633 0 -0.014517977187899907 -0.0039898084339419033 0 -0.013827543561080808 -0.0037041169124254199 0 -0.012951322904546064 -0.0039520299840949099 0 -0.013667154463808041 -0.0045404737042425633 0 -0.013827543561080808 -0.0037041169124254199 0 -0.013262993953497183 -0.0040085701473131057 0 -0.014575105845773583 -0.0042160881557022096 0 -0.013667154463808041 -0.0045404737042425633 0 -0.015074735513134704 -0.0045495320036299395 0 -0.014517977187899907 -0.0039898084339419033 0 -0.013452259755587347 -0.004466992141170926 0 -0.012588475047512227 -0.0035266030242521789 0 -0.014185577009578048 -0.0038870007039114524 0 -0.015217059522011186 -0.0038391213758452798 0 -0.015074735513134704 -0.0045495320036299395 0 -0.014517977187899907 -0.0039898084339419033 0 -0.015217059522011186 -0.0038391213758452798 0 -0.015420549901136657 -0.0032364393727343909 0 -0.014758393322484513 -0.0032519353403613681 0 -0.015217059522011186 -0.0038391213758452798 0 -0.014517977187899907 -0.0039898084339419033 0 -0.014758393322484513 -0.0032519353403613681 0 -0.014517977187899907 -0.0039898084339419033 0 -0.014758393322484513 -0.0032519353403613681 0 -0.013827543561080808 -0.0037041169124254199 0 -0.012951322904546064 -0.0039520299840949099 0 -0.012906396344621436 -0.0032405322963258059 0 -0.013827543561080808 -0.0037041169124254199 0 -0.014758393322484513 -0.0032519353403613681 0 -0.013827543561080808 -0.0037041169124254199 0 -0.014011510845032505 -0.0029883516168405133 0 -0.012906396344621436 -0.0032405322963258059 0 -0.013827543561080808 -0.0037041169124254199 0 -0.014011510845032505 -0.0029883516168405133 0 -0.012906396344621436 -0.0032405322963258059 0 -0.013427152568047397 -0.0025473942442081434 0 -0.014011510845032505 -0.0029883516168405133 0 -0.013427152568047397 -0.0025473942442081434 0 -0.014011510845032505 -0.0029883516168405133 0 -0.014546044392928871 -0.0022934156458175267 0 -0.013427152568047397 -0.0025473942442081434 0 -0.014546044392928871 -0.0022934156458175267 0 -0.013501033042910908 -0.0016638366252244177 0 -0.015523143823914455 -0.0025015078244639854 0 -0.014546044392928871 -0.0022934156458175267 0 -0.015242671760832665 -0.0015734551057168553 0 -0.015523143823914455 -0.0025015078244639854 0 -0.014758393322484513 -0.0032519353403613681 0 -0.014546044392928871 -0.0022934156458175267 0 -0.014758393322484513 -0.0032519353403613681 0 -0.014011510845032505 -0.0029883516168405133 0 -0.014546044392928871 -0.0022934156458175267 0 -0.014546044392928871 -0.0022934156458175267 0 -0.015242671760832665 -0.0015734551057168553 0 -0.014776901907653833 -0.0011914815258055199 0 -0.014720591849464278 -0.0011022101107377935 0 -0.013850674820624829 -0.00069998251869860797 0 -0.014546044392928871 -0.0022934156458175267 0 -0.014776901907653833 -0.0011914815258055199 0 -0.013501033042910908 -0.0016638366252244177 0 -0.014776901907653833 -0.0011914815258055199 0 -0.013501033042910908 -0.0016638366252244177 0 -0.012988353248458293 -0.00037428515942389257 0 -0.013501033042910908 -0.0016638366252244177 0 -0.011962735743974084 -0.0010255988881389953 0 -0.012300118021509284 -0.0021806291131542315 0 -0.013501033042910908 -0.0016638366252244177 0 -0.011962735743974084 -0.0010255988881389953 0 -0.012988353248458293 -0.00037428515942389257 0 -0.013427152568047397 -0.0025473942442081434 0 -0.013501033042910908 -0.0016638366252244177 0 -0.012300118021509284 -0.0021806291131542315 0 -0.012906396344621436 -0.0032405322963258059 0 -0.011961671457678234 -0.0031791642822480062 0 -0.012300118021509284 -0.0021806291131542315 0 -0.012906396344621436 -0.0032405322963258059 0 -0.013427152568047397 -0.0025473942442081434 0 -0.012300118021509284 -0.0021806291131542315 0 -0.010219255774867082 -0.0038471034570824489 0 -0.010892549360393303 -0.0018507929741531819 0 -0.011961671457678234 -0.0031791642822480062 0 -0.010949032133631973 -0.0036966354883333418 0 -0.010833205193233986 -0.0018062537562829406 0 -0.011961671457678234 -0.0031791642822480062 0 -0.012300118021509284 -0.0021806291131542315 0 -0.010833205193233986 -0.0018062537562829406 0 -0.010229679905816321 -0.0039399568582930405 0 -0.010833205193233986 -0.0018062537562829406 0 -0.0098286895190692978 -0.00360096447794891 0 -0.010833205193233986 -0.0018062537562829406 0 -0.0089286904547484329 -0.0013355510597171346 0 -0.011169884673299227 0.00023187550140048047 0 -0.011962735743974084 -0.0010255988881389953 0 -0.010833205193233986 -0.0018062537562829406 0 -0.011169884673299227 0.00023187550140048047 0 -0.011962735743974084 -0.0010255988881389953 0 -0.012300118021509284 -0.0021806291131542315 0 -0.010833205193233986 -0.0018062537562829406 0 -0.010833205193233986 -0.0018062537562829406 0 -0.0089286904547484329 -0.0013355510597171346 0 -0.0095230769139980284 -0.0025725085090010213 0 -0.0085841759149110682 -0.0035147507573913745 0 -0.0083763331427947948 -0.0032009808199296034 0 -0.0087524994300188647 -0.0030105679702229684 0 -0.0089794743955916873 -0.0033194997936964528 0 -0.0085841759149110682 -0.0035147507573913745 0 -0.0087524994300188647 -0.0030105679702229684 0 -0.0089794743955916873 -0.0033194997936964528 0 -0.0085841759149110682 -0.0035147507573913745 0 -0.0087890386349707642 -0.0039267290289078998 0 -0.0085841759149110682 -0.0035147507573913745 0 -0.0087890386349707642 -0.0039267290289078998 0 -0.0083231080634919349 -0.0038498993012407523 0 -0.0089286904547484329 -0.0013355510597171346 0 -0.0095230769139980284 -0.0025725085090010213 0 -0.0086243776892998367 -0.0033622223649864948 0 -0.010833205193233986 -0.0018062537562829406 0 -0.0095230769139980284 -0.0025725085090010213 0 -0.0098286895190692978 -0.00360096447794891 0 -0.0088535265369599093 -0.0022133385637689764 0 -0.0087138664507752182 -0.0036523295251457461 0 -0.0095230769139980284 -0.0025725085090010213 0 -0.009106554012735751 -0.0036315030647960105 0 -0.0086243776892998367 -0.0033622223649864948 0 -0.0098286895190692978 -0.00360096447794891 0 -0.0096669876145613811 -0.0039231856747408223 0 -0.009106554012735751 -0.0036315030647960105 0 -0.0095230769139980284 -0.0025725085090010213 0 -0.0098286895190692978 -0.00360096447794891 0 -0.009106554012735751 -0.0036315030647960105 0 -0.0091957707322395058 -0.0041055909396911774 0 -0.009106554012735751 -0.0036315030647960105 0 -0.0085228979305819116 -0.004495432922769489 0 -0.010072575337191062 -0.0043717441893470609 0 -0.0096669876145613811 -0.0039231856747408223 0 -0.0091957707322395058 -0.0041055909396911774 0 -0.0092487289488380996 -0.0045408400045539102 0 -0.0093337124930563623 -0.0043181601092123394 0 -0.0096669876145613811 -0.0039231856747408223 0 -0.0091957707322395058 -0.0041055909396911774 0 -0.009106554012735751 -0.0036315030647960105 0 -0.0087890386349707642 -0.0039267290289078998 0 -0.0083158914858095581 -0.0042421733544030322 0 -0.0083231080634919349 -0.0038498993012407523 0 -0.009106554012735751 -0.0036315030647960105 0 -0.0086243776892998367 -0.0033622223649864948 0 -0.0085228979305819116 -0.004495432922769489 0 -0.0087890386349707642 -0.0039267290289078998 0 -0.0085228979305819116 -0.004495432922769489 0 -0.0083158914858095581 -0.0042421733544030322 0 -0.0087138664507752182 -0.0036523295251457461 0 -0.0085449172326702866 -0.0044193265680724514 0 -0.0085228979305819116 -0.004495432922769489 0 -0.0083158914858095581 -0.0042421733544030322 0 -0.0081640521181047549 -0.0047323596298152739 0 -0.0089341379689714447 -0.0048990589671166571 0 -0.0093397114887661791 -0.0042033434943292061 0 -0.008929883622302676 -0.0045058771565692898 0 -0.0085228979305819116 -0.004495432922769489 0 -0.008929883622302676 -0.0045058771565692898 0 -0.0085790283137036887 -0.0047850345183511247 0 -0.0093397114887661791 -0.0042033434943292061 0 -0.0091957707322395058 -0.0041055909396911774 0 -0.008929883622302676 -0.0045058771565692898 0 -0.0091957707322395058 -0.0041055909396911774 0 -0.0085228979305819116 -0.004495432922769489 0 -0.008929883622302676 -0.0045058771565692898 0 -0.0079674993148912236 -0.0043428417419911786 0 -0.0076800148122841373 -0.0042963170951441261 0 -0.0077249666537594179 -0.004652824346152158 0 -0.0079674993148912236 -0.0043428417419911786 0 -0.0081640521181047549 -0.0047323596298152739 0 -0.0077249666537594179 -0.004652824346152158 0 -0.0079674993148912236 -0.0043428417419911786 0 -0.0083158914858095581 -0.0042421733544030322 0 -0.0081640521181047549 -0.0047323596298152739 0 -0.0079674993148912236 -0.0043428417419911786 0 -0.0083158914858095581 -0.0042421733544030322 0 -0.0080886996314826123 -0.0040673222934299409 0 -0.0083158914858095581 -0.0042421733544030322 0 -0.0080886996314826123 -0.0040673222934299409 0 -0.0083231080634919349 -0.0038498993012407523 0 -0.0080886996314826123 -0.0040673222934299409 0 -0.0080010581585489866 -0.0038294951219391138 0 -0.0083231080634919349 -0.0038498993012407523 0 -0.0080886996314826123 -0.0040673222934299409 0 -0.0078397667552258573 -0.0040574751225420968 0 -0.0080010581585489866 -0.0038294951219391138 0 -0.0079674993148912236 -0.0043428417419911786 0 -0.0080886996314826123 -0.0040673222934299409 0 -0.0078397667552258573 -0.0040574751225420968 0 -0.0079674993148912236 -0.0043428417419911786 0 -0.0076800148122841373 -0.0042963170951441261 0 -0.0078397667552258573 -0.0040574751225420968 0 -0.0078397667552258573 -0.0040574751225420968 0 -0.0077406926166959924 -0.0038455709085452958 0 -0.0080010581585489866 -0.0038294951219391138 0 -0.0077406926166959924 -0.0038455709085452958 0 -0.0080010581585489866 -0.0038294951219391138 0 -0.007822837601035396 -0.0035939939723407198 0 -0.0080010581585489866 -0.0038294951219391138 0 -0.007822837601035396 -0.0035939939723407198 0 -0.0081879579154504143 -0.0035535843721134787 0 -0.0085841759149110682 -0.0035147507573913745 0 -0.0083231080634919349 -0.0038498993012407523 0 -0.0081879579154504143 -0.0035535843721134787 0 -0.0080010581585489866 -0.0038294951219391138 0 -0.0083231080634919349 -0.0038498993012407523 0 -0.0081879579154504143 -0.0035535843721134787 0 -0.0085841759149110682 -0.0035147507573913745 0 -0.0081879579154504143 -0.0035535843721134787 0 -0.0083763331427947948 -0.0032009808199296034 0 -0.0081879579154504143 -0.0035535843721134787 0 -0.0083763331427947948 -0.0032009808199296034 0 -0.0080035605708396133 -0.0033527953537262757 0 -0.007822837601035396 -0.0035939939723407198 0 -0.0080035605708396133 -0.0033527953537262757 0 -0.0077203073531560088 -0.0033252822345215009 0 -0.007822837601035396 -0.0035939939723407198 0 -0.0081879579154504143 -0.0035535843721134787 0 -0.0080035605708396133 -0.0033527953537262757 0 -0.0083763331427947948 -0.0032009808199296034 0 -0.0080035605708396133 -0.0033527953537262757 0 -0.0080227496487737058 -0.0030263744403788311 0 -0.0077203073531560088 -0.0033252822345215009 0 -0.0076535811368130396 -0.00300658187918342 0 -0.0080227496487737058 -0.0030263744403788311 0 -0.0080035605708396133 -0.0033527953537262757 0 -0.0077203073531560088 -0.0033252822345215009 0 -0.0080227496487737058 -0.0030263744403788311 0 -0.0077203073531560088 -0.0033252822345215009 0 -0.0074695495060185611 -0.0033483754999553152 0 -0.0076535811368130396 -0.00300658187918342 0 -0.0075884993913078787 -0.0035088130898914796 0 -0.0077203073531560088 -0.0033252822345215009 0 -0.0074695495060185611 -0.0033483754999553152 0 -0.007822837601035396 -0.0035939939723407198 0 -0.0075884993913078787 -0.0035088130898914796 0 -0.0077203073531560088 -0.0033252822345215009 0 -0.0075884993913078787 -0.0035088130898914796 0 -0.0074695495060185611 -0.0033483754999553152 0 -0.0073620369005178554 -0.0035529039776860012 0 -0.0074695495060185611 -0.0033483754999553152 0 -0.0073338381578359471 -0.0034027809988343861 0 -0.0073620369005178554 -0.0035529039776860012 0 -0.0074695495060185611 -0.0033483754999553152 0 -0.0072619980586490704 -0.0032762017164648985 0 -0.0073567548277791795 -0.0029789971601583325 0 -0.0072619980586490704 -0.0032762017164648985 0 -0.0071537166007701646 -0.0032557005345562389 0 -0.0072047606832706199 -0.0034114599681603569 0 -0.0070876029998946655 -0.0033081448860496614 0 -0.0070584644407233506 -0.0034880819366438836 0 -0.006979754485849695 -0.0031494809975219111 0 -0.0070692868585260065 -0.0032100644432171725 0 -0.006979754485849695 -0.0031494809975219111 0 -0.0071565913275804562 -0.0030864926610976885 0 -0.0070692868585260065 -0.0032100644432171725 0 -0.0070876029998946655 -0.0033081448860496614 0 -0.006979754485849695 -0.0031494809975219111 0 -0.0070692868585260065 -0.0032100644432171725 0 -0.0071537166007701646 -0.0032557005345562389 0 -0.0071565913275804562 -0.0030864926610976885 0 -0.0072619980586490704 -0.0032762017164648985 0 -0.0071537166007701646 -0.0032557005345562389 0 -0.0071565913275804562 -0.0030864926610976885 0 -0.0071537166007701646 -0.0032557005345562389 0 -0.0070876029998946655 -0.0033081448860496614 0 -0.0072047606832706199 -0.0034114599681603569 0 -0.0070692868585260065 -0.0032100644432171725 0 -0.0071537166007701646 -0.0032557005345562389 0 -0.0070876029998946655 -0.0033081448860496614 0 -0.0070584644407233506 -0.0034880819366438836 0 -0.0072047606832706199 -0.0034114599681603569 0 -0.0071970622472066299 -0.0036209339083915037 0 -0.0070876029998946655 -0.0033081448860496614 0 -0.0070584644407233506 -0.0034880819366438836 0 -0.0072047606832706199 -0.0034114599681603569 0 -0.0072047606832706199 -0.0034114599681603569 0 -0.0073620369005178554 -0.0035529039776860012 0 -0.0071970622472066299 -0.0036209339083915037 0 -0.0074695495060185611 -0.0033483754999553152 0 -0.0072619980586490704 -0.0032762017164648985 0 -0.0073338381578359471 -0.0034027809988343861 0 -0.0072619980586490704 -0.0032762017164648985 0 -0.0073338381578359471 -0.0034027809988343861 0 -0.0072047606832706199 -0.0034114599681603569 0 -0.0073338381578359471 -0.0034027809988343861 0 -0.0072047606832706199 -0.0034114599681603569 0 -0.0073620369005178554 -0.0035529039776860012 0 -0.0073620369005178554 -0.0035529039776860012 0 -0.0071970622472066299 -0.0036209339083915037 0 -0.0073606542327433475 -0.0037858012450742691 0 -0.0070584644407233506 -0.0034880819366438836 0 -0.0071970622472066299 -0.0036209339083915037 0 -0.0070707684132432632 -0.003731722177708546 0 -0.0071970622472066299 -0.0036209339083915037 0 -0.0070707684132432632 -0.003731722177708546 0 -0.0071630749727849335 -0.003810613750485217 0 -0.0070707684132432632 -0.003731722177708546 0 -0.0071630749727849335 -0.003810613750485217 0 -0.0070263770969791048 -0.0039461920769303825 0 -0.0071630749727849335 -0.003810613750485217 0 -0.0073606542327433475 -0.0037858012450742691 0 -0.0072110440328327511 -0.0040552845109611694 0 -0.0071970622472066299 -0.0036209339083915037 0 -0.0071630749727849335 -0.003810613750485217 0 -0.0073606542327433475 -0.0037858012450742691 0 -0.0073606542327433475 -0.0037858012450742691 0 -0.0075670745577251074 -0.0037178868838527663 0 -0.0075332446286763199 -0.0040220733869916611 0 -0.0077406926166959924 -0.0038455709085452958 0 -0.0075670745577251074 -0.0037178868838527663 0 -0.0075332446286763199 -0.0040220733869916611 0 -0.007822837601035396 -0.0035939939723407198 0 -0.0075884993913078787 -0.0035088130898914796 0 -0.0075670745577251074 -0.0037178868838527663 0 -0.0077406926166959924 -0.0038455709085452958 0 -0.007822837601035396 -0.0035939939723407198 0 -0.0075670745577251074 -0.0037178868838527663 0 -0.0075884993913078787 -0.0035088130898914796 0 -0.0073620369005178554 -0.0035529039776860012 0 -0.0075670745577251074 -0.0037178868838527663 0 -0.0073620369005178554 -0.0035529039776860012 0 -0.0073606542327433475 -0.0037858012450742691 0 -0.0075670745577251074 -0.0037178868838527663 0 -0.013027141965007401 -0.006720748918905498 0 -0.013084724789868919 -0.0068269989276169988 0 -0.012750373636292025 -0.0069708030902953175 0 -0.017803121834334565 -0.0058071895092583837 0 -0.01530633955825934 -0.0055502478891043903 0 -0.0070584644407233506 -0.0034880819366438836 0 -0.006979754485849695 -0.0031494809975219111 0 -0.0069090418236923447 -0.0037741244333482217 0 -0.0094955438354153762 -0.0030969120018422423 0 -0.0064104531109835843 -0.0038668154340819392 0 -0.014303319910300104 -0.0044347382082199809 0 -0.0092079471358553627 -0.0057547069806217037 0 -0.0069395883920351804 -0.0032424793830694455 0 -0.0071096832311927797 -0.0032407848149412521 0 -0.0069090418236923447 -0.0037741244333482217 0 -0.013084724789868919 -0.0068269989276169988 0 -0.013228171782224307 -0.0067018814948915902 0 -0.013017344309189971 -0.0072053767553108879 0 -0.017803121834334565 -0.0058071895092583837 0 -0.014303319910300104 -0.0044347382082199809 0 -0.01302877805459687 -0.0066987164619341927 0 -0.013084724789868919 -0.0068269989276169988 0 -0.013228171782224307 -0.0067018814948915902 0 -0.014303319910300104 -0.0044347382082199809 0 -0.0094955438354153762 -0.0030969120018422423 0 -0.0066733770904898043 -0.0038801512235267913 0 -0.0069090418236923447 -0.0037741244333482217 0 -0.0070263770969791048 -0.0039461920769303825 0 -0.0069395883920351804 -0.0032424793830694455 0 -0.0066733770904898043 -0.0038801512235267913 0 -0.0069090418236923447 -0.0037741244333482217 0 -0.0070584644407233506 -0.0034880819366438836 0 -0.0070707684132432632 -0.003731722177708546 0 -0.0069090418236923447 -0.0037741244333482217 0 -0.0070707684132432632 -0.003731722177708546 0 -0.0069090418236923447 -0.0037741244333482217 0 -0.0070263770969791048 -0.0039461920769303825 0 -0.013084724789868919 -0.0068269989276169988 0 -0.013017344309189971 -0.0072053767553108879 0 -0.012750373636292025 -0.0069708030902953175 0 -0.013017344309189971 -0.0072053767553108879 0 -0.012635873195545341 -0.0074039810668869478 0 -0.012750373636292025 -0.0069708030902953175 0 -0.0092079471358553627 -0.0057547069806217037 0 -0.0097438367381391805 -0.006017222910792059 0 -0.013017344309189971 -0.0072053767553108879 0 -0.012822091743504297 -0.0076366503591814138 0 -0.012635873195545341 -0.0074039810668869478 0 -0.0066733770904898043 -0.0038801512235267913 0 -0.00693790627935358 -0.0042505636964691937 0 -0.0070263770969791048 -0.0039461920769303825 0 -0.0066733770904898043 -0.0038801512235267913 0 -0.00693790627935358 -0.0042505636964691937 0 -0.0064607804082297176 -0.0045167478197332229 0 -0.00693790627935358 -0.0042505636964691937 0 -0.0064607804082297176 -0.0045167478197332229 0 -0.0069178042833269743 -0.0046551832298596905 0 -0.0075332446286763199 -0.0040220733869916611 0 -0.0072110440328327511 -0.0040552845109611694 0 -0.0073330640716656728 -0.0043922569058133876 0 -0.0076800148122841373 -0.0042963170951441261 0 -0.0075332446286763199 -0.0040220733869916611 0 -0.0073330640716656728 -0.0043922569058133876 0 -0.0076800148122841373 -0.0042963170951441261 0 -0.0078397667552258573 -0.0040574751225420968 0 -0.0075332446286763199 -0.0040220733869916611 0 -0.0078397667552258573 -0.0040574751225420968 0 -0.0077406926166959924 -0.0038455709085452958 0 -0.0075332446286763199 -0.0040220733869916611 0 -0.0073606542327433475 -0.0037858012450742691 0 -0.0075332446286763199 -0.0040220733869916611 0 -0.0072110440328327511 -0.0040552845109611694 0 -0.00693790627935358 -0.0042505636964691937 0 -0.0072110440328327511 -0.0040552845109611694 0 -0.0073330640716656728 -0.0043922569058133876 0 -0.0071630749727849335 -0.003810613750485217 0 -0.0072110440328327511 -0.0040552845109611694 0 -0.0070263770969791048 -0.0039461920769303825 0 -0.00693790627935358 -0.0042505636964691937 0 -0.0072110440328327511 -0.0040552845109611694 0 -0.0070263770969791048 -0.0039461920769303825 0 -0.00693790627935358 -0.0042505636964691937 0 -0.0073330640716656728 -0.0043922569058133876 0 -0.0069178042833269743 -0.0046551832298596905 0 -0.0076800148122841373 -0.0042963170951441261 0 -0.0073330640716656728 -0.0043922569058133876 0 -0.0077249666537594179 -0.004652824346152158 0 -0.0073330640716656728 -0.0043922569058133876 0 -0.0073880250460594925 -0.0048131006118988197 0 -0.0077249666537594179 -0.004652824346152158 0 -0.0073330640716656728 -0.0043922569058133876 0 -0.0073880250460594925 -0.0048131006118988197 0 -0.0069178042833269743 -0.0046551832298596905 0 -0.0073880250460594925 -0.0048131006118988197 0 -0.0070741193279248134 -0.0049850973205765384 0 -0.0069178042833269743 -0.0046551832298596905 0 -0.0070741193279248134 -0.0049850973205765384 0 -0.0074416595729387058 -0.0052434444898355947 0 -0.0069166231350231864 -0.0052529650726123979 0 -0.0073880250460594925 -0.0048131006118988197 0 -0.0070741193279248134 -0.0049850973205765384 0 -0.0074416595729387058 -0.0052434444898355947 0 -0.0073880250460594925 -0.0048131006118988197 0 -0.0074416595729387058 -0.0052434444898355947 0 -0.0077899249501115538 -0.0049957767741779062 0 -0.0064607804082297176 -0.0045167478197332229 0 -0.0066540684918915951 -0.0050052502633141068 0 -0.0062414417819436725 -0.0051794449153978539 0 -0.0097438367381391805 -0.006017222910792059 0 -0.009420779767484613 -0.0066151563362960766 0 -0.0070741193279248134 -0.0049850973205765384 0 -0.0069178042833269743 -0.0046551832298596905 0 -0.0066540684918915951 -0.0050052502633141068 0 -0.0064607804082297176 -0.0045167478197332229 0 -0.0069178042833269743 -0.0046551832298596905 0 -0.0066540684918915951 -0.0050052502633141068 0 -0.0070741193279248134 -0.0049850973205765384 0 -0.0066540684918915951 -0.0050052502633141068 0 -0.0069166231350231864 -0.0052529650726123979 0 -0.0066540684918915951 -0.0050052502633141068 0 -0.0069166231350231864 -0.0052529650726123979 0 -0.0064305411997012075 -0.0054251002763929506 0 -0.0066540684918915951 -0.0050052502633141068 0 -0.0062414417819436725 -0.0051794449153978539 0 -0.0064305411997012075 -0.0054251002763929506 0 -0.0062414417819436725 -0.0051794449153978539 0 -0.0064305411997012075 -0.0054251002763929506 0 -0.0061524248117854567 -0.0056129195203557204 0 -0.006438479440282782 -0.0054250502929227883 0 -0.0067827007259112721 -0.005510142065870834 0 -0.0069166231350231864 -0.0052529650726123979 0 -0.0064305411997012075 -0.0054251002763929506 0 -0.007169519699568019 -0.0055804944961228946 0 -0.0064305411997012075 -0.0054251002763929506 0 -0.0063353840277204712 -0.0055762789531163225 0 -0.0063993398718801171 -0.0054687907847598667 0 -0.0063136838284064412 -0.0056613163089633111 0 -0.0063353840277204712 -0.0055762789531163225 0 -0.0063993398718801171 -0.0054687907847598667 0 -0.0063136838284064412 -0.0056613163089633111 0 -0.0062497122632389846 -0.0057034849189055601 0 -0.0063353840277204712 -0.0055762789531163225 0 -0.0064305411997012075 -0.0054251002763929506 0 -0.0063353840277204712 -0.0055762789531163225 0 -0.0061524248117854567 -0.0056129195203557204 0 -0.0062497122632389846 -0.0057034849189055601 0 -0.0063353840277204712 -0.0055762789531163225 0 -0.0061524248117854567 -0.0056129195203557204 0 -0.0074416595729387058 -0.0052434444898355947 0 -0.007169519699568019 -0.0055804944961228946 0 -0.0076989796447852832 -0.0056216050020804131 0 -0.0074416595729387058 -0.0052434444898355947 0 -0.0069166231350231864 -0.0052529650726123979 0 -0.007169519699568019 -0.0055804944961228946 0 -0.0064623636983397624 -0.0056889568254697874 0 -0.0063615736163212169 -0.0056428004441427546 0 -0.0063993398718801171 -0.0054687907847598667 0 -0.0063615736163212169 -0.0056428004441427546 0 -0.0063136838284064412 -0.0056613163089633111 0 -0.0063993398718801171 -0.0054687907847598667 0 -0.0064623636983397624 -0.0056889568254697874 0 -0.0063993398718801171 -0.0054687907847598667 0 -0.0067994771726540958 -0.0053582646692193212 0 -0.0067827007259112721 -0.005510142065870834 0 -0.0072638292171271135 -0.0054981881147012669 0 -0.0076989796447852832 -0.0056216050020804131 0 -0.0078711114544298359 -0.0053263594983904722 0 -0.0079045653468210898 -0.0054872474590102454 0 -0.0074416595729387058 -0.0052434444898355947 0 -0.0076989796447852832 -0.0056216050020804131 0 -0.0078711114544298359 -0.0053263594983904722 0 -0.0078711114544298359 -0.0053263594983904722 0 -0.0079045653468210898 -0.0054872474590102454 0 -0.0080978579261785609 -0.0053823484240899085 0 -0.0078711114544298359 -0.0053263594983904722 0 -0.0080978579261785609 -0.0053823484240899085 0 -0.0080888487408192454 -0.0051649362501339979 0 -0.0078425802881958752 -0.0055587948206690784 0 -0.0076989796447852832 -0.0056216050020804131 0 -0.0079045653468210898 -0.0054872474590102454 0 -0.0078425802881958752 -0.0055587948206690784 0 -0.0079045653468210898 -0.0054872474590102454 0 -0.0080128346563560562 -0.0054770257712609492 0 -0.0081720615287906567 -0.0054509762122661332 0 -0.0082629121952403212 -0.0053878403577551593 0 -0.0080978579261785609 -0.0053823484240899085 0 -0.0080730281019304913 -0.0055401862374687607 0 -0.0080128346563560562 -0.0054770257712609492 0 -0.0081720615287906567 -0.0054509762122661332 0 -0.0080128346563560562 -0.0054770257712609492 0 -0.0081720615287906567 -0.0054509762122661332 0 -0.0080978579261785609 -0.0053823484240899085 0 -0.0079045653468210898 -0.0054872474590102454 0 -0.0080128346563560562 -0.0054770257712609492 0 -0.0080978579261785609 -0.0053823484240899085 0 -0.0082085111967409759 -0.005464919687767732 0 -0.0082195598533018905 -0.0054184092926250699 0 -0.0081720615287906567 -0.0054509762122661332 0 -0.0082195598533018905 -0.0054184092926250699 0 -0.0081720615287906567 -0.0054509762122661332 0 -0.0082629121952403212 -0.0053878403577551593 0 -0.0082195598533018905 -0.0054184092926250699 0 -0.0082629121952403212 -0.0053878403577551593 0 -0.0083647226378279326 -0.0053795925827501883 0 -0.0082629121952403212 -0.0053878403577551593 0 -0.0083647226378279326 -0.0053795925827501883 0 -0.0083106611527767743 -0.005264650075905433 0 -0.0080978579261785609 -0.0053823484240899085 0 -0.0083106611527767743 -0.005264650075905433 0 -0.0080888487408192454 -0.0051649362501339979 0 -0.0082629121952403212 -0.0053878403577551593 0 -0.0080978579261785609 -0.0053823484240899085 0 -0.0083106611527767743 -0.005264650075905433 0 -0.0083106611527767743 -0.005264650075905433 0 -0.0083373595461418756 -0.0050247193667402341 0 -0.0080888487408192454 -0.0051649362501339979 0 -0.0083106611527767743 -0.005264650075905433 0 -0.0083373595461418756 -0.0050247193667402341 0 -0.0085092843081207761 -0.0050975197544200343 0 -0.0083647226378279326 -0.0053795925827501883 0 -0.0083106611527767743 -0.005264650075905433 0 -0.0085092843081207761 -0.0050975197544200343 0 -0.0089341379689714447 -0.0048990589671166571 0 -0.0083647226378279326 -0.0053795925827501883 0 -0.0085092843081207761 -0.0050975197544200343 0 -0.0089341379689714447 -0.0048990589671166571 0 -0.008929883622302676 -0.0045058771565692898 0 -0.0085790283137036887 -0.0047850345183511247 0 -0.0089341379689714447 -0.0048990589671166571 0 -0.0085092843081207761 -0.0050975197544200343 0 -0.0085790283137036887 -0.0047850345183511247 0 -0.0085228979305819116 -0.004495432922769489 0 -0.0085790283137036887 -0.0047850345183511247 0 -0.0081640521181047549 -0.0047323596298152739 0 -0.0083373595461418756 -0.0050247193667402341 0 -0.0081640521181047549 -0.0047323596298152739 0 -0.0080888487408192454 -0.0051649362501339979 0 -0.0083373595461418756 -0.0050247193667402341 0 -0.0085790283137036887 -0.0047850345183511247 0 -0.0081640521181047549 -0.0047323596298152739 0 -0.0083373595461418756 -0.0050247193667402341 0 -0.0085092843081207761 -0.0050975197544200343 0 -0.0085790283137036887 -0.0047850345183511247 0 -0.0081640521181047549 -0.0047323596298152739 0 -0.0077249666537594179 -0.004652824346152158 0 -0.0077899249501115538 -0.0049957767741779062 0 -0.0073880250460594925 -0.0048131006118988197 0 -0.0077249666537594179 -0.004652824346152158 0 -0.0077899249501115538 -0.0049957767741779062 0 -0.0074416595729387058 -0.0052434444898355947 0 -0.0078711114544298359 -0.0053263594983904722 0 -0.0077899249501115538 -0.0049957767741779062 0 -0.0081640521181047549 -0.0047323596298152739 0 -0.0077899249501115538 -0.0049957767741779062 0 -0.0080888487408192454 -0.0051649362501339979 0 -0.0078711114544298359 -0.0053263594983904722 0 -0.0077899249501115538 -0.0049957767741779062 0 -0.0080888487408192454 -0.0051649362501339979 0 -0.0087293698049670677 0.00038500557938077947 0 -0.0087702458552906225 0.00032759817236132933 0 -0.0087788827440518653 0.00039494171134655387 0 -0.0087293698049670677 0.00038500557938077947 0 -0.0087788827440518653 0.00039494171134655387 0 -0.0087212459940253853 0.00042073996037052946 0 -0.0097975371520227332 0.00086554318232079516 0 -0.0091054213069685832 0.00055283364066304364 0 -0.0096265764769665179 0.00028013708017401838 0 -0.0084122327574778326 0.0004677237112111564 0 -0.0088881644742978966 0.00048759764319367116 0 -0.0084122327574778326 0.0004677237112111564 0 -0.0067026001115532358 0.0004418245957829288 0 -0.0072772370804260848 0.00045444315670181793 0 -0.0073166196425925164 0.00031874989812136987 0 -0.007250478157144068 0.00026890999675071849 0 -0.0084122327574778326 0.0004677237112111564 0 -0.0062802378469656792 0.00016509081734626641 0 -0.0097975371520227332 0.00086554318232079516 0 -0.009487566678972003 0.0020274466034380864 0 -0.0091054213069685832 0.00055283364066304364 0 -0.0067026001115532358 0.0004418245957829288 0 -0.0074802152768323653 1.1325351334278556e-06 0 -0.00614865854693068 3.0226135583982713e-05 0 -0.0074770502651006626 5.0108214235078109e-07 0 -0.0060412565223621414 -3.1802796432343966e-07 0 -0.009487566678972003 0.0020274466034380864 0 -0.0074821749336751947 2.2881915753479721e-06 0 -0.0091054213069685832 0.00055283364066304364 0 -0.0074821749336751947 2.2881915753479721e-06 0 -0.0091054213069685832 0.00055283364066304364 0 -0.0091130359819199935 0.00013800577856101074 0 -0.0091054213069685832 0.00055283364066304364 0 -0.0091130359819199935 0.00013800577856101074 0 -0.0096265764769665179 0.00028013708017401838 0 -0.0074821749336751947 2.2881915753479721e-06 0 -0.0091130359819199935 0.00013800577856101074 0 -0.0093571219758944463 4.6537102683085401e-05 0 -0.0074821749336751947 2.2881915753479721e-06 0 -0.0093571219758944463 4.6537102683085401e-05 0 -0.0094914337783525964 -3.6823830307719107e-07 0 -0.0091130359819199935 0.00013800577856101074 0 -0.0093571219758944463 4.6537102683085401e-05 0 -0.0097054115686202296 0.00010191444719043524 0 -0.0097054115686202296 0.00010191444719043524 0 -0.0096265764769665179 0.00028013708017401838 0 -0.0099251875802728248 0.00011279099572189487 0 -0.0084122327574778326 0.0004677237112111564 0 -0.010597627012276581 0.00042632694578249115 0 -0.0095791182480028016 0.00038622038028925814 0 -0.0096265764769665179 0.00028013708017401838 0 -0.0099251875802728248 0.00011279099572189487 0 -0.0091130359819199935 0.00013800577856101074 0 -0.0097054115686202296 0.00010191444719043524 0 -0.0096265764769665179 0.00028013708017401838 0 -0.010597627012276581 0.00042632694578249115 0 -0.010161973355731617 0.00041977925676712759 0 -0.013461988610348098 0.00082155138298048056 0 -0.013480953223888694 0.0010369215714178147 0 -0.013185006752532697 0.00065686503344773316 0 -0.01232660708273034 0.00028382679911624517 0 -0.012516893544343126 0.00042688995832858029 0 -0.012420484956519297 0.00057843672247736688 0 -0.012375636573382014 0.00062974396199892951 0 -0.012863487220216841 0.00041605231018572599 0 -0.01232660708273034 0.00028382679911624517 0 -0.012516893544343126 0.00042688995832858029 0 -0.012498813252200178 0.00018477357673655904 0 -0.013461988610348098 0.00082155138298048056 0 -0.013480953223888694 0.0010369215714178147 0 -0.013559261550745338 0.00097399128050273454 0 -0.013480953223888694 0.0010369215714178147 0 -0.013559261550745338 0.00097399128050273454 0 -0.01360062201606687 0.0010795484904515804 0 -0.013692404891160442 0.00096065186187318174 0 -0.014128523633677961 0.00096288290798558741 0 -0.013815133779431887 0.00075635151875911124 0 -0.013461988610348098 0.00082155138298048056 0 -0.013692404891160442 0.00096065186187318174 0 -0.013815133779431887 0.00075635151875911124 0 -0.013461988610348098 0.00082155138298048056 0 -0.013559261550745338 0.00097399128050273454 0 -0.013692404891160442 0.00096065186187318174 0 -0.01360062201606687 0.0010795484904515804 0 -0.013692404891160442 0.00096065186187318174 0 -0.01382632830955359 0.0011772460762527336 0 -0.013559261550745338 0.00097399128050273454 0 -0.01360062201606687 0.0010795484904515804 0 -0.013692404891160442 0.00096065186187318174 0 -0.013692404891160442 0.00096065186187318174 0 -0.01382632830955359 0.0011772460762527336 0 -0.014128523633677961 0.00096288290798558741 0 -0.01360062201606687 0.0010795484904515804 0 -0.01382632830955359 0.0011772460762527336 0 -0.013589600241186385 0.0013402808094537257 0 -0.01382632830955359 0.0011772460762527336 0 -0.013589600241186385 0.0013402808094537257 0 -0.013874657253264776 0.001401595691712105 0 -0.01382632830955359 0.0011772460762527336 0 -0.013874657253264776 0.001401595691712105 0 -0.014191397758410607 0.0012414914658052945 0 -0.011395293657847827 0.00062514925065694559 0 -0.011389235307912604 0.00062659587190710682 0 -0.011387485927414216 0.00062618132037837863 0 -0.012375636573382014 0.00062974396199892951 0 -0.012502535326447265 0.0010184890163738242 0 -0.013480953223888694 0.0010369215714178147 0 -0.01360062201606687 0.0010795484904515804 0 -0.013589600241186385 0.0013402808094537257 0 -0.012375636573382014 0.00062974396199892951 0 -0.010161973355731617 0.00041977925676712759 0 -0.011389235307912604 0.00062659587190710682 0 -0.011383806909032346 0.00062224841371254409 0 -0.01138568423323019 0.00062276392514122917 0 -0.0079850912573215544 0.00045640386055167687 0 -0.0079587028691503522 0.00046245478781542916 0 -0.0079238028047928458 0.00043473333600675386 0 -0.011389235307912604 0.00062659587190710682 0 -0.011387485927414216 0.00062618132037837863 0 -0.011383806909032346 0.00062224841371254409 0 -0.010161973355731617 0.00041977925676712759 0 -0.0096701060091379624 0.00076457317958237301 0 -0.0079694381618466651 0.00038191181809009564 0 -0.0079850912573215544 0.00045640386055167687 0 -0.0079238028047928458 0.00043473333600675386 0 -0.010161973355731617 0.00041977925676712759 0 -0.0066152586512461245 0.00051285408368670262 0 -0.0096701060091379624 0.00076457317958237301 0 -0.01304886167925982 0.0010276058925179842 0 -0.0047616471412647646 0.00068716532857565659 0 -0.0066152586512461245 0.00051285408368670262 0 -0.013589600241186385 0.0013402808094537257 0 -0.013874657253264776 0.001401595691712105 0 -0.013660907621734391 0.001702866558708485 0 -0.014207688789936767 0.0011398110485241345 0 -0.014339916914317635 0.0012128196049718343 0 -0.014483349384303746 0.0011494960184264024 0 -0.013874657253264776 0.001401595691712105 0 -0.013660907621734391 0.001702866558708485 0 -0.014131791571917521 0.0015551944498978106 0 -0.012502535326447265 0.0010184890163738242 0 -0.01304886167925982 0.0010276058925179842 0 -0.01304886167925982 0.0010276058925179842 0 -0.014443548328034711 0.0013333451439035871 0 -0.014185337844263554 0.001285716448470459 0 -0.014348579219814665 0.0012865021563664319 0 -0.014437148757107221 0.0014251507607562128 0 -0.014339916914317635 0.0012128196049718343 0 -0.014348579219814665 0.0012865021563664319 0 -0.014481292648635265 0.0012395145637740482 0 -0.014339916914317635 0.0012128196049718343 0 -0.014277367476279198 0.0012525615398654593 0 -0.014348579219814665 0.0012865021563664319 0 -0.014207688789936767 0.0011398110485241345 0 -0.014339916914317635 0.0012128196049718343 0 -0.014211950800522156 0.0012199747380237278 0 -0.014339916914317635 0.0012128196049718343 0 -0.014277367476279198 0.0012525615398654593 0 -0.014211950800522156 0.0012199747380237278 0 -0.014093379747864648 0.0011273506608830532 0 -0.014211950800522156 0.0012199747380237278 0 -0.014185337844263554 0.001285716448470459 0 -0.014093379747864648 0.0011273506608830532 0 -0.014174938850255616 0.0011035291909530741 0 -0.014211950800522156 0.0012199747380237278 0 -0.01304886167925982 0.0010276058925179842 0 -0.01346496576567143 0.001254112784963308 0 -0.014277367476279198 0.0012525615398654593 0 -0.014211950800522156 0.0012199747380237278 0 -0.014185337844263554 0.001285716448470459 0 -0.014277367476279198 0.0012525615398654593 0 -0.014185337844263554 0.001285716448470459 0 -0.014348579219814665 0.0012865021563664319 0 -0.00023218143090513631 0.00070598412028300111 0 -0.00050068578882207185 0.0007235679699633703 0 -0.00043992012930254052 0.00057129796353142014 0 -0.00023218143090513631 0.00070598412028300111 0 -0.00050068578882207185 0.0007235679699633703 0 -0.00040288982828440355 0.00083462396283116836 0 -0.0096701060091379624 0.00076457317958237301 0 -0.0047616471412647646 0.00068716532857565659 0 -0.0072529863537194135 0.0011797113283716293 0 -0.0047616471412647646 0.00068716532857565659 0 -0.0073418980651503473 0.00098926132502386911 0 -0.0074507570133084096 0.0012554788677057395 0 -0.0071623939340683682 0.0010402912086799898 0 -0.0096701060091379624 0.00076457317958237301 0 -0.0072529863537194135 0.0011797113283716293 0 -0.00023218143090513631 0.00070598412028300111 0 -0.00027231473680304301 0.0005112140914455115 0 -0.00043992012930254052 0.00057129796353142014 0 -0.0047616471412647646 0.00068716532857565659 0 -0.0025341995134476468 0.0010863794951895831 0 -0.00050068578882207185 0.0007235679699633703 0 -0.00040288982828440355 0.00083462396283116836 0 -0.00065773972684538961 0.00075723624247169398 0 -0.00050068578882207185 0.0007235679699633703 0 -0.00065773972684538961 0.00075723624247169398 0 -0.00043992012930254052 0.00057129796353142014 0 -0.0008744283741872488 0.0023598681066550457 0 -0.00077615218400802356 0.0023878634838904534 0 -0.00061562181293835997 0.00075136885386290224 0 -0.0050779159604173868 0.00066319169104216602 0 -0.004328264822256362 0.00088032993758946929 0 -0.0043190756068513881 0.00076931045995701198 0 -0.0035825278640750058 -0.00023359851852499376 0 -0.0035942245551262918 -0.00024993742845646447 0 -0.0035072511086716093 -0.00022725446427309309 0 -0.0028501384150501729 0.00090373491859595777 0 -0.0025341995134476468 0.0010863794951895831 0 -0.0025341995134476468 0.0010863794951895831 0 -0.0034118341254921847 0.00063163294034080579 0 -0.0028501384150501729 0.00090373491859595777 0 -0.0034118341254921847 0.00063163294034080579 0 -0.0029727005107688044 0.0012232423571048204 0 -0.0031479010338616707 0.0011722100999624358 0 -0.003125966383690333 0.00093810965925823883 0 -0.0050779159604173868 0.00066319169104216602 0 -0.0043190756068513881 0.00076931045995701198 0 -0.0045894898241351182 0.00028160586064551898 0 -0.0052038156241049332 0.00064422492294373575 0 -0.0053121764888470575 0.00046030524461919664 0 -0.0051893590931410393 0.00036235341903027938 0 -0.0034118341254921847 0.00063163294034080579 0 -0.0062802378469656792 0.00016509081734626641 0 -0.0035942245551262918 -0.00024993742845646447 0 -0.0036093941008148523 -0.00032658256987405692 0 -0.0034943079003932074 -0.00023649722215962277 0 -0.0034118341254921847 0.00063163294034080579 0 -0.0066152586512461245 0.00051285408368670262 0 -0.0067026001115532358 0.0004418245957829288 0 -0.0062802378469656792 0.00016509081734626641 0 -0.0087788827440518653 0.00039494171134655387 0 -0.0087394410935594385 0.00043755779077393064 0 -0.0087212459940253853 0.00042073996037052946 0 -0.0066152586512461245 0.00051285408368670262 0 -0.0062802378469656792 0.00016509081734626641 0 -0.0067026001115532358 0.0004418245957829288 0 -0.0041090267886241703 -0.00028566968992174127 0 -0.0035937544023784147 -0.00034186703412588917 0 -0.0036093941008148523 -0.00032658256987405692 0 -0.0034943079003932074 -0.00023649722215962277 0 -0.00614865854693068 3.0226135583982713e-05 0 -0.0060412565223621414 -3.1802796432343966e-07 0 -0.0051840961188380922 -2.2142382093469304e-05 0 -0.0060412565223621414 -3.1802796432343966e-07 0 -0.0046028567787079781 -7.3786875126764298e-08 0 -0.0051840961188380922 -2.2142382093469304e-05 0 -0.0034943079003932074 -0.00023649722215962277 0 -0.0035072511086716093 -0.00022725446427309309 0 -0.0034685240845382867 -3.684684698185508e-05 0 -0.0036267443197944096 -0.00025629039967190126 0 -0.0035072511086716093 -0.00022725446427309309 0 -0.0034685240845382867 -3.684684698185508e-05 0 -0.0028501384150501729 0.00090373491859595777 0 -0.0037636603805444543 3.5564655755913996e-06 0 -0.0035942245551262918 -0.00024993742845646447 0 -0.0034943079003932074 -0.00023649722215962277 0 -0.0035072511086716093 -0.00022725446427309309 0 -0.0034943079003932074 -0.00023649722215962277 0 -0.0034685240845382867 -3.684684698185508e-05 0 -0.0031618569761201281 3.1976969827130452e-07 0 -0.0041090267886241703 -0.00028566968992174127 0 -0.0031648601133035317 -2.0418520767901733e-07 0 -0.0046028567787079781 -7.3786875126764298e-08 0 -0.0051840961188380922 -2.2142382093469304e-05 0 -0.0031648167705403359 2.8643681059653877e-07 0 -0.0008744283741872488 0.0023598681066550457 0 -0.0014223024999237099 0.0013250865732989067 0 -0.00061562181293835997 0.00075136885386290224 0 -0.0025341995134476468 0.0010863794951895831 0 -0.00030924619958729862 0.00061221933759400007 0 -0.0028501384150501729 0.00090373491859595777 0 -0.0023594918730480037 0.00063542507302276308 0 -0.00065773972684538961 0.00075723624247169398 0 -0.00054135462722591841 0.0002653303149434102 0 -0.00043992012930254052 0.00057129796353142014 0 -0.00061562181293835997 0.00075136885386290224 0 -0.0012761658810438103 0.00051018349871996289 0 -0.0010074445432646994 5.7685339361575559e-06 0 -0.0014223024999237099 0.0013250865732989067 0 -0.00061562181293835997 0.00075136885386290224 0 -0.0012761658810438103 0.00051018349871996289 0 -0.0014223024999237099 0.0013250865732989067 0 -0.0012761658810438103 0.00051018349871996289 0 -0.0023187526991498451 1.5984890256670805e-06 0 -0.0034685240845382867 -3.684684698185508e-05 0 -0.0031618569761201281 3.1976969827130452e-07 0 -0.0023242215191167787 -2.7086843843521986e-07 0 -0.0023594918730480037 0.00063542507302276308 0 -0.0023221269598998912 -8.7665347056972918e-08 0 -0.0012761658810438103 0.00051018349871996289 0 -0.0023187526991498451 1.5984890256670805e-06 0 -0.0010074445432646994 5.7685339361575559e-06 0 -0.0023187526991498451 1.5984890256670805e-06 0 -0.0010074445432646994 5.7685339361575559e-06 0 -0.00073536839176856759 -8.329610714083074e-07 0 -0.0010074445432646994 5.7685339361575559e-06 0 -0.00043788092721618776 -0.00014266929337445724 0 -0.00073536839176856759 -8.329610714083074e-07 0 -0.00061562181293835997 0.00075136885386290224 0 -0.0010074445432646994 5.7685339361575559e-06 0 -0.00034012603162489574 -0.00018780056882993114 0 -0.0010074445432646994 5.7685339361575559e-06 0 -0.00043788092721618776 -0.00014266929337445724 0 -0.00034012603162489574 -0.00018780056882993114 0 -0.00030924619958729862 0.00061221933759400007 0 -0.00044107377105401881 -0.00020269376037478456 0 -0.00043788092721618776 -0.00014266929337445724 0 -0.00034012603162489574 -0.00018780056882993114 0 -0.00018075852242436353 -0.00022410516177483314 0 -0.00034012603162489574 -0.00018780056882993114 0 -0.00018075852242436353 -0.00022410516177483314 0 -0.00019542256516491064 -0.00024223300903626277 0 3.1927987405951519e-05 -0.00020490849031077501 0 -0.00043788092721618776 -0.00014266929337445724 0 -0.00018075852242436353 -0.00022410516177483314 0 3.1927987405951519e-05 -0.00020490849031077501 0 -0.00043788092721618776 -0.00014266929337445724 0 -0.00073536839176856759 -8.329610714083074e-07 0 -0.00071376099250014524 0.0011524343238751838 0 -0.0017198322425529061 0.00096625379752393104 0 -0.0032098465295581822 0.0027950601167705666 0 -0.0037594022513294878 0.0025716768371569286 0 -0.003452998599081168 0.0020680732662697854 0 -0.00014543983554160387 -0.00027719262997606361 0 -0.00020138913111741356 -0.00016794413345226302 0 -8.3926506062206838e-05 -9.7980009147677726e-05 0 -0.0037594022513294878 0.0025716768371569286 0 -0.003452998599081168 0.0020680732662697854 0 -0.0040707444376847091 0.0021744546184321832 0 -0.00014543983554160387 -0.00027719262997606361 0 -0.00019542256516491064 -0.00024223300903626277 0 -0.00020138913111741356 -0.00016794413345226302 0 -0.00071376099250014524 0.0011524343238751838 0 6.7550503120328658e-05 6.1635075914065848e-05 0 -0.00034012603162489574 -0.00018780056882993114 0 -0.00019542256516491064 -0.00024223300903626277 0 -0.00020138913111741356 -0.00016794413345226302 0 -0.00020138913111741356 -0.00016794413345226302 0 -0.00026367725124595647 5.0548777099366767e-05 0 -8.3926506062206838e-05 -9.7980009147677726e-05 0 -0.00054135462722591841 0.0002653303149434102 0 -0.00034012603162489574 -0.00018780056882993114 0 -0.00026367725124595647 5.0548777099366767e-05 0 -0.00034012603162489574 -0.00018780056882993114 0 -0.00020138913111741356 -0.00016794413345226302 0 -0.00026367725124595647 5.0548777099366767e-05 0 -0.00026367725124595647 5.0548777099366767e-05 0 -8.3926506062206838e-05 -9.7980009147677726e-05 0 -6.2966066881466304e-06 0.00019437562688493355 0 -0.0017198322425529061 0.00096625379752393104 0 -0.0036456332651379152 0.0011222654844603188 0 -0.003452998599081168 0.0020680732662697854 0 -0.0037103277306448825 0.0012663771400222262 0 -0.0040707444376847091 0.0021744546184321832 0 -6.2966066881466304e-06 0.00019437562688493355 0 -0.00030806039241368106 0.00032997083586865561 0 -0.0001101847108350538 0.00044192700470400514 0 -0.00026367725124595647 5.0548777099366767e-05 0 -6.2966066881466304e-06 0.00019437562688493355 0 -0.00030806039241368106 0.00032997083586865561 0 -0.0036456332651379152 0.0011222654844603188 0 -0.0030651308091113709 0.00040693095668936321 0 -0.00054135462722591841 0.0002653303149434102 0 -0.00026367725124595647 5.0548777099366767e-05 0 -0.00030806039241368106 0.00032997083586865561 0 -0.00054135462722591841 0.0002653303149434102 0 -0.00030806039241368106 0.00032997083586865561 0 -0.00043992012930254052 0.00057129796353142014 0 -0.00030806039241368106 0.00032997083586865561 0 -0.00027231473680304301 0.0005112140914455115 0 -0.0001101847108350538 0.00044192700470400514 0 -0.00030806039241368106 0.00032997083586865561 0 -0.00027231473680304301 0.0005112140914455115 0 -0.00043992012930254052 0.00057129796353142014 0 -0.0072529863537194135 0.0011797113283716293 0 -0.0097068732090365983 0.0014927842128131638 0 -0.006118297166027146 0.0010281444693947691 0 -0.0061720602002464688 0.0011268144644988865 0 -0.0061048633615033657 0.0011381721306204669 0 -0.0062207814986543356 0.0012297719026129503 0 -0.0061720602002464688 0.0011268144644988865 0 -0.0061048633615033657 0.0011381721306204669 0 -0.0072529863537194135 0.0011797113283716293 0 -0.0030651308091113709 0.00040693095668936321 0 -0.00023218143090513631 0.00070598412028300111 0 -0.00027231473680304301 0.0005112140914455115 0 -0.0001101847108350538 0.00044192700470400514 0 -0.0036456332651379152 0.0011222654844603188 0 -0.0097068732090365983 0.0014927842128131638 0 -0.014348579219814665 0.0012865021563664319 0 -0.014437148757107221 0.0014251507607562128 0 -0.014491333286822035 0.0013173709921969422 0 -0.0097068732090365983 0.0014927842128131638 0 -0.0094950784625267397 0.0012504631479999398 0 -0.014496517919863327 0.0013232844919717666 0 -0.014583478239779348 0.001295293450475159 0 -0.01461785478645259 0.001259312375535074 0 -0.0097068732090365983 0.0014927842128131638 0 -0.012071546328286213 0.00064774190821405753 0 -0.014496517919863327 0.0013232844919717666 0 -0.014583478239779348 0.001295293450475159 0 -0.014491333286822035 0.0013173709921969422 0 -0.014583478239779348 0.001295293450475159 0 -0.014654195565033628 0.0012842855350317973 0 -0.014642143042024641 0.0012664354953750082 0 -0.014583478239779348 0.001295293450475159 0 -0.01461785478645259 0.001259312375535074 0 -0.014654195565033628 0.0012842855350317973 0 -0.0046305204104560875 0.0014499687925663774 0 -0.0042934192126794068 0.0017674163244824613 0 -0.0045785625284877323 0.0019562905670107099 0 -0.0039012348755729119 0.0015046289207765883 0 -0.0046305204104560875 0.0014499687925663774 0 -0.0042934192126794068 0.0017674163244824613 0 -0.0039012348755729119 0.0015046289207765883 0 -0.0041020898792714462 0.0010295106304514811 0 -0.0046305204104560875 0.0014499687925663774 0 -0.0036456332651379152 0.0011222654844603188 0 -0.0041189424077369991 0.002241772582610495 0 -0.0039012348755729119 0.0015046289207765883 0 -0.0040707444376847091 0.0021744546184321832 0 -0.0042934192126794068 0.0017674163244824613 0 -0.0040707444376847091 0.0021744546184321832 0 -0.0042934192126794068 0.0017674163244824613 0 -0.0045785625284877323 0.0019562905670107099 0 -0.0045785625284877323 0.0019562905670107099 0 -0.0047915207784765311 0.0024038099135312578 0 -0.0052490571767048024 0.0019047791135196925 0 -0.0046305204104560875 0.0014499687925663774 0 -0.0045785625284877323 0.0019562905670107099 0 -0.0052490571767048024 0.0019047791135196925 0 -0.0040707444376847091 0.0021744546184321832 0 -0.0045785625284877323 0.0019562905670107099 0 -0.0047915207784765311 0.0024038099135312578 0 -0.0046195530008247892 0.0028999779772804547 0 -0.0047915207784765311 0.0024038099135312578 0 -0.0042359903827117037 0.0027163202946864878 0 -0.0040707444376847091 0.0021744546184321832 0 -0.0047915207784765311 0.0024038099135312578 0 -0.0042359903827117037 0.0027163202946864878 0 -0.0037594022513294878 0.0025716768371569286 0 -0.0040707444376847091 0.0021744546184321832 0 -0.0042359903827117037 0.0027163202946864878 0 0.005690117687212057 0.0024733311880474327 0 -0.0047848103145379369 0.0020891935172277251 0 0.00035965346016149369 0.0024585052239948094 0 -6.2222062126544362e-05 0.0010866081367361922 0 -0.00042280822030359085 0.0016744738919368188 0 -0.0054367030411179053 0.002405559451765244 0 -0.0052490571767048024 0.0019047791135196925 0 -0.0059352644724040924 0.0024264238141221053 0 -0.0054367030411179053 0.002405559451765244 0 -0.0058696852041629811 0.0024783960823232124 0 -0.0059352644724040924 0.0024264238141221053 0 -0.0047848103145379369 0.0020891935172277251 0 -0.009448583187476392 0.00087906112503679645 0 -0.0025451436042655206 0.0025064932670043213 0 -0.0047848103145379369 0.0020891935172277251 0 -0.0053913779017616976 0.002845798147139156 0 -0.0054367030411179053 0.002405559451765244 0 -0.0058696852041629811 0.0024783960823232124 0 -0.0047915207784765311 0.0024038099135312578 0 -0.0054367030411179053 0.002405559451765244 0 -0.0052490571767048024 0.0019047791135196925 0 -0.0053913779017616976 0.002845798147139156 0 -0.0047915207784765311 0.0024038099135312578 0 -0.0054367030411179053 0.002405559451765244 0 -0.0053913779017616976 0.002845798147139156 0 -0.0046195530008247892 0.0028999779772804547 0 -0.0047915207784765311 0.0024038099135312578 0 -0.014629926786177701 0.0011180869327697136 0 -0.014556397743702088 0.0011293796810141563 0 -0.014406865576386332 0.00083461255206882445 0 -0.010122225983726399 0.001678775494989625 0 -0.009448583187476392 0.00087906112503679645 0 -0.014556397743702088 0.0011293796810141563 0 -0.01440087599228672 0.00099824339009236597 0 -0.014406865576386332 0.00083461255206882445 0 -0.014556397743702088 0.0011293796810141563 0 -0.014490145254993153 0.0011532047467040277 0 -0.01440087599228672 0.00099824339009236597 0 -0.014629926786177701 0.0011180869327697136 0 -0.014556397743702088 0.0011293796810141563 0 -0.01461976680829037 0.0012395677006389906 0 -0.014556397743702088 0.0011293796810141563 0 -0.01461976680829037 0.0012395677006389906 0 -0.014490145254993153 0.0011532047467040277 0 -0.014629926786177701 0.0011180869327697136 0 -0.01461976680829037 0.0012395677006389906 0 -0.014654195565033628 0.0012842855350317973 0 -0.01461785478645259 0.001259312375535074 0 -0.014629926786177701 0.0011180869327697136 0 -0.014654195565033628 0.0012842855350317973 0 -0.0094950784625267397 0.0012504631479999398 0 -0.010122225983726399 0.001678775494989625 0 -0.01461976680829037 0.0012395677006389906 0 -0.014654195565033628 0.0012842855350317973 0 -0.014721609252307876 0.001269436031633305 0 -0.01461976680829037 0.0012395677006389906 0 -0.014721609252307876 0.001269436031633305 0 -0.0147549752481318 0.0012584003090029597 0 -0.014721609252307876 0.001269436031633305 0 -0.014826535987327603 0.0012284819588483202 0 -0.0147549752481318 0.0012584003090029597 0 -0.014721609252307876 0.001269436031633305 0 -0.014826535987327603 0.0012284819588483202 0 -0.014744192836668646 0.0012444369336516105 0 -0.014826535987327603 0.0012284819588483202 0 -0.014948600491854119 0.001175989739137871 0 -0.0147549752481318 0.0012584003090029597 0 -0.014928502271808267 0.0011595605736254549 0 -0.015125938677848295 0.0010632432797811511 0 -0.014948600491854119 0.001175989739137871 0 -0.014826535987327603 0.0012284819588483202 0 -0.014928502271808267 0.0011595605736254549 0 -0.014948600491854119 0.001175989739137871 0 -0.014826535987327603 0.0012284819588483202 0 -0.014928502271808267 0.0011595605736254549 0 -0.014744192836668646 0.0012444369336516105 0 -0.014928502271808267 0.0011595605736254549 0 -0.014744192836668646 0.0012444369336516105 0 -0.014813538348488246 0.0011165067882703168 0 -0.014744192836668646 0.0012444369336516105 0 -0.014608704822994782 0.0012565668657967481 0 -0.014813538348488246 0.0011165067882703168 0 -0.014654195565033628 0.0012842855350317973 0 -0.014721609252307876 0.001269436031633305 0 -0.014642143042024641 0.0012664354953750082 0 -0.014721609252307876 0.001269436031633305 0 -0.014744192836668646 0.0012444369336516105 0 -0.014642143042024641 0.0012664354953750082 0 -0.014583478239779348 0.001295293450475159 0 -0.014642143042024641 0.0012664354953750082 0 -0.014564331896010177 0.0012723706204633722 0 -0.014642143042024641 0.0012664354953750082 0 -0.014564331896010177 0.0012723706204633722 0 -0.014567475967373303 0.0012342704739570615 0 -0.014348579219814665 0.0012865021563664319 0 -0.014491333286822035 0.0013173709921969422 0 -0.014481292648635265 0.0012395145637740482 0 -0.014491333286822035 0.0013173709921969422 0 -0.014564331896010177 0.0012723706204633722 0 -0.014481292648635265 0.0012395145637740482 0 -0.014583478239779348 0.001295293450475159 0 -0.014491333286822035 0.0013173709921969422 0 -0.014564331896010177 0.0012723706204633722 0 -0.014564331896010177 0.0012723706204633722 0 -0.014567475967373303 0.0012342704739570615 0 -0.014481292648635265 0.0012395145637740482 0 -0.014131791571917521 0.0015551944498978106 0 -0.014608704822994782 0.0012565668657967481 0 -0.014191397758410607 0.0012414914658052945 0 -0.014567475967373303 0.0012342704739570615 0 -0.014483349384303746 0.0011494960184264024 0 -0.014608704822994782 0.0012565668657967481 0 -0.014443548328034711 0.0013333451439035871 0 -0.014509892403731683 0.0012858693346568752 0 -0.014339916914317635 0.0012128196049718343 0 -0.014481292648635265 0.0012395145637740482 0 -0.014483349384303746 0.0011494960184264024 0 -0.014567475967373303 0.0012342704739570615 0 -0.014481292648635265 0.0012395145637740482 0 -0.014483349384303746 0.0011494960184264024 0 -0.013874657253264776 0.001401595691712105 0 -0.014131791571917521 0.0015551944498978106 0 -0.014191397758410607 0.0012414914658052945 0 -0.014642143042024641 0.0012664354953750082 0 -0.014567475967373303 0.0012342704739570615 0 -0.014608704822994782 0.0012565668657967481 0 -0.014744192836668646 0.0012444369336516105 0 -0.014642143042024641 0.0012664354953750082 0 -0.014608704822994782 0.0012565668657967481 0 -0.014608704822994782 0.0012565668657967481 0 -0.014540423688029569 0.0010437516138982234 0 -0.014813538348488246 0.0011165067882703168 0 -0.014608704822994782 0.0012565668657967481 0 -0.014540423688029569 0.0010437516138982234 0 -0.014191397758410607 0.0012414914658052945 0 -0.014540423688029569 0.0010437516138982234 0 -0.014191397758410607 0.0012414914658052945 0 -0.014128523633677961 0.00096288290798558741 0 -0.01382632830955359 0.0011772460762527336 0 -0.014191397758410607 0.0012414914658052945 0 -0.014128523633677961 0.00096288290798558741 0 -0.014540423688029569 0.0010437516138982234 0 -0.014128523633677961 0.00096288290798558741 0 -0.014550649738188995 0.00072700531069477695 0 -0.014128523633677961 0.00096288290798558741 0 -0.014550649738188995 0.00072700531069477695 0 -0.014169695790872103 0.00070407459851953261 0 -0.014128523633677961 0.00096288290798558741 0 -0.014169695790872103 0.00070407459851953261 0 -0.013815133779431887 0.00075635151875911124 0 -0.014540423688029569 0.0010437516138982234 0 -0.014885875722887281 0.00086290181837114397 0 -0.014550649738188995 0.00072700531069477695 0 -0.014885875722887281 0.00086290181837114397 0 -0.015007225041568777 0.00057483063163963786 0 -0.014550649738188995 0.00072700531069477695 0 -0.014885875722887281 0.00086290181837114397 0 -0.015063909211431505 0.00097389696282451112 0 -0.015248980002873287 0.00065192125613924097 0 -0.014885875722887281 0.00086290181837114397 0 -0.015063909211431505 0.00097389696282451112 0 -0.014813538348488246 0.0011165067882703168 0 -0.015063909211431505 0.00097389696282451112 0 -0.015396596589725404 0.00086614262294876438 0 -0.015248980002873287 0.00065192125613924097 0 -0.015063909211431505 0.00097389696282451112 0 -0.015125938677848295 0.0010632432797811511 0 -0.015396596589725404 0.00086614262294876438 0 -0.014928502271808267 0.0011595605736254549 0 -0.015063909211431505 0.00097389696282451112 0 -0.015125938677848295 0.0010632432797811511 0 -0.014928502271808267 0.0011595605736254549 0 -0.015063909211431505 0.00097389696282451112 0 -0.014813538348488246 0.0011165067882703168 0 -0.014540423688029569 0.0010437516138982234 0 -0.014885875722887281 0.00086290181837114397 0 -0.014813538348488246 0.0011165067882703168 0 -0.012304436867607559 -5.8957096936608613e-05 0 -0.013478914376348511 0.00076306833885458013 0 -0.015741763555238004 0.0012352399781972471 0 -0.016218131645289242 0.0010186917073026639 0 -0.016007099726830218 0.0015936075493196641 0 -0.015125938677848295 0.0010632432797811511 0 -0.015097022374001619 0.0010913211855878627 0 -0.014948600491854119 0.001175989739137871 0 -0.015125938677848295 0.0010632432797811511 0 -0.015097022374001619 0.0010913211855878627 0 -0.015396596589725404 0.00086614262294876438 0 -0.015663983010930797 0.0013740784215793753 0 -0.015276509788358029 0.00079320223840659342 0 -0.015741763555238004 0.0012352399781972471 0 -0.015396596589725404 0.00086614262294876438 0 -0.015936727152211078 0.00063612044860902254 0 -0.015741763555238004 0.0012352399781972471 0 -0.016218131645289242 0.0010186917073026639 0 -0.015936727152211078 0.00063612044860902254 0 -0.016218131645289242 0.0010186917073026639 0 -0.016386712179697165 0.00045117206908544072 0 -0.015936727152211078 0.00063612044860902254 0 -0.012304436867607559 -5.8957096936608613e-05 0 -0.012471863774878841 -0.00018845597150325195 0 -0.0083781446818867455 -0.00084864086051393897 0 -0.0086201281931022663 -0.00095904516347112526 0 -0.0084127368460398463 -0.00072828919343092711 0 -0.0083781446818867455 -0.00084864086051393897 0 -0.0082769679567635032 -0.0010897354102856473 0 -0.0086201281931022663 -0.00095904516347112526 0 -0.0082769679567635032 -0.0010897354102856473 0 -0.0086201281931022663 -0.00095904516347112526 0 -0.0083638677011817694 -0.0012464609783754087 0 -0.0086201281931022663 -0.00095904516347112526 0 -0.00856025847736217 -0.0012660495275881108 0 -0.0083638677011817694 -0.0012464609783754087 0 -0.0086201281931022663 -0.00095904516347112526 0 -0.00856025847736217 -0.0012660495275881108 0 -0.0087849622673616956 -0.0013246772044517752 0 -0.00856025847736217 -0.0012660495275881108 0 -0.0084213414534768192 -0.0014409758446229206 0 -0.0086018034539693897 -0.0015519221997808848 0 -0.00856025847736217 -0.0012660495275881108 0 -0.0086018034539693897 -0.0015519221997808848 0 -0.0087849622673616956 -0.0013246772044517752 0 -0.00856025847736217 -0.0012660495275881108 0 -0.0084213414534768192 -0.0014409758446229206 0 -0.0083638677011817694 -0.0012464609783754087 0 -0.010773135262966499 0.00034274012380543304 0 -0.013478914376348511 0.00076306833885458013 0 -0.0082769679567635032 -0.0010897354102856473 0 -0.0083638677011817694 -0.0012464609783754087 0 -0.0080671341882149854 -0.0013743034792775613 0 -0.0083638677011817694 -0.0012464609783754087 0 -0.0082445634398333623 -0.0014676476894434499 0 -0.0080671341882149854 -0.0013743034792775613 0 -0.0084213414534768192 -0.0014409758446229206 0 -0.0083638677011817694 -0.0012464609783754087 0 -0.0082445634398333623 -0.0014676476894434499 0 -0.0083476013775607445 -0.0016533632040998409 0 -0.0080880993137930745 -0.0018560493960667346 0 -0.0080440524773973138 -0.0016480410617893708 0 -0.0082445634398333623 -0.0014676476894434499 0 -0.0083476013775607445 -0.0016533632040998409 0 -0.0080440524773973138 -0.0016480410617893708 0 -0.0084213414534768192 -0.0014409758446229206 0 -0.0082445634398333623 -0.0014676476894434499 0 -0.0083476013775607445 -0.0016533632040998409 0 -0.0090441711871079196 -0.0014808907699968518 0 -0.009395769567218137 -0.00044850304966365323 0 -0.0084213414534768192 -0.0014409758446229206 0 -0.0083476013775607445 -0.0016533632040998409 0 -0.0086018034539693897 -0.0015519221997808848 0 -0.010773135262966499 0.00034274012380543304 0 -0.009395769567218137 -0.00044850304966365323 0 -0.0083476013775607445 -0.0016533632040998409 0 -0.0086018034539693897 -0.0015519221997808848 0 -0.0083884627194706733 -0.0018044784032994086 0 -0.012984261634989542 0.002380233125270081 0 -0.013463463244202107 0.0021828713959440461 0 -0.013261473453310888 0.0027143849540612677 0 -0.014160311436985351 0.0018981308390443054 0 -0.013478914376348511 0.00076306833885458013 0 -0.012984261634989542 0.002380233125270081 0 -0.013463463244202107 0.0021828713959440461 0 -0.013163312851549027 0.001824617972978878 0 -0.014845018957625227 0.0012427903972434971 0 -0.014999573103579994 0.0011676664034407625 0 -0.014948600491854119 0.001175989739137871 0 -0.015097022374001619 0.0010913211855878627 0 -0.014999573103579994 0.0011676664034407625 0 -0.014948600491854119 0.001175989739137871 0 -0.015663983010930797 0.0013740784215793753 0 -0.013478914376348511 0.00076306833885458013 0 -0.014845018957625227 0.0012427903972434971 0 -0.014948600491854119 0.001175989739137871 0 -0.0147549752481318 0.0012584003090029597 0 -0.01461976680829037 0.0012395677006389906 0 -0.0147549752481318 0.0012584003090029597 0 -0.014585993043420844 0.0012615276866761208 0 -0.014845018957625227 0.0012427903972434971 0 -0.0147549752481318 0.0012584003090029597 0 -0.014585993043420844 0.0012615276866761208 0 -0.014160311436985351 0.0018981308390443054 0 -0.014178825895494575 0.0013571593254922151 0 -0.013463463244202107 0.0021828713959440461 0 -0.013163312851549027 0.001824617972978878 0 -0.013737277715499206 0.0016210358682679986 0 -0.013163312851549027 0.001824617972978878 0 -0.013366674649197569 0.0011854978192553196 0 -0.013737277715499206 0.0016210358682679986 0 -0.013366674649197569 0.0011854978192553196 0 -0.013737277715499206 0.0016210358682679986 0 -0.013748161361257723 0.00097510417977096685 0 -0.014585993043420844 0.0012615276866761208 0 -0.014490145254993153 0.0011532047467040277 0 -0.01420557553876468 0.00096700855212786187 0 -0.01461976680829037 0.0012395677006389906 0 -0.014585993043420844 0.0012615276866761208 0 -0.014490145254993153 0.0011532047467040277 0 -0.014178825895494575 0.0013571593254922151 0 -0.01422697789118085 0.0009859004728982369 0 -0.013737277715499206 0.0016210358682679986 0 -0.01420557553876468 0.00096700855212786187 0 -0.013748161361257723 0.00097510417977096685 0 -0.014490145254993153 0.0011532047467040277 0 -0.01420557553876468 0.00096700855212786187 0 -0.01440087599228672 0.00099824339009236597 0 -0.01440087599228672 0.00099824339009236597 0 -0.014323468014595822 0.00063015545621600277 0 -0.014507285411507894 0.00023099124264214972 0 -0.014020782230705228 0.00052642989364993543 0 -0.009448583187476392 0.00087906112503679645 0 -0.01420557553876468 0.00096700855212786187 0 -0.014323468014595822 0.00063015545621600277 0 -0.013952172715093551 0.00065893687587539938 0 -0.01420557553876468 0.00096700855212786187 0 -0.01440087599228672 0.00099824339009236597 0 -0.014323468014595822 0.00063015545621600277 0 -0.01420557553876468 0.00096700855212786187 0 -0.013952172715093551 0.00065893687587539938 0 -0.013748161361257723 0.00097510417977096685 0 -0.013366674649197569 0.0011854978192553196 0 -0.013498875042009802 0.0007118664850468573 0 -0.012878921909166802 0.00073464589947600954 0 -0.013366674649197569 0.0011854978192553196 0 -0.013748161361257723 0.00097510417977096685 0 -0.013498875042009802 0.0007118664850468573 0 -0.013498875042009802 0.0007118664850468573 0 -0.013364998865177358 0.00029927285050150359 0 -0.012878921909166802 0.00073464589947600954 0 -0.013952172715093551 0.00065893687587539938 0 -0.013748161361257723 0.00097510417977096685 0 -0.013498875042009802 0.0007118664850468573 0 -0.013952172715093551 0.00065893687587539938 0 -0.013498875042009802 0.0007118664850468573 0 -0.013764067478839886 0.00034883211336651521 0 -0.0136447008323691 -0.00020901368157524413 0 -0.013364998865177358 0.00029927285050150359 0 -0.012992083862083703 -6.6163187267329651e-05 0 -0.013498875042009802 0.0007118664850468573 0 -0.013364998865177358 0.00029927285050150359 0 -0.013764067478839886 0.00034883211336651521 0 -0.0136447008323691 -0.00020901368157524413 0 -0.013364998865177358 0.00029927285050150359 0 -0.013764067478839886 0.00034883211336651521 0 -0.0015671268552711734 0.0020024705017652853 0 -0.0010742942937523405 0.0017522806195007527 0 -0.00022274053784171737 0.00096515003452353606 0 -0.0044431043991835176 0.00035656530635975146 0 -0.009448583187476392 0.00087906112503679645 0 -0.0136447008323691 -0.00020901368157524413 0 -0.014314250775194238 0.00030643911623326437 0 -0.013764067478839886 0.00034883211336651521 0 -0.0010742942937523405 0.0017522806195007527 0 -0.00042280822030359085 0.0016744738919368188 0 -0.00022274053784171737 0.00096515003452353606 0 -6.2222062126544362e-05 0.0010866081367361922 0 -0.00042280822030359085 0.0016744738919368188 0 -0.00022274053784171737 0.00096515003452353606 0 -0.014323468014595822 0.00063015545621600277 0 -0.013952172715093551 0.00065893687587539938 0 -0.014507285411507894 0.00023099124264214972 0 -0.014627871118996893 -0.00040072098509992153 0 -0.009448583187476392 0.00087906112503679645 0 -0.013952172715093551 0.00065893687587539938 0 -0.014314250775194238 0.00030643911623326437 0 -0.013764067478839886 0.00034883211336651521 0 -0.0081072370791936427 -0.0036817701045344766 0 -0.008449062412976268 -0.0034566986635459875 0 -0.0080793920532396622 -0.0033163792980983684 0 -0.0081072370791936427 -0.0036817701045344766 0 -0.0083195549386916468 -0.0037393925592496902 0 -0.008449062412976268 -0.0034566986635459875 0 -0.0081072370791936427 -0.0036817701045344766 0 -0.0078646971771744872 -0.0035273075306995914 0 -0.0080793920532396622 -0.0033163792980983684 0 -0.0076140553975894325 -0.0034668496578847156 0 -0.0078646971771744872 -0.0035273075306995914 0 -0.0077883237900947516 -0.0032414310684850955 0 -0.0078646971771744872 -0.0035273075306995914 0 -0.0080793920532396622 -0.0033163792980983684 0 -0.0077883237900947516 -0.0032414310684850955 0 -0.0076140553975894325 -0.0034668496578847156 0 -0.0078646971771744872 -0.0035273075306995914 0 -0.0075868647513298365 -0.0039789927786473079 0 -0.0081072370791936427 -0.0036817701045344766 0 -0.0078646971771744872 -0.0035273075306995914 0 -0.0075868647513298365 -0.0039789927786473079 0 -0.0081072370791936427 -0.0036817701045344766 0 -0.0080425841968736131 -0.0041048678012737816 0 -0.0083195549386916468 -0.0037393925592496902 0 -0.0081072370791936427 -0.0036817701045344766 0 -0.0075868647513298365 -0.0039789927786473079 0 -0.0080425841968736131 -0.0041048678012737816 0 -0.0080425841968736131 -0.0041048678012737816 0 -0.0084266702795910125 -0.0039424487348946186 0 -0.0083195549386916468 -0.0037393925592496902 0 -0.0067042623478744305 -0.0021534908939453371 0 -0.011047853562627812 -0.0013252286738351326 0 -0.0089444808222704179 -0.0040309297962288484 0 -0.0087440979130145886 -0.0037911646601618246 0 -0.0087369674084334711 -0.0031016642578494454 0 -0.013364998865177358 0.00029927285050150359 0 -0.012992083862083703 -6.6163187267329651e-05 0 -0.012878921909166802 0.00073464589947600954 0 -0.0067675856100567937 -0.0038583278005615987 0 -0.0055560711065556464 -0.0036303885149227238 0 -0.0084266702795910125 -0.0039424487348946186 0 -0.0085920203271190199 -0.0039649552811543923 0 -0.0085080208387600924 -0.0037785581104847208 0 -0.0085920203271190199 -0.0039649552811543923 0 -0.0085080208387600924 -0.0037785581104847208 0 -0.0087440979130145886 -0.0037911646601618246 0 -0.0084266702795910125 -0.0039424487348946186 0 -0.0085080208387600924 -0.0037785581104847208 0 -0.0083195549386916468 -0.0037393925592496902 0 -0.0055560711065556464 -0.0036303885149227238 0 -0.0067042623478744305 -0.0021534908939453371 0 -0.0085752992474290145 -0.003951306269110306 0 -0.0089444808222704179 -0.0040309297962288484 0 -0.0087440979130145886 -0.0037911646601618246 0 -0.0055560711065556464 -0.0036303885149227238 0 -0.0067203570669206215 -0.0031336587363986995 0 -0.0087440979130145886 -0.0037911646601618246 0 -0.008449062412976268 -0.0034566986635459875 0 -0.0087369674084334711 -0.0031016642578494454 0 -0.0085080208387600924 -0.0037785581104847208 0 -0.0083195549386916468 -0.0037393925592496902 0 -0.008449062412976268 -0.0034566986635459875 0 -0.0085080208387600924 -0.0037785581104847208 0 -0.0087440979130145886 -0.0037911646601618246 0 -0.008449062412976268 -0.0034566986635459875 0 -0.0087369674084334711 -0.0031016642578494454 0 -0.0083098394028265788 -0.0028302904168134115 0 -0.0085197889942408081 -0.0022890634732911259 0 -0.0083370537066591241 -0.0031410996112842099 0 -0.0087369674084334711 -0.0031016642578494454 0 -0.0083098394028265788 -0.0028302904168134115 0 -0.013366674649197569 0.0011854978192553196 0 -0.012878921909166802 0.00073464589947600954 0 -0.012785302106599974 0.0014363705997674969 0 -0.008449062412976268 -0.0034566986635459875 0 -0.0083370537066591241 -0.0031410996112842099 0 -0.0087369674084334711 -0.0031016642578494454 0 -0.011047853562627812 -0.0013252286738351326 0 -0.01067882982861173 -0.00031900970019390327 0 -0.0080347092360787825 -0.0029427206003855822 0 -0.0083098394028265788 -0.0028302904168134115 0 -0.0081816693122710015 -0.0025276707543164813 0 -0.0080347092360787825 -0.0029427206003855822 0 -0.0078392481282601387 -0.0026629015099078326 0 -0.0081816693122710015 -0.0025276707543164813 0 -0.0083370537066591241 -0.0031410996112842099 0 -0.0080347092360787825 -0.0029427206003855822 0 -0.0083098394028265788 -0.0028302904168134115 0 -0.0080347092360787825 -0.0029427206003855822 0 -0.0080793920532396622 -0.0033163792980983684 0 -0.0077883237900947516 -0.0032414310684850955 0 -0.008449062412976268 -0.0034566986635459875 0 -0.0083370537066591241 -0.0031410996112842099 0 -0.0080793920532396622 -0.0033163792980983684 0 -0.0083370537066591241 -0.0031410996112842099 0 -0.0080347092360787825 -0.0029427206003855822 0 -0.0080793920532396622 -0.0033163792980983684 0 -0.0076140553975894325 -0.0034668496578847156 0 -0.0077883237900947516 -0.0032414310684850955 0 -0.0075364056607068984 -0.0031850943603779847 0 -0.0080347092360787825 -0.0029427206003855822 0 -0.0077883237900947516 -0.0032414310684850955 0 -0.0077023317816861392 -0.0029611483385784164 0 -0.0077883237900947516 -0.0032414310684850955 0 -0.0077023317816861392 -0.0029611483385784164 0 -0.0075364056607068984 -0.0031850943603779847 0 -0.0078392481282601387 -0.0026629015099078326 0 -0.0076942412912745489 -0.0024728377983514026 0 -0.0075743056545466182 -0.0028002472680478453 0 -0.0077023317816861392 -0.0029611483385784164 0 -0.0078392481282601387 -0.0026629015099078326 0 -0.0075743056545466182 -0.0028002472680478453 0 -0.0080347092360787825 -0.0029427206003855822 0 -0.0077023317816861392 -0.0029611483385784164 0 -0.0078392481282601387 -0.0026629015099078326 0 -0.0078392481282601387 -0.0026629015099078326 0 -0.007984823869373131 -0.002392559517038068 0 -0.0081816693122710015 -0.0025276707543164813 0 -0.0078392481282601387 -0.0026629015099078326 0 -0.007984823869373131 -0.002392559517038068 0 -0.0076942412912745489 -0.0024728377983514026 0 -0.007984823869373131 -0.002392559517038068 0 -0.0081816693122710015 -0.0025276707543164813 0 -0.0082163964676071639 -0.0021995746723832304 0 -0.0081816693122710015 -0.0025276707543164813 0 -0.0082163964676071639 -0.0021995746723832304 0 -0.0085197889942408081 -0.0022890634732911259 0 -0.007984823869373131 -0.002392559517038068 0 -0.0082163964676071639 -0.0021995746723832304 0 -0.007993356674078583 -0.0021005285357443954 0 -0.007984823869373131 -0.002392559517038068 0 -0.007993356674078583 -0.0021005285357443954 0 -0.0076942412912745489 -0.0024728377983514026 0 -0.013163312851549027 0.001824617972978878 0 -0.013366674649197569 0.0011854978192553196 0 -0.012785302106599974 0.0014363705997674969 0 -0.0083098394028265788 -0.0028302904168134115 0 -0.0081816693122710015 -0.0025276707543164813 0 -0.0085197889942408081 -0.0022890634732911259 0 -0.013163312851549027 0.001824617972978878 0 -0.012785302106599974 0.0014363705997674969 0 -0.012675028875768242 0.002019979920848894 0 -0.01067882982861173 -0.00031900970019390327 0 -0.009395769567218137 -0.00044850304966365323 0 -0.0082163964676071639 -0.0021995746723832304 0 -0.0085197889942408081 -0.0022890634732911259 0 -0.00835534372787659 -0.001595548702412645 0 -0.012984261634989542 0.002380233125270081 0 -0.013163312851549027 0.001824617972978878 0 -0.012675028875768242 0.002019979920848894 0 -0.0082163964676071639 -0.0021995746723832304 0 -0.007993356674078583 -0.0021005285357443954 0 -0.00835534372787659 -0.001595548702412645 0 -0.007993356674078583 -0.0021005285357443954 0 -0.0080880993137930745 -0.0018560493960667346 0 -0.0076316003341403444 -0.0021179589998969578 0 -0.0077247283349144349 -0.0024778152898174846 0 -0.009395769567218137 -0.00044850304966365323 0 -0.007993356674078583 -0.0021005285357443954 0 -0.0083614913346081905 -0.0018133176138238247 0 -0.0080880993137930745 -0.0018560493960667346 0 -0.0083476013775607445 -0.0016533632040998409 0 -0.0083614913346081905 -0.0018133176138238247 0 -0.0080880993137930745 -0.0018560493960667346 0 -0.00785475170765732 -0.0018641688672025563 0 -0.0079774732071511631 -0.0020769529730741976 0 -0.0080440524773973138 -0.0016480410617893708 0 -0.0080299893409259415 -0.0020968574764118858 0 -0.0079582688085488573 -0.0017049417669595848 0 -0.0080880993137930745 -0.0018560493960667346 0 -0.0076316003341403444 -0.0021179589998969578 0 -0.0080440524773973138 -0.0016480410617893708 0 -0.00785475170765732 -0.0018641688672025563 0 -0.0077738971909126243 -0.0020531965225238551 0 -0.0079774732071511631 -0.0020769529730741976 0 -0.00785475170765732 -0.0018641688672025563 0 -0.0076226698846194423 -0.0019326820608663781 0 -0.0078585619313945188 -0.0016440201472446134 0 -0.00785475170765732 -0.0018641688672025563 0 -0.0076226698846194423 -0.0019326820608663781 0 -0.0077738971909126243 -0.0020531965225238551 0 -0.0076226698846194423 -0.0019326820608663781 0 -0.0077738971909126243 -0.0020531965225238551 0 -0.0076410667156379605 -0.0021431217800272893 0 -0.0077738971909126243 -0.0020531965225238551 0 -0.0076410667156379605 -0.0021431217800272893 0 -0.007752053980412215 -0.0022939224476850525 0 -0.0023433515396203901 -0.0037295826790714527 0 -0.0089847999700458214 -0.0018844413800467837 0 -0.0069257495589744528 -0.0024688165942130698 0 -0.007752053980412215 -0.0022939224476850525 0 -0.0073063624935645255 -0.0026775193512585923 0 -0.0076410667156379605 -0.0021431217800272893 0 -0.0075549390450567163 -0.0023204834964039339 0 -0.007752053980412215 -0.0022939224476850525 0 -0.007752053980412215 -0.0022939224476850525 0 -0.0077248523388909812 -0.002400853047589802 0 -0.0073063624935645255 -0.0026775193512585923 0 -0.0080299893409259415 -0.0020968574764118858 0 -0.0051305033951536518 -0.0027497660623337574 0 -0.0079774732071511631 -0.0020769529730741976 0 -0.0077248523388909812 -0.002400853047589802 0 -0.0078244816268181038 -0.0027300700128882267 0 -0.0076316003341403444 -0.0021179589998969578 0 -0.0076942412912745489 -0.0024728377983514026 0 -0.0071797270497293035 -0.0029932280002891304 0 -0.007993356674078583 -0.0021005285357443954 0 -0.0076316003341403444 -0.0021179589998969578 0 -0.0076942412912745489 -0.0024728377983514026 0 -0.0077738971909126243 -0.0020531965225238551 0 -0.0079774732071511631 -0.0020769529730741976 0 -0.007752053980412215 -0.0022939224476850525 0 -0.0079774732071511631 -0.0020769529730741976 0 -0.007752053980412215 -0.0022939224476850525 0 -0.0077248523388909812 -0.002400853047589802 0 -0.0075743056545466182 -0.0028002472680478453 0 -0.0074488962423573972 -0.0030013461442801562 0 -0.0071797270497293035 -0.0029932280002891304 0 -0.0076942412912745489 -0.0024728377983514026 0 -0.0075743056545466182 -0.0028002472680478453 0 -0.0071797270497293035 -0.0029932280002891304 0 -0.0077023317816861392 -0.0029611483385784164 0 -0.0075743056545466182 -0.0028002472680478453 0 -0.0074488962423573972 -0.0030013461442801562 0 -0.0074488962423573972 -0.0030013461442801562 0 -0.0072942217660759241 -0.0030937709567275197 0 -0.0075364056607068984 -0.0031850943603779847 0 -0.0077023317816861392 -0.0029611483385784164 0 -0.0074488962423573972 -0.0030013461442801562 0 -0.0075364056607068984 -0.0031850943603779847 0 -0.0072942217660759241 -0.0030937709567275197 0 -0.0070651653096677454 -0.0029681639977083476 0 -0.0072867167428774908 -0.0034267895862805826 0 -0.0074488962423573972 -0.0030013461442801562 0 -0.0072942217660759241 -0.0030937709567275197 0 -0.0071797270497293035 -0.0029932280002891304 0 -0.0061076380001361796 -0.0031533960240355046 0 -0.0051305033951536518 -0.0027497660623337574 0 -0.0072942217660759241 -0.0030937709567275197 0 -0.0075364056607068984 -0.0031850943603779847 0 -0.0072867167428774908 -0.0034267895862805826 0 -0.0077248523388909812 -0.002400853047589802 0 -0.0078244816268181038 -0.0027300700128882267 0 -0.0074875165330993013 -0.0025499361262398598 0 -0.0051305033951536518 -0.0027497660623337574 0 -0.0015493159850844891 -0.0033605484980787771 0 -0.0067944970829659128 -0.0013342151417531146 0 -0.0015493159850844891 -0.0033605484980787771 0 0.0023194749890220515 -0.0035424540957897568 0 0.0028297900981151965 -0.0032489055466580203 0 0.0029552771671478356 -0.0039873242664844296 0 0.0028297900981151965 -0.0032489055466580203 0 0.0029552771671478356 -0.0039873242664844296 0 0.0038328645983041584 -0.0039780097786475226 0 0.0020641402436649479 -0.0037964558043731712 0 0.0016798076516902419 -0.004013325131170086 0 0.0030033509551100944 -0.0048836327916026044 0 -0.0023433515396203901 -0.0037295826790714527 0 -0.0015493159850844891 -0.0033605484980787771 0 0.0025706775194051018 -0.0045672078406293615 0 0.0029552771671478356 -0.0039873242664844296 0 0.0033895236881387532 -0.0044604603705595556 0 -0.0066562535684198607 -0.0042548749909637655 0 -0.0070651653096677454 -0.0029681639977083476 0 -0.0072867167428774908 -0.0034267895862805826 0 -0.0019750079718536496 -0.0045312374636877631 0 -0.0051305033951536518 -0.0027497660623337574 0 0.0025706775194051018 -0.0045672078406293615 0 0.0023194749890220515 -0.0035424540957897568 0 0.0029552771671478356 -0.0039873242664844296 0 -0.0066562535684198607 -0.0042548749909637655 0 -0.0075868647513298365 -0.0039789927786473079 0 -0.0072867167428774908 -0.0034267895862805826 0 -0.0076140553975894325 -0.0034668496578847156 0 -0.0075868647513298365 -0.0039789927786473079 0 -0.0072867167428774908 -0.0034267895862805826 0 -0.0076140553975894325 -0.0034668496578847156 0 -0.0075364056607068984 -0.0031850943603779847 0 -0.0072867167428774908 -0.0034267895862805826 0 0.0042373180493689676 -0.0050161360911956604 0 0.0041474578632694934 -0.0046450016703022097 0 0.0038955046488794737 -0.0048891432281778554 0 0.0046683204372463347 -0.0046779354654830759 0 0.0038328645983041584 -0.0039780097786475226 0 0.0041368375353774108 -0.0055104971879750509 0 0.0030033509551100944 -0.0048836327916026044 0 0.0036422988818781308 -0.0043334409690182702 0 0.0038955046488794737 -0.0048891432281778554 0 0.0033895236881387532 -0.0044604603705595556 0 0.0038328645983041584 -0.0039780097786475226 0 0.0029552771671478356 -0.0039873242664844296 0 0.0033895236881387532 -0.0044604603705595556 0 0.0038328645983041584 -0.0039780097786475226 0 0.0020641402436649479 -0.0037964558043731712 0 0.0030033509551100944 -0.0048836327916026044 0 0.0036422988818781308 -0.0043334409690182702 0 -0.0015493159850844891 -0.0033605484980787771 0 0.0041474578632694934 -0.0046450016703022097 0 -0.0023433515396203901 -0.0037295826790714527 0 0.0035979767319415583 -0.0049677922028580797 0 0.0025292122691258183 -0.0041700352082616431 0 0.0026047465661519376 -0.0046703754547574444 0 0.0014325075760236597 -0.0042548257164679764 0 0.0026047465661519376 -0.0046703754547574444 0 0.0019653832890807756 -0.0052636840840526713 0 0.0014325075760236597 -0.0042548257164679764 0 0.00038333373711904747 -0.0048286534222879013 0 0.0019653832890807756 -0.0052636840840526713 0 0.0014325075760236597 -0.0042548257164679764 0 -0.0023433515396203901 -0.0037295826790714527 0 -0.0030707216286198283 -0.0032469040900991045 0 -0.0076410667156379605 -0.0021431217800272893 0 -0.0075549390450567163 -0.0023204834964039339 0 -0.0072850768426238922 -0.0021559264735367409 0 -0.0076226698846194423 -0.0019326820608663781 0 -0.0072850768426238922 -0.0021559264735367409 0 -0.0073079378998709239 -0.0017754746722194797 0 -0.0076226698846194423 -0.0019326820608663781 0 -0.0076410667156379605 -0.0021431217800272893 0 -0.0072850768426238922 -0.0021559264735367409 0 -0.0069820605478241116 -0.0020041181225183306 0 -0.0072850768426238922 -0.0021559264735367409 0 -0.0073079378998709239 -0.0017754746722194797 0 0.002427026557409648 -0.003776427535025423 0 0.0025292122691258183 -0.0041700352082616431 0 0.0014325075760236597 -0.0042548257164679764 0 -0.0025650157998214421 -0.0029326709633713333 0 -0.0030707216286198283 -0.0032469040900991045 0 -0.0069820605478241116 -0.0020041181225183306 0 -0.0069831237133762382 -0.0016972035613656634 0 -0.0073079378998709239 -0.0017754746722194797 0 -0.0069831237133762382 -0.0016972035613656634 0 -0.0073079378998709239 -0.0017754746722194797 0 -0.007195489241587737 -0.001466063181433294 0 -0.007195489241587737 -0.001466063181433294 0 -0.0074895507415835266 -0.0014811833442676388 0 -0.0073974564380129542 -0.0012606745785606775 0 -0.0073079378998709239 -0.0017754746722194797 0 -0.007195489241587737 -0.001466063181433294 0 -0.0074895507415835266 -0.0014811833442676388 0 -0.0074895507415835266 -0.0014811833442676388 0 -0.0077441286649548111 -0.0014906990436876827 0 -0.0077447697825179587 -0.0012122017554610587 0 -0.0074895507415835266 -0.0014811833442676388 0 -0.0077447697825179587 -0.0012122017554610587 0 -0.0073974564380129542 -0.0012606745785606775 0 -0.0074895507415835266 -0.0014811833442676388 0 -0.0076054892852678033 -0.0016648671742218036 0 -0.0077441286649548111 -0.0014906990436876827 0 -0.0073079378998709239 -0.0017754746722194797 0 -0.0074895507415835266 -0.0014811833442676388 0 -0.0076054892852678033 -0.0016648671742218036 0 -0.0076226698846194423 -0.0019326820608663781 0 -0.0073079378998709239 -0.0017754746722194797 0 -0.0076054892852678033 -0.0016648671742218036 0 -0.0076226698846194423 -0.0019326820608663781 0 -0.0078585619313945188 -0.0016440201472446134 0 -0.0076054892852678033 -0.0016648671742218036 0 -0.0078585619313945188 -0.0016440201472446134 0 -0.0076054892852678033 -0.0016648671742218036 0 -0.0077441286649548111 -0.0014906990436876827 0 -0.0082445634398333623 -0.0014676476894434499 0 -0.0080440524773973138 -0.0016480410617893708 0 -0.0080671341882149854 -0.0013743034792775613 0 -0.0078585619313945188 -0.0016440201472446134 0 -0.0080440524773973138 -0.0016480410617893708 0 -0.0080671341882149854 -0.0013743034792775613 0 -0.00785475170765732 -0.0018641688672025563 0 -0.0078585619313945188 -0.0016440201472446134 0 -0.0080440524773973138 -0.0016480410617893708 0 -0.0080671341882149854 -0.0013743034792775613 0 -0.0077441286649548111 -0.0014906990436876827 0 -0.0077447697825179587 -0.0012122017554610587 0 -0.0078585619313945188 -0.0016440201472446134 0 -0.0080671341882149854 -0.0013743034792775613 0 -0.0077441286649548111 -0.0014906990436876827 0 -0.0077447697825179587 -0.0012122017554610587 0 -0.008078852883629457 -0.0010464151747333096 0 -0.0078209558930105831 -0.00091338421008129865 0 -0.0080671341882149854 -0.0013743034792775613 0 -0.0077447697825179587 -0.0012122017554610587 0 -0.008078852883629457 -0.0010464151747333096 0 -0.0082769679567635032 -0.0010897354102856473 0 -0.0080671341882149854 -0.0013743034792775613 0 -0.008078852883629457 -0.0010464151747333096 0 -0.0083781446818867455 -0.00084864086051393897 0 -0.008078852883629457 -0.0010464151747333096 0 -0.0081487215356338578 -0.00082631360453817805 0 -0.0083781446818867455 -0.00084864086051393897 0 -0.0082769679567635032 -0.0010897354102856473 0 -0.008078852883629457 -0.0010464151747333096 0 -0.008078852883629457 -0.0010464151747333096 0 -0.0081487215356338578 -0.00082631360453817805 0 -0.0078209558930105831 -0.00091338421008129865 0 -0.0081487215356338578 -0.00082631360453817805 0 -0.0078209558930105831 -0.00091338421008129865 0 -0.0079668749806480355 -0.00069045995012765671 0 -0.0078209558930105831 -0.00091338421008129865 0 -0.0075045666991621091 -0.0010113459623090539 0 -0.007609155548562771 -0.00068177912936083929 0 -0.0075045666991621091 -0.0010113459623090539 0 -0.0072650175903396499 -0.00081121475641872192 0 -0.007157835666780357 -0.0011509200043708174 0 -0.0075045666991621091 -0.0010113459623090539 0 -0.0072650175903396499 -0.00081121475641872192 0 -0.007609155548562771 -0.00068177912936083929 0 -0.007195489241587737 -0.001466063181433294 0 -0.0073974564380129542 -0.0012606745785606775 0 -0.007157835666780357 -0.0011509200043708174 0 -0.0075045666991621091 -0.0010113459623090539 0 -0.0073974564380129542 -0.0012606745785606775 0 -0.007157835666780357 -0.0011509200043708174 0 -0.0077447697825179587 -0.0012122017554610587 0 -0.0075045666991621091 -0.0010113459623090539 0 -0.0073974564380129542 -0.0012606745785606775 0 -0.0077447697825179587 -0.0012122017554610587 0 -0.0078209558930105831 -0.00091338421008129865 0 -0.0075045666991621091 -0.0010113459623090539 0 -0.0085423156361845165 -0.00046446874561593477 0 -0.0079800420633216324 -0.00044930609173351088 0 -0.0081915393573946706 -0.00063767270063386022 0 -0.0072502210859311253 -1.7811104939042722e-05 0 -0.0082900966815769844 -0.00055672235877294576 0 -0.0071104781232352691 -0.0004998433308241409 0 -0.0072650175903396499 -0.00081121475641872192 0 -0.007609155548562771 -0.00068177912936083929 0 -0.0071104781232352691 -0.0004998433308241409 0 -0.0073984894286264133 -0.00024155512798136218 0 -0.007609155548562771 -0.00068177912936083929 0 -0.007609155548562771 -0.00068177912936083929 0 -0.0079668749806480355 -0.00069045995012765671 0 -0.0079800420633216324 -0.00044930609173351088 0 -0.0073984894286264133 -0.00024155512798136218 0 -0.007609155548562771 -0.00068177912936083929 0 -0.0079800420633216324 -0.00044930609173351088 0 -0.0078209558930105831 -0.00091338421008129865 0 -0.007609155548562771 -0.00068177912936083929 0 -0.0079668749806480355 -0.00069045995012765671 0 -0.0081487215356338578 -0.00082631360453817805 0 -0.0079668749806480355 -0.00069045995012765671 0 -0.0081310207951534458 -0.00060292787361886058 0 -0.0079668749806480355 -0.00069045995012765671 0 -0.0081310207951534458 -0.00060292787361886058 0 -0.0079800420633216324 -0.00044930609173351088 0 -0.0081487215356338578 -0.00082631360453817805 0 -0.0081310207951534458 -0.00060292787361886058 0 -0.0085528002855823765 -0.00067840713377782108 0 -0.0083781446818867455 -0.00084864086051393897 0 -0.0081487215356338578 -0.00082631360453817805 0 -0.0085528002855823765 -0.00067840713377782108 0 -0.0096623142641860203 -0.0012333180708554898 0 -0.0089534938815104704 -0.0013380321827668002 0 -0.0085528002855823765 -0.00067840713377782108 0 -0.0081310207951534458 -0.00060292787361886058 0 -0.0081025583228899693 -0.00045806311302348872 0 -0.0085528002855823765 -0.00067840713377782108 0 -0.0089700973389899574 -0.00098648830756248957 0 -0.0086007774001427544 -0.00067177476050159126 0 -0.0096623142641860203 -0.0012333180708554898 0 -0.0089534938815104704 -0.0013380321827668002 0 -0.0093784852872825716 -0.001614172144871512 0 -0.0079800420633216324 -0.00044930609173351088 0 -0.0080729286939741195 -0.00055074402237321508 0 -0.0081915393573946706 -0.00063767270063386022 0 -0.0079800420633216324 -0.00044930609173351088 0 -0.0080643823591585017 -0.00050862700911914055 0 -0.0080729286939741195 -0.00055074402237321508 0 -0.0081310207951534458 -0.00060292787361886058 0 -0.0081025583228899693 -0.00045806311302348872 0 -0.0080643823591585017 -0.00050862700911914055 0 -0.0081310207951534458 -0.00060292787361886058 0 -0.0079800420633216324 -0.00044930609173351088 0 -0.0080643823591585017 -0.00050862700911914055 0 -0.0081025583228899693 -0.00045806311302348872 0 -0.0080643823591585017 -0.00050862700911914055 0 -0.0080729286939741195 -0.00055074402237321508 0 -0.0080729286939741195 -0.00055074402237321508 0 -0.0080584408332787776 -0.00077486449334778992 0 -0.0081915393573946706 -0.00063767270063386022 0 -0.0089700973389899574 -0.00098648830756248957 0 -0.0088694198427892793 -0.0010625317752468125 0 -0.0081025583228899693 -0.00045806311302348872 0 -0.0080729286939741195 -0.00055074402237321508 0 -0.0080584408332787776 -0.00077486449334778992 0 -0.0096623142641860203 -0.0012333180708554898 0 -0.0099290273040882251 -0.0018225163776716654 0 -0.010567811307878535 -0.0021029348752707186 0 -0.0099290273040882251 -0.0018225163776716654 0 -0.01015902264218011 -0.0023456344806675666 0 -0.010567811307878535 -0.0021029348752707186 0 -0.0089534938815104704 -0.0013380321827668002 0 -0.0093784852872825716 -0.001614172144871512 0 -0.0089380517480786813 -0.002196795867554445 0 -0.0096623142641860203 -0.0012333180708554898 0 -0.0099290273040882251 -0.0018225163776716654 0 -0.0093784852872825716 -0.001614172144871512 0 -0.011212588610334584 -0.0025555892652762641 0 -0.0093784852872825716 -0.001614172144871512 0 -0.0096306305720571909 -0.0025614683410939533 0 -0.010305781851229394 -0.0022030088346370862 0 -0.0096924857361617694 -0.0017958984463985329 0 -0.0099290273040882251 -0.0018225163776716654 0 -0.01015902264218011 -0.0023456344806675666 0 -0.0093784852872825716 -0.001614172144871512 0 -0.0096306305720571909 -0.0025614683410939533 0 -0.0092447395978359267 -0.0030987481276846477 0 -0.0089380517480786813 -0.002196795867554445 0 -0.0093784852872825716 -0.001614172144871512 0 -0.0096306305720571909 -0.0025614683410939533 0 -0.0089380517480786813 -0.002196795867554445 0 -0.018022441573888204 -0.0036053189427278187 0 -0.018437927236858085 -0.0036482166682283816 0 -0.018226429365591008 -0.0037883464281712083 0 -0.01430015505566825 -0.0030313507805487692 0 -0.016723792752518282 -0.0040097044891413925 0 -0.011212588610334584 -0.0025555892652762641 0 -0.0096306305720571909 -0.0025614683410939533 0 -0.0092853326203192581 -0.0035263597859026422 0 -0.0096306305720571909 -0.0025614683410939533 0 -0.0092447395978359267 -0.0030987481276846477 0 -0.0092853326203192581 -0.0035263597859026422 0 -0.0092447395978359267 -0.0030987481276846477 0 -0.0093008739316722683 -0.0033798649159328719 0 -0.0085781933331644956 -0.0032407714857417848 0 -0.013622177049523881 -0.0028863287603656885 0 -0.01430015505566825 -0.0030313507805487692 0 -0.011212588610334584 -0.0025555892652762641 0 -0.0092853326203192581 -0.0035263597859026422 0 -0.011683737709271386 -0.0039078808881333697 0 -0.01015902264218011 -0.0023456344806675666 0 -0.010567811307878535 -0.0021029348752707186 0 -0.011296753241617528 -0.0033056295386012895 0 -0.011212588610334584 -0.0025555892652762641 0 -0.011857440595343065 -0.0035385031640041103 0 -0.013348987368306486 -0.0040445421459677213 0 -0.010305781851229394 -0.0022030088346370862 0 -0.015427995400308828 -0.0039137874193375397 0 -0.011212588610334584 -0.0025555892652762641 0 -0.011857440595343065 -0.0035385031640041103 0 -0.011683737709271386 -0.0039078808881333697 0 -0.022888390301087559 -0.0063018299063613437 0 -0.022409971946109969 -0.0061201982019035359 0 -0.02301086021880884 -0.0059741556183217706 0 -0.022888390301087559 -0.0063018299063613437 0 -0.022409971946109969 -0.0061201982019035359 0 -0.021839773248911207 -0.0064055210895039589 0 -0.016723792752518282 -0.0040097044891413925 0 -0.015427995400308828 -0.0039137874193375397 0 -0.011857440595343065 -0.0035385031640041103 0 -0.011718102483076438 -0.0039767106931788308 0 -0.013348987368306486 -0.0040445421459677213 0 -0.016122732755266607 -0.0042765385144257137 0 -0.016723792752518282 -0.0040097044891413925 0 -0.022409971946109969 -0.0061201982019035359 0 -0.021839773248911207 -0.0064055210895039589 0 -0.021849519869778494 -0.0057580236714364344 0 -0.02144276372084011 -0.0060879311926964139 0 -0.021839773248911207 -0.0064055210895039589 0 -0.021849519869778494 -0.0057580236714364344 0 -0.015898284823072865 -0.0039424191477884585 0 -0.01590338393578241 -0.0036597964615078336 0 -0.015517756024762422 -0.0036214307795911435 0 -0.017781177144285787 -0.0046791268745952569 0 -0.015427995400308828 -0.0039137874193375397 0 -0.013602751153816374 -0.0032387111793875001 0 -0.015427995400308828 -0.0039137874193375397 0 -0.0083338229410280934 -0.0011699634904481844 0 -0.0084103384284683978 -0.001173443636166092 0 -0.0083829287082063195 -0.00099352951781763116 0 -0.015368479919914304 -0.0041281268005262522 0 -0.0160604725018508 -0.0044227902953498021 0 -0.017781177144285787 -0.0046791268745952569 0 -0.0160604725018508 -0.0044227902953498021 0 -0.016101956574574833 -0.0042000632916841451 0 -0.015013989799333893 -0.004105641831755903 0 -0.015601459036179901 -0.0036030502721402687 0 -0.013602751153816374 -0.0032387111793875001 0 -0.015368479919914304 -0.0041281268005262522 0 -0.015898284823072865 -0.0039424191477884585 0 -0.01590338393578241 -0.0036597964615078336 0 -0.016038568241219797 -0.0038220430415762279 0 -0.013602751153816374 -0.0032387111793875001 0 -0.0160604725018508 -0.0044227902953498021 0 -0.0083338229410280934 -0.0011699634904481844 0 -0.0083829287082063195 -0.00099352951781763116 0 -0.0082563411048357099 -0.0008672770036194466 0 -0.010567811307878535 -0.0021029348752707186 0 -0.011660238682137346 -0.0033354228941473146 0 -0.011296753241617528 -0.0033056295386012895 0 -0.0080584408332787776 -0.00077486449334778992 0 -0.0083338229410280934 -0.0011699634904481844 0 -0.0082563411048357099 -0.0008672770036194466 0 -0.0088694198427892793 -0.0010625317752468125 0 -0.013602751153816374 -0.0032387111793875001 0 -0.0085423156361845165 -0.00046446874561593477 0 -0.0083977543040160505 -0.00079282525697569955 0 -0.0081915393573946706 -0.00063767270063386022 0 -0.0080584408332787776 -0.00077486449334778992 0 -0.0082563411048357099 -0.0008672770036194466 0 -0.0081915393573946706 -0.00063767270063386022 0 -0.0082563411048357099 -0.0008672770036194466 0 -0.0083977543040160505 -0.00079282525697569955 0 -0.0081915393573946706 -0.00063767270063386022 0 -0.0083829287082063195 -0.00099352951781763116 0 -0.0082563411048357099 -0.0008672770036194466 0 -0.0083977543040160505 -0.00079282525697569955 0 -0.0083829287082063195 -0.00099352951781763116 0 -0.0083977543040160505 -0.00079282525697569955 0 -0.0087107295788334052 -0.00091319923822439026 0 -0.0090631573982373186 -0.0006427413648384695 0 -0.0085423156361845165 -0.00046446874561593477 0 -0.0087107295788334052 -0.00091319923822439026 0 -0.0085423156361845165 -0.00046446874561593477 0 -0.0083977543040160505 -0.00079282525697569955 0 -0.0087107295788334052 -0.00091319923822439026 0 -0.018243135761389948 -0.0045774842247456793 0 -0.017812694543841882 -0.0050083126571618831 0 -0.017766258960959454 -0.0045300648859889856 0 -0.017401892737040375 -0.0048583956818726085 0 -0.017812694543841882 -0.0050083126571618831 0 -0.017766258960959454 -0.0045300648859889856 0 -0.0084103384284683978 -0.001173443636166092 0 -0.0083829287082063195 -0.00099352951781763116 0 -0.0087107295788334052 -0.00091319923822439026 0 -0.015368479919914304 -0.0041281268005262522 0 -0.018402034310349352 -0.0045417460005054153 0 -0.015368479919914304 -0.0041281268005262522 0 -0.013290646869389111 -0.0029070951338150369 0 -0.018657115138792545 -0.0045206888783850766 0 -0.018015385787440986 -0.0044750609333754181 0 -0.018449163599298588 -0.0041101304851627034 0 -0.018015385787440986 -0.0044750609333754181 0 -0.018449163599298588 -0.0041101304851627034 0 -0.017944411839171958 -0.0039914284478888944 0 -0.017665713893249321 -0.0033841753695646602 0 -0.018449163599298588 -0.0041101304851627034 0 -0.017944411839171958 -0.0039914284478888944 0 -0.021849519869778494 -0.0057580236714364344 0 -0.021192348858096847 -0.0053805810102114547 0 -0.020945984579116634 -0.0042617440276240788 0 -0.021849519869778494 -0.0057580236714364344 0 -0.020945984579116634 -0.0042617440276240788 0 -0.02301086021880884 -0.0059741556183217706 0 -0.022514551920630801 -0.005057140692883922 0 -0.02304464367466455 -0.0049628422999700734 0 -0.02301086021880884 -0.0059741556183217706 0 -0.021750269939068288 -0.0046975664362311998 0 -0.022973534691311349 -0.0059161744197454118 0 -0.021408104638786569 -0.0061220948168733517 0 -0.021849519869778494 -0.0057580236714364344 0 -0.021192348858096847 -0.0053805810102114547 0 -0.017781177144285787 -0.0046791268745952569 0 -0.01960914519027146 -0.0043846999811415913 0 -0.021408104638786569 -0.0061220948168733517 0 -0.020560141752721098 -0.005410494637036389 0 -0.021192348858096847 -0.0053805810102114547 0 -0.018657115138792545 -0.0045206888783850766 0 -0.018724670236595024 -0.0044619189971568853 0 -0.018449163599298588 -0.0041101304851627034 0 -0.016872054483924894 -0.0042444166344083809 0 -0.017199952911891709 -0.0039642566173412781 0 -0.018745566120098613 -0.0057941818028151649 0 -0.017781177144285787 -0.0046791268745952569 0 -0.019408967966150992 -0.005171805833118521 0 -0.0160604725018508 -0.0044227902953498021 0 -0.019408967966150992 -0.005171805833118521 0 -0.020560141752721098 -0.005410494637036389 0 -0.021192348858096847 -0.0053805810102114547 0 -0.020945984579116634 -0.0042617440276240788 0 -0.022514551920630801 -0.005057140692883922 0 -0.022564574489704618 -0.0045539203131541315 0 -0.02304464367466455 -0.0049628422999700734 0 -0.022564574489704618 -0.0045539203131541315 0 -0.022941760578936345 -0.0045637178799612464 0 -0.02304464367466455 -0.0049628422999700734 0 -0.019126434427768683 -0.0034672880331501894 0 -0.020945984579116634 -0.0042617440276240788 0 -0.01937420333038312 -0.0040377933683619143 0 -0.018915954676150742 -0.0040332456178749608 0 -0.020403481494575312 -0.0052746001895265151 0 -0.01937420333038312 -0.0040377933683619143 0 -0.020560141752721098 -0.005410494637036389 0 -0.020945984579116634 -0.0042617440276240788 0 -0.01937420333038312 -0.0040377933683619143 0 -0.019408967966150992 -0.005171805833118521 0 -0.019739212175713897 -0.0043088830686799856 0 -0.020491722066215728 -0.0035989961401730322 0 -0.021750269939068288 -0.0046975664362311998 0 -0.018266874961003623 -0.0036255378448759156 0 -0.019408967966150992 -0.005171805833118521 0 -0.019183066820247369 -0.0028641384785009945 0 -0.019126434427768683 -0.0034672880331501894 0 -0.020945984579116634 -0.0042617440276240788 0 -0.021796885343579629 -0.0043280098793094897 0 -0.022303167143780413 -0.0041097794689902651 0 -0.022564574489704618 -0.0045539203131541315 0 -0.021796885343579629 -0.0043280098793094897 0 -0.022514551920630801 -0.005057140692883922 0 -0.022564574489704618 -0.0045539203131541315 0 -0.022941760578936345 -0.0045637178799612464 0 -0.022769372392780176 -0.0042971710012533982 0 -0.023078975983259552 -0.0043263039234373432 0 -0.022564574489704618 -0.0045539203131541315 0 -0.022941760578936345 -0.0045637178799612464 0 -0.022769372392780176 -0.0042971710012533982 0 -0.022769372392780176 -0.0042971710012533982 0 -0.022991518035545964 -0.0040354087719074198 0 -0.023078975983259552 -0.0043263039234373432 0 -0.022769372392780176 -0.0042971710012533982 0 -0.022672602321137159 -0.0039013143846963689 0 -0.022991518035545964 -0.0040354087719074198 0 -0.022303167143780413 -0.0041097794689902651 0 -0.022769372392780176 -0.0042971710012533982 0 -0.022672602321137159 -0.0039013143846963689 0 -0.022303167143780413 -0.0041097794689902651 0 -0.022564574489704618 -0.0045539203131541315 0 -0.022769372392780176 -0.0042971710012533982 0 -0.02295802099114223 -0.003703651281298335 0 -0.023237007690019903 -0.0038340295270718246 0 -0.023020228899486364 -0.0032108933321671309 0 -0.022672602321137159 -0.0039013143846963689 0 -0.022991518035545964 -0.0040354087719074198 0 -0.02295802099114223 -0.003703651281298335 0 -0.022991518035545964 -0.0040354087719074198 0 -0.02295802099114223 -0.003703651281298335 0 -0.023237007690019903 -0.0038340295270718246 0 -0.02295802099114223 -0.003703651281298335 0 -0.022684338675816335 -0.0035144829941833452 0 -0.023020228899486364 -0.0032108933321671309 0 -0.022672602321137159 -0.0039013143846963689 0 -0.02295802099114223 -0.003703651281298335 0 -0.022684338675816335 -0.0035144829941833452 0 -0.022672602321137159 -0.0039013143846963689 0 -0.022684338675816335 -0.0035144829941833452 0 -0.022311998274268982 -0.0036696335961771045 0 -0.021820257923760421 -0.0038036040091585636 0 -0.022311998274268982 -0.0036696335961771045 0 -0.021680775049077915 -0.0032425572651288074 0 -0.021820257923760421 -0.0038036040091585636 0 -0.022303167143780413 -0.0041097794689902651 0 -0.022311998274268982 -0.0036696335961771045 0 -0.021820257923760421 -0.0038036040091585636 0 -0.021796885343579629 -0.0043280098793094897 0 -0.022303167143780413 -0.0041097794689902651 0 -0.022303167143780413 -0.0041097794689902651 0 -0.022672602321137159 -0.0039013143846963689 0 -0.022311998274268982 -0.0036696335961771045 0 -0.025020707091463066 -0.003684958683863507 0 -0.025500171927263799 -0.0034445359852584775 0 -0.025175508250091742 -0.0042225753722607397 0 -0.025020707091463066 -0.003684958683863507 0 -0.025181524474746989 -0.0033389903963547884 0 -0.024920496015064301 -0.0030565698184612609 0 -0.024304681393473165 -0.0038451357786870376 0 -0.024900926026408796 -0.0031296043874783084 0 -0.023871220128766638 -0.0038717433941366625 0 -0.023721587051531757 -0.003885009750615336 0 -0.023657924039409976 -0.0041071689578211093 0 -0.025500171927263799 -0.0034445359852584775 0 -0.025181524474746989 -0.0033389903963547884 0 -0.025259321616792948 -0.0031423905352793717 0 -0.025020707091463066 -0.003684958683863507 0 -0.025500171927263799 -0.0034445359852584775 0 -0.025181524474746989 -0.0033389903963547884 0 -0.023237007690019903 -0.0038340295270718246 0 -0.023721587051531757 -0.003885009750615336 0 -0.023020228899486364 -0.0032108933321671309 0 -0.023871220128766638 -0.0038717433941366625 0 -0.02380477190942645 -0.0034738975207415181 0 -0.024007750380148667 -0.003020897787126965 0 -0.02380477190942645 -0.0034738975207415181 0 -0.023721587051531757 -0.003885009750615336 0 -0.023655596626794534 -0.0031926755506293536 0 -0.024304681393473165 -0.0038451357786870376 0 -0.024366457305761004 -0.0028429363563000818 0 -0.023731932633097037 -0.0038539963659105407 0 -0.023344262407377435 -0.0032243758994473211 0 -0.023237007690019903 -0.0038340295270718246 0 -0.023472976252633102 -0.0040838944072334512 0 -0.023251120153396542 -0.0041301803155757979 0 -0.022991518035545964 -0.0040354087719074198 0 -0.023237007690019903 -0.0038340295270718246 0 -0.023251120153396542 -0.0041301803155757979 0 -0.023237007690019903 -0.0038340295270718246 0 -0.023721587051531757 -0.003885009750615336 0 -0.023472976252633102 -0.0040838944072334512 0 -0.023871220128766638 -0.0038717433941366625 0 -0.02380477190942645 -0.0034738975207415181 0 -0.023721587051531757 -0.003885009750615336 0 -0.023657924039409976 -0.0041071689578211093 0 -0.023472976252633102 -0.0040838944072334512 0 -0.023532857581940504 -0.004273583263964746 0 -0.023721587051531757 -0.003885009750615336 0 -0.023657924039409976 -0.0041071689578211093 0 -0.023472976252633102 -0.0040838944072334512 0 -0.023472976252633102 -0.0040838944072334512 0 -0.023532857581940504 -0.004273583263964746 0 -0.023330942665561752 -0.0043144087814383832 0 -0.023657924039409976 -0.0041071689578211093 0 -0.023532857581940504 -0.004273583263964746 0 -0.023667366020523967 -0.0043636910768784874 0 -0.022991518035545964 -0.0040354087719074198 0 -0.023251120153396542 -0.0041301803155757979 0 -0.023078975983259552 -0.0043263039234373432 0 -0.023472976252633102 -0.0040838944072334512 0 -0.023251120153396542 -0.0041301803155757979 0 -0.023330942665561752 -0.0043144087814383832 0 -0.023251120153396542 -0.0041301803155757979 0 -0.023330942665561752 -0.0043144087814383832 0 -0.023078975983259552 -0.0043263039234373432 0 -0.022941760578936345 -0.0045637178799612464 0 -0.023078975983259552 -0.0043263039234373432 0 -0.023199909910581001 -0.0045700122317159234 0 -0.023330942665561752 -0.0043144087814383832 0 -0.023199909910581001 -0.0045700122317159234 0 -0.023441545165772567 -0.0044950185873948393 0 -0.023330942665561752 -0.0043144087814383832 0 -0.023078975983259552 -0.0043263039234373432 0 -0.023199909910581001 -0.0045700122317159234 0 -0.023532857581940504 -0.004273583263964746 0 -0.023667366020523967 -0.0043636910768784874 0 -0.023441545165772567 -0.0044950185873948393 0 -0.023667366020523967 -0.0043636910768784874 0 -0.023441545165772567 -0.0044950185873948393 0 -0.023590810041526463 -0.0046254618207433734 0 -0.023532857581940504 -0.004273583263964746 0 -0.023330942665561752 -0.0043144087814383832 0 -0.023441545165772567 -0.0044950185873948393 0 -0.023441545165772567 -0.0044950185873948393 0 -0.023590810041526463 -0.0046254618207433734 0 -0.023335998762283067 -0.0047451749467679353 0 -0.023199909910581001 -0.0045700122317159234 0 -0.023441545165772567 -0.0044950185873948393 0 -0.023335998762283067 -0.0047451749467679353 0 -0.023410959800039814 -0.0045714159771957884 0 -0.021975731156069024 -0.0043876128812204117 0 -0.024190365655794351 -0.0028339739349351203 0 -0.023249665291480349 -0.0037325450855811293 0 -0.022799262850473456 -0.0023584058414730896 0 -0.022604036958564323 -0.0028924131227386772 0 -0.022961569172231622 -0.0027445717682259632 0 -0.023286867886366927 -0.0040156587421487115 0 -0.023245679963193308 -0.0039546394016226009 0 -0.023246508129849849 -0.0039684279222275305 0 -0.023871220128766638 -0.0038717433941366625 0 -0.023667366020523967 -0.0043636910768784874 0 -0.023900124221781519 -0.0046625636105426796 0 -0.023667366020523967 -0.0043636910768784874 0 -0.023590810041526463 -0.0046254618207433734 0 -0.023900124221781519 -0.0046625636105426796 0 -0.024304681393473165 -0.0038451357786870376 0 -0.021975731156069024 -0.0043876128812204117 0 -0.021975731156069024 -0.0043876128812204117 0 -0.023249665291480349 -0.0037325450855811293 0 -0.023022259461673408 -0.0038261844038396898 0 -0.022922162997359212 -0.0041008635401202963 0 -0.022823271113698237 -0.003794293323458286 0 -0.021975731156069024 -0.0043876128812204117 0 -0.022581696170040712 -0.0038871348766748169 0 -0.024304681393473165 -0.0038451357786870376 0 -0.023249665291480349 -0.0037325450855811293 0 -0.023871220128766638 -0.0038717433941366625 0 -0.023657924039409976 -0.0041071689578211093 0 -0.023667366020523967 -0.0043636910768784874 0 -0.022604036958564323 -0.0028924131227386772 0 -0.022641638158472237 -0.0030109482851044087 0 -0.022961569172231622 -0.0027445717682259632 0 -0.023249665291480349 -0.0037325450855811293 0 -0.022581696170040712 -0.0038871348766748169 0 -0.023840256595597898 -0.0046498857363517897 0 -0.023412471137583372 -0.0049300382742511447 0 -0.02347380051141474 -0.0053732271374867403 0 -0.018239380106242643 -0.0043716702904483878 0 -0.018325491467554987 -0.0040147792534812347 0 -0.018124701590850879 -0.0039964757576666588 0 -0.021975731156069024 -0.0043876128812204117 0 -0.018930817791740346 -0.0038156548866870124 0 -0.022581696170040712 -0.0038871348766748169 0 -0.021773139285578735 -0.0037266256451781166 0 -0.021975731156069024 -0.0043876128812204117 0 -0.021011248331955841 -0.0047244744025082015 0 -0.019674402137576041 -0.0050552002358281618 0 -0.019124062529640648 -0.0034870136802540768 0 -0.01961713129472565 -0.0035357985913312619 0 -0.019921016196896065 -0.0050934594359082997 0 -0.019674402137576041 -0.0050552002358281618 0 -0.01961713129472565 -0.0035357985913312619 0 -0.023590810041526463 -0.0046254618207433734 0 -0.023840256595597898 -0.0046498857363517897 0 -0.023412471137583372 -0.0049300382742511447 0 -0.02304464367466455 -0.0049628422999700734 0 -0.023412471137583372 -0.0049300382742511447 0 -0.023335998762283067 -0.0047451749467679353 0 -0.023199909910581001 -0.0045700122317159234 0 -0.02304464367466455 -0.0049628422999700734 0 -0.023335998762283067 -0.0047451749467679353 0 -0.022941760578936345 -0.0045637178799612464 0 -0.023199909910581001 -0.0045700122317159234 0 -0.02304464367466455 -0.0049628422999700734 0 -0.023590810041526463 -0.0046254618207433734 0 -0.023412471137583372 -0.0049300382742511447 0 -0.023335998762283067 -0.0047451749467679353 0 -0.02304464367466455 -0.0049628422999700734 0 -0.023412471137583372 -0.0049300382742511447 0 -0.02347380051141474 -0.0053732271374867403 0 -0.02304464367466455 -0.0049628422999700734 0 -0.02347380051141474 -0.0053732271374867403 0 -0.02301086021880884 -0.0059741556183217706 0 -0.016723792752518282 -0.0040097044891413925 0 -0.021011248331955841 -0.0047244744025082015 0 -0.022888390301087559 -0.0063018299063613437 0 -0.02347380051141474 -0.0053732271374867403 0 -0.02301086021880884 -0.0059741556183217706 0 -0.018437927236858085 -0.0036482166682283816 0 -0.018325491467554987 -0.0040147792534812347 0 -0.018226429365591008 -0.0037883464281712083 0 -0.022409971946109969 -0.0061201982019035359 0 -0.021849519869778494 -0.0057580236714364344 0 -0.02301086021880884 -0.0059741556183217706 0 -0.019319950648912097 -0.0019575095850761521 0 -0.019124062529640648 -0.0034870136802540768 0 -0.01961713129472565 -0.0035357985913312619 0 -0.01430015505566825 -0.0030313507805487692 0 -0.018930817791740346 -0.0038156548866870124 0 -0.018022441573888204 -0.0036053189427278187 0 -0.018124701590850879 -0.0039964757576666588 0 -0.018226429365591008 -0.0037883464281712083 0 -0.018325491467554987 -0.0040147792534812347 0 -0.018124701590850879 -0.0039964757576666588 0 -0.018226429365591008 -0.0037883464281712083 0 -0.021773139285578735 -0.0037266256451781166 0 -0.017497928702772128 -0.001751597158982523 0 -0.023955765649440998 -0.0033324857423309311 0 -0.022988999302308237 -0.0029678198062289361 0 -0.022934076740023387 -0.0037044996947037901 0 -0.023955765649440998 -0.0033324857423309311 0 -0.022988999302308237 -0.0029678198062289361 0 -0.023638461672991249 -0.0023497512772125678 0 -0.022988999302308237 -0.0029678198062289361 0 -0.022150492048973097 -0.0030172276993796539 0 -0.022473205652227723 -0.0021302811352402551 0 -0.022988999302308237 -0.0029678198062289361 0 -0.022564799781649377 -0.0033482644036737846 0 -0.022150492048973097 -0.0030172276993796539 0 -0.022988999302308237 -0.0029678198062289361 0 -0.022564799781649377 -0.0033482644036737846 0 -0.022934076740023387 -0.0037044996947037901 0 -0.023526259449065653 -0.0036631983741037535 0 -0.022074347961988941 -0.003433592189368318 0 -0.022934076740023387 -0.0037044996947037901 0 -0.023280537796509189 -0.0041928270012725017 0 -0.022246912554862486 -0.0041091978524399634 0 -0.022934076740023387 -0.0037044996947037901 0 -0.022246912554862486 -0.0041091978524399634 0 -0.02228342406689993 -0.0037611131753063046 0 -0.022564799781649377 -0.0033482644036737846 0 -0.022934076740023387 -0.0037044996947037901 0 -0.02228342406689993 -0.0037611131753063046 0 -0.022581696170040712 -0.0038871348766748169 0 -0.023526259449065653 -0.0036631983741037535 0 -0.024249980647001353 -0.0043038803099780479 0 -0.023955765649440998 -0.0033324857423309311 0 -0.023280537796509189 -0.0041928270012725017 0 -0.023955765649440998 -0.0033324857423309311 0 -0.022934076740023387 -0.0037044996947037901 0 -0.023280537796509189 -0.0041928270012725017 0 -0.022641638158472237 -0.0030109482851044087 0 -0.023145832515647804 -0.0030714291002042556 0 -0.022961569172231622 -0.0027445717682259632 0 -0.022961569172231622 -0.0027445717682259632 0 -0.023341821901571094 -0.0027520292478092519 0 -0.023221029781593815 -0.0023589325697858975 0 -0.023145832515647804 -0.0030714291002042556 0 -0.022961569172231622 -0.0027445717682259632 0 -0.023341821901571094 -0.0027520292478092519 0 -0.023341821901571094 -0.0027520292478092519 0 -0.023739401618148775 -0.0024405026643871917 0 -0.023641426352733256 -0.0031376324782931373 0 -0.023145832515647804 -0.0030714291002042556 0 -0.023341821901571094 -0.0027520292478092519 0 -0.023641426352733256 -0.0031376324782931373 0 -0.023221029781593815 -0.0023589325697858975 0 -0.023739401618148775 -0.0024405026643871917 0 -0.023450690893147403 -0.0020274202641772472 0 -0.023341821901571094 -0.0027520292478092519 0 -0.023221029781593815 -0.0023589325697858975 0 -0.023739401618148775 -0.0024405026643871917 0 -0.022799262850473456 -0.0023584058414730896 0 -0.022961569172231622 -0.0027445717682259632 0 -0.023221029781593815 -0.0023589325697858975 0 -0.022799262850473456 -0.0023584058414730896 0 -0.023221029781593815 -0.0023589325697858975 0 -0.022999604742616388 -0.0021218679038275284 0 -0.021474550191155409 -0.0026319741222497373 0 -0.020250542360867662 -0.0023695268554448055 0 -0.021689273989892486 -0.001770633183295303 0 -0.020250542360867662 -0.0023695268554448055 0 -0.020763629372569019 -0.0031057204308410579 0 -0.020154555298529938 -0.0035953624874173582 0 -0.02199348757546591 -0.0023834885124770179 0 -0.022074347961988941 -0.003433592189368318 0 -0.021474550191155409 -0.0026319741222497373 0 -0.020250542360867662 -0.0023695268554448055 0 -0.020763629372569019 -0.0031057204308410579 0 -0.021474550191155409 -0.0026319741222497373 0 -0.020763629372569019 -0.0031057204308410579 0 -0.021376091579136974 -0.0031591980903695445 0 -0.020763629372569019 -0.0031057204308410579 0 -0.021376091579136974 -0.0031591980903695445 0 -0.021000425570356605 -0.0038030653212596001 0 -0.020763629372569019 -0.0031057204308410579 0 -0.021000425570356605 -0.0038030653212596001 0 -0.020154555298529938 -0.0035953624874173582 0 -0.020652486511653793 -0.0038899374105439664 0 -0.022074347961988941 -0.003433592189368318 0 -0.021000425570356605 -0.0038030653212596001 0 -0.022186220503758871 -0.0041012496559160484 0 -0.021495934278207424 -0.0035278346011713168 0 -0.022186220503758871 -0.0041012496559160484 0 -0.022063123711782408 -0.0035125107112090031 0 -0.021495934278207424 -0.0035278346011713168 0 -0.022186220503758871 -0.0041012496559160484 0 -0.02228342406689993 -0.0037611131753063046 0 -0.022063123711782408 -0.0035125107112090031 0 -0.022074347961988941 -0.003433592189368318 0 -0.022119421113686782 -0.0037836138423548906 0 -0.022564799781649377 -0.0033482644036737846 0 -0.022063123711782408 -0.0035125107112090031 0 -0.022150492048973097 -0.0030172276993796539 0 -0.022564799781649377 -0.0033482644036737846 0 -0.02228342406689993 -0.0037611131753063046 0 -0.022063123711782408 -0.0035125107112090031 0 -0.022063123711782408 -0.0035125107112090031 0 -0.022150492048973097 -0.0030172276993796539 0 -0.021495934278207424 -0.0035278346011713168 0 -0.022150492048973097 -0.0030172276993796539 0 -0.021495934278207424 -0.0035278346011713168 0 -0.02133080303774745 -0.0026897858877914199 0 -0.021000425570356605 -0.0038030653212596001 0 -0.021495934278207424 -0.0035278346011713168 0 -0.020385051972133927 -0.0038000406749878202 0 -0.021495934278207424 -0.0035278346011713168 0 -0.02133080303774745 -0.0026897858877914199 0 -0.020385051972133927 -0.0038000406749878202 0 -0.02133080303774745 -0.0026897858877914199 0 -0.019422566784047027 -0.0023360861459380184 0 -0.020385051972133927 -0.0038000406749878202 0 -0.020762408162026926 -0.0013093429760241415 0 -0.02133080303774745 -0.0026897858877914199 0 -0.019422566784047027 -0.0023360861459380184 0 -0.015865163270243881 -0.00028289438722825251 0 -0.015771219141308839 3.6157492493933533e-05 0 -0.015971624516506772 0.00011492151208599247 0 -0.015865163270243881 -0.00028289438722825251 0 -0.01622554634055624 -6.0371270398608386e-05 0 -0.015971624516506772 0.00011492151208599247 0 -0.015865163270243881 -0.00028289438722825251 0 -0.016237622435206746 -0.00034505755548392347 0 -0.01622554634055624 -6.0371270398608386e-05 0 -0.022150492048973097 -0.0030172276993796539 0 -0.02133080303774745 -0.0026897858877914199 0 -0.022473205652227723 -0.0021302811352402551 0 -0.018084551579061386 -0.00081978457501027111 0 -0.019924968552884267 -0.0011890518396244466 0 -0.020762408162026926 -0.0013093429760241415 0 -0.02133080303774745 -0.0026897858877914199 0 -0.022473205652227723 -0.0021302811352402551 0 -0.019924968552884267 -0.0011890518396244466 0 -0.017497928702772128 -0.001751597158982523 0 -0.022988999302308237 -0.0029678198062289361 0 -0.022473205652227723 -0.0021302811352402551 0 -0.023638461672991249 -0.0023497512772125678 0 -0.019319950648912097 -0.0019575095850761521 0 -0.019124062529640648 -0.0034870136802540768 0 -0.01857560249540224 -0.0018893091685786673 0 -0.01430015505566825 -0.0030313507805487692 0 -0.017497928702772128 -0.001751597158982523 0 -0.0092447395978359267 -0.0030987481276846477 0 -0.0085781933331644956 -0.0032407714857417848 0 -0.0089380517480786813 -0.002196795867554445 0 -0.017497928702772128 -0.001751597158982523 0 -0.011858497593489635 -0.00055704618722235053 0 -0.0085781933331644956 -0.0032407714857417848 0 -0.0089380517480786813 -0.002196795867554445 0 -0.0082727956575257607 -0.0013307433279183794 0 -0.0089534938815104704 -0.0013380321827668002 0 -0.0089380517480786813 -0.002196795867554445 0 -0.0082727956575257607 -0.0013307433279183794 0 -0.016237622435206746 -0.00034505755548392347 0 -0.016518366482708085 2.9085320423706033e-06 0 -0.01622554634055624 -6.0371270398608386e-05 0 -0.016237622435206746 -0.00034505755548392347 0 -0.016663868912706593 -0.00040189101734147475 0 -0.016518366482708085 2.9085320423706033e-06 0 -0.016518366482708085 2.9085320423706033e-06 0 -0.01622554634055624 -6.0371270398608386e-05 0 -0.016386712179697165 0.00045117206908544072 0 -0.011858497593489635 -0.00055704618722235053 0 -0.012471863774878841 -0.00018845597150325195 0 -0.0089534938815104704 -0.0013380321827668002 0 -0.0082727956575257607 -0.0013307433279183794 0 -0.0085528002855823765 -0.00067840713377782108 0 -0.0082727956575257607 -0.0013307433279183794 0 -0.0085528002855823765 -0.00067840713377782108 0 -0.0084127368460398463 -0.00072828919343092711 0 -0.0083781446818867455 -0.00084864086051393897 0 -0.0085528002855823765 -0.00067840713377782108 0 -0.0084127368460398463 -0.00072828919343092711 0 -0.016386712179697165 0.00045117206908544072 0 -0.015936727152211078 0.00063612044860902254 0 -0.015971624516506772 0.00011492151208599247 0 -0.015936727152211078 0.00063612044860902254 0 -0.015643635808321413 0.00041669770491798081 0 -0.015971624516506772 0.00011492151208599247 0 -0.015396596589725404 0.00086614262294876438 0 -0.015936727152211078 0.00063612044860902254 0 -0.015643635808321413 0.00041669770491798081 0 -0.015643635808321413 0.00041669770491798081 0 -0.015771219141308839 3.6157492493933533e-05 0 -0.015971624516506772 0.00011492151208599247 0 -0.01622554634055624 -6.0371270398608386e-05 0 -0.016386712179697165 0.00045117206908544072 0 -0.015971624516506772 0.00011492151208599247 0 -0.014933711367032804 0.00030446626032909268 0 -0.0154510966777936 0.00025757343132041941 0 -0.01545277224959947 1.5246440323231735e-05 0 -0.014933711367032804 0.00030446626032909268 0 -0.014880934065954372 -9.1101134018912972e-05 0 -0.01545277224959947 1.5246440323231735e-05 0 -0.0154510966777936 0.00025757343132041941 0 -0.01545277224959947 1.5246440323231735e-05 0 -0.01579342626672604 -0.00015985804600567334 0 -0.015643635808321413 0.00041669770491798081 0 -0.015771219141308839 3.6157492493933533e-05 0 -0.0154510966777936 0.00025757343132041941 0 -0.015771219141308839 3.6157492493933533e-05 0 -0.0154510966777936 0.00025757343132041941 0 -0.01579342626672604 -0.00015985804600567334 0 -0.015643635808321413 0.00041669770491798081 0 -0.0154510966777936 0.00025757343132041941 0 -0.015248980002873287 0.00065192125613924097 0 -0.015396596589725404 0.00086614262294876438 0 -0.015643635808321413 0.00041669770491798081 0 -0.015248980002873287 0.00065192125613924097 0 -0.0154510966777936 0.00025757343132041941 0 -0.015248980002873287 0.00065192125613924097 0 -0.015007225041568777 0.00057483063163963786 0 -0.014933711367032804 0.00030446626032909268 0 -0.0154510966777936 0.00025757343132041941 0 -0.015007225041568777 0.00057483063163963786 0 -0.014885875722887281 0.00086290181837114397 0 -0.015248980002873287 0.00065192125613924097 0 -0.015007225041568777 0.00057483063163963786 0 -0.014933711367032804 0.00030446626032909268 0 -0.014550649738188995 0.00072700531069477695 0 -0.014359651557396122 0.0002997506087272284 0 -0.014933711367032804 0.00030446626032909268 0 -0.015007225041568777 0.00057483063163963786 0 -0.014550649738188995 0.00072700531069477695 0 -0.014169695790872103 0.00070407459851953261 0 -0.013958187103418979 0.00048247807710996701 0 -0.014359651557396122 0.0002997506087272284 0 -0.014550649738188995 0.00072700531069477695 0 -0.014169695790872103 0.00070407459851953261 0 -0.014359651557396122 0.0002997506087272284 0 -0.014169695790872103 0.00070407459851953261 0 -0.013958187103418979 0.00048247807710996701 0 -0.013815133779431887 0.00075635151875911124 0 -0.013958187103418979 0.00048247807710996701 0 -0.014359651557396122 0.0002997506087272284 0 -0.013709372732323087 0.00013506118966164041 0 -0.014359651557396122 0.0002997506087272284 0 -0.013873948106055545 -0.00047340805285886494 0 -0.013709372732323087 0.00013506118966164041 0 -0.014933711367032804 0.00030446626032909268 0 -0.014359651557396122 0.0002997506087272284 0 -0.014880934065954372 -9.1101134018912972e-05 0 -0.014880934065954372 -9.1101134018912972e-05 0 -0.014396055386284424 -0.00016881202852342842 0 -0.01466593772031599 -0.00026546109022749755 0 -0.014347111083553812 0.00028548006122772462 0 -0.014149521012344901 -0.00029174899963475923 0 -0.014359651557396122 0.0002997506087272284 0 -0.014880934065954372 -9.1101134018912972e-05 0 -0.014396055386284424 -0.00016881202852342842 0 -0.014396055386284424 -0.00016881202852342842 0 -0.014553719967541961 -0.0003758182937592966 0 -0.014442439272369356 -0.00045689661757215226 0 -0.014396055386284424 -0.00016881202852342842 0 -0.01466593772031599 -0.00026546109022749755 0 -0.014553719967541961 -0.0003758182937592966 0 -0.014943319619657811 -0.00010433252103982057 0 -0.014301924691720373 -0.0019636409468220821 0 -0.01466593772031599 -0.00026546109022749755 0 -0.014747855282620773 -0.00039695503560686023 0 -0.014553719967541961 -0.0003758182937592966 0 -0.014880934065954372 -9.1101134018912972e-05 0 -0.01466593772031599 -0.00026546109022749755 0 -0.014747855282620773 -0.00039695503560686023 0 -0.016126945590918259 -0.00059930861940104174 0 -0.017255656959476902 -0.0029722964410027679 0 -0.014673151776128313 -0.0031518111428217271 0 -0.014880934065954372 -9.1101134018912972e-05 0 -0.016126945590918259 -0.00059930861940104174 0 -0.014673151776128313 -0.0031518111428217271 0 -0.014880934065954372 -9.1101134018912972e-05 0 -0.016126945590918259 -0.00059930861940104174 0 -0.01545277224959947 1.5246440323231735e-05 0 -0.016126945590918259 -0.00059930861940104174 0 -0.01545277224959947 1.5246440323231735e-05 0 -0.01579342626672604 -0.00015985804600567334 0 -0.015865163270243881 -0.00028289438722825251 0 -0.015771219141308839 3.6157492493933533e-05 0 -0.01579342626672604 -0.00015985804600567334 0 -0.015865163270243881 -0.00028289438722825251 0 -0.016126945590918259 -0.00059930861940104174 0 -0.01579342626672604 -0.00015985804600567334 0 -0.018084551579061386 -0.00081978457501027111 0 -0.016298879350285018 -0.00060504760147372125 0 -0.016126945590918259 -0.00059930861940104174 0 -0.019422566784047027 -0.0023360861459380184 0 -0.017255656959476902 -0.0029722964410027679 0 -0.020762408162026926 -0.0013093429760241415 0 -0.016126945590918259 -0.00059930861940104174 0 -0.019422566784047027 -0.0023360861459380184 0 -0.020468732314200825 -0.0038900917674334636 0 -0.01957202079384238 -0.0049014431651892149 0 -0.019422566784047027 -0.0023360861459380184 0 -0.020385051972133927 -0.0038000406749878202 0 -0.017255656959476902 -0.0029722964410027679 0 -0.020385051972133927 -0.0038000406749878202 0 -0.017255656959476902 -0.0029722964410027679 0 -0.017257412753698964 -0.0057347313236014337 0 -0.017255656959476902 -0.0029722964410027679 0 -0.017257412753698964 -0.0057347313236014337 0 -0.014673151776128313 -0.0031518111428217271 0 -0.01957202079384238 -0.0049014431651892149 0 -0.018415606924442596 -0.0032209462417125824 0 -0.021981518547645778 -0.0039417795812212398 0 -0.02254520395254437 -0.0030297808837549609 0 -0.023179831057381483 -0.0034536764885363834 0 -0.017257412753698964 -0.0057347313236014337 0 -0.014674300768372575 -0.0074395649624007998 0 -0.014673151776128313 -0.0031518111428217271 0 -0.021981518547645778 -0.0039417795812212398 0 -0.021779142242230431 -0.0033551266817313484 0 -0.02254520395254437 -0.0030297808837549609 0 -0.021000425570356605 -0.0038030653212596001 0 -0.020385051972133927 -0.0038000406749878202 0 -0.021981518547645778 -0.0039417795812212398 0 -0.021000425570356605 -0.0038030653212596001 0 -0.021981518547645778 -0.0039417795812212398 0 -0.021779142242230431 -0.0033551266817313484 0 -0.021376091579136974 -0.0031591980903695445 0 -0.021000425570356605 -0.0038030653212596001 0 -0.021779142242230431 -0.0033551266817313484 0 -0.021376091579136974 -0.0031591980903695445 0 -0.022083632771400269 -0.002774918317541101 0 -0.021779142242230431 -0.0033551266817313484 0 -0.021474550191155409 -0.0026319741222497373 0 -0.021376091579136974 -0.0031591980903695445 0 -0.022083632771400269 -0.002774918317541101 0 -0.022083632771400269 -0.002774918317541101 0 -0.021779142242230431 -0.0033551266817313484 0 -0.02254520395254437 -0.0030297808837549609 0 -0.02254520395254437 -0.0030297808837549609 0 -0.023423355522291186 -0.0022134285947214864 0 -0.023179831057381483 -0.0034536764885363834 0 -0.022083632771400269 -0.002774918317541101 0 -0.02254520395254437 -0.0030297808837549609 0 -0.022764218116483229 -0.0023630221106557417 0 -0.02254520395254437 -0.0030297808837549609 0 -0.022764218116483229 -0.0023630221106557417 0 -0.023423355522291186 -0.0022134285947214864 0 -0.022764218116483229 -0.0023630221106557417 0 -0.023423355522291186 -0.0022134285947214864 0 -0.023183182498376319 -0.0018224692373702233 0 -0.022764218116483229 -0.0023630221106557417 0 -0.022317740693866953 -0.0021395093041530768 0 -0.023183182498376319 -0.0018224692373702233 0 -0.021474550191155409 -0.0026319741222497373 0 -0.022317740693866953 -0.0021395093041530768 0 -0.021689273989892486 -0.001770633183295303 0 -0.022317740693866953 -0.0021395093041530768 0 -0.022666577553363609 -0.0014701278645989598 0 -0.021689273989892486 -0.001770633183295303 0 -0.021474550191155409 -0.0026319741222497373 0 -0.022083632771400269 -0.002774918317541101 0 -0.022317740693866953 -0.0021395093041530768 0 -0.022083632771400269 -0.002774918317541101 0 -0.022764218116483229 -0.0023630221106557417 0 -0.022317740693866953 -0.0021395093041530768 0 -0.021733871661642191 -0.00040932321637473059 0 -0.02200046766916669 -0.00071032008787197073 0 -0.022064018125536898 -4.0053618143264125e-05 0 -0.021733871661642191 -0.00040932321637473059 0 -0.021449290458574164 -0.0010783835913322317 0 -0.02200046766916669 -0.00071032008787197073 0 -0.021733871661642191 -0.00040932321637473059 0 -0.021323301354494624 -0.00045475698936229137 0 -0.021449290458574164 -0.0010783835913322317 0 -0.021183017577368873 -0.0010613685536932504 0 -0.017966670247739298 -0.0011053325559876126 0 -0.020942302304190901 -0.0014133379265432778 0 -0.020663186086922681 -0.001622971000111294 0 -0.021073371691196063 -0.0020531285649576948 0 -0.020663186086922681 -0.001622971000111294 0 -0.021073371691196063 -0.0020531285649576948 0 -0.020620017738100922 -0.0023617989627446271 0 -0.022234565320842292 -0.0018742520780455421 0 -0.018415606924442596 -0.0032209462417125824 0 -0.017966670247739298 -0.0011053325559876126 0 -0.018415606924442596 -0.0032209462417125824 0 -0.014466632903163615 -0.00040680318151375608 0 -0.014389694952731494 -0.0003553893111152532 0 -0.01446077499198184 -0.00019445947604632976 0 -0.017966670247739298 -0.0011053325559876126 0 -0.018188001787728222 -0.00046984197515919263 0 -0.014466632903163615 -0.00040680318151375608 0 -0.014496729665155484 -0.00049115031128363481 0 -0.014442439272369356 -0.00045689661757215226 0 -0.014466632903163615 -0.00040680318151375608 0 -0.014389694952731494 -0.0003553893111152532 0 -0.014496729665155484 -0.00049115031128363481 0 -0.017966670247739298 -0.0011053325559876126 0 -0.014075296663790104 -6.2078289725584098e-05 0 -0.014588190935506104 -0.00077173909905131535 0 -0.014496729665155484 -0.00049115031128363481 0 -0.014764308248421464 -0.00064563258327577516 0 -0.014496729665155484 -0.00049115031128363481 0 -0.014764308248421464 -0.00064563258327577516 0 -0.014747855282620773 -0.00039695503560686023 0 -0.018415606924442596 -0.0032209462417125824 0 -0.014301924691720373 -0.0019636409468220821 0 -0.014496729665155484 -0.00049115031128363481 0 -0.014747855282620773 -0.00039695503560686023 0 -0.014553719967541961 -0.0003758182937592966 0 -0.014496729665155484 -0.00049115031128363481 0 -0.014553719967541961 -0.0003758182937592966 0 -0.014442439272369356 -0.00045689661757215226 0 -0.013842020360257843 -0.00055746740901029131 0 -0.014114416140920585 -0.00047866367759442436 0 -0.013649111203862904 -0.00053998650490024531 0 -0.014114416140920585 -0.00047866367759442436 0 -0.013362814532540351 -0.00045912571720369336 0 -0.013649111203862904 -0.00053998650490024531 0 -0.014114416140920585 -0.00047866367759442436 0 -0.014493810003822055 -0.00037028209062766774 0 -0.014630210951510304 -0.00037847351678161738 0 -0.014466632903163615 -0.00040680318151375608 0 -0.014442439272369356 -0.00045689661757215226 0 -0.014493810003822055 -0.00037028209062766774 0 -0.013842020360257843 -0.00055746740901029131 0 -0.014114416140920585 -0.00047866367759442436 0 -0.014493810003822055 -0.00037028209062766774 0 -0.01416616187858717 -0.00051563064243626781 0 -0.014429447820767395 -0.00039783636695084757 0 -0.014466632903163615 -0.00040680318151375608 0 -0.014493810003822055 -0.00037028209062766774 0 -0.01446077499198184 -0.00019445947604632976 0 -0.014493810003822055 -0.00037028209062766774 0 -0.01446077499198184 -0.00019445947604632976 0 -0.014654518799145857 -0.00019962714192176391 0 -0.014493810003822055 -0.00037028209062766774 0 -0.014630210951510304 -0.00037847351678161738 0 -0.014856524991501712 -0.00026408636027266507 0 -0.014856524991501712 -0.00026408636027266507 0 -0.015197857628151949 -8.4828388273170839e-05 0 -0.015300337802314351 -0.0002575440820614231 0 -0.014630210951510304 -0.00037847351678161738 0 -0.014856524991501712 -0.00026408636027266507 0 -0.015300337802314351 -0.0002575440820614231 0 -0.014493810003822055 -0.00037028209062766774 0 -0.014856524991501712 -0.00026408636027266507 0 -0.014654518799145857 -0.00019962714192176391 0 -0.015197857628151949 -8.4828388273170839e-05 0 -0.015828716730642983 6.6407532284483745e-05 0 -0.014899689212653703 0.00026594802176576726 0 -0.014856524991501712 -0.00026408636027266507 0 -0.014854751951366655 5.1011248679434212e-05 0 -0.014654518799145857 -0.00019962714192176391 0 -0.014856524991501712 -0.00026408636027266507 0 -0.015197857628151949 -8.4828388273170839e-05 0 -0.014854751951366655 5.1011248679434212e-05 0 -0.015197857628151949 -8.4828388273170839e-05 0 -0.014854751951366655 5.1011248679434212e-05 0 -0.014899689212653703 0.00026594802176576726 0 -0.018100448866661113 0.00019159608943817509 0 -0.018985828700491238 0.00036680250141508637 0 -0.018188001787728222 -0.00046984197515919263 0 -0.018985828700491238 0.00036680250141508637 0 -0.02200046766916669 -0.00071032008787197073 0 -0.022064018125536898 -4.0053618143264125e-05 0 -0.022532916190498305 -0.00033516581039066626 0 -0.014854751951366655 5.1011248679434212e-05 0 -0.01446077499198184 -0.00019445947604632976 0 -0.014861351813070354 0.00018093030747900183 0 -0.014854751951366655 5.1011248679434212e-05 0 -0.01446077499198184 -0.00019445947604632976 0 -0.014654518799145857 -0.00019962714192176391 0 -0.016161277496052204 -0.00011913087762295575 0 -0.015828716730642983 6.6407532284483745e-05 0 -0.017538131154313557 -5.2966384145529334e-07 0 -0.016161277496052204 -0.00011913087762295575 0 -0.015526052610878445 -4.7159597421924185e-07 0 -0.017538131154313557 -5.2966384145529334e-07 0 -0.016161277496052204 -0.00011913087762295575 0 -0.015828716730642983 6.6407532284483745e-05 0 -0.015300337802314351 -0.0002575440820614231 0 -0.015197857628151949 -8.4828388273170839e-05 0 -0.015828716730642983 6.6407532284483745e-05 0 -0.015300337802314351 -0.0002575440820614231 0 -0.014630210951510304 -0.00037847351678161738 0 -0.015300337802314351 -0.0002575440820614231 0 -0.014471877478693716 -0.00029233609515253296 0 -0.015300337802314351 -0.0002575440820614231 0 -0.015526052610878445 -4.7159597421924185e-07 0 -0.014471877478693716 -0.00029233609515253296 0 -0.016161277496052204 -0.00011913087762295575 0 -0.015300337802314351 -0.0002575440820614231 0 -0.015526052610878445 -4.7159597421924185e-07 0 -0.015526052610878445 -4.7159597421924185e-07 0 -0.014471877478693716 -0.00029233609515253296 0 -0.013514761515590648 -7.6026545447923419e-07 0 -0.014114416140920585 -0.00047866367759442436 0 -0.014630210951510304 -0.00037847351678161738 0 -0.014471877478693716 -0.00029233609515253296 0 -0.014114416140920585 -0.00047866367759442436 0 -0.014471877478693716 -0.00029233609515253296 0 -0.01372790237111824 -0.00035432212896644116 0 -0.014114416140920585 -0.00047866367759442436 0 -0.01372790237111824 -0.00035432212896644116 0 -0.013362814532540351 -0.00045912571720369336 0 -0.01372790237111824 -0.00035432212896644116 0 -0.013514761515590648 -7.6026545447923419e-07 0 -0.012801158176269338 -0.00031071246969778895 0 -0.014471877478693716 -0.00029233609515253296 0 -0.01372790237111824 -0.00035432212896644116 0 -0.013514761515590648 -7.6026545447923419e-07 0 -0.013514761515590648 -7.6026545447923419e-07 0 -0.011503363739124693 -3.0496430214166508e-07 0 -0.012801158176269338 -0.00031071246969778895 0 -0.011503363739124693 -3.0496430214166508e-07 0 -0.011965567328662866 -0.00017936007108768523 0 -0.012801158176269338 -0.00031071246969778895 0 -0.011503363739124693 -3.0496430214166508e-07 0 -0.011965567328662866 -0.00017936007108768523 0 -0.010910550862182697 -1.5947902250491941e-05 0 -0.011965567328662866 -0.00017936007108768523 0 -0.012794950930397182 -0.00033712911354405066 0 -0.012801158176269338 -0.00031071246969778895 0 -0.012390835956927167 -0.00018366367959510595 0 -0.011965567328662866 -0.00017936007108768523 0 -0.012794950930397182 -0.00033712911354405066 0 -0.012794950930397182 -0.00033712911354405066 0 -0.012801158176269338 -0.00031071246969778895 0 -0.013362814532540351 -0.00045912571720369336 0 -0.01372790237111824 -0.00035432212896644116 0 -0.012801158176269338 -0.00031071246969778895 0 -0.013362814532540351 -0.00045912571720369336 0 -0.013362814532540351 -0.00045912571720369336 0 -0.013649111203862904 -0.00053998650490024531 0 -0.013354727681172466 -0.00041055501248079158 0 -0.012794950930397182 -0.00033712911354405066 0 -0.013362814532540351 -0.00045912571720369336 0 -0.013354727681172466 -0.00041055501248079158 0 -0.014149521012344901 -0.00029174899963475923 0 -0.01416616187858717 -0.00051563064243626781 0 -0.013873948106055545 -0.00047340805285886494 0 -0.013649111203862904 -0.00053998650490024531 0 -0.013354727681172466 -0.00041055501248079158 0 -0.013873948106055545 -0.00047340805285886494 0 -0.013842020360257843 -0.00055746740901029131 0 -0.013649111203862904 -0.00053998650490024531 0 -0.013873948106055545 -0.00047340805285886494 0 -0.013369677553701064 -0.0001685864366370664 0 -0.013709372732323087 0.00013506118966164041 0 -0.013873948106055545 -0.00047340805285886494 0 -0.013369677553701064 -0.0001685864366370664 0 -0.013354727681172466 -0.00041055501248079158 0 -0.012794950930397182 -0.00033712911354405066 0 -0.013354727681172466 -0.00041055501248079158 0 -0.012908463470237018 -0.00025438017953296745 0 -0.013369677553701064 -0.0001685864366370664 0 -0.013354727681172466 -0.00041055501248079158 0 -0.012908463470237018 -0.00025438017953296745 0 -0.013369677553701064 -0.0001685864366370664 0 -0.012908463470237018 -0.00025438017953296745 0 -0.012633453534114098 -3.3968100878662449e-05 0 -0.012390835956927167 -0.00018366367959510595 0 -0.012794950930397182 -0.00033712911354405066 0 -0.012908463470237018 -0.00025438017953296745 0 -0.012390835956927167 -0.00018366367959510595 0 -0.012908463470237018 -0.00025438017953296745 0 -0.012633453534114098 -3.3968100878662449e-05 0 -0.012633453534114098 -3.3968100878662449e-05 0 -0.012583442835413065 8.6407007016106318e-07 0 -0.012498813252200178 0.00018477357673655904 0 -0.012662357736831399 -4.7956575751379793e-05 0 -0.012863487220216841 0.00041605231018572599 0 -0.012633453534114098 -3.3968100878662449e-05 0 -0.013275142157941467 0.00023081151339794697 0 -0.013185006752532697 0.00065686503344773316 0 -0.012390835956927167 -0.00018366367959510595 0 -0.012633453534114098 -3.3968100878662449e-05 0 -0.01211098530292181 -3.8728427957093841e-05 0 -0.012633453534114098 -3.3968100878662449e-05 0 -0.012583442835413065 8.6407007016106318e-07 0 -0.01211098530292181 -3.8728427957093841e-05 0 -0.013369677553701064 -0.0001685864366370664 0 -0.012633453534114098 -3.3968100878662449e-05 0 -0.013275142157941467 0.00023081151339794697 0 -0.013369677553701064 -0.0001685864366370664 0 -0.013275142157941467 0.00023081151339794697 0 -0.013709372732323087 0.00013506118966164041 0 -0.013275142157941467 0.00023081151339794697 0 -0.013709372732323087 0.00013506118966164041 0 -0.013563720792478336 0.00053491631872955596 0 -0.013958187103418979 0.00048247807710996701 0 -0.013709372732323087 0.00013506118966164041 0 -0.013563720792478336 0.00053491631872955596 0 -0.013461988610348098 0.00082155138298048056 0 -0.013563720792478336 0.00053491631872955596 0 -0.013815133779431887 0.00075635151875911124 0 -0.013958187103418979 0.00048247807710996701 0 -0.013563720792478336 0.00053491631872955596 0 -0.013815133779431887 0.00075635151875911124 0 -0.01232660708273034 0.00028382679911624517 0 -0.012583442835413065 8.6407007016106318e-07 0 -0.012498813252200178 0.00018477357673655904 0 -0.013275142157941467 0.00023081151339794697 0 -0.013563720792478336 0.00053491631872955596 0 -0.013185006752532697 0.00065686503344773316 0 -0.013461988610348098 0.00082155138298048056 0 -0.013563720792478336 0.00053491631872955596 0 -0.013185006752532697 0.00065686503344773316 0 -0.0097054115686202296 0.00010191444719043524 0 -0.0099251875802728248 0.00011279099572189487 0 -0.01084241875143894 0.00035185289201088713 0 -0.011226259413082237 0.0014451595814131634 0 -0.012583442835413065 8.6407007016106318e-07 0 -0.01084241875143894 0.00035185289201088713 0 -0.010597627012276581 0.00042632694578249115 0 -0.012774020390319886 9.1795758585435676e-05 0 -0.010597627012276581 0.00042632694578249115 0 -0.010728333027536138 0.00046086589051677157 0 -0.0093571219758944463 4.6537102683085401e-05 0 -0.0097054115686202296 0.00010191444719043524 0 -0.01084241875143894 0.00035185289201088713 0 -0.0093571219758944463 4.6537102683085401e-05 0 -0.01084241875143894 0.00035185289201088713 0 -0.0094914337783525964 -3.6823830307719107e-07 0 -0.01084241875143894 0.00035185289201088713 0 -0.0094914337783525964 -3.6823830307719107e-07 0 -0.010910550862182697 -1.5947902250491941e-05 0 -0.011503363739124693 -3.0496430214166508e-07 0 -0.0094914337783525964 -3.6823830307719107e-07 0 -0.010910550862182697 -1.5947902250491941e-05 0 -0.011965567328662866 -0.00017936007108768523 0 -0.010910550862182697 -1.5947902250491941e-05 0 -0.011624445153840035 -3.7449849079776764e-05 0 -0.012390835956927167 -0.00018366367959510595 0 -0.011965567328662866 -0.00017936007108768523 0 -0.011624445153840035 -3.7449849079776764e-05 0 -0.012390835956927167 -0.00018366367959510595 0 -0.011624445153840035 -3.7449849079776764e-05 0 -0.01211098530292181 -3.8728427957093841e-05 0 -0.01084241875143894 0.00035185289201088713 0 -0.011624445153840035 -3.7449849079776764e-05 0 -0.01211098530292181 -3.8728427957093841e-05 0 -0.012583442835413065 8.6407007016106318e-07 0 -0.01084241875143894 0.00035185289201088713 0 -0.01211098530292181 -3.8728427957093841e-05 0 -0.01084241875143894 0.00035185289201088713 0 -0.010910550862182697 -1.5947902250491941e-05 0 -0.011624445153840035 -3.7449849079776764e-05 0 -0.024847407202790363 -0.00017559639427173855 0 -0.024925079669164855 -3.9266751657548601e-07 0 -0.025373227514140489 -0.00014743299923194203 0 -0.024847407202790363 -0.00017559639427173855 0 -0.025373227514140489 -0.00014743299923194203 0 -0.025497308292542948 -0.00023962720822352085 0 -0.024847407202790363 -0.00017559639427173855 0 -0.024925079669164855 -3.9266751657548601e-07 0 -0.024265629199225799 -7.8079516407824064e-05 0 -0.024925079669164855 -3.9266751657548601e-07 0 -0.025373227514140489 -0.00014743299923194203 0 -0.026071973971977514 -0.00014745293569236217 0 -0.025373227514140489 -0.00014743299923194203 0 -0.025497308292542948 -0.00023962720822352085 0 -0.026071973971977514 -0.00014745293569236217 0 -0.028024625626897039 0.0023687923257285784 0 -0.028472621320943442 0.0023661696651056537 0 -0.028507500057907614 0.0017682697663053092 0 -0.028024625626897039 0.0023687923257285784 0 -0.028472621320943442 0.0023661696651056537 0 -0.028314841700485222 0.0026632121045921569 0 -0.028314841700485222 0.0026632121045921569 0 -0.028131259946690336 0.002879592381901283 0 -0.028399614059739526 0.0029026692307485905 0 -0.028472621320943442 0.0023661696651056537 0 -0.028314841700485222 0.0026632121045921569 0 -0.028544209579100473 0.0027192969233713958 0 -0.028314841700485222 0.0026632121045921569 0 -0.028399614059739526 0.0029026692307485905 0 -0.028544209579100473 0.0027192969233713958 0 -0.028024625626897039 0.0023687923257285784 0 -0.028314841700485222 0.0026632121045921569 0 -0.028131259946690336 0.002879592381901283 0 -0.024847407202790363 -0.00017559639427173855 0 -0.024942057013376435 -0.00022960337521690953 0 -0.024928293861111121 -0.00014041189377124639 0 -0.02462354788694358 -0.00036424040094284809 0 -0.026745029334936093 0.00097074134222311064 0 -0.026745029334936093 0.00097074134222311064 0 -0.026600532131541094 0.0013110901100699002 0 -0.024847407202790363 -0.00017559639427173855 0 -0.024928293861111121 -0.00014041189377124639 0 -0.024723019073373376 -6.317098250889074e-05 0 -0.024928293861111121 -0.00014041189377124639 0 -0.024951049789855767 0.000228210893010337 0 -0.024723019073373376 -6.317098250889074e-05 0 -0.026600532131541094 0.0013110901100699002 0 -0.025480842748924287 0.0020526514211722624 0 -0.025480842748924287 0.0020526514211722624 0 -0.024501805695594434 -0.00042586827505377092 0 -0.028131259946690336 0.002879592381901283 0 -0.028399614059739526 0.0029026692307485905 0 -0.028385734099465546 0.0030966356709083063 0 -0.028131259946690336 0.002879592381901283 0 -0.028385734099465546 0.0030966356709083063 0 -0.028292679441167916 0.0031675042974718642 0 -0.028399614059739526 0.0029026692307485905 0 -0.028385734099465546 0.0030966356709083063 0 -0.028504346380899291 0.00314784748877438 0 -0.02841962647110759 0.0031645620090728931 0 -0.028292679441167916 0.0031675042974718642 0 -0.028592469429582389 0.0029522562550906759 0 -0.028385734099465546 0.0030966356709083063 0 -0.02841962647110759 0.0031645620090728931 0 -0.028292679441167916 0.0031675042974718642 0 -0.028385734099465546 0.0030966356709083063 0 -0.02841962647110759 0.0031645620090728931 0 -0.028388678349237629 0.003217381409252088 0 -0.025502831127476405 0.00095936666758940283 0 -0.024528821936070939 0.0012886632644192645 0 -0.025488575588997892 0.0020880780831079456 0 -0.025502831127476405 0.00095936666758940283 0 -0.024528821936070939 0.0012886632644192645 0 -0.024723019073373376 -6.317098250889074e-05 0 -0.02172628212818397 -0.00010490366454254008 0 -0.023206726395947157 0.00013622446696454044 0 -0.021586321040855058 -0.0002025557386335184 0 -0.024528821936070939 0.0012886632644192645 0 -0.024723019073373376 -6.317098250889074e-05 0 -0.023206726395947157 0.00013622446696454044 0 -0.024925079669164855 -3.9266751657548601e-07 0 -0.023206726395947157 0.00013622446696454044 0 -0.021818851816056039 -3.3551402014768929e-07 0 -0.023202574753644817 0.00055048963009688974 0 -0.02308955348666384 0.00019025690053941564 0 -0.024265629199225799 -7.8079516407824064e-05 0 -0.024723019073373376 -6.317098250889074e-05 0 -0.023206726395947157 0.00013622446696454044 0 -0.024847407202790363 -0.00017559639427173855 0 -0.024265629199225799 -7.8079516407824064e-05 0 -0.024723019073373376 -6.317098250889074e-05 0 -0.024925079669164855 -3.9266751657548601e-07 0 -0.024265629199225799 -7.8079516407824064e-05 0 -0.023206726395947157 0.00013622446696454044 0 -0.023206726395947157 0.00013622446696454044 0 -0.021818851816056039 -3.3551402014768929e-07 0 -0.021586321040855058 -0.0002025557386335184 0 -0.021818851816056039 -3.3551402014768929e-07 0 -0.021586321040855058 -0.0002025557386335184 0 -0.019553578775771508 1.126988051778197e-06 0 -0.02172628212818397 -0.00010490366454254008 0 -0.021586321040855058 -0.0002025557386335184 0 -0.021557490376789477 -0.00014163465206739711 0 -0.021557490376789477 -0.00014163465206739711 0 -0.021225869165210898 3.1202038379626697e-05 0 -0.021921190505172605 0.00042036268294988103 0 -0.021586321040855058 -0.0002025557386335184 0 -0.021557490376789477 -0.00014163465206739711 0 -0.021225869165210898 3.1202038379626697e-05 0 -0.021586321040855058 -0.0002025557386335184 0 -0.021225869165210898 3.1202038379626697e-05 0 -0.019553578775771508 1.126988051778197e-06 0 -0.019549685865570078 1.288135431681765e-07 0 -0.018726707559300542 0.00069729307133008017 0 -0.021225869165210898 3.1202038379626697e-05 0 -0.019553578775771508 1.126988051778197e-06 0 -0.021108392491533647 0.00098601673396262845 0 -0.021225869165210898 3.1202038379626697e-05 0 -0.021108392491533647 0.00098601673396262845 0 -0.021921190505172605 0.00042036268294988103 0 -0.015828716730642983 6.6407532284483745e-05 0 -0.016612430132129961 0.00053385713421888329 0 -0.014899689212653703 0.00026594802176576726 0 -0.019547093509481372 2.244525411132865e-06 0 -0.016612430132129961 0.00053385713421888329 0 -0.017538131154313557 -5.2966384145529334e-07 0 -0.015828716730642983 6.6407532284483745e-05 0 -0.016612430132129961 0.00053385713421888329 0 -0.017538131154313557 -5.2966384145529334e-07 0 -0.022064018125536898 -4.0053618143264125e-05 0 -0.022532916190498305 -0.00033516581039066626 0 -0.02255847923819999 0.00045470140953965339 0 -0.018726707559300542 0.00069729307133008017 0 -0.018985828700491238 0.00036680250141508637 0 -0.021108392491533647 0.00098601673396262845 0 -0.021904875253072019 0.0014872577436378762 0 -0.021921190505172605 0.00042036268294988103 0 -0.018985828700491238 0.00036680250141508637 0 -0.022477359766505108 0.00037652121989424208 0 -0.022064018125536898 -4.0053618143264125e-05 0 -0.02255847923819999 0.00045470140953965339 0 -0.022080173427584695 0.00040229305120584931 0 -0.02255847923819999 0.00045470140953965339 0 -0.022080173427584695 0.00040229305120584931 0 -0.022129385739746689 0.00083618419733868295 0 -0.022064018125536898 -4.0053618143264125e-05 0 -0.022080173427584695 0.00040229305120584931 0 -0.02187257018170171 0.00022211973229459037 0 -0.02255847923819999 0.00045470140953965339 0 -0.022129385739746689 0.00083618419733868295 0 -0.022572681225062018 0.0012043614900420247 0 -0.022391139246574581 0.0010234378171467429 0 -0.023299381975746884 0.001057243865441096 0 -0.021557490376789477 -0.00014163465206739711 0 -0.021921190505172605 0.00042036268294988103 0 -0.02175950662592795 -0.00020065791078622563 0 -0.022477359766505108 0.00037652121989424208 0 -0.023299381975746884 0.001057243865441096 0 -0.025480842748924287 0.0020526514211722624 0 -0.023299381975746884 0.001057243865441096 0 -0.02172628212818397 -0.00010490366454254008 0 -0.021557490376789477 -0.00014163465206739711 0 -0.02175950662592795 -0.00020065791078622563 0 -0.023202574753644817 0.00055048963009688974 0 -0.023299381975746884 0.001057243865441096 0 -0.025480842748924287 0.0020526514211722624 0 -0.025720620443534004 0.0025669587626985552 0 -0.023648253484764729 0.0029902828864484957 0 -0.023618766384734882 0.0018986206485936505 0 -0.022677556015092797 0.0019120360862974208 0 -0.022652294846311708 0.0011285751075193666 0 -0.023618766384734882 0.0018986206485936505 0 -0.022677556015092797 0.0019120360862974208 0 -0.02841962647110759 0.0031645620090728931 0 -0.028592469429582389 0.0029522562550906759 0 -0.028377862501515 0.0031505002859033458 0 -0.028377862501515 0.0031505002859033458 0 -0.028236037114967791 0.0029711685128108139 0 -0.0281816844547901 0.0033358401482551578 0 -0.028592469429582389 0.0029522562550906759 0 -0.028377862501515 0.0031505002859033458 0 -0.028236037114967791 0.0029711685128108139 0 -0.02790776537138406 0.0031481385725065612 0 -0.028098644271339127 0.0025492669995826802 0 -0.027244654786349454 0.0028879141918635308 0 -0.028236037114967791 0.0029711685128108139 0 -0.0281816844547901 0.0033358401482551578 0 -0.02790776537138406 0.0031481385725065612 0 -0.028236037114967791 0.0029711685128108139 0 -0.02790776537138406 0.0031481385725065612 0 -0.028098644271339127 0.0025492669995826802 0 -0.0281816844547901 0.0033358401482551578 0 -0.02790776537138406 0.0031481385725065612 0 -0.028231203685426476 0.0033566616967440253 0 -0.028592469429582389 0.0029522562550906759 0 -0.028236037114967791 0.0029711685128108139 0 -0.028098644271339127 0.0025492669995826802 0 -0.027244654786349454 0.0028879141918635308 0 -0.026510067402181488 0.0022910115387848643 0 -0.026815258484406156 0.0037244801806626494 0 -0.027244654786349454 0.0028879141918635308 0 -0.026815258484406156 0.0037244801806626494 0 -0.027410850565097761 0.0034584616761448809 0 -0.02790776537138406 0.0031481385725065612 0 -0.027244654786349454 0.0028879141918635308 0 -0.027410850565097761 0.0034584616761448809 0 -0.028098644271339127 0.0025492669995826802 0 -0.027244654786349454 0.0028879141918635308 0 -0.027392435761950565 0.002094685037502644 0 -0.027244654786349454 0.0028879141918635308 0 -0.027392435761950565 0.002094685037502644 0 -0.026510067402181488 0.0022910115387848643 0 -0.027392435761950565 0.002094685037502644 0 -0.026985346919231355 0.00050638528612087193 0 -0.026510067402181488 0.0022910115387848643 0 -0.027392435761950565 0.002094685037502644 0 -0.028015942031817641 0.0016906192911647752 0 -0.026985346919231355 0.00050638528612087193 0 -0.023829526717896971 -0.00015011815757955764 0 -0.026036058626315792 0.0019976813352878546 0 -0.022652294846311708 0.0011285751075193666 0 -0.022677556015092797 0.0019120360862974208 0 -0.021733369714113694 0.0008688552419705652 0 -0.028592469429582389 0.0029522562550906759 0 -0.028098644271339127 0.0025492669995826802 0 -0.028015942031817641 0.0016906192911647752 0 -0.025720620443534004 0.0025669587626985552 0 -0.02489579800340835 0.0013462145490183259 0 -0.028098644271339127 0.0025492669995826802 0 -0.027392435761950565 0.002094685037502644 0 -0.028015942031817641 0.0016906192911647752 0 -0.022391139246574581 0.0010234378171467429 0 -0.021782747404612054 0.00052960133301287713 0 -0.022652294846311708 0.0011285751075193666 0 -0.021733369714113694 0.0008688552419705652 0 -0.021715752245761281 0.00050043514525884253 0 -0.022080173427584695 0.00040229305120584931 0 -0.02187257018170171 0.00022211973229459037 0 -0.021715752245761281 0.00050043514525884253 0 -0.022080173427584695 0.00040229305120584931 0 -0.022129385739746689 0.00083618419733868295 0 -0.021715752245761281 0.00050043514525884253 0 -0.02187257018170171 0.00022211973229459037 0 -0.021715752245761281 0.00050043514525884253 0 -0.021621308526893493 1.8011276922940285e-05 0 -0.024848163936851398 -0.00061856859462970496 0 -0.02464463415932891 -0.00051816616680246987 0 -0.024916540894237487 0.0015765379124520254 0 -0.02489579800340835 0.0013462145490183259 0 -0.023829526717896971 -0.00015011815757955764 0 -0.021733369714113694 0.0008688552419705652 0 -0.021715752245761281 0.00050043514525884253 0 -0.02116096330717716 0.0001615391186908143 0 -0.023660734915012142 -0.00079195384575369285 0 -0.023374422676854176 -0.0010599486647392561 0 -0.024848163936851398 -0.00061856859462970496 0 -0.02464463415932891 -0.00051816616680246987 0 -0.0246343752383219 -0.00085698574264758112 0 -0.023829526717896971 -0.00015011815757955764 0 -0.023374422676854176 -0.0010599486647392561 0 -0.021715752245761281 0.00050043514525884253 0 -0.02116096330717716 0.0001615391186908143 0 -0.021621308526893493 1.8011276922940285e-05 0 -0.020942302304190901 -0.0014133379265432778 0 -0.020663186086922681 -0.001622971000111294 0 -0.020717505139869769 -0.00089877461847850774 0 -0.022234565320842292 -0.0018742520780455421 0 -0.023374422676854176 -0.0010599486647392561 0 -0.020942302304190901 -0.0014133379265432778 0 -0.0208262803667855 -0.00078077288551887036 0 -0.020717505139869769 -0.00089877461847850774 0 -0.021183017577368873 -0.0010613685536932504 0 -0.023829526717896971 -0.00015011815757955764 0 -0.021323301354494624 -0.00045475698936229137 0 -0.02116096330717716 0.0001615391186908143 0 -0.021621308526893493 1.8011276922940285e-05 0 -0.021733871661642191 -0.00040932321637473059 0 -0.021323301354494624 -0.00045475698936229137 0 -0.021621308526893493 1.8011276922940285e-05 0 -0.021733871661642191 -0.00040932321637473059 0 -0.022064018125536898 -4.0053618143264125e-05 0 -0.021621308526893493 1.8011276922940285e-05 0 -0.022064018125536898 -4.0053618143264125e-05 0 -0.02187257018170171 0.00022211973229459037 0 -0.021621308526893493 1.8011276922940285e-05 0 -0.023108047014356613 -0.00086956936541271771 0 -0.022344024681811916 -0.00081847491867993976 0 -0.022666577553363609 -0.0014701278645989598 0 -0.022344024681811916 -0.00081847491867993976 0 -0.022666577553363609 -0.0014701278645989598 0 -0.021689273989892486 -0.001770633183295303 0 -0.022317740693866953 -0.0021395093041530768 0 -0.022666577553363609 -0.0014701278645989598 0 -0.023183182498376319 -0.0018224692373702233 0 -0.023423355522291186 -0.0022134285947214864 0 -0.02351268666926315 -0.0014354633366640644 0 -0.023183182498376319 -0.0018224692373702233 0 -0.022666577553363609 -0.0014701278645989598 0 -0.023183182498376319 -0.0018224692373702233 0 -0.023449875687021282 -0.0011560752733974114 0 -0.023374422676854176 -0.0010599486647392561 0 -0.023427434741257195 -0.0016626023978577808 0 -0.024593900389464463 -0.00093260164893553489 0 -0.023183182498376319 -0.0018224692373702233 0 -0.023449875687021282 -0.0011560752733974114 0 -0.024593900389464463 -0.00093260164893553489 0 -0.023449875687021282 -0.0011560752733974114 0 -0.023908057232781641 -0.00064022672856844996 0 -0.023108047014356613 -0.00086956936541271771 0 -0.023449875687021282 -0.0011560752733974114 0 -0.023908057232781641 -0.00064022672856844996 0 -0.023108047014356613 -0.00086956936541271771 0 -0.022666577553363609 -0.0014701278645989598 0 -0.023449875687021282 -0.0011560752733974114 0 -0.023108047014356613 -0.00086956936541271771 0 -0.023908057232781641 -0.00064022672856844996 0 -0.023253241918327575 -9.3875682497719166e-05 0 -0.02464463415932891 -0.00051816616680246987 0 -0.023908057232781641 -0.00064022672856844996 0 -0.024112960107407513 0.0004188897908344759 0 -0.02464463415932891 -0.00051816616680246987 0 -0.024593900389464463 -0.00093260164893553489 0 -0.023908057232781641 -0.00064022672856844996 0 -0.023908057232781641 -0.00064022672856844996 0 -0.023253241918327575 -9.3875682497719166e-05 0 -0.024112960107407513 0.0004188897908344759 0 -0.023253241918327575 -9.3875682497719166e-05 0 -0.022630133238427129 0.00012177061375056568 0 -0.022958130433953675 0.00082726496531074234 0 -0.023108047014356613 -0.00086956936541271771 0 -0.022344024681811916 -0.00081847491867993976 0 -0.023253241918327575 -9.3875682497719166e-05 0 -0.022344024681811916 -0.00081847491867993976 0 -0.023253241918327575 -9.3875682497719166e-05 0 -0.022630133238427129 0.00012177061375056568 0 -0.022344024681811916 -0.00081847491867993976 0 -0.022630133238427129 0.00012177061375056568 0 -0.022033944379161088 -0.00030141675550537618 0 -0.022630133238427129 0.00012177061375056568 0 -0.022048078555192929 0.0003268229359597967 0 -0.022033944379161088 -0.00030141675550537618 0 -0.022958130433953675 0.00082726496531074234 0 -0.022083579697665348 0.0010159773623526086 0 -0.022048078555192929 0.0003268229359597967 0 -0.022958130433953675 0.00082726496531074234 0 -0.024112960107407513 0.0004188897908344759 0 -0.02388114093298694 0.0022270460612448199 0 -0.022630133238427129 0.00012177061375056568 0 -0.022958130433953675 0.00082726496531074234 0 -0.022048078555192929 0.0003268229359597967 0 -0.023253241918327575 -9.3875682497719166e-05 0 -0.022958130433953675 0.00082726496531074234 0 -0.024112960107407513 0.0004188897908344759 0 -0.022958130433953675 0.00082726496531074234 0 -0.022587416021180196 0.0018586615532979421 0 -0.022083579697665348 0.0010159773623526086 0 -0.02464463415932891 -0.00051816616680246987 0 -0.024112960107407513 0.0004188897908344759 0 -0.024916540894237487 0.0015765379124520254 0 -0.024112960107407513 0.0004188897908344759 0 -0.024916540894237487 0.0015765379124520254 0 -0.02388114093298694 0.0022270460612448199 0 -0.024916540894237487 0.0015765379124520254 0 -0.02388114093298694 0.0022270460612448199 0 -0.025598576451724583 0.0043864129524645527 0 -0.026036058626315792 0.0019976813352878546 0 -0.025433906438612749 0.0043594376348625851 0 -0.022958130433953675 0.00082726496531074234 0 -0.022587416021180196 0.0018586615532979421 0 -0.02388114093298694 0.0022270460612448199 0 -0.022587416021180196 0.0018586615532979421 0 -0.02388114093298694 0.0022270460612448199 0 -0.023227676118205864 0.0032949297878792539 0 -0.02388114093298694 0.0022270460612448199 0 -0.023227676118205864 0.0032949297878792539 0 -0.024186242063607595 0.0041466906822479437 0 -0.023227676118205864 0.0032949297878792539 0 -0.023315946803847989 0.0051018881466420455 0 -0.022149611176996705 0.0034338721171776033 0 -0.023227676118205864 0.0032949297878792539 0 -0.024186242063607595 0.0041466906822479437 0 -0.023315946803847989 0.0051018881466420455 0 -0.02388114093298694 0.0022270460612448199 0 -0.024186242063607595 0.0041466906822479437 0 -0.025598576451724583 0.0043864129524645527 0 -0.024186242063607595 0.0041466906822479437 0 -0.023315946803847989 0.0051018881466420455 0 -0.026417754119605803 0.0055379098738357639 0 -0.028513089217262106 0.0063890626854467896 0 -0.027869109558926703 0.00535758262812722 0 -0.026417754119605803 0.0055379098738357639 0 -0.025844886865806917 0.0057919320973789934 0 -0.026353060303989186 0.0056071046507984099 0 -0.028513089217262106 0.0063890626854467896 0 -0.027869109558926703 0.00535758262812722 0 -0.028928073105500395 0.0053833256682190396 0 -0.026599095187490734 0.0053415994277875639 0 -0.026417754119605803 0.0055379098738357639 0 -0.027116537613511616 0.0050462108262283997 0 -0.027869109558926703 0.00535758262812722 0 -0.026417754119605803 0.0055379098738357639 0 -0.027116537613511616 0.0050462108262283997 0 -0.024186242063607595 0.0041466906822479437 0 -0.026417754119605803 0.0055379098738357639 0 -0.025598576451724583 0.0043864129524645527 0 -0.026599095187490734 0.0053415994277875639 0 -0.026417754119605803 0.0055379098738357639 0 -0.026546171700138448 0.0048058309254457518 0 -0.026417754119605803 0.0055379098738357639 0 -0.026546171700138448 0.0048058309254457518 0 -0.025598576451724583 0.0043864129524645527 0 -0.026546171700138448 0.0048058309254457518 0 -0.025598576451724583 0.0043864129524645527 0 -0.026815258484406156 0.0037244801806626494 0 -0.026510067402181488 0.0022910115387848643 0 -0.025598576451724583 0.0043864129524645527 0 -0.026815258484406156 0.0037244801806626494 0 -0.028251461753570777 0.0034183852845092728 0 -0.027951997967190934 0.0041700312495456422 0 -0.027442711482104188 0.0040222206611475715 0 -0.028231203685426476 0.0033566616967440253 0 -0.026919513150128235 0.0053004841576387062 0 -0.02790776537138406 0.0031481385725065612 0 -0.027410850565097761 0.0034584616761448809 0 -0.027758762889993512 0.0034596334361806555 0 -0.027410850565097761 0.0034584616761448809 0 -0.027758762889993512 0.0034596334361806555 0 -0.027442711482104188 0.0040222206611475715 0 -0.027758762889993512 0.0034596334361806555 0 -0.027442711482104188 0.0040222206611475715 0 -0.028231203685426476 0.0033566616967440253 0 -0.026815258484406156 0.0037244801806626494 0 -0.027410850565097761 0.0034584616761448809 0 -0.027442711482104188 0.0040222206611475715 0 -0.027442711482104188 0.0040222206611475715 0 -0.026930929774363246 0.0044718871478958699 0 -0.026919513150128235 0.0053004841576387062 0 -0.026815258484406156 0.0037244801806626494 0 -0.027442711482104188 0.0040222206611475715 0 -0.026930929774363246 0.0044718871478958699 0 -0.026546171700138448 0.0048058309254457518 0 -0.026815258484406156 0.0037244801806626494 0 -0.026930929774363246 0.0044718871478958699 0 -0.0281816844547901 0.0033358401482551578 0 -0.028388678349237629 0.003217381409252088 0 -0.028504346380899291 0.00314784748877438 0 -0.0281816844547901 0.0033358401482551578 0 -0.028504346380899291 0.00314784748877438 0 -0.028768763448566617 0.0030104419463405615 0 -0.0281816844547901 0.0033358401482551578 0 -0.028231203685426476 0.0033566616967440253 0 -0.028815535466429704 0.0032199657337028021 0 -0.028293332715555057 0.0033416522616189484 0 -0.028755076040936533 0.0031073272704271078 0 -0.028377862501515 0.0031505002859033458 0 -0.0281816844547901 0.0033358401482551578 0 -0.028388678349237629 0.003217381409252088 0 -0.02841962647110759 0.0031645620090728931 0 -0.028377862501515 0.0031505002859033458 0 -0.028388678349237629 0.003217381409252088 0 -0.02790776537138406 0.0031481385725065612 0 -0.027758762889993512 0.0034596334361806555 0 -0.028231203685426476 0.0033566616967440253 0 -0.028385734099465546 0.0030966356709083063 0 -0.028388678349237629 0.003217381409252088 0 -0.028504346380899291 0.00314784748877438 0 -0.028504346380899291 0.00314784748877438 0 -0.028768763448566617 0.0030104419463405615 0 -0.028986863234885432 0.0027317987549598526 0 -0.028560789543480049 0.0031348762264451009 0 -0.028894348599716818 0.0026773847958251038 0 -0.028399614059739526 0.0029026692307485905 0 -0.028504346380899291 0.00314784748877438 0 -0.028544209579100473 0.0027192969233713958 0 -0.026599095187490734 0.0053415994277875639 0 -0.026919513150128235 0.0053004841576387062 0 -0.026574269830610411 0.0048127744941018728 0 -0.028231203685426476 0.0033566616967440253 0 -0.028815535466429704 0.0032199657337028021 0 -0.028953177480441992 0.0032782766658119816 0 -0.026546171700138448 0.0048058309254457518 0 -0.026930929774363246 0.0044718871478958699 0 -0.026919513150128235 0.0053004841576387062 0 -0.026599095187490734 0.0053415994277875639 0 -0.026546171700138448 0.0048058309254457518 0 -0.026919513150128235 0.0053004841576387062 0 -0.028815535466429704 0.0032199657337028021 0 -0.028953177480441992 0.0032782766658119816 0 -0.029091072634253656 0.0030725275259983688 0 -0.028815535466429704 0.0032199657337028021 0 -0.029142116171574341 0.0029221822969059154 0 -0.029177878708984861 0.002637431947350112 0 -0.028755076040936533 0.0031073272704271078 0 -0.029179901432090517 0.0026365057837048561 0 -0.027951997967190934 0.0041700312495456422 0 -0.028072738330279092 0.0038265219173982119 0 -0.029091072634253656 0.0030725275259983688 0 -0.029142116171574341 0.0029221822969059154 0 -0.02946874082632726 0.0028698214771000455 0 -0.028953177480441992 0.0032782766658119816 0 -0.029091072634253656 0.0030725275259983688 0 -0.02946874082632726 0.0028698214771000455 0 -0.028815535466429704 0.0032199657337028021 0 -0.029091072634253656 0.0030725275259983688 0 -0.029142116171574341 0.0029221822969059154 0 -0.029142116171574341 0.0029221822969059154 0 -0.029295704471871721 0.0027564198717332268 0 -0.029177878708984861 0.002637431947350112 0 -0.029142116171574341 0.0029221822969059154 0 -0.029295704471871721 0.0027564198717332268 0 -0.02946874082632726 0.0028698214771000455 0 -0.028504346380899291 0.00314784748877438 0 -0.028544209579100473 0.0027192969233713958 0 -0.028846003913369708 0.002588610420576014 0 -0.028768763448566617 0.0030104419463405615 0 -0.028986863234885432 0.0027317987549598526 0 -0.029161416344136517 0.0026369012500525799 0 -0.028544209579100473 0.0027192969233713958 0 -0.028846003913369708 0.002588610420576014 0 -0.028651507861686777 0.002462893897884808 0 -0.028472621320943442 0.0023661696651056537 0 -0.028753951510881004 0.0021521911734938607 0 -0.028507500057907614 0.0017682697663053092 0 -0.028894348599716818 0.0026773847958251038 0 -0.029332439406545317 0.0020176351884361398 0 -0.028846003913369708 0.002588610420576014 0 -0.028753951510881004 0.0021521911734938607 0 -0.029133913126429208 0.0017388502887558728 0 -0.028472621320943442 0.0023661696651056537 0 -0.028651507861686777 0.002462893897884808 0 -0.028753951510881004 0.0021521911734938607 0 -0.028472621320943442 0.0023661696651056537 0 -0.028544209579100473 0.0027192969233713958 0 -0.028651507861686777 0.002462893897884808 0 -0.028846003913369708 0.002588610420576014 0 -0.028651507861686777 0.002462893897884808 0 -0.028753951510881004 0.0021521911734938607 0 -0.028986863234885432 0.0027317987549598526 0 -0.029161416344136517 0.0026369012500525799 0 -0.029427176174600393 0.0023418276332726955 0 -0.029295704471871721 0.0027564198717332268 0 -0.029412247378797596 0.0026151430856941331 0 -0.02946874082632726 0.0028698214771000455 0 -0.029295704471871721 0.0027564198717332268 0 -0.029412247378797596 0.0026151430856941331 0 -0.029177878708984861 0.002637431947350112 0 -0.029412247378797596 0.0026151430856941331 0 -0.029177878708984861 0.002637431947350112 0 -0.029394385917389035 0.0024996715929466824 0 -0.029412247378797596 0.0026151430856941331 0 -0.029394385917389035 0.0024996715929466824 0 -0.029491918417220667 0.0024620689273230118 0 -0.027901900780183741 0.0031061960040599146 0 -0.026574269830610411 0.0048127744941018728 0 -0.027757663894939198 0.0042825977601280915 0 -0.028821942202446788 0.0028452695793536372 0 -0.028072738330279092 0.0038265219173982119 0 -0.029412247378797596 0.0026151430856941331 0 -0.029729791075862697 0.0024418988204772249 0 -0.02946874082632726 0.0028698214771000455 0 -0.029412247378797596 0.0026151430856941331 0 -0.029729791075862697 0.0024418988204772249 0 -0.029491918417220667 0.0024620689273230118 0 -0.028770647041427663 0.0037336968342653446 0 -0.028382096159053193 0.0046191102581410407 0 -0.029793545378482493 0.0039570715303772807 0 -0.027901900780183741 0.0031061960040599146 0 -0.028770647041427663 0.0037336968342653446 0 -0.029340727087142065 0.0027539210253216101 0 -0.027901900780183741 0.0031061960040599146 0 -0.028770647041427663 0.0037336968342653446 0 -0.027757663894939198 0.0042825977601280915 0 -0.028770647041427663 0.0037336968342653446 0 -0.028382096159053193 0.0046191102581410407 0 -0.027757663894939198 0.0042825977601280915 0 -0.028382096159053193 0.0046191102581410407 0 -0.027116537613511616 0.0050462108262283997 0 -0.027757663894939198 0.0042825977601280915 0 -0.027869109558926703 0.00535758262812722 0 -0.028382096159053193 0.0046191102581410407 0 -0.028928073105500395 0.0053833256682190396 0 -0.027869109558926703 0.00535758262812722 0 -0.028382096159053193 0.0046191102581410407 0 -0.027116537613511616 0.0050462108262283997 0 -0.026599095187490734 0.0053415994277875639 0 -0.027116537613511616 0.0050462108262283997 0 -0.026574269830610411 0.0048127744941018728 0 -0.027116537613511616 0.0050462108262283997 0 -0.026574269830610411 0.0048127744941018728 0 -0.027757663894939198 0.0042825977601280915 0 -0.030954875308675623 0.00049300531422727086 0 -0.030424976330632753 0.002363897093719499 0 -0.02913189320953917 0.0022759540278413409 0 -0.029421802550459029 0.0021919252804950772 0 -0.029514048812849046 0.0027780133872319012 0 -0.032609488302040204 -0.0011825479148213013 0 -0.032639024436662993 -0.00038969818214913021 0 -0.032149820279442826 -0.00079762363476674136 0 -0.028382096159053193 0.0046191102581410407 0 -0.029793545378482493 0.0039570715303772807 0 -0.028928073105500395 0.0053833256682190396 0 -0.029898089539361475 0.0053257461996401708 0 -0.029793545378482493 0.0039570715303772807 0 -0.028928073105500395 0.0053833256682190396 0 -0.029760962266207711 0.0041281965599638416 0 -0.030424976330632753 0.002363897093719499 0 -0.028770647041427663 0.0037336968342653446 0 -0.029793545378482493 0.0039570715303772807 0 -0.029340727087142065 0.0027539210253216101 0 -0.030424976330632753 0.002363897093719499 0 -0.029378412719332489 0.0032249758440482026 0 -0.030424976330632753 0.002363897093719499 0 -0.031611987437804134 0.0012036891884373091 0 -0.033029951113340665 -0.00063722383544785328 0 -0.032639024436662993 -0.00038969818214913021 0 -0.0331416380150273 0.00019169312570195088 0 -0.032609488302040204 -0.0011825479148213013 0 -0.033029951113340665 -0.00063722383544785328 0 -0.032639024436662993 -0.00038969818214913021 0 -0.031708294580065854 -0.00058308208733264802 0 -0.032149820279442826 -0.00079762363476674136 0 -0.032168601994322206 -0.0002295443819181979 0 -0.032639024436662993 -0.00038969818214913021 0 -0.032149820279442826 -0.00079762363476674136 0 -0.032168601994322206 -0.0002295443819181979 0 -0.031708294580065854 -0.00058308208733264802 0 -0.031634188121849038 -0.0011176754615743068 0 -0.030983192311146206 -0.00064398286583755159 0 -0.031708294580065854 -0.00058308208733264802 0 -0.030983192311146206 -0.00064398286583755159 0 -0.031678426869332178 -5.5515447822685089e-05 0 -0.029055002864976098 -0.00014300029038465402 0 -0.028121280925290915 0.00076349639010546834 0 -0.031634188121849038 -0.0011176754615743068 0 -0.032149820279442826 -0.00079762363476674136 0 -0.032150309826402046 -0.0011939292604273143 0 -0.031708294580065854 -0.00058308208733264802 0 -0.031634188121849038 -0.0011176754615743068 0 -0.032149820279442826 -0.00079762363476674136 0 -0.032609488302040204 -0.0011825479148213013 0 -0.032149820279442826 -0.00079762363476674136 0 -0.032150309826402046 -0.0011939292604273143 0 -0.026219497530165829 0.0012086426886117507 0 -0.027132852638992858 0.00031521829865381558 0 -0.026411005922602256 0.00030218956405114056 0 -0.029055002864976098 -0.00014300029038465402 0 -0.029192277725491749 0.00028563203657163788 0 -0.031634188121849038 -0.0011176754615743068 0 -0.032150309826402046 -0.0011939292604273143 0 -0.032211944699873325 -0.0016710542249298423 0 -0.026219497530165829 0.0012086426886117507 0 -0.025872017832166104 0.00041487012971734745 0 -0.025124347343973195 0.00091300756626579475 0 -0.026219497530165829 0.0012086426886117507 0 -0.026411005922602256 0.00030218956405114056 0 -0.025872017832166104 0.00041487012971734745 0 -0.026411005922602256 0.00030218956405114056 0 -0.025872017832166104 0.00041487012971734745 0 -0.026048428857882631 -7.1859873910458462e-05 0 -0.025872017832166104 0.00041487012971734745 0 -0.026048428857882631 -7.1859873910458462e-05 0 -0.025430423001863788 -0.00015930756182714665 0 -0.026411005922602256 0.00030218956405114056 0 -0.026048428857882631 -7.1859873910458462e-05 0 -0.026667471297952522 -0.0003280153226093962 0 -0.025923479436901008 -0.00060730640494606014 0 -0.026807094625473545 -0.00036781816435994922 0 -0.026667471297952522 -0.0003280153226093962 0 -0.025923479436901008 -0.00060730640494606014 0 -0.02645089655952303 -0.00047184884463178007 0 -0.026293103142844321 -0.00068127318394929854 0 -0.026048428857882631 -7.1859873910458462e-05 0 -0.025923479436901008 -0.00060730640494606014 0 -0.026667471297952522 -0.0003280153226093962 0 -0.026034897846017147 -0.00058300923404338851 0 -0.026553561402259038 -0.00041532011581694794 0 -0.026048428857882631 -7.1859873910458462e-05 0 -0.025923479436901008 -0.00060730640494606014 0 -0.025430423001863788 -0.00015930756182714665 0 -0.029192277725491749 0.00028563203657163788 0 -0.026633215128996773 -0.00055783646993541863 0 -0.027261583633562392 0.00049937206343446264 0 -0.026807094625473545 -0.00036781816435994922 0 -0.027816954936750338 -5.3290802112519471e-05 0 -0.027261583633562392 0.00049937206343446264 0 -0.026807094625473545 -0.00036781816435994922 0 -0.026667471297952522 -0.0003280153226093962 0 -0.027132852638992858 0.00031521829865381558 0 -0.026411005922602256 0.00030218956405114056 0 -0.026667471297952522 -0.0003280153226093962 0 -0.02645089655952303 -0.00047184884463178007 0 -0.026293103142844321 -0.00068127318394929854 0 -0.026541997344901033 -0.00075031643480351557 0 -0.02645089655952303 -0.00047184884463178007 0 -0.026711592620714812 -0.00055685829685008523 0 -0.026541997344901033 -0.00075031643480351557 0 -0.02645089655952303 -0.00047184884463178007 0 -0.026711592620714812 -0.00055685829685008523 0 -0.027010259969556676 -0.00028294815619406201 0 -0.026553561402259038 -0.00041532011581694794 0 -0.02750681722021053 0.00081816943416131518 0 -0.026711592620714812 -0.00055685829685008523 0 -0.027010259969556676 -0.00028294815619406201 0 -0.026845627639810101 -0.00071934651849409244 0 -0.027308225361166234 -0.00058119828475465443 0 -0.027010259969556676 -0.00028294815619406201 0 -0.026845627639810101 -0.00071934651849409244 0 -0.024321873436707508 0.0016680956782834373 0 -0.026665183954068368 0.0033268601383121947 0 -0.024321873436707508 0.0016680956782834373 0 -0.02750681722021053 0.00081816943416131518 0 -0.025922732508842913 0.0020077025098660904 0 -0.025897316619381116 0.0017494151035135944 0 -0.026123653348687985 0.0018138468711680264 0 -0.029328986782582164 0.0016049787746855336 0 -0.029026648502547901 0.0015046497096717728 0 -0.029044348344015137 0.0017112233925175176 0 -0.026665183954068368 0.0033268601383121947 0 -0.02750681722021053 0.00081816943416131518 0 -0.028760683199648279 0.0017692904918537144 0 -0.029026648502547901 0.0015046497096717728 0 -0.029044348344015137 0.0017112233925175176 0 -0.029192277725491749 0.00028563203657163788 0 -0.02750681722021053 0.00081816943416131518 0 -0.032609488302040204 -0.0011825479148213013 0 -0.032150309826402046 -0.0011939292604273143 0 -0.032211944699873325 -0.0016710542249298423 0 -0.030954875308675623 0.00049300531422727086 0 -0.029192277725491749 0.00028563203657163788 0 -0.029421802550459029 0.0021919252804950772 0 -0.029328986782582164 0.0016049787746855336 0 -0.029128784391114351 0.0019163843112562542 0 -0.02913189320953917 0.0022759540278413409 0 -0.028760683199648279 0.0017692904918537144 0 -0.029128784391114351 0.0019163843112562542 0 -0.028760683199648279 0.0017692904918537144 0 -0.029044348344015137 0.0017112233925175176 0 -0.029128784391114351 0.0019163843112562542 0 -0.029328986782582164 0.0016049787746855336 0 -0.029044348344015137 0.0017112233925175176 0 -0.029128784391114351 0.0019163843112562542 0 -0.02913189320953917 0.0022759540278413409 0 -0.029421802550459029 0.0021919252804950772 0 -0.029128784391114351 0.0019163843112562542 0 -0.029760962266207711 0.0041281965599638416 0 -0.026665183954068368 0.0033268601383121947 0 -0.029898089539361475 0.0053257461996401708 0 -0.030064071749970386 0.0067777108809545048 0 -0.029359180623924307 0.0059684352673227067 0 -0.028513089217262106 0.0063890626854467896 0 -0.030064071749970386 0.0067777108809545048 0 -0.029359180623924307 0.0059684352673227067 0 -0.025844886865806917 0.0057919320973789934 0 -0.026665183954068368 0.0033268601383121947 0 -0.029898089539361475 0.0053257461996401708 0 -0.029359180623924307 0.0059684352673227067 0 -0.028928073105500395 0.0053833256682190396 0 -0.028513089217262106 0.0063890626854467896 0 -0.029359180623924307 0.0059684352673227067 0 -0.028928073105500395 0.0053833256682190396 0 -0.023315946803847989 0.0051018881466420455 0 -0.021279624666827649 0.0043902522049286477 0 -0.022149611176996705 0.0034338721171776033 0 -0.021156054549961313 0.0032128768968917977 0 -0.021279624666827649 0.0043902522049286477 0 -0.022149611176996705 0.0034338721171776033 0 -0.022587416021180196 0.0018586615532979421 0 -0.023227676118205864 0.0032949297878792539 0 -0.02179071638624942 0.002337517876964072 0 -0.02134932061822126 0.0030588277387994071 0 -0.021884973300312447 0.0025151362509252249 0 -0.021154772811026047 0.0015077686205323497 0 -0.023048247551012674 0.0031847341721679707 0 -0.021940546251460455 0.0021762321948575357 0 -0.023227676118205864 0.0032949297878792539 0 -0.022149611176996705 0.0034338721171776033 0 -0.02209156491593019 0.0023126021340197081 0 -0.022149611176996705 0.0034338721171776033 0 -0.02209156491593019 0.0023126021340197081 0 -0.021884973300312447 0.0025151362509252249 0 -0.021156054549961313 0.0032128768968917977 0 -0.022149611176996705 0.0034338721171776033 0 -0.021884973300312447 0.0025151362509252249 0 -0.024321873436707508 0.0016680956782834373 0 -0.021830708849366345 0.0032090821082856385 0 -0.02179071638624942 0.002337517876964072 0 -0.020756095860909197 0.0013929840239564129 0 -0.021720280925570042 0.0014730275316953726 0 -0.021940546251460455 0.0021762321948575357 0 -0.023284342937283313 0.000188044346964172 0 -0.02209156491593019 0.0023126021340197081 0 -0.021884973300312447 0.0025151362509252249 0 -0.021154772811026047 0.0015077686205323497 0 -0.022587416021180196 0.0018586615532979421 0 -0.02179071638624942 0.002337517876964072 0 -0.021720280925570042 0.0014730275316953726 0 -0.024321873436707508 0.0016680956782834373 0 -0.023284342937283313 0.000188044346964172 0 -0.027308225361166234 -0.00058119828475465443 0 -0.026955651601418343 -0.0010113041411948063 0 -0.027227152167182786 -0.0013198518393604721 0 -0.027308225361166234 -0.00058119828475465443 0 -0.026845627639810101 -0.00071934651849409244 0 -0.026955651601418343 -0.0010113041411948063 0 -0.026955651601418343 -0.0010113041411948063 0 -0.027227152167182786 -0.0013198518393604721 0 -0.026765940174641616 -0.0013639839933147534 0 -0.027227152167182786 -0.0013198518393604721 0 -0.026585227233136336 -0.0019304197557934858 0 -0.026765940174641616 -0.0013639839933147534 0 -0.020756095860909197 0.0013929840239564129 0 -0.02140619366923565 0.0005277165090978765 0 -0.020499061224830209 -0.00068575493445575291 0 -0.023284342937283313 0.000188044346964172 0 -0.025238975542492745 -0.0017051717155178003 0 -0.022083579697665348 0.0010159773623526086 0 -0.021720280925570042 0.0014730275316953726 0 -0.02140619366923565 0.0005277165090978765 0 -0.022587416021180196 0.0018586615532979421 0 -0.022083579697665348 0.0010159773623526086 0 -0.021720280925570042 0.0014730275316953726 0 -0.020756095860909197 0.0013929840239564129 0 -0.021720280925570042 0.0014730275316953726 0 -0.02140619366923565 0.0005277165090978765 0 -0.022083579697665348 0.0010159773623526086 0 -0.02140619366923565 0.0005277165090978765 0 -0.022048078555192929 0.0003268229359597967 0 -0.022048078555192929 0.0003268229359597967 0 -0.022033944379161088 -0.00030141675550537618 0 -0.021450065819302973 -0.00023061086809694425 0 -0.02140619366923565 0.0005277165090978765 0 -0.021450065819302973 -0.00023061086809694425 0 -0.020499061224830209 -0.00068575493445575291 0 -0.022033944379161088 -0.00030141675550537618 0 -0.021450065819302973 -0.00023061086809694425 0 -0.021352188733646915 -0.001036001295159916 0 -0.022344024681811916 -0.00081847491867993976 0 -0.022033944379161088 -0.00030141675550537618 0 -0.021352188733646915 -0.001036001295159916 0 -0.021450065819302973 -0.00023061086809694425 0 -0.020499061224830209 -0.00068575493445575291 0 -0.021352188733646915 -0.001036001295159916 0 -0.02140619366923565 0.0005277165090978765 0 -0.022048078555192929 0.0003268229359597967 0 -0.021450065819302973 -0.00023061086809694425 0 -0.023934258485301053 -0.00097107970365139596 0 -0.023841291777040089 -0.0017181520060805925 0 -0.023470051218346385 -0.0013988179841549352 0 -0.023284342937283313 0.000188044346964172 0 -0.022051601607398261 -0.0012075926328494059 0 -0.02199348757546591 -0.0023834885124770179 0 -0.022051601607398261 -0.0012075926328494059 0 -0.023739401618148775 -0.0024405026643871917 0 -0.023841291777040089 -0.0017181520060805925 0 -0.023450690893147403 -0.0020274202641772472 0 -0.020250542360867662 -0.0023695268554448055 0 -0.020499061224830209 -0.00068575493445575291 0 -0.021352188733646915 -0.001036001295159916 0 -0.020250542360867662 -0.0023695268554448055 0 -0.021689273989892486 -0.001770633183295303 0 -0.021352188733646915 -0.001036001295159916 0 -0.022344024681811916 -0.00081847491867993976 0 -0.021689273989892486 -0.001770633183295303 0 -0.021352188733646915 -0.001036001295159916 0 -0.022799262850473456 -0.0023584058414730896 0 -0.023018736519045586 -0.0018177644653461114 0 -0.022999604742616388 -0.0021218679038275284 0 -0.025500171927263799 -0.0034445359852584775 0 -0.025888710475767962 -0.0026284910815071137 0 -0.025471989351530076 -0.0029404116082131404 0 -0.024190365655794351 -0.0028339739349351203 0 -0.024948293974422501 -0.0024124445343196277 0 -0.023060319401580476 -0.0019297101778796364 0 -0.023018736519045586 -0.0018177644653461114 0 -0.022999604742616388 -0.0021218679038275284 0 -0.023199681925175013 -0.0018436037364815128 0 -0.023018736519045586 -0.0018177644653461114 0 -0.023331088605386515 -0.0017127073312934618 0 -0.023115646137618857 -0.001900761512974466 0 -0.023199681925175013 -0.0018436037364815128 0 -0.023184084560429936 -0.0020125471414442989 0 -0.023060319401580476 -0.0019297101778796364 0 -0.023115646137618857 -0.001900761512974466 0 -0.023184084560429936 -0.0020125471414442989 0 -0.023115646137618857 -0.001900761512974466 0 -0.023199681925175013 -0.0018436037364815128 0 -0.023018736519045586 -0.0018177644653461114 0 -0.023060319401580476 -0.0019297101778796364 0 -0.023115646137618857 -0.001900761512974466 0 -0.023018736519045586 -0.0018177644653461114 0 -0.025888710475767962 -0.0026284910815071137 0 -0.025471989351530076 -0.0029404116082131404 0 -0.025533652232717526 -0.0026653136423060195 0 -0.023221029781593815 -0.0023589325697858975 0 -0.022999604742616388 -0.0021218679038275284 0 -0.023184084560429936 -0.0020125471414442989 0 -0.023060319401580476 -0.0019297101778796364 0 -0.022999604742616388 -0.0021218679038275284 0 -0.023184084560429936 -0.0020125471414442989 0 -0.023841291777040089 -0.0017181520060805925 0 -0.023450690893147403 -0.0020274202641772472 0 -0.023331088605386515 -0.0017127073312934618 0 -0.023221029781593815 -0.0023589325697858975 0 -0.023184084560429936 -0.0020125471414442989 0 -0.023450690893147403 -0.0020274202641772472 0 -0.023199681925175013 -0.0018436037364815128 0 -0.023450690893147403 -0.0020274202641772472 0 -0.023331088605386515 -0.0017127073312934618 0 -0.023199681925175013 -0.0018436037364815128 0 -0.023184084560429936 -0.0020125471414442989 0 -0.023450690893147403 -0.0020274202641772472 0 -0.023018736519045586 -0.0018177644653461114 0 -0.023331088605386515 -0.0017127073312934618 0 -0.023470051218346385 -0.0013988179841549352 0 -0.023841291777040089 -0.0017181520060805925 0 -0.023331088605386515 -0.0017127073312934618 0 -0.023470051218346385 -0.0013988179841549352 0 -0.024948293974422501 -0.0024124445343196277 0 -0.025238975542492745 -0.0017051717155178003 0 -0.025916942266121675 -0.0025066360092357606 0 -0.026585227233136336 -0.0019304197557934858 0 -0.026190857124695044 -0.0017365551655925183 0 -0.025888710475767962 -0.0026284910815071137 0 -0.025662906824106796 -0.0022889536873409574 0 -0.026190857124695044 -0.0017365551655925183 0 -0.024948293974422501 -0.0024124445343196277 0 -0.026310327279649822 -0.0017827539044927418 0 -0.025888710475767962 -0.0026284910815071137 0 -0.025662906824106796 -0.0022889536873409574 0 -0.025533652232717526 -0.0026653136423060195 0 -0.025662906824106796 -0.0022889536873409574 0 -0.025634478721028631 -0.0019380063066687574 0 -0.026190857124695044 -0.0017365551655925183 0 -0.025634478721028631 -0.0019380063066687574 0 -0.025787880661138185 -0.0016049469563100649 0 -0.026190857124695044 -0.0017365551655925183 0 -0.025787880661138185 -0.0016049469563100649 0 -0.026190857124695044 -0.0017365551655925183 0 -0.026153241705291014 -0.0013160014796903745 0 -0.025787880661138185 -0.0016049469563100649 0 -0.026153241705291014 -0.0013160014796903745 0 -0.025668755305366667 -0.0012950887785300152 0 -0.026585227233136336 -0.0019304197557934858 0 -0.026466229004812578 -0.0014848946678695525 0 -0.026765940174641616 -0.0013639839933147534 0 -0.026585227233136336 -0.0019304197557934858 0 -0.026190857124695044 -0.0017365551655925183 0 -0.026466229004812578 -0.0014848946678695525 0 -0.026190857124695044 -0.0017365551655925183 0 -0.026153241705291014 -0.0013160014796903745 0 -0.026466229004812578 -0.0014848946678695525 0 -0.026153241705291014 -0.0013160014796903745 0 -0.026466229004812578 -0.0014848946678695525 0 -0.026592098444922333 -0.0010795816745775512 0 -0.026466229004812578 -0.0014848946678695525 0 -0.026765940174641616 -0.0013639839933147534 0 -0.026592098444922333 -0.0010795816745775512 0 -0.026955651601418343 -0.0010113041411948063 0 -0.026765940174641616 -0.0013639839933147534 0 -0.026592098444922333 -0.0010795816745775512 0 -0.026153241705291014 -0.0013160014796903745 0 -0.026592098444922333 -0.0010795816745775512 0 -0.026261375832627634 -0.00089829484920295861 0 -0.026261375832627634 -0.00089829484920295861 0 -0.026293103142844321 -0.00068127318394929854 0 -0.026541997344901033 -0.00075031643480351557 0 -0.026592098444922333 -0.0010795816745775512 0 -0.026261375832627634 -0.00089829484920295861 0 -0.026541997344901033 -0.00075031643480351557 0 -0.026845627639810101 -0.00071934651849409244 0 -0.026592098444922333 -0.0010795816745775512 0 -0.026541997344901033 -0.00075031643480351557 0 -0.026711592620714812 -0.00055685829685008523 0 -0.026845627639810101 -0.00071934651849409244 0 -0.026541997344901033 -0.00075031643480351557 0 -0.026845627639810101 -0.00071934651849409244 0 -0.026955651601418343 -0.0010113041411948063 0 -0.026592098444922333 -0.0010795816745775512 0 -0.026153241705291014 -0.0013160014796903745 0 -0.025668755305366667 -0.0012950887785300152 0 -0.025930507480611601 -0.0010099165058971007 0 -0.025668755305366667 -0.0012950887785300152 0 -0.025930507480611601 -0.0010099165058971007 0 -0.025513531207003941 -0.00086117222648049983 0 -0.026153241705291014 -0.0013160014796903745 0 -0.026261375832627634 -0.00089829484920295861 0 -0.025930507480611601 -0.0010099165058971007 0 -0.025923479436901008 -0.00060730640494606014 0 -0.026261375832627634 -0.00089829484920295861 0 -0.025930507480611601 -0.0010099165058971007 0 -0.025923479436901008 -0.00060730640494606014 0 -0.026261375832627634 -0.00089829484920295861 0 -0.026293103142844321 -0.00068127318394929854 0 -0.025923479436901008 -0.00060730640494606014 0 -0.025930507480611601 -0.0010099165058971007 0 -0.025513531207003941 -0.00086117222648049983 0 -0.025513531207003941 -0.00086117222648049983 0 -0.024846895607001609 -0.00078874244833034609 0 -0.025430423001863788 -0.00015930756182714665 0 -0.025513531207003941 -0.00086117222648049983 0 -0.025178232350421582 -0.0012565619162168595 0 -0.024846895607001609 -0.00078874244833034609 0 -0.025668755305366667 -0.0012950887785300152 0 -0.025513531207003941 -0.00086117222648049983 0 -0.025178232350421582 -0.0012565619162168595 0 -0.025178232350421582 -0.0012565619162168595 0 -0.024846895607001609 -0.00078874244833034609 0 -0.024367216195733787 -0.0017265484960606713 0 -0.024846895607001609 -0.00078874244833034609 0 -0.024367216195733787 -0.0017265484960606713 0 -0.023922435912198888 -0.00068608796205365315 0 -0.024367216195733787 -0.0017265484960606713 0 -0.025274013076127505 -0.0017466699765810174 0 -0.02488750656042622 -0.0021094991612015395 0 -0.025178232350421582 -0.0012565619162168595 0 -0.024367216195733787 -0.0017265484960606713 0 -0.025274013076127505 -0.0017466699765810174 0 -0.025668755305366667 -0.0012950887785300152 0 -0.025178232350421582 -0.0012565619162168595 0 -0.025274013076127505 -0.0017466699765810174 0 -0.025787880661138185 -0.0016049469563100649 0 -0.025668755305366667 -0.0012950887785300152 0 -0.025274013076127505 -0.0017466699765810174 0 -0.025634478721028631 -0.0019380063066687574 0 -0.025787880661138185 -0.0016049469563100649 0 -0.025274013076127505 -0.0017466699765810174 0 -0.025634478721028631 -0.0019380063066687574 0 -0.025274013076127505 -0.0017466699765810174 0 -0.025306790990873778 -0.0022566782155796009 0 -0.025662906824106796 -0.0022889536873409574 0 -0.025634478721028631 -0.0019380063066687574 0 -0.025306790990873778 -0.0022566782155796009 0 -0.025662906824106796 -0.0022889536873409574 0 -0.025443600641472042 -0.0024545194638267956 0 -0.025533652232717526 -0.0026653136423060195 0 -0.025662906824106796 -0.0022889536873409574 0 -0.025306790990873778 -0.0022566782155796009 0 -0.025443600641472042 -0.0024545194638267956 0 -0.025306790990873778 -0.0022566782155796009 0 -0.025443600641472042 -0.0024545194638267956 0 -0.025272963953681064 -0.0026071142410216113 0 -0.025306790990873778 -0.0022566782155796009 0 -0.025040637902110897 -0.0024874202598536071 0 -0.02488750656042622 -0.0021094991612015395 0 -0.025306790990873778 -0.0022566782155796009 0 -0.025040637902110897 -0.0024874202598536071 0 -0.025272963953681064 -0.0026071142410216113 0 -0.025274013076127505 -0.0017466699765810174 0 -0.025306790990873778 -0.0022566782155796009 0 -0.02488750656042622 -0.0021094991612015395 0 -0.024027910028325234 -0.0020135213687478008 0 -0.024007750380148667 -0.003020897787126965 0 -0.023730104513837166 -0.0026269917188043827 0 -0.024182086849867571 -0.0018346401559601112 0 -0.024366457305761004 -0.0028429363563000818 0 -0.024367216195733787 -0.0017265484960606713 0 -0.02488750656042622 -0.0021094991612015395 0 -0.024715111319478834 -0.0027138813583513486 0 -0.025040637902110897 -0.0024874202598536071 0 -0.02488750656042622 -0.0021094991612015395 0 -0.024715111319478834 -0.0027138813583513486 0 -0.024715111319478834 -0.0027138813583513486 0 -0.024920496015064301 -0.0030565698184612609 0 -0.025028854813063623 -0.0027448034547524567 0 -0.025016531986177235 -0.0037081871665972438 0 -0.024715111319478834 -0.0027138813583513486 0 -0.024920496015064301 -0.0030565698184612609 0 -0.024007750380148667 -0.003020897787126965 0 -0.023655596626794534 -0.0031926755506293536 0 -0.023730104513837166 -0.0026269917188043827 0 -0.02380477190942645 -0.0034738975207415181 0 -0.024007750380148667 -0.003020897787126965 0 -0.023655596626794534 -0.0031926755506293536 0 -0.025181524474746989 -0.0033389903963547884 0 -0.024920496015064301 -0.0030565698184612609 0 -0.025259321616792948 -0.0031423905352793717 0 -0.024920496015064301 -0.0030565698184612609 0 -0.025219666399245836 -0.0029287964114147573 0 -0.025259321616792948 -0.0031423905352793717 0 -0.024920496015064301 -0.0030565698184612609 0 -0.025219666399245836 -0.0029287964114147573 0 -0.025028854813063623 -0.0027448034547524567 0 -0.025500171927263799 -0.0034445359852584775 0 -0.025259321616792948 -0.0031423905352793717 0 -0.025471989351530076 -0.0029404116082131404 0 -0.025219666399245836 -0.0029287964114147573 0 -0.025259321616792948 -0.0031423905352793717 0 -0.025471989351530076 -0.0029404116082131404 0 -0.025219666399245836 -0.0029287964114147573 0 -0.025471989351530076 -0.0029404116082131404 0 -0.025374534364842629 -0.0027857176314769203 0 -0.025219666399245836 -0.0029287964114147573 0 -0.025374534364842629 -0.0027857176314769203 0 -0.025272963953681064 -0.0026071142410216113 0 -0.025471989351530076 -0.0029404116082131404 0 -0.025374534364842629 -0.0027857176314769203 0 -0.025533652232717526 -0.0026653136423060195 0 -0.025443600641472042 -0.0024545194638267956 0 -0.025533652232717526 -0.0026653136423060195 0 -0.025272963953681064 -0.0026071142410216113 0 -0.025374534364842629 -0.0027857176314769203 0 -0.025533652232717526 -0.0026653136423060195 0 -0.025272963953681064 -0.0026071142410216113 0 -0.025040637902110897 -0.0024874202598536071 0 -0.024715111319478834 -0.0027138813583513486 0 -0.025028854813063623 -0.0027448034547524567 0 -0.025219666399245836 -0.0029287964114147573 0 -0.025272963953681064 -0.0026071142410216113 0 -0.025028854813063623 -0.0027448034547524567 0 -0.025040637902110897 -0.0024874202598536071 0 -0.025272963953681064 -0.0026071142410216113 0 -0.025028854813063623 -0.0027448034547524567 0 -0.022311998274268982 -0.0036696335961771045 0 -0.022451422777884818 -0.0031048669279271639 0 -0.021680775049077915 -0.0032425572651288074 0 -0.022451422777884818 -0.0031048669279271639 0 -0.021938721362506235 -0.0026329252221976981 0 -0.021680775049077915 -0.0032425572651288074 0 -0.022684338675816335 -0.0035144829941833452 0 -0.022311998274268982 -0.0036696335961771045 0 -0.022451422777884818 -0.0031048669279271639 0 -0.022684338675816335 -0.0035144829941833452 0 -0.022451422777884818 -0.0031048669279271639 0 -0.023020228899486364 -0.0032108933321671309 0 -0.022451422777884818 -0.0031048669279271639 0 -0.023020228899486364 -0.0032108933321671309 0 -0.02251969887166981 -0.0024907468599209772 0 -0.023344262407377435 -0.0032243758994473211 0 -0.022844783193103502 -0.0024815341955466198 0 -0.023655596626794534 -0.0031926755506293536 0 -0.023730104513837166 -0.0026269917188043827 0 -0.023179944946428527 -0.0024887958411538148 0 -0.024027910028325234 -0.0020135213687478008 0 -0.023730104513837166 -0.0026269917188043827 0 -0.023179944946428527 -0.0024887958411538148 0 -0.02251969887166981 -0.0024907468599209772 0 -0.021938721362506235 -0.0026329252221976981 0 -0.022023439356637073 -0.0016111997268003829 0 -0.022451422777884818 -0.0031048669279271639 0 -0.02251969887166981 -0.0024907468599209772 0 -0.021938721362506235 -0.0026329252221976981 0 -0.022844783193103502 -0.0024815341955466198 0 -0.022219233564178133 -0.0015817040797287626 0 -0.023179944946428527 -0.0024887958411538148 0 -0.023330076243288003 -0.0016167872806066321 0 -0.022451812890843418 -0.0016117144242435433 0 -0.024027910028325234 -0.0020135213687478008 0 -0.023179944946428527 -0.0024887958411538148 0 -0.023330076243288003 -0.0016167872806066321 0 -0.024027910028325234 -0.0020135213687478008 0 -0.023330076243288003 -0.0016167872806066321 0 -0.023922435912198888 -0.00068608796205365315 0 -0.024182086849867571 -0.0018346401559601112 0 -0.023922340852989513 -0.00074111220475577173 0 -0.023330076243288003 -0.0016167872806066321 0 -0.023922435912198888 -0.00068608796205365315 0 -0.0229690359897219 -0.00086582872184575767 0 -0.023330076243288003 -0.0016167872806066321 0 -0.0229690359897219 -0.00086582872184575767 0 -0.022451812890843418 -0.0016117144242435433 0 -0.0229690359897219 -0.00086582872184575767 0 -0.022625218752113967 -9.0608244260181279e-05 0 -0.023500333534228601 0.00010652310342033337 0 -0.022625218752113967 -9.0608244260181279e-05 0 -0.022879289565263423 0.00047173669231901049 0 -0.023500333534228601 0.00010652310342033337 0 -0.022879289565263423 0.00047173669231901049 0 -0.023329252699465359 0.00099320916540014985 0 -0.023500333534228601 0.00010652310342033337 0 -0.022625218752113967 -9.0608244260181279e-05 0 -0.022879289565263423 0.00047173669231901049 0 -0.022299706505172833 0.00046485330487315866 0 -0.022879289565263423 0.00047173669231901049 0 -0.023329252699465359 0.00099320916540014985 0 -0.022627735435871776 0.00095743809430540313 0 -0.023329252699465359 0.00099320916540014985 0 -0.024127464642198178 0.00085865106462367934 0 -0.023500333534228601 0.00010652310342033337 0 -0.024127464642198178 0.00085865106462367934 0 -0.023500333534228601 0.00010652310342033337 0 -0.02452939778022957 4.831782816621153e-05 0 -0.023922435912198888 -0.00068608796205365315 0 -0.0229690359897219 -0.00086582872184575767 0 -0.023500333534228601 0.00010652310342033337 0 -0.023922435912198888 -0.00068608796205365315 0 -0.023500333534228601 0.00010652310342033337 0 -0.02452939778022957 4.831782816621153e-05 0 -0.024846895607001609 -0.00078874244833034609 0 -0.02452939778022957 4.831782816621153e-05 0 -0.025430423001863788 -0.00015930756182714665 0 -0.024846895607001609 -0.00078874244833034609 0 -0.023922435912198888 -0.00068608796205365315 0 -0.02452939778022957 4.831782816621153e-05 0 -0.025923479436901008 -0.00060730640494606014 0 -0.025513531207003941 -0.00086117222648049983 0 -0.025430423001863788 -0.00015930756182714665 0 -0.02452939778022957 4.831782816621153e-05 0 -0.025430423001863788 -0.00015930756182714665 0 -0.025124347343973195 0.00091300756626579475 0 -0.025872017832166104 0.00041487012971734745 0 -0.025430423001863788 -0.00015930756182714665 0 -0.025124347343973195 0.00091300756626579475 0 -0.024127464642198178 0.00085865106462367934 0 -0.02452939778022957 4.831782816621153e-05 0 -0.025124347343973195 0.00091300756626579475 0 -0.025124347343973195 0.00091300756626579475 0 -0.025349257686740165 0.0020868929288796047 0 -0.024321174100957101 0.0018098215779814436 0 -0.024127464642198178 0.00085865106462367934 0 -0.025124347343973195 0.00091300756626579475 0 -0.024321174100957101 0.0018098215779814436 0 -0.026219497530165829 0.0012086426886117507 0 -0.025124347343973195 0.00091300756626579475 0 -0.025349257686740165 0.0020868929288796047 0 -0.025349257686740165 0.0020868929288796047 0 -0.024321174100957101 0.0018098215779814436 0 -0.024500335249415771 0.0028924200769882818 0 -0.024321174100957101 0.0018098215779814436 0 -0.023410361775515615 0.0017826055730662067 0 -0.023971581506205628 0.0025299076934981557 0 -0.024321174100957101 0.0018098215779814436 0 -0.023971581506205628 0.0025299076934981557 0 -0.024500335249415771 0.0028924200769882818 0 -0.023471477395901611 0.0024578887970203469 0 -0.023410361775515615 0.0017826055730662067 0 -0.023971581506205628 0.0025299076934981557 0 -0.023009761882647119 0.0020859003995624195 0 -0.022728347680078344 0.0020783190982872372 0 -0.022954628706963999 0.0025770505190718294 0 -0.023471477395901611 0.0024578887970203469 0 -0.023009761882647119 0.0020859003995624195 0 -0.022954628706963999 0.0025770505190718294 0 -0.023009761882647119 0.0020859003995624195 0 -0.023410361775515615 0.0017826055730662067 0 -0.022673896895267574 0.0017381262711441037 0 -0.023471477395901611 0.0024578887970203469 0 -0.023009761882647119 0.0020859003995624195 0 -0.023410361775515615 0.0017826055730662067 0 -0.023329252699465359 0.00099320916540014985 0 -0.023410361775515615 0.0017826055730662067 0 -0.022892826234064551 0.0013535763116271212 0 -0.023329252699465359 0.00099320916540014985 0 -0.023410361775515615 0.0017826055730662067 0 -0.02379793014688043 0.0013675459040580701 0 -0.023410361775515615 0.0017826055730662067 0 -0.022892826234064551 0.0013535763116271212 0 -0.022673896895267574 0.0017381262711441037 0 -0.023329252699465359 0.00099320916540014985 0 -0.022892826234064551 0.0013535763116271212 0 -0.022627735435871776 0.00095743809430540313 0 -0.023329252699465359 0.00099320916540014985 0 -0.024127464642198178 0.00085865106462367934 0 -0.02379793014688043 0.0013675459040580701 0 -0.024321174100957101 0.0018098215779814436 0 -0.023410361775515615 0.0017826055730662067 0 -0.02379793014688043 0.0013675459040580701 0 -0.024127464642198178 0.00085865106462367934 0 -0.024321174100957101 0.0018098215779814436 0 -0.02379793014688043 0.0013675459040580701 0 -0.026503973942959405 0.0017398608620144958 0 -0.027307951434634683 0.0013362013178746005 0 -0.024111663324482245 0.0030491768807005674 0 -0.024166641046596424 0.0029557713465277993 0 -0.024500335249415771 0.0028924200769882818 0 -0.028894620176127046 0.00038551851406760191 0 -0.030134570256984322 -0.00019333674616684018 0 -0.029907378128369383 0.00053354499918583883 0 -0.024111663324482245 0.0030491768807005674 0 -0.024063167859088401 0.0031296999207760315 0 -0.024166641046596424 0.0029557713465277993 0 -0.024111663324482245 0.0030491768807005674 0 -0.024324490553548041 0.0030465167850966192 0 -0.024063167859088401 0.0031296999207760315 0 -0.024111663324482245 0.0030491768807005674 0 -0.024324490553548041 0.0030465167850966192 0 -0.024593340276882533 0.0029480352247203997 0 -0.024324490553548041 0.0030465167850966192 0 -0.024595226080965628 0.0031322426343960378 0 -0.024593340276882533 0.0029480352247203997 0 -0.024324490553548041 0.0030465167850966192 0 -0.024595226080965628 0.0031322426343960378 0 -0.024063167859088401 0.0031296999207760315 0 -0.024595226080965628 0.0031322426343960378 0 -0.024063167859088401 0.0031296999207760315 0 -0.024637765666721202 0.0037665044535271576 0 -0.023972851798044384 0.0031120460192597937 0 -0.023837025522178347 0.0031610104964329578 0 -0.023471477395901611 0.0024578887970203469 0 -0.024063167859088401 0.0031296999207760315 0 -0.023971581506205628 0.0025299076934981557 0 -0.023471477395901611 0.0024578887970203469 0 -0.024063167859088401 0.0031296999207760315 0 -0.022954628706963999 0.0025770505190718294 0 -0.024063167859088401 0.0031296999207760315 0 -0.023971581506205628 0.0025299076934981557 0 -0.024166641046596424 0.0029557713465277993 0 -0.023971581506205628 0.0025299076934981557 0 -0.024166641046596424 0.0029557713465277993 0 -0.024500335249415771 0.0028924200769882818 0 -0.028121280925290915 0.00076349639010546834 0 -0.027307951434634683 0.0013362013178746005 0 -0.030983192311146206 -0.00064398286583755159 0 -0.030134570256984322 -0.00019333674616684018 0 -0.03112279485641465 0.00019337185408922075 0 -0.030983192311146206 -0.00064398286583755159 0 -0.03112279485641465 0.00019337185408922075 0 -0.031678426869332178 -5.5515447822685089e-05 0 -0.03112279485641465 0.00019337185408922075 0 -0.03062293848143165 0.00054811754211740585 0 -0.03126429085647537 0.00091499529806778241 0 -0.030134570256984322 -0.00019333674616684018 0 -0.03112279485641465 0.00019337185408922075 0 -0.03062293848143165 0.00054811754211740585 0 -0.030134570256984322 -0.00019333674616684018 0 -0.03062293848143165 0.00054811754211740585 0 -0.029907378128369383 0.00053354499918583883 0 -0.030376626612295902 0.0011242333690159939 0 -0.029338129157527492 0.0016473902612767915 0 -0.029445456032162684 0.00092287100853254904 0 -0.029907378128369383 0.00053354499918583883 0 -0.030376626612295902 0.0011242333690159939 0 -0.029445456032162684 0.00092287100853254904 0 -0.03062293848143165 0.00054811754211740585 0 -0.029907378128369383 0.00053354499918583883 0 -0.030376626612295902 0.0011242333690159939 0 -0.03062293848143165 0.00054811754211740585 0 -0.030376626612295902 0.0011242333690159939 0 -0.03126429085647537 0.00091499529806778241 0 -0.030376626612295902 0.0011242333690159939 0 -0.03126429085647537 0.00091499529806778241 0 -0.031252704292910473 0.0016380424121077179 0 -0.031252704292910473 0.0016380424121077179 0 -0.030299424987697061 0.0019860763426779288 0 -0.031125539798005211 0.002644317947420846 0 -0.031252704292910473 0.0016380424121077179 0 -0.031125539798005211 0.002644317947420846 0 -0.032015974903580886 0.0018592397423986501 0 -0.030376626612295902 0.0011242333690159939 0 -0.030299424987697061 0.0019860763426779288 0 -0.029338129157527492 0.0016473902612767915 0 -0.030376626612295902 0.0011242333690159939 0 -0.031252704292910473 0.0016380424121077179 0 -0.030299424987697061 0.0019860763426779288 0 -0.029338129157527492 0.0016473902612767915 0 -0.028282316985784484 0.0020939673748280314 0 -0.029286895205858331 0.0030470645524827578 0 -0.030299424987697061 0.0019860763426779288 0 -0.029338129157527492 0.0016473902612767915 0 -0.029286895205858331 0.0030470645524827578 0 -0.029338129157527492 0.0016473902612767915 0 -0.028622470148633537 0.0013126713899497486 0 -0.028282316985784484 0.0020939673748280314 0 -0.028894620176127046 0.00038551851406760191 0 -0.028622470148633537 0.0013126713899497486 0 -0.029445456032162684 0.00092287100853254904 0 -0.028894620176127046 0.00038551851406760191 0 -0.029907378128369383 0.00053354499918583883 0 -0.029445456032162684 0.00092287100853254904 0 -0.029338129157527492 0.0016473902612767915 0 -0.028622470148633537 0.0013126713899497486 0 -0.029445456032162684 0.00092287100853254904 0 -0.028894620176127046 0.00038551851406760191 0 -0.028622470148633537 0.0013126713899497486 0 -0.027283285487315203 0.0013659782682337196 0 -0.026503973942959405 0.0017398608620144958 0 -0.026030411621538348 0.0020881279646855918 0 -0.024111663324482245 0.0030491768807005674 0 -0.024593340276882533 0.0029480352247203997 0 -0.024799870867861208 0.002684586778641172 0 -0.028622470148633537 0.0013126713899497486 0 -0.028282316985784484 0.0020939673748280314 0 -0.027283285487315203 0.0013659782682337196 0 -0.028282316985784484 0.0020939673748280314 0 -0.027283285487315203 0.0013659782682337196 0 -0.026751502640716174 0.0032273064860968447 0 -0.035022265886592532 0.00072948825237359298 0 -0.035070885487681655 0.00048073013766928863 0 -0.035054110801929272 0.00040507721653805078 0 -0.032111524161137987 0.0018906333943771337 0 -0.030940619910709032 0.0017957890126192929 0 -0.028282316985784484 0.0020939673748280314 0 -0.029286895205858331 0.0030470645524827578 0 -0.026751502640716174 0.0032273064860968447 0 -0.035022265886592532 0.00072948825237359298 0 -0.035070885487681655 0.00048073013766928863 0 -0.034979705903548222 0.00040273655023508227 0 -0.035070885487681655 0.00048073013766928863 0 -0.035066184091257876 0.00044169524859383197 0 -0.035054110801929272 0.00040507721653805078 0 -0.035070885487681655 0.00048073013766928863 0 -0.035060024378355682 0.00035592233423524923 0 -0.035066184091257876 0.00044169524859383197 0 -0.035060024378355682 0.00035592233423524923 0 -0.035045616090382196 0.00024459295608948804 0 -0.035102492236900047 0.00038556363455266482 0 -0.035060024378355682 0.00035592233423524923 0 -0.035066184091257876 0.00044169524859383197 0 -0.035102492236900047 0.00038556363455266482 0 -0.035060024378355682 0.00035592233423524923 0 -0.034999878913249134 0.00019041035342723384 0 -0.035045616090382196 0.00024459295608948804 0 -0.035060024378355682 0.00035592233423524923 0 -0.034979705903548222 0.00040273655023508227 0 -0.034999878913249134 0.00019041035342723384 0 -0.034979705903548222 0.00040273655023508227 0 -0.034999878913249134 0.00019041035342723384 0 -0.03492544517559773 0.00014170446333093271 0 -0.035070885487681655 0.00048073013766928863 0 -0.035060024378355682 0.00035592233423524923 0 -0.034979705903548222 0.00040273655023508227 0 -0.034999878913249134 0.00019041035342723384 0 -0.03500026700746417 2.4854485745832007e-07 0 -0.03492544517559773 0.00014170446333093271 0 -0.034999878913249134 0.00019041035342723384 0 -0.035013115722979035 3.2761389539610055e-05 0 -0.035045616090382196 0.00024459295608948804 0 -0.034999878913249134 0.00019041035342723384 0 -0.03500026700746417 2.4854485745832007e-07 0 -0.035013115722979035 3.2761389539610055e-05 0 -0.03500026700746417 2.4854485745832007e-07 0 -0.035013115722979035 3.2761389539610055e-05 0 -0.034999992172310458 -4.5986312856287384e-08 0 -0.035013115722979035 3.2761389539610055e-05 0 -0.034999992172310458 -4.5986312856287384e-08 0 -0.035007374134391443 -3.8787091872658034e-06 0 -0.034986117178933081 4.8237771031260159e-05 0 -0.03506007824725195 0.00018778531857842413 0 -0.035013115722979035 3.2761389539610055e-05 0 -0.035045616090382196 0.00024459295608948804 0 -0.035102492236900047 0.00038556363455266482 0 -0.034999877483193054 9.6496055479696986e-08 0 -0.034706805718711126 0.00025383825093889856 0 -0.035001600710980976 6.9533982039091911e-07 0 -0.03492246093102918 0.00027453584335340644 0 -0.034996977200897741 -9.9852993035997036e-07 0 -0.034999104847879298 -5.0038005517043032e-08 0 -0.03492544517559773 0.00014170446333093271 0 -0.034535264650522944 0.00018301321739790601 0 -0.03500026700746417 2.4854485745832007e-07 0 -0.034999104847879298 -5.0038005517043032e-08 0 -0.03492544517559773 0.00014170446333093271 0 -0.034979705903548222 0.00040273655023508227 0 -0.03492544517559773 0.00014170446333093271 0 -0.034723784853201552 0.00054447098158591012 0 -0.034535264650522944 0.00018301321739790601 0 -0.034723784853201552 0.00054447098158591012 0 -0.034058383522861377 0.00059019238972010798 0 -0.03492544517559773 0.00014170446333093271 0 -0.034535264650522944 0.00018301321739790601 0 -0.034723784853201552 0.00054447098158591012 0 -0.034723784853201552 0.00054447098158591012 0 -0.034566327760537599 0.0012072749907868347 0 -0.034058383522861377 0.00059019238972010798 0 -0.035022265886592532 0.00072948825237359298 0 -0.034979705903548222 0.00040273655023508227 0 -0.034723784853201552 0.00054447098158591012 0 -0.032111524161137987 0.0018906333943771337 0 -0.032795835535997887 0.0019127143733110585 0 -0.035022265886592532 0.00072948825237359298 0 -0.034723784853201552 0.00054447098158591012 0 -0.034566327760537599 0.0012072749907868347 0 -0.030299424987697061 0.0019860763426779288 0 -0.029286895205858331 0.0030470645524827578 0 -0.031125539798005211 0.002644317947420846 0 -0.031125539798005211 0.002644317947420846 0 -0.032986488231592608 0.0018149021701310735 0 -0.032015974903580886 0.0018592397423986501 0 -0.034566327760537599 0.0012072749907868347 0 -0.033398441173870586 0.0015787588028551892 0 -0.032986488231592608 0.0018149021701310735 0 -0.034566327760537599 0.0012072749907868347 0 -0.033398441173870586 0.0015787588028551892 0 -0.034058383522861377 0.00059019238972010798 0 -0.032795835535997887 0.0019127143733110585 0 -0.032927470567019189 0.001837727363782627 0 -0.032986488231592608 0.0018149021701310735 0 -0.032559640586356915 0.0016870782442290873 0 -0.032015974903580886 0.0018592397423986501 0 -0.032834284984249326 0.0016956856046403447 0 -0.033056008083717225 0.0015737393055229945 0 -0.032883804743617261 0.0015698626357485636 0 -0.032834284984249326 0.0016956856046403447 0 -0.032986488231592608 0.0018149021701310735 0 -0.033056008083717225 0.0015737393055229945 0 -0.032834284984249326 0.0016956856046403447 0 -0.032986488231592608 0.0018149021701310735 0 -0.032559640586356915 0.0016870782442290873 0 -0.032986488231592608 0.0018149021701310735 0 -0.033056008083717225 0.0015737393055229945 0 -0.033382724134154058 0.001351197070469843 0 -0.033398441173870586 0.0015787588028551892 0 -0.032986488231592608 0.0018149021701310735 0 -0.033382724134154058 0.001351197070469843 0 -0.033056008083717225 0.0015737393055229945 0 -0.033062422328125535 0.0013360668406900648 0 -0.032883804743617261 0.0015698626357485636 0 -0.033056008083717225 0.0015737393055229945 0 -0.033062422328125535 0.0013360668406900648 0 -0.033382724134154058 0.001351197070469843 0 -0.033484227509669409 0.00098923347792123336 0 -0.034361141818367219 0.00097980896275473594 0 -0.034109251621329301 0.0004955633706617298 0 -0.033382724134154058 0.001351197070469843 0 -0.033484227509669409 0.00098923347792123336 0 -0.034361141818367219 0.00097980896275473594 0 -0.033062422328125535 0.0013360668406900648 0 -0.033484227509669409 0.00098923347792123336 0 -0.032957659233925518 0.0010643606891906196 0 -0.033062422328125535 0.0013360668406900648 0 -0.033382724134154058 0.001351197070469843 0 -0.033484227509669409 0.00098923347792123336 0 -0.033484227509669409 0.00098923347792123336 0 -0.033254925863885891 0.00071481346887169474 0 -0.032957659233925518 0.0010643606891906196 0 -0.033547214781975053 0.0015049144333425075 0 -0.034179886237520871 0.00078876837876901563 0 -0.033398441173870586 0.0015787588028551892 0 -0.033382724134154058 0.001351197070469843 0 -0.034361141818367219 0.00097980896275473594 0 -0.03492246093102918 0.00027453584335340644 0 -0.034361141818367219 0.00097980896275473594 0 -0.034109251621329301 0.0004955633706617298 0 -0.034706805718711126 0.00025383825093889856 0 -0.034179886237520871 0.00078876837876901563 0 -0.034109251621329301 0.0004955633706617298 0 -0.033158968256744248 0.0002226425566149273 0 -0.033254925863885891 0.00071481346887169474 0 -0.033484227509669409 0.00098923347792123336 0 -0.034109251621329301 0.0004955633706617298 0 -0.033254925863885891 0.00071481346887169474 0 -0.034109251621329301 0.0004955633706617298 0 -0.034996977200897741 -9.9852993035997036e-07 0 -0.033158968256744248 0.0002226425566149273 0 -0.034999615975360256 4.1267346671997135e-08 0 -0.034069561342099014 0.00013153037261813837 0 -0.034999977947918232 3.9606591283945353e-08 0 -0.034999934278624883 -9.5387554918917858e-08 0 -0.034966198510329477 -5.0340532121006677e-05 0 -0.03492246093102918 0.00027453584335340644 0 -0.034109251621329301 0.0004955633706617298 0 -0.034996977200897741 -9.9852993035997036e-07 0 -0.034912685597777729 -5.8205321979326999e-05 0 -0.034999934278624883 -9.5387554918917858e-08 0 -0.034999695274043695 -3.77359605130449e-08 0 -0.034912685597777729 -5.8205321979326999e-05 0 -0.034999934278624883 -9.5387554918917858e-08 0 -0.034966198510329477 -5.0340532121006677e-05 0 -0.033158968256744248 0.0002226425566149273 0 -0.031945489245360732 0.00084339711236610488 0 -0.032732770493645584 0.00079347392265512998 0 -0.033158968256744248 0.0002226425566149273 0 -0.033254925863885891 0.00071481346887169474 0 -0.032732770493645584 0.00079347392265512998 0 -0.034966198510329477 -5.0340532121006677e-05 0 -0.034840691068578941 -9.0879028781096167e-05 0 -0.034890309854789095 2.3673000636082978e-05 0 -0.034069561342099014 0.00013153037261813837 0 -0.033323693064835 0.00040929858530711099 0 -0.034912685597777729 -5.8205321979326999e-05 0 -0.034966198510329477 -5.0340532121006677e-05 0 -0.034840691068578941 -9.0879028781096167e-05 0 -0.034912685597777729 -5.8205321979326999e-05 0 -0.034840691068578941 -9.0879028781096167e-05 0 -0.034736240661362348 -5.4290533617876106e-05 0 -0.034840691068578941 -9.0879028781096167e-05 0 -0.0342790834396327 -0.00016139216737927765 0 -0.034736240661362348 -5.4290533617876106e-05 0 -0.034840691068578941 -9.0879028781096167e-05 0 -0.034890309854789095 2.3673000636082978e-05 0 -0.0342790834396327 -0.00016139216737927765 0 -0.031945489245360732 0.00084339711236610488 0 -0.03234772325367638 0.0010007208982296886 0 -0.032108680347259271 0.0010232623312114056 0 -0.031945489245360732 0.00084339711236610488 0 -0.03234772325367638 0.0010007208982296886 0 -0.032732770493645584 0.00079347392265512998 0 -0.031945489245360732 0.00084339711236610488 0 -0.031815755157863772 0.001101616691575982 0 -0.032108680347259271 0.0010232623312114056 0 -0.03234772325367638 0.0010007208982296886 0 -0.032282269960834102 0.0011805434672123528 0 -0.032108680347259271 0.0010232623312114056 0 -0.032282269960834102 0.0011805434672123528 0 -0.032512977467985461 0.001412132502251056 0 -0.031692434816401223 0.0012968685816246636 0 -0.03234772325367638 0.0010007208982296886 0 -0.032282269960834102 0.0011805434672123528 0 -0.032623267459627833 0.0011334643794292372 0 -0.032282269960834102 0.0011805434672123528 0 -0.032623267459627833 0.0011334643794292372 0 -0.032512977467985461 0.001412132502251056 0 -0.032282269960834102 0.0011805434672123528 0 -0.031815755157863772 0.001101616691575982 0 -0.031692434816401223 0.0012968685816246636 0 -0.032282269960834102 0.0011805434672123528 0 -0.031815755157863772 0.001101616691575982 0 -0.032108680347259271 0.0010232623312114056 0 -0.033254925863885891 0.00071481346887169474 0 -0.032957659233925518 0.0010643606891906196 0 -0.032732770493645584 0.00079347392265512998 0 -0.032957659233925518 0.0010643606891906196 0 -0.032732770493645584 0.00079347392265512998 0 -0.032623267459627833 0.0011334643794292372 0 -0.03234772325367638 0.0010007208982296886 0 -0.032732770493645584 0.00079347392265512998 0 -0.032623267459627833 0.0011334643794292372 0 -0.032957659233925518 0.0010643606891906196 0 -0.032623267459627833 0.0011334643794292372 0 -0.032749797375999042 0.0013694375641918896 0 -0.032623267459627833 0.0011334643794292372 0 -0.032749797375999042 0.0013694375641918896 0 -0.032512977467985461 0.001412132502251056 0 -0.033062422328125535 0.0013360668406900648 0 -0.032957659233925518 0.0010643606891906196 0 -0.032749797375999042 0.0013694375641918896 0 -0.033062422328125535 0.0013360668406900648 0 -0.032883804743617261 0.0015698626357485636 0 -0.032749797375999042 0.0013694375641918896 0 -0.032883804743617261 0.0015698626357485636 0 -0.032749797375999042 0.0013694375641918896 0 -0.032701717365895257 0.0015425461032669374 0 -0.032701717365895257 0.0015425461032669374 0 -0.032512977467985461 0.001412132502251056 0 -0.03252634549981117 0.0015781134272152687 0 -0.032749797375999042 0.0013694375641918896 0 -0.032701717365895257 0.0015425461032669374 0 -0.032512977467985461 0.001412132502251056 0 -0.032701717365895257 0.0015425461032669374 0 -0.03252634549981117 0.0015781134272152687 0 -0.0327454717962175 0.0016261876206324711 0 -0.032883804743617261 0.0015698626357485636 0 -0.032701717365895257 0.0015425461032669374 0 -0.0327454717962175 0.0016261876206324711 0 -0.032834284984249326 0.0016956856046403447 0 -0.032883804743617261 0.0015698626357485636 0 -0.0327454717962175 0.0016261876206324711 0 -0.031702089169643975 0.0016553748358729137 0 -0.031679688179609505 0.0012362744935604426 0 -0.03252634549981117 0.0015781134272152687 0 -0.032652490992501899 0.0016313726625092979 0 -0.031692434816401223 0.0012968685816246636 0 -0.032512977467985461 0.001412132502251056 0 -0.03252634549981117 0.0015781134272152687 0 -0.031692434816401223 0.0012968685816246636 0 -0.03252634549981117 0.0015781134272152687 0 -0.032652490992501899 0.0016313726625092979 0 -0.032718656402750936 0.0014919668035441318 0 -0.031702089169643975 0.0016553748358729137 0 -0.03160435730456089 0.0015825912523255478 0 -0.032718656402750936 0.0014919668035441318 0 -0.033076739767119161 0.0010536983720914673 0 -0.032717554134733311 0.0010261278441945688 0 -0.032652490992501899 0.0016313726625092979 0 -0.032718656402750936 0.0014919668035441318 0 -0.033076739767119161 0.0010536983720914673 0 -0.032718656402750936 0.0014919668035441318 0 -0.032717554134733311 0.0010261278441945688 0 -0.032621852525553198 0.0013480477502553639 0 -0.032717554134733311 0.0010261278441945688 0 -0.032621852525553198 0.0013480477502553639 0 -0.03243286394633807 0.00092468525575860783 0 -0.032621852525553198 0.0013480477502553639 0 -0.0327454717962175 0.0016261876206324711 0 -0.032611966701607285 0.0015559008427568812 0 -0.03252634549981117 0.0015781134272152687 0 -0.032718656402750936 0.0014919668035441318 0 -0.0327454717962175 0.0016261876206324711 0 -0.032718656402750936 0.0014919668035441318 0 -0.032621852525553198 0.0013480477502553639 0 -0.0327454717962175 0.0016261876206324711 0 -0.032834284984249326 0.0016956856046403447 0 -0.0327454717962175 0.0016261876206324711 0 -0.032611966701607285 0.0015559008427568812 0 -0.032834284984249326 0.0016956856046403447 0 -0.032611966701607285 0.0015559008427568812 0 -0.032559640586356915 0.0016870782442290873 0 -0.032611966701607285 0.0015559008427568812 0 -0.03207598783123039 0.0013903084045695832 0 -0.032357774691852366 0.0012018327003721814 0 -0.032611966701607285 0.0015559008427568812 0 -0.032559640586356915 0.0016870782442290873 0 -0.03207598783123039 0.0013903084045695832 0 -0.032621852525553198 0.0013480477502553639 0 -0.032611966701607285 0.0015559008427568812 0 -0.032357774691852366 0.0012018327003721814 0 -0.031252704292910473 0.0016380424121077179 0 -0.032015974903580886 0.0018592397423986501 0 -0.03207598783123039 0.0013903084045695832 0 -0.032559640586356915 0.0016870782442290873 0 -0.032015974903580886 0.0018592397423986501 0 -0.03207598783123039 0.0013903084045695832 0 -0.03126429085647537 0.00091499529806778241 0 -0.031252704292910473 0.0016380424121077179 0 -0.03207598783123039 0.0013903084045695832 0 -0.03207598783123039 0.0013903084045695832 0 -0.032357774691852366 0.0012018327003721814 0 -0.031919126263398691 0.00072650988648368449 0 -0.03126429085647537 0.00091499529806778241 0 -0.03207598783123039 0.0013903084045695832 0 -0.031919126263398691 0.00072650988648368449 0 -0.032357774691852366 0.0012018327003721814 0 -0.03243286394633807 0.00092468525575860783 0 -0.031919126263398691 0.00072650988648368449 0 -0.032621852525553198 0.0013480477502553639 0 -0.032357774691852366 0.0012018327003721814 0 -0.03243286394633807 0.00092468525575860783 0 -0.032243192744233949 0.00037117665738162621 0 -0.031919126263398691 0.00072650988648368449 0 -0.031678426869332178 -5.5515447822685089e-05 0 -0.03243286394633807 0.00092468525575860783 0 -0.032243192744233949 0.00037117665738162621 0 -0.031919126263398691 0.00072650988648368449 0 -0.03243286394633807 0.00092468525575860783 0 -0.032243192744233949 0.00037117665738162621 0 -0.032602533786471086 0.00065856087520045679 0 -0.03112279485641465 0.00019337185408922075 0 -0.03126429085647537 0.00091499529806778241 0 -0.031919126263398691 0.00072650988648368449 0 -0.03112279485641465 0.00019337185408922075 0 -0.031919126263398691 0.00072650988648368449 0 -0.031678426869332178 -5.5515447822685089e-05 0 -0.031708294580065854 -0.00058308208733264802 0 -0.031678426869332178 -5.5515447822685089e-05 0 -0.032168601994322206 -0.0002295443819181979 0 -0.032243192744233949 0.00037117665738162621 0 -0.032168601994322206 -0.0002295443819181979 0 -0.032631193182399876 0.00016514720819069969 0 -0.032243192744233949 0.00037117665738162621 0 -0.031678426869332178 -5.5515447822685089e-05 0 -0.032168601994322206 -0.0002295443819181979 0 -0.032639024436662993 -0.00038969818214913021 0 -0.032168601994322206 -0.0002295443819181979 0 -0.032631193182399876 0.00016514720819069969 0 -0.032631193182399876 0.00016514720819069969 0 -0.0331416380150273 0.00019169312570195088 0 -0.032836294760588101 0.00063195624576428287 0 -0.032639024436662993 -0.00038969818214913021 0 -0.032631193182399876 0.00016514720819069969 0 -0.0331416380150273 0.00019169312570195088 0 -0.030042782009667285 0.0036750385522708214 0 -0.029900892258661795 0.0025259829703468237 0 -0.029340727087142065 0.0027539210253216101 0 -0.029900892258661795 0.0025259829703468237 0 -0.02978809367295852 0.0023583613347385036 0 -0.029340727087142065 0.0027539210253216101 0 -0.030145761134486398 0.0021289557970288918 0 -0.029900892258661795 0.0025259829703468237 0 -0.02978809367295852 0.0023583613347385036 0 -0.03160435730456089 0.0015825912523255478 0 -0.031611987437804134 0.0012036891884373091 0 -0.033076739767119161 0.0010536983720914673 0 -0.0331416380150273 0.00019169312570195088 0 -0.032836294760588101 0.00063195624576428287 0 -0.033076739767119161 0.0010536983720914673 0 -0.032717554134733311 0.0010261278441945688 0 -0.032836294760588101 0.00063195624576428287 0 -0.032717554134733311 0.0010261278441945688 0 -0.032602533786471086 0.00065856087520045679 0 -0.032836294760588101 0.00063195624576428287 0 -0.032717554134733311 0.0010261278441945688 0 -0.03243286394633807 0.00092468525575860783 0 -0.032602533786471086 0.00065856087520045679 0 -0.032243192744233949 0.00037117665738162621 0 -0.032631193182399876 0.00016514720819069969 0 -0.032602533786471086 0.00065856087520045679 0 -0.032631193182399876 0.00016514720819069969 0 -0.032602533786471086 0.00065856087520045679 0 -0.032836294760588101 0.00063195624576428287 0 -0.029761370512945844 0.0022761620149156455 0 -0.029815629048314453 0.00224054309232753 0 -0.029678713328982826 0.0023213722505779043 0 -0.029815629048314453 0.00224054309232753 0 -0.029678713328982826 0.0023213722505779043 0 -0.029660545520146572 0.0022844789380669895 0 -0.029761370512945844 0.0022761620149156455 0 -0.029815629048314453 0.00224054309232753 0 -0.029963407177900921 0.0022059526014213461 0 -0.029761370512945844 0.0022761620149156455 0 -0.029644668959481063 0.0022537980348923269 0 -0.029963407177900921 0.0022059526014213461 0 -0.030145761134486398 0.0021289557970288918 0 -0.029644668959481063 0.0022537980348923269 0 -0.029963407177900921 0.0022059526014213461 0 -0.030145761134486398 0.0021289557970288918 0 -0.02978809367295852 0.0023583613347385036 0 -0.029644668959481063 0.0022537980348923269 0 -0.027901900780183741 0.0031061960040599146 0 -0.029644668959481063 0.0022537980348923269 0 -0.029340727087142065 0.0027539210253216101 0 -0.028821942202446788 0.0028452695793536372 0 -0.029478447035057455 0.002317880573721834 0 -0.029729791075862697 0.0024418988204772249 0 -0.029761370512945844 0.0022761620149156455 0 -0.029644668959481063 0.0022537980348923269 0 -0.02978809367295852 0.0023583613347385036 0 -0.029644668959481063 0.0022537980348923269 0 -0.029340727087142065 0.0027539210253216101 0 -0.029729791075862697 0.0024418988204772249 0 -0.029761370512945844 0.0022761620149156455 0 -0.029678713328982826 0.0023213722505779043 0 -0.029678713328982826 0.0023213722505779043 0 -0.029595591876774043 0.0023463950547748407 0 -0.029660545520146572 0.0022844789380669895 0 -0.029678713328982826 0.0023213722505779043 0 -0.029619326464772187 0.0023985679032490748 0 -0.029595591876774043 0.0023463950547748407 0 -0.029619326464772187 0.0023985679032490748 0 -0.029491918417220667 0.0024620689273230118 0 -0.029595591876774043 0.0023463950547748407 0 -0.029729791075862697 0.0024418988204772249 0 -0.029678713328982826 0.0023213722505779043 0 -0.029619326464772187 0.0023985679032490748 0 -0.029729791075862697 0.0024418988204772249 0 -0.029619326464772187 0.0023985679032490748 0 -0.029491918417220667 0.0024620689273230118 0 -0.029177878708984861 0.002637431947350112 0 -0.029394385917389035 0.0024996715929466824 0 -0.029517650545420247 0.0023079467072575541 0 -0.029161416344136517 0.0026369012500525799 0 -0.029517650545420247 0.0023079467072575541 0 -0.029427176174600393 0.0023418276332726955 0 -0.029179901432090517 0.0026365057837048561 0 -0.029459641306718881 0.0023192093630758949 0 -0.029394385917389035 0.0024996715929466824 0 -0.029491918417220667 0.0024620689273230118 0 -0.029517650545420247 0.0023079467072575541 0 -0.029491918417220667 0.0024620689273230118 0 -0.029517650545420247 0.0023079467072575541 0 -0.029595591876774043 0.0023463950547748407 0 -0.028753951510881004 0.0021521911734938607 0 -0.028901564697321174 0.001696125485962923 0 -0.028507500057907614 0.0017682697663053092 0 -0.028753951510881004 0.0021521911734938607 0 -0.029133913126429208 0.0017388502887558728 0 -0.028901564697321174 0.001696125485962923 0 -0.029124873760473725 0.0010761916307357032 0 -0.028853090092645611 0.0017912128291867953 0 -0.029216482683853573 0.0010902510222684687 0 -0.028740379874671408 0.0010433468073583257 0 -0.028767859626144532 0.0015120830006700669 0 -0.029133913126429208 0.0017388502887558728 0 -0.028901564697321174 0.001696125485962923 0 -0.029216482683853573 0.0010902510222684687 0 -0.028901564697321174 0.001696125485962923 0 -0.029216482683853573 0.0010902510222684687 0 -0.028507500057907614 0.0017682697663053092 0 -0.029133913126429208 0.0017388502887558728 0 -0.029216482683853573 0.0010902510222684687 0 -0.029380289484589789 0.00080793401067893295 0 -0.029427176174600393 0.0023418276332726955 0 -0.029659282894145381 0.0022399707875163212 0 -0.029745825328271556 0.0021633934410613992 0 -0.029332439406545317 0.0020176351884361398 0 -0.029184178949256252 0.0016103586149709675 0 -0.029427176174600393 0.0023418276332726955 0 -0.02957521499505212 0.0022878063983892078 0 -0.029659282894145381 0.0022399707875163212 0 -0.029517650545420247 0.0023079467072575541 0 -0.029660545520146572 0.0022844789380669895 0 -0.02957521499505212 0.0022878063983892078 0 -0.029517650545420247 0.0023079467072575541 0 -0.029595591876774043 0.0023463950547748407 0 -0.029660545520146572 0.0022844789380669895 0 -0.029660545520146572 0.0022844789380669895 0 -0.02957521499505212 0.0022878063983892078 0 -0.029659282894145381 0.0022399707875163212 0 -0.029517650545420247 0.0023079467072575541 0 -0.029427176174600393 0.0023418276332726955 0 -0.02957521499505212 0.0022878063983892078 0 -0.029815629048314453 0.00224054309232753 0 -0.029659282894145381 0.0022399707875163212 0 -0.029783049817891614 0.0021995704894199903 0 -0.029815629048314453 0.00224054309232753 0 -0.029660545520146572 0.0022844789380669895 0 -0.029659282894145381 0.0022399707875163212 0 -0.029783049817891614 0.0021995704894199903 0 -0.029745825328271556 0.0021633934410613992 0 -0.029921873282249954 0.0021510707333711951 0 -0.029659282894145381 0.0022399707875163212 0 -0.029783049817891614 0.0021995704894199903 0 -0.029745825328271556 0.0021633934410613992 0 -0.029216482683853573 0.0010902510222684687 0 -0.029380289484589789 0.00080793401067893295 0 -0.029085339568194396 0.00077683761474840556 0 -0.029380289484589789 0.00080793401067893295 0 -0.029085339568194396 0.00077683761474840556 0 -0.02922770258671277 0.00051516068210099393 0 -0.029745825328271556 0.0021633934410613992 0 -0.030001691616546849 0.0019652324270530703 0 -0.029921873282249954 0.0021510707333711951 0 -0.029085339568194396 0.00077683761474840556 0 -0.028902940570115655 0.0004264469936400128 0 -0.028740379874671408 0.0010433468073583257 0 -0.029216482683853573 0.0010902510222684687 0 -0.029085339568194396 0.00077683761474840556 0 -0.028740379874671408 0.0010433468073583257 0 -0.02922770258671277 0.00051516068210099393 0 -0.028902940570115655 0.0004264469936400128 0 -0.029534438812317498 7.021007561204105e-05 0 -0.029085339568194396 0.00077683761474840556 0 -0.02922770258671277 0.00051516068210099393 0 -0.028902940570115655 0.0004264469936400128 0 -0.029745825328271556 0.0021633934410613992 0 -0.030001691616546849 0.0019652324270530703 0 -0.029791605490576408 0.0015161552012210957 0 -0.029184178949256252 0.0016103586149709675 0 -0.03212080468449599 0.00036927986257610687 0 -0.029380289484589789 0.00080793401067893295 0 -0.02922770258671277 0.00051516068210099393 0 -0.029534438812317498 7.021007561204105e-05 0 -0.030259188451590233 0.0018056284840311336 0 -0.030001691616546849 0.0019652324270530703 0 -0.029791605490576408 0.0015161552012210957 0 -0.030259188451590233 0.0018056284840311336 0 -0.030191342585070214 0.0020132413908747343 0 -0.030626964490716835 0.0018410379402372433 0 -0.030259188451590233 0.0018056284840311336 0 -0.030191342585070214 0.0020132413908747343 0 -0.030001691616546849 0.0019652324270530703 0 -0.030191342585070214 0.0020132413908747343 0 -0.030001691616546849 0.0019652324270530703 0 -0.029921873282249954 0.0021510707333711951 0 -0.030191342585070214 0.0020132413908747343 0 -0.029921873282249954 0.0021510707333711951 0 -0.030036839917905369 0.0021549994635438594 0 -0.030191342585070214 0.0020132413908747343 0 -0.030036839917905369 0.0021549994635438594 0 -0.030323941236686379 0.0020676488181048487 0 -0.029815629048314453 0.00224054309232753 0 -0.030036839917905369 0.0021549994635438594 0 -0.029963407177900921 0.0022059526014213461 0 -0.029815629048314453 0.00224054309232753 0 -0.029921873282249954 0.0021510707333711951 0 -0.030036839917905369 0.0021549994635438594 0 -0.029815629048314453 0.00224054309232753 0 -0.029783049817891614 0.0021995704894199903 0 -0.029921873282249954 0.0021510707333711951 0 -0.030145761134486398 0.0021289557970288918 0 -0.029963407177900921 0.0022059526014213461 0 -0.030323941236686379 0.0020676488181048487 0 -0.030792932566434197 0.0019235194896862881 0 -0.030145761134486398 0.0021289557970288918 0 -0.030323941236686379 0.0020676488181048487 0 -0.030036839917905369 0.0021549994635438594 0 -0.029963407177900921 0.0022059526014213461 0 -0.030323941236686379 0.0020676488181048487 0 -0.030792932566434197 0.0019235194896862881 0 -0.030323941236686379 0.0020676488181048487 0 -0.030626964490716835 0.0018410379402372433 0 -0.030191342585070214 0.0020132413908747343 0 -0.030323941236686379 0.0020676488181048487 0 -0.030626964490716835 0.0018410379402372433 0 -0.030792932566434197 0.0019235194896862881 0 -0.030626964490716835 0.0018410379402372433 0 -0.030986894537678986 0.0016631590529352402 0 -0.030792932566434197 0.0019235194896862881 0 -0.030986894537678986 0.0016631590529352402 0 -0.031692434816401223 0.0012968685816246636 0 -0.030986894537678986 0.0016631590529352402 0 -0.030754876743172937 0.00150513497157309 0 -0.031692434816401223 0.0012968685816246636 0 -0.030626964490716835 0.0018410379402372433 0 -0.030986894537678986 0.0016631590529352402 0 -0.030754876743172937 0.00150513497157309 0 -0.032990201206596383 0.0001529773132068173 0 -0.03212080468449599 0.00036927986257610687 0 -0.030754876743172937 0.00150513497157309 0 -0.030935513242489016 0.00060698821622407557 0 -0.029791605490576408 0.0015161552012210957 0 -0.030259188451590233 0.0018056284840311336 0 -0.030754876743172937 0.00150513497157309 0 -0.029791605490576408 0.0015161552012210957 0 -0.030259188451590233 0.0018056284840311336 0 -0.030626964490716835 0.0018410379402372433 0 -0.030754876743172937 0.00150513497157309 0 -0.034907105039895726 -0.00027257708023979292 0 -0.035017255658840153 -0.00020960610086982141 0 -0.035035467149254644 -0.00049824125047294432 0 -0.034821833575984985 -0.00040018642369993789 0 -0.034907105039895726 -0.00027257708023979292 0 -0.035035467149254644 -0.00049824125047294432 0 -0.034821833575984985 -0.00040018642369993789 0 -0.034907105039895726 -0.00027257708023979292 0 -0.03472671926524018 -0.00020031517238002725 0 -0.034907105039895726 -0.00027257708023979292 0 -0.03472671926524018 -0.00020031517238002725 0 -0.034807579039840837 -0.00010644538364179151 0 -0.034907105039895726 -0.00027257708023979292 0 -0.034807579039840837 -0.00010644538364179151 0 -0.035017255658840153 -0.00020960610086982141 0 -0.032990201206596383 0.0001529773132068173 0 -0.034009372366530476 -0.00016367904623416991 0 -0.031945489245360732 0.00084339711236610488 0 -0.031815755157863772 0.001101616691575982 0 -0.030754876743172937 0.00150513497157309 0 -0.031815755157863772 0.001101616691575982 0 -0.030754876743172937 0.00150513497157309 0 -0.031692434816401223 0.0012968685816246636 0 -0.034890309854789095 2.3673000636082978e-05 0 -0.030754876743172937 0.00150513497157309 0 -0.0342790834396327 -0.00016139216737927765 0 -0.030754876743172937 0.00150513497157309 0 -0.030935513242489016 0.00060698821622407557 0 -0.0342790834396327 -0.00016139216737927765 0 -0.034821833575984985 -0.00040018642369993789 0 -0.03472671926524018 -0.00020031517238002725 0 -0.0342790834396327 -0.00016139216737927765 0 -0.033323693064835 0.00040929858530711099 0 -0.031017385777986923 0.0014832580895945272 0 -0.03472671926524018 -0.00020031517238002725 0 -0.0342790834396327 -0.00016139216737927765 0 -0.034653251717379083 -0.00011528747214493083 0 -0.0342790834396327 -0.00016139216737927765 0 -0.034736240661362348 -5.4290533617876106e-05 0 -0.034653251717379083 -0.00011528747214493083 0 -0.034736240661362348 -5.4290533617876106e-05 0 -0.034807579039840837 -0.00010644538364179151 0 -0.034905474369345185 -7.8593736281840562e-06 0 -0.034736240661362348 -5.4290533617876106e-05 0 -0.034653251717379083 -0.00011528747214493083 0 -0.034807579039840837 -0.00010644538364179151 0 -0.03472671926524018 -0.00020031517238002725 0 -0.034653251717379083 -0.00011528747214493083 0 -0.034807579039840837 -0.00010644538364179151 0 -0.034915088180908653 -6.821107699526913e-05 0 -0.034979311990055294 1.5794713037603839e-06 0 -0.035017255658840153 -0.00020960610086982141 0 -0.034952629918751844 6.9746652067974898e-05 0 -0.035197775886397366 -0.0002563273006336994 0 -0.034807579039840837 -0.00010644538364179151 0 -0.034915088180908653 -6.821107699526913e-05 0 -0.035017255658840153 -0.00020960610086982141 0 -0.034915088180908653 -6.821107699526913e-05 0 -0.034905474369345185 -7.8593736281840562e-06 0 -0.034979311990055294 1.5794713037603839e-06 0 -0.034807579039840837 -0.00010644538364179151 0 -0.034915088180908653 -6.821107699526913e-05 0 -0.034905474369345185 -7.8593736281840562e-06 0 -0.034905474369345185 -7.8593736281840562e-06 0 -0.034999991988634217 4.0782799406241687e-08 0 -0.034999695274043695 -3.77359605130449e-08 0 -0.034905474369345185 -7.8593736281840562e-06 0 -0.034979311990055294 1.5794713037603839e-06 0 -0.034999991988634217 4.0782799406241687e-08 0 -0.034912685597777729 -5.8205321979326999e-05 0 -0.034736240661362348 -5.4290533617876106e-05 0 -0.034999695274043695 -3.77359605130449e-08 0 -0.034736240661362348 -5.4290533617876106e-05 0 -0.034905474369345185 -7.8593736281840562e-06 0 -0.034999695274043695 -3.77359605130449e-08 0 -0.034999954814694027 -5.8715417213981954e-09 0 -0.034976215343259814 1.4939766498545066e-05 0 -0.034957047626369468 1.1264414924266303e-05 0 -0.034979311990055294 1.5794713037603839e-06 0 -0.034999991988634217 4.0782799406241687e-08 0 -0.034976215343259814 1.4939766498545066e-05 0 -0.034999991988634217 4.0782799406241687e-08 0 -0.034999954814694027 -5.8715417213981954e-09 0 -0.034976215343259814 1.4939766498545066e-05 0 -0.034979311990055294 1.5794713037603839e-06 0 -0.034976215343259814 1.4939766498545066e-05 0 -0.034994517888128726 4.5171657088552337e-05 0 -0.034976215343259814 1.4939766498545066e-05 0 -0.034913453921519386 6.0399237324309729e-05 0 -0.034957047626369468 1.1264414924266303e-05 0 -0.034976215343259814 1.4939766498545066e-05 0 -0.034952296151513219 7.921311417113205e-05 0 -0.034913453921519386 6.0399237324309729e-05 0 -0.034952296151513219 7.921311417113205e-05 0 -0.034994517888128726 4.5171657088552337e-05 0 -0.034979298372669686 0.00012379651471526191 0 -0.034976215343259814 1.4939766498545066e-05 0 -0.034952296151513219 7.921311417113205e-05 0 -0.034994517888128726 4.5171657088552337e-05 0 -0.035197775886397366 -0.0002563273006336994 0 -0.03212080468449599 0.00036927986257610687 0 -0.032191059880355463 0.00019309130878235876 0 -0.03212080468449599 0.00036927986257610687 0 -0.034888061953087836 0.00018831974966849782 0 -0.034952296151513219 7.921311417113205e-05 0 -0.034979298372669686 0.00012379651471526191 0 -0.034888061953087836 0.00018831974966849782 0 -0.034952296151513219 7.921311417113205e-05 0 -0.034913453921519386 6.0399237324309729e-05 0 -0.03499888957159094 -7.0484583913712411e-07 0 -0.032503660987437344 -0.00015645268711321402 0 -0.029179039843929278 8.0672427590810933e-07 0 -0.034888061953087836 0.00018831974966849782 0 -0.034799370173950198 0.00012369183117313443 0 -0.034913453921519386 6.0399237324309729e-05 0 -0.033841210639474519 -0.00015724999865876521 0 -0.034115299354275583 -0.00011967858142390497 0 -0.032112593015182399 -0.00019415935643488658 0 -0.033410266883768296 -0.00014897721321099631 0 -0.032503660987437344 -0.00015645268711321402 0 -0.034799370173950198 0.00012369183117313443 0 -0.034913453921519386 6.0399237324309729e-05 0 -0.034892309876619426 2.9448292341377248e-05 0 -0.034913453921519386 6.0399237324309729e-05 0 -0.034957047626369468 1.1264414924266303e-05 0 -0.034892309876619426 2.9448292341377248e-05 0 -0.033410266883768296 -0.00014897721321099631 0 -0.03499685199417496 1.9168726668727234e-07 0 -0.033979394330831837 -8.4648205413707982e-05 0 -0.034115299354275583 -0.00011967858142390497 0 -0.034999703309205078 -2.8068509314715868e-07 0 -0.034957047626369468 1.1264414924266303e-05 0 -0.034892309876619426 2.9448292341377248e-05 0 -0.034999876932463071 -6.4661716405155406e-10 0 -0.034999954814694027 -5.8715417213981954e-09 0 -0.034957047626369468 1.1264414924266303e-05 0 -0.034999876932463071 -6.4661716405155406e-10 0 -0.03499685199417496 1.9168726668727234e-07 0 -0.03499888957159094 -7.0484583913712411e-07 0 -0.033979394330831837 -8.4648205413707982e-05 0 -0.03499888957159094 -7.0484583913712411e-07 0 -0.033979394330831837 -8.4648205413707982e-05 0 -0.032503660987437344 -0.00015645268711321402 0 -0.033410266883768296 -0.00014897721321099631 0 -0.033979394330831837 -8.4648205413707982e-05 0 -0.032503660987437344 -0.00015645268711321402 0 -0.032112593015182399 -0.00019415935643488658 0 -0.032503660987437344 -0.00015645268711321402 0 -0.031094935138402741 -5.239622448782637e-05 0 -0.032503660987437344 -0.00015645268711321402 0 -0.029179039843929278 8.0672427590810933e-07 0 -0.031094935138402741 -5.239622448782637e-05 0 -0.029179039843929278 8.0672427590810933e-07 0 -0.030278885252999523 0.00040990564913570332 0 -0.027951344853686274 0.00018567121645206682 0 -0.030278885252999523 0.00040990564913570332 0 -0.031094935138402741 -5.239622448782637e-05 0 -0.031417877619052396 0.00025052161845011688 0 -0.029179039843929278 8.0672427590810933e-07 0 -0.030278885252999523 0.00040990564913570332 0 -0.031094935138402741 -5.239622448782637e-05 0 -0.033841210639474519 -0.00015724999865876521 0 -0.030212861420087882 0.00065260568157931079 0 -0.032112593015182399 -0.00019415935643488658 0 -0.031094935138402741 -5.239622448782637e-05 0 -0.031417877619052396 0.00025052161845011688 0 -0.034888061953087836 0.00018831974966849782 0 -0.034799370173950198 0.00012369183117313443 0 -0.034733080710760568 0.00027379882439420233 0 -0.032191059880355463 0.00019309130878235876 0 -0.030212861420087882 0.00065260568157931079 0 -0.028902940570115655 0.0004264469936400128 0 -0.028740379874671408 0.0010433468073583257 0 -0.028325877906890822 0.00077775800289412627 0 -0.028093306895018294 0.00076875888688859254 0 -0.030212861420087882 0.00065260568157931079 0 -0.030212861420087882 0.00065260568157931079 0 -0.026627333667398525 0.0008709333679524045 0 -0.026419573910439136 0.0010547715351407539 0 -0.025680226393522992 0.0014765426893849326 0 -0.02565700869508768 0.00019740067158267066 0 -0.028740379874671408 0.0010433468073583257 0 -0.028323145973879329 0.0013841564297230173 0 -0.028767859626144532 0.0015120830006700669 0 -0.028740379874671408 0.0010433468073583257 0 -0.028325877906890822 0.00077775800289412627 0 -0.028323145973879329 0.0013841564297230173 0 -0.028311035090367205 0.0019610202384570327 0 -0.028323145973879329 0.0013841564297230173 0 -0.028767859626144532 0.0015120830006700669 0 -0.026745029334936093 0.00097074134222311064 0 -0.028853090092645611 0.0017912128291867953 0 -0.026745029334936093 0.00097074134222311064 0 -0.026627333667398525 0.0008709333679524045 0 -0.025497308292542948 -0.00023962720822352085 0 -0.02565700869508768 0.00019740067158267066 0 -0.026071973971977514 -0.00014745293569236217 0 -0.026071973971977514 -0.00014745293569236217 0 -0.027951344853686274 0.00018567121645206682 0 -0.026472064188599514 0.00023127080021698409 0 -0.02565700869508768 0.00019740067158267066 0 -0.026071973971977514 -0.00014745293569236217 0 -0.026472064188599514 0.00023127080021698409 0 -0.024925079669164855 -3.9266751657548601e-07 0 -0.026071973971977514 -0.00014745293569236217 0 -0.027951344853686274 0.00018567121645206682 0 -0.024925079669164855 -3.9266751657548601e-07 0 -0.029179039843929278 8.0672427590810933e-07 0 -0.027951344853686274 0.00018567121645206682 0 -0.026419573910439136 0.0010547715351407539 0 -0.02565700869508768 0.00019740067158267066 0 -0.026472064188599514 0.00023127080021698409 0 -0.026419573910439136 0.0010547715351407539 0 -0.027951344853686274 0.00018567121645206682 0 -0.026472064188599514 0.00023127080021698409 0 -0.028093306895018294 0.00076875888688859254 0 -0.028235798506840069 0.00025107713095303861 0 -0.014742786209540846 0.00066542023456820265 0 -0.014763959158001095 0.00067624807250947635 0 -0.014764832821168611 0.00072424931442976299 0 -0.014742786209540846 0.00066542023456820265 0 -0.014748425841400943 0.00065519295270119677 0 -0.014763959158001095 0.00067624807250947635 0 -0.020876280208930738 -0.00042872193442880703 0 -0.021556702731585529 -0.00052937598393422393 0 -0.021341334578409529 -0.0014044582094486391 0 -0.020876280208930738 -0.00042872193442880703 0 -0.021556702731585529 -0.00052937598393422393 0 -0.021421439124546637 0.00017003980247337901 0 -0.018001373219944092 0.00014572302081800384 0 -0.014640020522134305 -0.00023846115649613206 0 -0.014766129924235561 0.00062326476975094582 0 -0.014763534236542548 0.0006383555977337804 0 -0.014744736934036095 0.00064383571706961857 0 -0.021556702731585529 -0.00052937598393422393 0 -0.021421439124546637 0.00017003980247337901 0 -0.02167352824456327 0.00010781085172447448 0 -0.014640020522134305 -0.00023846115649613206 0 -0.017626003557955655 -0.001562589558519173 0 -0.015436273019619097 -0.00057669510459878667 0 -0.015466435196995912 -0.00054558769442766808 0 -0.015486686217093553 -0.00059041228803582209 0 -0.014640020522134305 -0.00023846115649613206 0 -0.014508250019205427 -0.0012807317666944161 0 -0.014640020522134305 -0.00023846115649613206 0 -0.01089629078006555 -0.00019712682562786972 0 -0.0080776155692053511 -0.00095856861724116804 0 -0.0089010215957592842 -0.001132398537365869 0 -0.0087031257588382222 -0.0015231027658845092 0 -0.014742786209540846 0.00066542023456820265 0 -0.014744736934036095 0.00064383571706961857 0 -0.014748425841400943 0.00065519295270119677 0 -0.014763534236542548 0.0006383555977337804 0 -0.014744736934036095 0.00064383571706961857 0 -0.014731389600791654 0.00064677684808115516 0 -0.018001373219944092 0.00014572302081800384 0 -0.014975823451175084 0.0012273749564055626 0 -0.014744736934036095 0.00064383571706961857 0 -0.014731389600791654 0.00064677684808115516 0 -0.014748425841400943 0.00065519295270119677 0 -0.014731389600791654 0.00064677684808115516 0 -0.01476319864816799 0.00065732345111092761 0 -0.014767778987365348 0.00063096433843447372 0 -0.014731389600791654 0.00064677684808115516 0 -0.01476319864816799 0.00065732345111092761 0 -0.014748425841400943 0.00065519295270119677 0 -0.01474748601078853 0.00062953147226227542 0 -0.013497290678453015 4.8258995966449264e-05 0 -0.01476319864816799 0.00065732345111092761 0 -0.014787442268236018 0.00066019963735258682 0 -0.014767778987365348 0.00063096433843447372 0 -0.014787442268236018 0.00066019963735258682 0 -0.014785641418788428 0.00067407758993521887 0 -0.014798934343024072 0.00067334940353533726 0 -0.01476319864816799 0.00065732345111092761 0 -0.014787442268236018 0.00066019963735258682 0 -0.014785641418788428 0.00067407758993521887 0 -0.014785641418788428 0.00067407758993521887 0 -0.014763959158001095 0.00067624807250947635 0 -0.01479988453116112 0.00071087497814015688 0 -0.01476319864816799 0.00065732345111092761 0 -0.014785641418788428 0.00067407758993521887 0 -0.014763959158001095 0.00067624807250947635 0 -0.01476319864816799 0.00065732345111092761 0 -0.014748425841400943 0.00065519295270119677 0 -0.014763959158001095 0.00067624807250947635 0 -0.014763959158001095 0.00067624807250947635 0 -0.014764832821168611 0.00072424931442976299 0 -0.01479988453116112 0.00071087497814015688 0 -0.01479988453116112 0.00071087497814015688 0 -0.014798934343024072 0.00067334940353533726 0 -0.014861354385655629 0.00076148181512642398 0 -0.014785641418788428 0.00067407758993521887 0 -0.01479988453116112 0.00071087497814015688 0 -0.014798934343024072 0.00067334940353533726 0 -0.01479988453116112 0.00071087497814015688 0 -0.014861354385655629 0.00076148181512642398 0 -0.014854827319489096 0.00084710067339603201 0 -0.014764832821168611 0.00072424931442976299 0 -0.01479988453116112 0.00071087497814015688 0 -0.014854827319489096 0.00084710067339603201 0 -0.020955691715884961 -0.00029884266421836825 0 -0.021511634803785366 0.00030346627154966802 0 -0.021596720906591489 0.00035824728942532031 0 -0.020955691715884961 -0.00029884266421836825 0 -0.021360848913876306 0.00037669363420539403 0 -0.021511634803785366 0.00030346627154966802 0 -0.017432220197955157 1.1713762085134151e-05 0 -0.020130230011348331 0.00094833932376123947 0 -0.020955691715884961 -0.00029884266421836825 0 -0.020722693790305741 2.1637481301600001e-05 0 -0.021360848913876306 0.00037669363420539403 0 -0.022835578965460884 -0.00023559668709305186 0 -0.02342652655601762 -0.00012641083712684327 0 -0.022835578965460884 -0.00023559668709305186 0 -0.022500517196420454 -0.0010343951435020213 0 -0.024965529936250102 -0.00060515375576993252 0 -0.025519360531658979 -0.00030247002161683982 0 -0.025388522643498328 -0.00087491594908324893 0 -0.020375653484591996 -0.00088900017125765739 0 -0.020955691715884961 -0.00029884266421836825 0 -0.020545942975220447 -0.00036173539025783795 0 -0.020722693790305741 2.1637481301600001e-05 0 -0.020545942975220447 -0.00036173539025783795 0 -0.020149884479134943 -0.00031091680154733296 0 -0.018001373219944092 0.00014572302081800384 0 -0.017432220197955157 1.1713762085134151e-05 0 -0.020955691715884961 -0.00029884266421836825 0 -0.020722693790305741 2.1637481301600001e-05 0 -0.020545942975220447 -0.00036173539025783795 0 -0.018001373219944092 0.00014572302081800384 0 -0.022500517196420454 -0.0010343951435020213 0 -0.021556702731585529 -0.00052937598393422393 0 -0.021341334578409529 -0.0014044582094486391 0 -0.021783202901524551 -0.0011666706863116233 0 -0.020375653484591996 -0.00088900017125765739 0 -0.020545942975220447 -0.00036173539025783795 0 -0.020149884479134943 -0.00031091680154733296 0 -0.022500517196420454 -0.0010343951435020213 0 -0.021620268194711405 -0.0013584096273428772 0 -0.022500517196420454 -0.0010343951435020213 0 -0.026227857468162547 -0.0016449911452715014 0 -0.025519360531658979 -0.00030247002161683982 0 -0.025388522643498328 -0.00087491594908324893 0 -0.025867221162610223 -0.0010220151634795247 0 -0.021440518158062506 -0.0013671577077714707 0 -0.022190904091602504 -0.0013670113380689262 0 -0.021971494125064307 -0.0024127113445084484 0 -0.029946442308736474 -0.0011192738013496471 0 -0.030137088614815538 -0.0016178946946374421 0 -0.029797442637844271 -0.0017679447249582334 0 -0.027104967036829377 -0.0018095565452852596 0 -0.026227857468162547 -0.0016449911452715014 0 -0.027104967036829377 -0.0018095565452852596 0 -0.032553797682039101 -0.0020154364028442499 0 -0.03387240180424702 -0.0021524526315576751 0 -0.034099580973420661 -0.002435855689136263 0 -0.033837321878291804 -0.002632323544654239 0 -0.03387240180424702 -0.0021524526315576751 0 -0.034099580973420661 -0.002435855689136263 0 -0.034250105512248906 -0.0020218375195891931 0 -0.034099580973420661 -0.002435855689136263 0 -0.034325367377835161 -0.0025815360182752478 0 -0.034250105512248906 -0.0020218375195891931 0 -0.034099580973420661 -0.002435855689136263 0 -0.033837321878291804 -0.002632323544654239 0 -0.034261921930221435 -0.0027785527021199452 0 -0.021440518158062506 -0.0013671577077714707 0 -0.021783202901524551 -0.0011666706863116233 0 -0.022190904091602504 -0.0013670113380689262 0 -0.018517579360780519 -0.0010507576766045613 0 -0.018649339572567723 -0.0009359286139640578 0 -0.018557943997772185 -0.001508087850906586 0 -0.025557650558625116 -0.0013493073350857381 0 -0.027104967036829377 -0.0018095565452852596 0 -0.026049657337719502 -0.0018156928276658667 0 -0.026311643812922919 -0.0015760595609610997 0 -0.02621025215066972 -0.0012312229185596657 0 -0.025557650558625116 -0.0013493073350857381 0 -0.023588638369192779 -0.0008861074987681788 0 -0.021556702731585529 -0.00052937598393422393 0 -0.022136524843462964 -0.0011878673936892451 0 -0.021783202901524551 -0.0011666706863116233 0 -0.022136524843462964 -0.0011878673936892451 0 -0.021783202901524551 -0.0011666706863116233 0 -0.022190904091602504 -0.0013670113380689262 0 -0.034099580973420661 -0.002435855689136263 0 -0.034261921930221435 -0.0027785527021199452 0 -0.034325367377835161 -0.0025815360182752478 0 -0.023588638369192779 -0.0008861074987681788 0 -0.027104967036829377 -0.0018095565452852596 0 -0.033869363086163042 -0.0022039603825699645 0 -0.034119171324162048 -0.0015069029832625945 0 -0.033548809776160572 -0.0015904030609529391 0 -0.033575747721149518 -0.0023757441885005784 0 -0.033865372357734208 -0.0016570893244707316 0 -0.03387240180424702 -0.0021524526315576751 0 -0.033837321878291804 -0.002632323544654239 0 -0.033283877598119731 -0.0025513066418222105 0 -0.03387240180424702 -0.0021524526315576751 0 -0.033283877598119731 -0.0025513066418222105 0 -0.033609131317654521 -0.0017928429735734862 0 -0.033837321878291804 -0.002632323544654239 0 -0.033283877598119731 -0.0025513066418222105 0 -0.033699483795923704 -0.0032949878730871448 0 -0.033575747721149518 -0.0023757441885005784 0 -0.033257336292813688 -0.0031220171717311943 0 -0.033283877598119731 -0.0025513066418222105 0 -0.033039687584486256 -0.0032356564582715769 0 -0.033699483795923704 -0.0032949878730871448 0 -0.0289691678849574 -0.0026866582725238513 0 -0.027934380830836231 -0.0031685533819002646 0 -0.023103125634843156 -0.0020901751140004242 0 -0.022585903851933136 -0.0025904987897313221 0 -0.02291158480776543 -0.0028158158975374716 0 -0.033039687584486256 -0.0032356564582715769 0 -0.033699483795923704 -0.0032949878730871448 0 -0.033208932212564449 -0.0037297335963530115 0 -0.018517579360780519 -0.0010507576766045613 0 -0.018557943997772185 -0.001508087850906586 0 -0.018243827896399865 -0.0018671214688305345 0 -0.025557650558625116 -0.0013493073350857381 0 -0.02050522467637322 -0.0021405262492611358 0 -0.018649339572567723 -0.0009359286139640578 0 -0.018557943997772185 -0.001508087850906586 0 -0.018891940003088904 -0.0020177952551514375 0 -0.021556702731585529 -0.00052937598393422393 0 -0.022136524843462964 -0.0011878673936892451 0 -0.02167352824456327 0.00010781085172447448 0 -0.023588638369192779 -0.0008861074987681788 0 -0.017626003557955655 -0.001562589558519173 0 -0.018557943997772185 -0.001508087850906586 0 -0.018243827896399865 -0.0018671214688305345 0 -0.018641147728439205 -0.0019557430744584657 0 -0.033837321878291804 -0.002632323544654239 0 -0.034261921930221435 -0.0027785527021199452 0 -0.033699483795923704 -0.0032949878730871448 0 -0.023676416849138765 -0.0015577838373706417 0 -0.023103125634843156 -0.0020901751140004242 0 -0.023492040977408195 -0.0021371901766518691 0 -0.025557650558625116 -0.0013493073350857381 0 -0.0289691678849574 -0.0026866582725238513 0 -0.018243827896399865 -0.0018671214688305345 0 -0.018296469393006245 -0.0023421111434528082 0 -0.01800390538278409 -0.0026543675693927954 0 -0.023103125634843156 -0.0020901751140004242 0 -0.023492040977408195 -0.0021371901766518691 0 -0.02329370064878275 -0.0026757190103527872 0 -0.02050522467637322 -0.0021405262492611358 0 -0.020749694340379092 -0.0026291485091352695 0 -0.018243827896399865 -0.0018671214688305345 0 -0.018296469393006245 -0.0023421111434528082 0 -0.018456782502463489 -0.0021055558631712114 0 -0.018296469393006245 -0.0023421111434528082 0 -0.018579068271850054 -0.0022479221200885102 0 -0.018322918519722061 -0.0025144161447804413 0 -0.018579068271850054 -0.0022479221200885102 0 -0.018456782502463489 -0.0021055558631712114 0 -0.018641147728439205 -0.0019557430744584657 0 -0.018296469393006245 -0.0023421111434528082 0 -0.018579068271850054 -0.0022479221200885102 0 -0.018456782502463489 -0.0021055558631712114 0 -0.018243827896399865 -0.0018671214688305345 0 -0.018456782502463489 -0.0021055558631712114 0 -0.018641147728439205 -0.0019557430744584657 0 -0.018579068271850054 -0.0022479221200885102 0 -0.018641147728439205 -0.0019557430744584657 0 -0.018858729272478232 -0.0020147275912897186 0 -0.018557943997772185 -0.001508087850906586 0 -0.018641147728439205 -0.0019557430744584657 0 -0.018891940003088904 -0.0020177952551514375 0 -0.018550908385206948 -0.0018422391394682005 0 -0.017626003557955655 -0.001562589558519173 0 -0.014508250019205427 -0.0012807317666944161 0 -0.017626003557955655 -0.001562589558519173 0 -0.018916291528210352 -0.0022000961584852947 0 -0.018579068271850054 -0.0022479221200885102 0 -0.018858729272478232 -0.0020147275912897186 0 -0.018916291528210352 -0.0022000961584852947 0 -0.018579068271850054 -0.0022479221200885102 0 -0.018534377710805065 -0.002625643594429637 0 -0.00763247045650506 -0.0014504382121846887 0 -0.0077345796414158563 -0.0018366069939977469 0 -0.0082594594528712321 -0.0017146898137625148 0 -0.00763247045650506 -0.0014504382121846887 0 -0.0072206511224284821 -0.0019321637749742401 0 -0.0077345796414158563 -0.0018366069939977469 0 -0.014508250019205427 -0.0012807317666944161 0 -0.012792442960040519 -0.0022346312141857893 0 -0.018534377710805065 -0.002625643594429637 0 -0.018322918519722061 -0.0025144161447804413 0 -0.018113354987761305 -0.0026510241077287891 0 -0.018579068271850054 -0.0022479221200885102 0 -0.018534377710805065 -0.002625643594429637 0 -0.018322918519722061 -0.0025144161447804413 0 -0.018296469393006245 -0.0023421111434528082 0 -0.018113354987761305 -0.0026510241077287891 0 -0.01800390538278409 -0.0026543675693927954 0 -0.018296469393006245 -0.0023421111434528082 0 -0.018322918519722061 -0.0025144161447804413 0 -0.018113354987761305 -0.0026510241077287891 0 -0.018534377710805065 -0.002625643594429637 0 -0.018113354987761305 -0.0026510241077287891 0 -0.017969633949058011 -0.0032171266165968758 0 -0.017750587185607757 -0.0025083089972438325 0 -0.014617368412278942 -0.0030506067881841221 0 -0.018113354987761305 -0.0026510241077287891 0 -0.01800390538278409 -0.0026543675693927954 0 -0.01803416633190643 -0.0030879095235030927 0 -0.012792442960040519 -0.0022346312141857893 0 -0.014617368412278942 -0.0030506067881841221 0 -0.014560292828426535 -0.002381921283600031 0 -0.014338493068729847 -0.0026199132869998212 0 -0.014394927944661417 -0.0031208071089214389 0 -0.02329370064878275 -0.0026757190103527872 0 -0.023096604168927368 -0.0031747800215609664 0 -0.02291158480776543 -0.0028158158975374716 0 -0.01800390538278409 -0.0026543675693927954 0 -0.01803416633190643 -0.0030879095235030927 0 -0.017864716486486267 -0.0032908433352641458 0 -0.020749694340379092 -0.0026291485091352695 0 -0.019620392297626573 -0.0030446356312580978 0 -0.014617368412278942 -0.0030506067881841221 0 -0.019620392297626573 -0.0030446356312580978 0 -0.0072206511224284821 -0.0019321637749742401 0 -0.0077345796414158563 -0.0018366069939977469 0 -0.0078428084919633413 -0.0022439165956299697 0 -0.022585903851933136 -0.0025904987897313221 0 -0.02291158480776543 -0.0028158158975374716 0 -0.022577023958881073 -0.0031087077832058058 0 -0.023103125634843156 -0.0020901751140004242 0 -0.02329370064878275 -0.0026757190103527872 0 -0.02291158480776543 -0.0028158158975374716 0 -0.023096604168927368 -0.0031747800215609664 0 -0.02291158480776543 -0.0028158158975374716 0 -0.022812448736717419 -0.0031900912687664127 0 -0.02291158480776543 -0.0028158158975374716 0 -0.022812448736717419 -0.0031900912687664127 0 -0.022577023958881073 -0.0031087077832058058 0 -0.022585903851933136 -0.0025904987897313221 0 -0.022577023958881073 -0.0031087077832058058 0 -0.022152535881240602 -0.0030380305308856733 0 -0.022577023958881073 -0.0031087077832058058 0 -0.022616018352488599 -0.0034125932787556785 0 -0.02237419384966936 -0.0034591058759391308 0 -0.022812448736717419 -0.0031900912687664127 0 -0.022577023958881073 -0.0031087077832058058 0 -0.022616018352488599 -0.0034125932787556785 0 -0.022616018352488599 -0.0034125932787556785 0 -0.022607898342700172 -0.0036049825354958313 0 -0.02237419384966936 -0.0034591058759391308 0 -0.019620392297626573 -0.0030446356312580978 0 -0.018587086638492081 -0.0031487512317162135 0 -0.022824588810822485 -0.0033268318247732802 0 -0.022785044919581839 -0.0034205748120732103 0 -0.022830687245333704 -0.0034950418756598727 0 -0.022616018352488599 -0.0034125932787556785 0 -0.022785044919581839 -0.0034205748120732103 0 -0.02272044295651857 -0.003536972402557037 0 -0.022616018352488599 -0.0034125932787556785 0 -0.02272044295651857 -0.003536972402557037 0 -0.022607898342700172 -0.0036049825354958313 0 -0.022812448736717419 -0.0031900912687664127 0 -0.022616018352488599 -0.0034125932787556785 0 -0.022785044919581839 -0.0034205748120732103 0 -0.023096604168927368 -0.0031747800215609664 0 -0.022812448736717419 -0.0031900912687664127 0 -0.022785044919581839 -0.0034205748120732103 0 -0.019620392297626573 -0.0030446356312580978 0 -0.023102602825436771 -0.0027991510629636943 0 -0.022785044919581839 -0.0034205748120732103 0 -0.022830687245333704 -0.0034950418756598727 0 -0.02272044295651857 -0.003536972402557037 0 -0.022717598031402612 -0.0038106650303669945 0 -0.022830687245333704 -0.0034950418756598727 0 -0.02272044295651857 -0.003536972402557037 0 -0.013958909142499932 -0.0038790040531206378 0 -0.014222976088146244 -0.0038778369689720974 0 -0.014151232193632289 -0.0032419236991825858 0 -0.022717598031402612 -0.0038106650303669945 0 -0.02272044295651857 -0.003536972402557037 0 -0.022607898342700172 -0.0036049825354958313 0 -0.014303319910300104 -0.0044347382082199809 0 -0.018587086638492081 -0.0031487512317162135 0 -0.022543460324814978 -0.0038118334329840841 0 -0.022717598031402612 -0.0038106650303669945 0 -0.022607898342700172 -0.0036049825354958313 0 -0.022543460324814978 -0.0038118334329840841 0 -0.022607898342700172 -0.0036049825354958313 0 -0.02237419384966936 -0.0034591058759391308 0 -0.020906006106707137 -0.0054370433564965848 0 -0.020103233688946901 -0.0050241738886993908 0 -0.020465044828478125 -0.0046444058903189721 0 -0.017803121834334565 -0.0058071895092583837 0 -0.021148947364260262 -0.0037577799348645826 0 -0.0072206511224284821 -0.0019321637749742401 0 -0.007503519876434315 -0.0025707203447086222 0 -0.0078428084919633413 -0.0022439165956299697 0 -0.007503519876434315 -0.0025707203447086222 0 -0.0078428084919633413 -0.0022439165956299697 0 -0.0078917247923482106 -0.002683038893811442 0 -0.0072206511224284821 -0.0019321637749742401 0 -0.007503519876434315 -0.0025707203447086222 0 -0.007090543569346827 -0.0025583704124173302 0 -0.014338493068729847 -0.0026199132869998212 0 -0.014151232193632289 -0.0032419236991825858 0 -0.014394927944661417 -0.0031208071089214389 0 -0.014617368412278942 -0.0030506067881841221 0 -0.01057509777108414 -0.0028107850694349752 0 -0.007503519876434315 -0.0025707203447086222 0 -0.007090543569346827 -0.0025583704124173302 0 -0.0073567548277791795 -0.0029789971601583325 0 -0.007090543569346827 -0.0025583704124173302 0 -0.0071565913275804562 -0.0030864926610976885 0 -0.0073567548277791795 -0.0029789971601583325 0 -0.014222976088146244 -0.0038778369689720974 0 -0.014151232193632289 -0.0032419236991825858 0 -0.014394927944661417 -0.0031208071089214389 0 -0.006979754485849695 -0.0031494809975219111 0 -0.007090543569346827 -0.0025583704124173302 0 -0.0071565913275804562 -0.0030864926610976885 0 -0.0094955438354153762 -0.0030969120018422423 0 -0.01057509777108414 -0.0028107850694349752 0 -0.0072619980586490704 -0.0032762017164648985 0 -0.0071565913275804562 -0.0030864926610976885 0 -0.0073567548277791795 -0.0029789971601583325 0 -0.0074695495060185611 -0.0033483754999553152 0 -0.0073567548277791795 -0.0029789971601583325 0 -0.0076535811368130396 -0.00300658187918342 0 -0.007503519876434315 -0.0025707203447086222 0 -0.0073567548277791795 -0.0029789971601583325 0 -0.0076535811368130396 -0.00300658187918342 0 -0.007503519876434315 -0.0025707203447086222 0 -0.0076535811368130396 -0.00300658187918342 0 -0.0078917247923482106 -0.002683038893811442 0 -0.0080227496487737058 -0.0030263744403788311 0 -0.0085442922353516845 -0.0025559966756161915 0 -0.0078917247923482106 -0.002683038893811442 0 -0.0076535811368130396 -0.00300658187918342 0 -0.0080227496487737058 -0.0030263744403788311 0 -0.0078917247923482106 -0.002683038893811442 0 -0.0083763331427947948 -0.0032009808199296034 0 -0.0080227496487737058 -0.0030263744403788311 0 -0.0085442922353516845 -0.0025559966756161915 0 -0.0083763331427947948 -0.0032009808199296034 0 -0.0085442922353516845 -0.0025559966756161915 0 -0.0087524994300188647 -0.0030105679702229684 0 -0.0078428084919633413 -0.0022439165956299697 0 -0.0085442922353516845 -0.0025559966756161915 0 -0.0078917247923482106 -0.002683038893811442 0 -0.0077345796414158563 -0.0018366069939977469 0 -0.0078428084919633413 -0.0022439165956299697 0 -0.0082594594528712321 -0.0017146898137625148 0 -0.0078428084919633413 -0.0022439165956299697 0 -0.0085442922353516845 -0.0025559966756161915 0 -0.0082594594528712321 -0.0017146898137625148 0 -0.0085442922353516845 -0.0025559966756161915 0 -0.0082594594528712321 -0.0017146898137625148 0 -0.0088882266615520379 -0.0018511320711860214 0 -0.0087031257588382222 -0.0015231027658845092 0 -0.0082594594528712321 -0.0017146898137625148 0 -0.0088882266615520379 -0.0018511320711860214 0 -0.0079640568959514282 -0.0010817886679716959 0 -0.00763247045650506 -0.0014504382121846887 0 -0.0082594594528712321 -0.0017146898137625148 0 -0.0080776155692053511 -0.00095856861724116804 0 -0.0079640568959514282 -0.0010817886679716959 0 -0.0082594594528712321 -0.0017146898137625148 0 -0.0080776155692053511 -0.00095856861724116804 0 -0.0087031257588382222 -0.0015231027658845092 0 -0.0082594594528712321 -0.0017146898137625148 0 -0.0098421160691023503 -0.0013117143083564535 0 -0.0092327998012937621 -0.0015299683139381559 0 -0.0097159276585786786 -0.0020675482231303486 0 -0.0089010215957592842 -0.001132398537365869 0 -0.0098421160691023503 -0.0013117143083564535 0 -0.0092327998012937621 -0.0015299683139381559 0 -0.0089010215957592842 -0.001132398537365869 0 -0.0087031257588382222 -0.0015231027658845092 0 -0.0092327998012937621 -0.0015299683139381559 0 -0.0087031257588382222 -0.0015231027658845092 0 -0.0092327998012937621 -0.0015299683139381559 0 -0.0088882266615520379 -0.0018511320711860214 0 -0.01089629078006555 -0.00019712682562786972 0 -0.013497290678453015 4.8258995966449264e-05 0 -0.0085442922353516845 -0.0025559966756161915 0 -0.0088882266615520379 -0.0018511320711860214 0 -0.0097159276585786786 -0.0020675482231303486 0 -0.0092327998012937621 -0.0015299683139381559 0 -0.0088882266615520379 -0.0018511320711860214 0 -0.0097159276585786786 -0.0020675482231303486 0 -0.013497290678453015 4.8258995966449264e-05 0 -0.011916590877858119 -0.0013675349707600844 0 -0.014233054575259162 0.00017991612671769039 0 -0.01415859528154479 -0.00036305981031843046 0 -0.014452648238494785 -0.00015628385717757524 0 -0.01415859528154479 -0.00036305981031843046 0 -0.014078317680948438 -0.00080868303892611616 0 -0.014367766697759032 -0.00066354537707194428 0 -0.011916590877858119 -0.0013675349707600844 0 -0.010444709377132004 -0.001667262862323353 0 -0.0085442922353516845 -0.0025559966756161915 0 -0.0097159276585786786 -0.0020675482231303486 0 -0.0095859688364886789 -0.0028647532727089334 0 -0.0081588318042016238 -0.0028414465474381249 0 -0.010444709377132004 -0.001667262862323353 0 -0.0089794743955916873 -0.0033194997936964528 0 -0.0087524994300188647 -0.0030105679702229684 0 -0.0090818196210941445 -0.0027703186769788444 0 -0.0085442922353516845 -0.0025559966756161915 0 -0.0087524994300188647 -0.0030105679702229684 0 -0.0090818196210941445 -0.0027703186769788444 0 -0.0088535265369599093 -0.0022133385637689764 0 -0.010444709377132004 -0.001667262862323353 0 -0.010444709377132004 -0.001667262862323353 0 -0.012988071984196506 -0.00026999577478877917 0 -0.0089286904547484329 -0.0013355510597171346 0 -0.0092970182546001524 0.00076124275879827408 0 -0.011169884673299227 0.00023187550140048047 0 -0.014078317680948438 -0.00080868303892611616 0 -0.014487324655409027 -0.00089065207486506838 0 -0.014367766697759032 -0.00066354537707194428 0 -0.014367766697759032 -0.00066354537707194428 0 -0.014560568015591274 -0.00045430185800084669 0 -0.014718528747899013 -0.0006868287698380632 0 -0.01415859528154479 -0.00036305981031843046 0 -0.014367766697759032 -0.00066354537707194428 0 -0.014560568015591274 -0.00045430185800084669 0 -0.014487324655409027 -0.00089065207486506838 0 -0.014367766697759032 -0.00066354537707194428 0 -0.014718528747899013 -0.0006868287698380632 0 -0.014718528747899013 -0.0006868287698380632 0 -0.01497075691225553 -0.00052209275880753107 0 -0.014829322538128201 -0.00039095368833266748 0 -0.014560568015591274 -0.00045430185800084669 0 -0.014718528747899013 -0.0006868287698380632 0 -0.014829322538128201 -0.00039095368833266748 0 -0.011962735743974084 -0.0010255988881389953 0 -0.011169884673299227 0.00023187550140048047 0 -0.012988353248458293 -0.00037428515942389257 0 -0.014487324655409027 -0.00089065207486506838 0 -0.014718528747899013 -0.0006868287698380632 0 -0.014776092108811123 -0.00096511925017171837 0 -0.012988071984196506 -0.00026999577478877917 0 -0.013850674820624829 -0.00069998251869860797 0 -0.014718528747899013 -0.0006868287698380632 0 -0.014776092108811123 -0.00096511925017171837 0 -0.014923024508529599 -0.00081564093040108047 0 -0.014776901907653833 -0.0011914815258055199 0 -0.014776092108811123 -0.00096511925017171837 0 -0.014923024508529599 -0.00081564093040108047 0 -0.014776901907653833 -0.0011914815258055199 0 -0.014923024508529599 -0.00081564093040108047 0 -0.015252927632325579 -0.00084899252658245854 0 -0.015242671760832665 -0.0015734551057168553 0 -0.014776901907653833 -0.0011914815258055199 0 -0.015252927632325579 -0.00084899252658245854 0 -0.014923024508529599 -0.00081564093040108047 0 -0.015252927632325579 -0.00084899252658245854 0 -0.015179714169582857 -0.00053022391788465687 0 -0.015252927632325579 -0.00084899252658245854 0 -0.015179714169582857 -0.00053022391788465687 0 -0.015444849110328934 -0.00052423105841051991 0 -0.015179714169582857 -0.00053022391788465687 0 -0.015152388260791783 -0.00038240198849934432 0 -0.015274405783486822 -0.00034487617276171578 0 -0.015179714169582857 -0.00053022391788465687 0 -0.015334035031810012 -0.00040014033639774614 0 -0.015274405783486822 -0.00034487617276171578 0 -0.015444849110328934 -0.00052423105841051991 0 -0.015334035031810012 -0.00040014033639774614 0 -0.015389994248222112 -0.00024989173759835362 0 -0.015179714169582857 -0.00053022391788465687 0 -0.015444849110328934 -0.00052423105841051991 0 -0.015334035031810012 -0.00040014033639774614 0 -0.014718528747899013 -0.0006868287698380632 0 -0.014923024508529599 -0.00081564093040108047 0 -0.01497075691225553 -0.00052209275880753107 0 -0.014923024508529599 -0.00081564093040108047 0 -0.015179714169582857 -0.00053022391788465687 0 -0.01497075691225553 -0.00052209275880753107 0 -0.015179714169582857 -0.00053022391788465687 0 -0.01497075691225553 -0.00052209275880753107 0 -0.015152388260791783 -0.00038240198849934432 0 -0.01497075691225553 -0.00052209275880753107 0 -0.015058411169417007 -0.0003074471096291433 0 -0.014829322538128201 -0.00039095368833266748 0 -0.01497075691225553 -0.00052209275880753107 0 -0.015058411169417007 -0.0003074471096291433 0 -0.015152388260791783 -0.00038240198849934432 0 -0.015152388260791783 -0.00038240198849934432 0 -0.015270268902958314 -0.00021672598986634563 0 -0.015274405783486822 -0.00034487617276171578 0 -0.015058411169417007 -0.0003074471096291433 0 -0.015152388260791783 -0.00038240198849934432 0 -0.015270268902958314 -0.00021672598986634563 0 -0.015058411169417007 -0.0003074471096291433 0 -0.015169689473518955 -0.00014208488640211005 0 -0.014955467216459566 -0.00016829547993106538 0 -0.015058411169417007 -0.0003074471096291433 0 -0.015270268902958314 -0.00021672598986634563 0 -0.015169689473518955 -0.00014208488640211005 0 -0.015270268902958314 -0.00021672598986634563 0 -0.015389994248222112 -0.00024989173759835362 0 -0.015400497689970203 2.5328048184653775e-05 0 -0.016857829205791118 -0.0011604879105577713 0 -0.015457666597566418 -1.3831624871640383e-05 0 -0.015334035031810012 -0.00040014033639774614 0 -0.015389994248222112 -0.00024989173759835362 0 -0.015274405783486822 -0.00034487617276171578 0 -0.015270268902958314 -0.00021672598986634563 0 -0.015389994248222112 -0.00024989173759835362 0 -0.015274405783486822 -0.00034487617276171578 0 -0.018374660099092156 -0.002179467678511304 0 -0.018257703314464274 -0.0012369684519303447 0 -0.018687260847592473 -0.0015576172091191589 0 -0.018374660099092156 -0.002179467678511304 0 -0.018257703314464274 -0.0012369684519303447 0 -0.017447853664783478 -0.00069719127067937041 0 -0.018374660099092156 -0.002179467678511304 0 -0.017447853664783478 -0.00069719127067937041 0 -0.015400497689970203 2.5328048184653775e-05 0 -0.017447853664783478 -0.00069719127067937041 0 -0.018314269246219757 0.00046359135987560405 0 -0.018569825931883239 -0.00042304556438186496 0 -0.018257703314464274 -0.0012369684519303447 0 -0.017447853664783478 -0.00069719127067937041 0 -0.018569825931883239 -0.00042304556438186496 0 -0.017447853664783478 -0.00069719127067937041 0 -0.017239728558766945 0.00016683068859813527 0 -0.01612907965883233 0.00012870512334968448 0 -0.01612907965883233 0.00012870512334968448 0 -0.016046600516387968 0.0012786699143386099 0 -0.01729767615971876 0.00097558868898367176 0 -0.017239728558766945 0.00016683068859813527 0 -0.01612907965883233 0.00012870512334968448 0 -0.01729767615971876 0.00097558868898367176 0 -0.017447853664783478 -0.00069719127067937041 0 -0.017239728558766945 0.00016683068859813527 0 -0.018314269246219757 0.00046359135987560405 0 -0.017239728558766945 0.00016683068859813527 0 -0.018314269246219757 0.00046359135987560405 0 -0.01729767615971876 0.00097558868898367176 0 -0.015169689473518955 -0.00014208488640211005 0 -0.015072827816326085 6.5735895672455972e-06 0 -0.015400497689970203 2.5328048184653775e-05 0 -0.015169689473518955 -0.00014208488640211005 0 -0.015072827816326085 6.5735895672455972e-06 0 -0.014955467216459566 -0.00016829547993106538 0 -0.017447853664783478 -0.00069719127067937041 0 -0.015400497689970203 2.5328048184653775e-05 0 -0.01612907965883233 0.00012870512334968448 0 -0.015270268902958314 -0.00021672598986634563 0 -0.015169689473518955 -0.00014208488640211005 0 -0.015400497689970203 2.5328048184653775e-05 0 -0.017281883331667004 0.00061303914257460166 0 -0.018630546955334695 0.00078366147701203323 0 -0.015400497689970203 2.5328048184653775e-05 0 -0.01612907965883233 0.00012870512334968448 0 -0.015863513243411006 0.00093833758823505661 0 -0.015400497689970203 2.5328048184653775e-05 0 -0.015092008562984007 0.00023155445117383419 0 -0.015863513243411006 0.00093833758823505661 0 -0.015072827816326085 6.5735895672455972e-06 0 -0.015400497689970203 2.5328048184653775e-05 0 -0.015092008562984007 0.00023155445117383419 0 -0.015092008562984007 0.00023155445117383419 0 -0.014872403223434647 0.00013651960888063741 0 -0.015002235320783677 0.00029355879842983117 0 -0.015072827816326085 6.5735895672455972e-06 0 -0.015092008562984007 0.00023155445117383419 0 -0.014872403223434647 0.00013651960888063741 0 -0.015072827816326085 6.5735895672455972e-06 0 -0.014872403223434647 0.00013651960888063741 0 -0.014955467216459566 -0.00016829547993106538 0 -0.014872403223434647 0.00013651960888063741 0 -0.014674843622997492 8.3869198623119694e-05 0 -0.014719362537524601 -0.00016142253458948684 0 -0.014872403223434647 0.00013651960888063741 0 -0.014955467216459566 -0.00016829547993106538 0 -0.014719362537524601 -0.00016142253458948684 0 -0.014872403223434647 0.00013651960888063741 0 -0.014674843622997492 8.3869198623119694e-05 0 -0.014716909748426264 0.00028699828551804265 0 -0.013497290678453015 4.8258995966449264e-05 0 -0.01488576920968649 1.7616740644742597e-05 0 -0.014532381906508549 0.00016397735800839804 0 -0.014674843622997492 8.3869198623119694e-05 0 -0.014716909748426264 0.00028699828551804265 0 -0.014233054575259162 0.00017991612671769039 0 -0.014674843622997492 8.3869198623119694e-05 0 -0.014452648238494785 -0.00015628385717757524 0 -0.014674843622997492 8.3869198623119694e-05 0 -0.014452648238494785 -0.00015628385717757524 0 -0.014719362537524601 -0.00016142253458948684 0 -0.014560568015591274 -0.00045430185800084669 0 -0.014452648238494785 -0.00015628385717757524 0 -0.014719362537524601 -0.00016142253458948684 0 -0.01415859528154479 -0.00036305981031843046 0 -0.014560568015591274 -0.00045430185800084669 0 -0.014452648238494785 -0.00015628385717757524 0 -0.014560568015591274 -0.00045430185800084669 0 -0.014829322538128201 -0.00039095368833266748 0 -0.014719362537524601 -0.00016142253458948684 0 -0.015058411169417007 -0.0003074471096291433 0 -0.014829322538128201 -0.00039095368833266748 0 -0.014955467216459566 -0.00016829547993106538 0 -0.014829322538128201 -0.00039095368833266748 0 -0.014955467216459566 -0.00016829547993106538 0 -0.014719362537524601 -0.00016142253458948684 0 -0.021938721362506235 -0.0026329252221976981 0 -0.021680775049077915 -0.0032425572651288074 0 -0.021255766444329506 -0.002597714987539045 0 -0.021938721362506235 -0.0026329252221976981 0 -0.021255766444329506 -0.002597714987539045 0 -0.022023439356637073 -0.0016111997268003829 0 -0.021680775049077915 -0.0032425572651288074 0 -0.020893996947120158 -0.0029967791381805622 0 -0.021255766444329506 -0.002597714987539045 0 -0.020971792362685721 -0.0036611422723870643 0 -0.020893996947120158 -0.0029967791381805622 0 -0.019935879923742229 -0.0029943102688594625 0 -0.020971792362685721 -0.0036611422723870643 0 -0.021680775049077915 -0.0032425572651288074 0 -0.020893996947120158 -0.0029967791381805622 0 -0.020893996947120158 -0.0029967791381805622 0 -0.021255766444329506 -0.002597714987539045 0 -0.020514985609463673 -0.0024424341316576217 0 -0.021255766444329506 -0.002597714987539045 0 -0.020514985609463673 -0.0024424341316576217 0 -0.021070137798248238 -0.0016607027235532991 0 -0.020893996947120158 -0.0029967791381805622 0 -0.019935879923742229 -0.0029943102688594625 0 -0.020514985609463673 -0.0024424341316576217 0 -0.019935879923742229 -0.0029943102688594625 0 -0.020514985609463673 -0.0024424341316576217 0 -0.019456043982238134 -0.0022511154683497905 0 -0.019306171509939657 -0.0026560188672443393 0 -0.018107142384372926 -0.0018440547499526607 0 -0.016191637013655356 -0.0017705331985139114 0 -0.017646331808798859 -0.0016417554140655999 0 -0.016286966484758639 -0.00065782623305766998 0 -0.016191637013655356 -0.0017705331985139114 0 -0.015252927632325579 -0.00084899252658245854 0 -0.016286966484758639 -0.00065782623305766998 0 -0.016084241209347844 -0.0016426606648365036 0 -0.015296009833566312 -0.00090292458574699696 0 -0.018374660099092156 -0.002179467678511304 0 -0.019935879923742229 -0.0029943102688594625 0 -0.019456043982238134 -0.0022511154683497905 0 -0.016857829205791118 -0.0011604879105577713 0 -0.018107142384372926 -0.0018440547499526607 0 -0.015444849110328934 -0.00052423105841051991 0 -0.015389994248222112 -0.00024989173759835362 0 -0.016286966484758639 -0.00065782623305766998 0 -0.015252927632325579 -0.00084899252658245854 0 -0.015444849110328934 -0.00052423105841051991 0 -0.016286966484758639 -0.00065782623305766998 0 -0.018374660099092156 -0.002179467678511304 0 -0.01903905030597846 -0.0019126997685889005 0 -0.019456043982238134 -0.0022511154683497905 0 -0.01903905030597846 -0.0019126997685889005 0 -0.019456043982238134 -0.0022511154683497905 0 -0.01962101826938845 -0.001491403208896428 0 -0.018257703314464274 -0.0012369684519303447 0 -0.018687260847592473 -0.0015576172091191589 0 -0.018569825931883239 -0.00042304556438186496 0 -0.018374660099092156 -0.002179467678511304 0 -0.01903905030597846 -0.0019126997685889005 0 -0.018687260847592473 -0.0015576172091191589 0 -0.01903905030597846 -0.0019126997685889005 0 -0.01962101826938845 -0.001491403208896428 0 -0.018687260847592473 -0.0015576172091191589 0 -0.018314269246219757 0.00046359135987560405 0 -0.020267781469175825 0.00079750176405812704 0 -0.018569825931883239 -0.00042304556438186496 0 -0.01962101826938845 -0.001491403208896428 0 -0.018687260847592473 -0.0015576172091191589 0 -0.019702787699305994 -0.00058972828843149958 0 -0.018782061583792767 -0.0014550994926558127 0 -0.019934334869541326 4.0647895657619183e-05 0 -0.018687260847592473 -0.0015576172091191589 0 -0.020267781469175825 0.00079750176405812704 0 -0.018569825931883239 -0.00042304556438186496 0 -0.01962101826938845 -0.001491403208896428 0 -0.020632837976057156 -0.00079079885823813518 0 -0.020304996538574628 -0.0017197367636746473 0 -0.01962101826938845 -0.001491403208896428 0 -0.019702787699305994 -0.00058972828843149958 0 -0.020632837976057156 -0.00079079885823813518 0 -0.020514985609463673 -0.0024424341316576217 0 -0.019456043982238134 -0.0022511154683497905 0 -0.020304996538574628 -0.0017197367636746473 0 -0.019456043982238134 -0.0022511154683497905 0 -0.01962101826938845 -0.001491403208896428 0 -0.020304996538574628 -0.0017197367636746473 0 -0.020514985609463673 -0.0024424341316576217 0 -0.020304996538574628 -0.0017197367636746473 0 -0.021070137798248238 -0.0016607027235532991 0 -0.020632837976057156 -0.00079079885823813518 0 -0.021070137798248238 -0.0016607027235532991 0 -0.02153395800384876 -0.00058092382540709826 0 -0.020632837976057156 -0.00079079885823813518 0 -0.020304996538574628 -0.0017197367636746473 0 -0.021070137798248238 -0.0016607027235532991 0 -0.022219233564178133 -0.0015817040797287626 0 -0.021557775684825073 -0.00064273459558168819 0 -0.021070137798248238 -0.0016607027235532991 0 -0.022023439356637073 -0.0016111997268003829 0 -0.02153395800384876 -0.00058092382540709826 0 -0.0229690359897219 -0.00086582872184575767 0 -0.022451812890843418 -0.0016117144242435433 0 -0.02153395800384876 -0.00058092382540709826 0 -0.021255766444329506 -0.002597714987539045 0 -0.021070137798248238 -0.0016607027235532991 0 -0.022023439356637073 -0.0016111997268003829 0 -0.022038914880379224 0.0010036187468215857 0 -0.021641127414911098 0.0004914519748269537 0 -0.021590436296525604 0.0013682276383426418 0 -0.022879289565263423 0.00047173669231901049 0 -0.022627735435871776 0.00095743809430540313 0 -0.022299706505172833 0.00046485330487315866 0 -0.022627735435871776 0.00095743809430540313 0 -0.022038914880379224 0.0010036187468215857 0 -0.022299706505172833 0.00046485330487315866 0 -0.022038914880379224 0.0010036187468215857 0 -0.022299706505172833 0.00046485330487315866 0 -0.021641127414911098 0.0004914519748269537 0 -0.022299706505172833 0.00046485330487315866 0 -0.021891761085066137 4.480775107157644e-05 0 -0.021641127414911098 0.0004914519748269537 0 -0.0229690359897219 -0.00086582872184575767 0 -0.022625218752113967 -9.0608244260181279e-05 0 -0.02153395800384876 -0.00058092382540709826 0 -0.022625218752113967 -9.0608244260181279e-05 0 -0.022299706505172833 0.00046485330487315866 0 -0.021891761085066137 4.480775107157644e-05 0 -0.022625218752113967 -9.0608244260181279e-05 0 -0.021891761085066137 4.480775107157644e-05 0 -0.02153395800384876 -0.00058092382540709826 0 -0.021354036968947488 -8.2185958879673512e-05 0 -0.021641127414911098 0.0004914519748269537 0 -0.02069989296594095 0.00010484366433278809 0 -0.021891761085066137 4.480775107157644e-05 0 -0.021354036968947488 -8.2185958879673512e-05 0 -0.02153395800384876 -0.00058092382540709826 0 -0.020632837976057156 -0.00079079885823813518 0 -0.02101548350821586 -0.00034486884652435644 0 -0.02069989296594095 0.00010484366433278809 0 -0.021891761085066137 4.480775107157644e-05 0 -0.021354036968947488 -8.2185958879673512e-05 0 -0.021641127414911098 0.0004914519748269537 0 -0.021354036968947488 -8.2185958879673512e-05 0 -0.02153395800384876 -0.00058092382540709826 0 -0.02101548350821586 -0.00034486884652435644 0 -0.020632837976057156 -0.00079079885823813518 0 -0.02153395800384876 -0.00058092382540709826 0 -0.02101548350821586 -0.00034486884652435644 0 -0.021354036968947488 -8.2185958879673512e-05 0 -0.02101548350821586 -0.00034486884652435644 0 -0.02069989296594095 0.00010484366433278809 0 -0.02122873093083226 0.0018712325013549107 0 -0.022313559728780047 0.0024651486649707802 0 -0.020590259270849235 0.00048489336373902536 0 -0.02069989296594095 0.00010484366433278809 0 -0.021551586788028012 0.0017618667370367944 0 -0.020474364286676778 -0.00025609356606939588 0 -0.022313559728780047 0.0024651486649707802 0 -0.021758718142341191 0.0029585739578084917 0 -0.021280836683353326 0.0042238963700289948 0 -0.02313714450946688 0.0048814010687287194 0 -0.021641127414911098 0.0004914519748269537 0 -0.02069989296594095 0.00010484366433278809 0 -0.021590436296525604 0.0013682276383426418 0 -0.021758718142341191 0.0029585739578084917 0 -0.021280836683353326 0.0042238963700289948 0 -0.02034807236192587 0.0023894878858201985 0 -0.020267781469175825 0.00079750176405812704 0 -0.021758718142341191 0.0029585739578084917 0 -0.02034807236192587 0.0023894878858201985 0 -0.019934334869541326 4.0647895657619183e-05 0 -0.02122873093083226 0.0018712325013549107 0 -0.019702787699305994 -0.00058972828843149958 0 -0.020632837976057156 -0.00079079885823813518 0 -0.02069989296594095 0.00010484366433278809 0 -0.019702787699305994 -0.00058972828843149958 0 -0.020590259270849235 0.00048489336373902536 0 -0.02069989296594095 0.00010484366433278809 0 -0.020267781469175825 0.00079750176405812704 0 -0.02034807236192587 0.0023894878858201985 0 -0.018827399771753853 0.0028455148085890125 0 -0.018314269246219757 0.00046359135987560405 0 -0.020267781469175825 0.00079750176405812704 0 -0.018827399771753853 0.0028455148085890125 0 -0.023016624804803841 0.0034704375422558564 0 -0.021956806621723928 0.0027985029203858292 0 -0.021280836683353326 0.0042238963700289948 0 -0.02034807236192587 0.0023894878858201985 0 -0.018827399771753853 0.0028455148085890125 0 -0.024757258121752519 0.0026547020576890724 0 -0.024522841359035933 0.0023977233246350814 0 -0.024594111253324339 0.0026695736859702257 0 -0.024522841359035933 0.0023977233246350814 0 -0.024594111253324339 0.0026695736859702257 0 -0.024427942776021117 0.0027757423522047128 0 -0.024594111253324339 0.0026695736859702257 0 -0.024601691241326728 0.0028097821079607977 0 -0.024427942776021117 0.0027757423522047128 0 -0.024594111253324339 0.0026695736859702257 0 -0.024601691241326728 0.0028097821079607977 0 -0.02468913584782791 0.0027591158868572867 0 -0.024601691241326728 0.0028097821079607977 0 -0.024656294248298384 0.002883564278772776 0 -0.024528018989875628 0.0028519080870368653 0 -0.024601691241326728 0.0028097821079607977 0 -0.024656294248298384 0.002883564278772776 0 -0.024719538869296159 0.0028459678523411361 0 -0.024601691241326728 0.0028097821079607977 0 -0.024719538869296159 0.0028459678523411361 0 -0.02468913584782791 0.0027591158868572867 0 -0.024719538869296159 0.0028459678523411361 0 -0.024762842864311362 0.0027963820346555155 0 -0.02468913584782791 0.0027591158868572867 0 -0.024656294248298384 0.002883564278772776 0 -0.024719538869296159 0.0028459678523411361 0 -0.024762854917128468 0.0029255222321021637 0 -0.024719538869296159 0.0028459678523411361 0 -0.024790666175715275 0.0028892828096801254 0 -0.024762854917128468 0.0029255222321021637 0 -0.024719538869296159 0.0028459678523411361 0 -0.024790666175715275 0.0028892828096801254 0 -0.024762842864311362 0.0027963820346555155 0 -0.024757258121752519 0.0026547020576890724 0 -0.024594111253324339 0.0026695736859702257 0 -0.02468913584782791 0.0027591158868572867 0 -0.024757258121752519 0.0026547020576890724 0 -0.024762842864311362 0.0027963820346555155 0 -0.024821800576068538 0.0028356994149418202 0 -0.024757258121752519 0.0026547020576890724 0 -0.024762842864311362 0.0027963820346555155 0 -0.02468913584782791 0.0027591158868572867 0 -0.021280836683353326 0.0042238963700289948 0 -0.02313714450946688 0.0048814010687287194 0 -0.023466743735948065 0.0055411202619368915 0 -0.023016624804803841 0.0034704375422558564 0 -0.023885535912059608 0.0037372831789763568 0 -0.024757258121752519 0.0026547020576890724 0 -0.024891231866073039 0.0028201549961132167 0 -0.024821800576068538 0.0028356994149418202 0 -0.022702933138869164 0.0025403387897894882 0 -0.023043910655818661 0.0032604815931689198 0 -0.02336554991105206 0.0034657586147680683 0 -0.022313559728780047 0.0024651486649707802 0 -0.023099614643846314 0.002952324434509491 0 -0.022313559728780047 0.0024651486649707802 0 -0.023885535912059608 0.0037372831789763568 0 -0.024790666175715275 0.0028892828096801254 0 -0.024821800576068538 0.0028356994149418202 0 -0.024842947995797171 0.002933453780317381 0 -0.024790666175715275 0.0028892828096801254 0 -0.024762842864311362 0.0027963820346555155 0 -0.024821800576068538 0.0028356994149418202 0 -0.024790666175715275 0.0028892828096801254 0 -0.024842947995797171 0.002933453780317381 0 -0.024831896844411949 0.0029696814443201671 0 -0.024842947995797171 0.002933453780317381 0 -0.024865452149016243 0.0029679191869750932 0 -0.024859474116787111 0.0030115075429864445 0 -0.024842947995797171 0.002933453780317381 0 -0.024867252960561512 0.0029167721698111835 0 -0.024865452149016243 0.0029679191869750932 0 -0.024821800576068538 0.0028356994149418202 0 -0.024842947995797171 0.002933453780317381 0 -0.024867252960561512 0.0029167721698111835 0 -0.024891231866073039 0.0028201549961132167 0 -0.024821800576068538 0.0028356994149418202 0 -0.024867252960561512 0.0029167721698111835 0 -0.023885535912059608 0.0037372831789763568 0 -0.024908215524587281 0.0034022833811928502 0 -0.023099614643846314 0.002952324434509491 0 -0.023837025522178347 0.0031610104964329578 0 -0.022277520570189949 0.0019032592699959681 0 -0.022039444772309305 0.0018086291953065936 0 -0.022954628706963999 0.0025770505190718294 0 -0.025003777217943193 0.0041811628666368226 0 -0.024941355848933013 0.0041411825106534407 0 -0.024821879765324247 0.003788628654916503 0 -0.024891231866073039 0.0028201549961132167 0 -0.024867252960561512 0.0029167721698111835 0 -0.024889201910653823 0.0030235257223290291 0 -0.024941355848933013 0.0041411825106534407 0 -0.024637765666721202 0.0037665044535271576 0 -0.024821879765324247 0.003788628654916503 0 -0.022550458667704772 0.0025168949379224866 0 -0.023099614643846314 0.002952324434509491 0 -0.024867252960561512 0.0029167721698111835 0 -0.024865452149016243 0.0029679191869750932 0 -0.024889201910653823 0.0030235257223290291 0 -0.022277520570189949 0.0019032592699959681 0 -0.022728347680078344 0.0020783190982872372 0 -0.022954628706963999 0.0025770505190718294 0 -0.023009761882647119 0.0020859003995624195 0 -0.022728347680078344 0.0020783190982872372 0 -0.022673896895267574 0.0017381262711441037 0 -0.022277520570189949 0.0019032592699959681 0 -0.022728347680078344 0.0020783190982872372 0 -0.022673896895267574 0.0017381262711441037 0 -0.022673896895267574 0.0017381262711441037 0 -0.02229155044512092 0.0016461843391259892 0 -0.022403965914258604 0.001356771194512768 0 -0.022892826234064551 0.0013535763116271212 0 -0.022673896895267574 0.0017381262711441037 0 -0.022403965914258604 0.001356771194512768 0 -0.022277520570189949 0.0019032592699959681 0 -0.022673896895267574 0.0017381262711441037 0 -0.02229155044512092 0.0016461843391259892 0 -0.022277520570189949 0.0019032592699959681 0 -0.02229155044512092 0.0016461843391259892 0 -0.022019010948236366 0.0018022126262476281 0 -0.021590436296525604 0.0013682276383426418 0 -0.022019010948236366 0.0018022126262476281 0 -0.022064609709887415 0.0014332037771423493 0 -0.02229155044512092 0.0016461843391259892 0 -0.022019010948236366 0.0018022126262476281 0 -0.022064609709887415 0.0014332037771423493 0 -0.023885535912059608 0.0037372831789763568 0 -0.023099614643846314 0.002952324434509491 0 -0.02229155044512092 0.0016461843391259892 0 -0.022064609709887415 0.0014332037771423493 0 -0.022403965914258604 0.001356771194512768 0 -0.022038914880379224 0.0010036187468215857 0 -0.021590436296525604 0.0013682276383426418 0 -0.022064609709887415 0.0014332037771423493 0 -0.022038914880379224 0.0010036187468215857 0 -0.022064609709887415 0.0014332037771423493 0 -0.022403965914258604 0.001356771194512768 0 -0.022627735435871776 0.00095743809430540313 0 -0.022038914880379224 0.0010036187468215857 0 -0.022403965914258604 0.001356771194512768 0 -0.022892826234064551 0.0013535763116271212 0 -0.022627735435871776 0.00095743809430540313 0 -0.022403965914258604 0.001356771194512768 0 -0.014977111087748348 0.00060856702946473194 0 -0.014820596506926546 0.00051494891666374468 0 -0.014890786768854353 0.00038846648695410846 0 -0.014977111087748348 0.00060856702946473194 0 -0.015083829420363253 0.00039695363256457138 0 -0.015206443819204911 0.000584623394076616 0 -0.014977111087748348 0.00060856702946473194 0 -0.014890786768854353 0.00038846648695410846 0 -0.015083829420363253 0.00039695363256457138 0 -0.01474748601078853 0.00062953147226227542 0 -0.014767385145341297 0.00061900236471288869 0 -0.01462582801319183 0.00042251490665746663 0 -0.014820596506926546 0.00051494891666374468 0 -0.014798934343024072 0.00067334940353533726 0 -0.014977111087748348 0.00060856702946473194 0 -0.014820596506926546 0.00051494891666374468 0 -0.014798934343024072 0.00067334940353533726 0 -0.01462582801319183 0.00042251490665746663 0 -0.014532381906508549 0.00016397735800839804 0 -0.014716909748426264 0.00028699828551804265 0 -0.014820596506926546 0.00051494891666374468 0 -0.014716909748426264 0.00028699828551804265 0 -0.014890786768854353 0.00038846648695410846 0 -0.01462582801319183 0.00042251490665746663 0 -0.014820596506926546 0.00051494891666374468 0 -0.014716909748426264 0.00028699828551804265 0 -0.014872403223434647 0.00013651960888063741 0 -0.014890786768854353 0.00038846648695410846 0 -0.015002235320783677 0.00029355879842983117 0 -0.014872403223434647 0.00013651960888063741 0 -0.014716909748426264 0.00028699828551804265 0 -0.014890786768854353 0.00038846648695410846 0 -0.014890786768854353 0.00038846648695410846 0 -0.015002235320783677 0.00029355879842983117 0 -0.015083829420363253 0.00039695363256457138 0 -0.015239679244891498 0.0003052221093777464 0 -0.015083829420363253 0.00039695363256457138 0 -0.015206443819204911 0.000584623394076616 0 -0.018630546955334695 0.00078366147701203323 0 -0.019529435316728929 0.0015360899646550883 0 -0.015092008562984007 0.00023155445117383419 0 -0.015105465951776094 0.0003060812458543855 0 -0.015239679244891498 0.0003052221093777464 0 -0.015105465951776094 0.0003060812458543855 0 -0.015239679244891498 0.0003052221093777464 0 -0.015083829420363253 0.00039695363256457138 0 -0.015074769974883662 -0.00026661673134225716 0 -0.018630546955334695 0.00078366147701203323 0 -0.015092008562984007 0.00023155445117383419 0 -0.015002235320783677 0.00029355879842983117 0 -0.015105465951776094 0.0003060812458543855 0 -0.015002235320783677 0.00029355879842983117 0 -0.015105465951776094 0.0003060812458543855 0 -0.015083829420363253 0.00039695363256457138 0 -0.021956806621723928 0.0027985029203858292 0 -0.018630546955334695 0.00078366147701203323 0 -0.018314269246219757 0.00046359135987560405 0 -0.018827399771753853 0.0028455148085890125 0 -0.01729767615971876 0.00097558868898367176 0 -0.018827399771753853 0.0028455148085890125 0 -0.016046600516387968 0.0012786699143386099 0 -0.01729767615971876 0.00097558868898367176 0 -0.024522841359035933 0.0023977233246350814 0 -0.024104049519294967 0.0020934605376988161 0 -0.024279499529137039 0.0024147825103675437 0 -0.024279499529137039 0.0024147825103675437 0 -0.024082686856824909 0.0024985699972779347 0 -0.024427942776021117 0.0027757423522047128 0 -0.024522841359035933 0.0023977233246350814 0 -0.024279499529137039 0.0024147825103675437 0 -0.024427942776021117 0.0027757423522047128 0 -0.024104049519294967 0.0020934605376988161 0 -0.024279499529137039 0.0024147825103675437 0 -0.024082686856824909 0.0024985699972779347 0 -0.025045112360697175 0.0026093315760263676 0 -0.022107021381066853 0.0024484054714584481 0 -0.024082686856824909 0.0024985699972779347 0 -0.024427942776021117 0.0027757423522047128 0 -0.024018122470266905 0.0029367295412738395 0 -0.019529435316728929 0.0015360899646550883 0 -0.022107021381066853 0.0024484054714584481 0 -0.014977111087748348 0.00060856702946473194 0 -0.015206443819204911 0.000584623394076616 0 -0.015187412075026184 0.00080838167252441327 0 -0.024601691241326728 0.0028097821079607977 0 -0.024427942776021117 0.0027757423522047128 0 -0.024528018989875628 0.0028519080870368653 0 -0.024427942776021117 0.0027757423522047128 0 -0.024528018989875628 0.0028519080870368653 0 -0.024457914738806548 0.0028162747975585449 0 -0.024457914738806548 0.0028162747975585449 0 -0.02451108194109931 0.0028566710871430452 0 -0.024523177687248033 0.0028664158880128093 0 -0.022107021381066853 0.0024484054714584481 0 -0.024550869681405064 0.0024236943957259135 0 -0.024528018989875628 0.0028519080870368653 0 -0.024457914738806548 0.0028162747975585449 0 -0.024523177687248033 0.0028664158880128093 0 -0.015187412075026184 0.00080838167252441327 0 -0.014946033114966948 0.00073890067308256474 0 -0.014964583067980061 0.000840085073546814 0 -0.024631491463549531 0.0016419259081395139 0 -0.023918201271827425 0.0019055360199932672 0 -0.024210649000374004 0.0021620950314465747 0 -0.022107021381066853 0.0024484054714584481 0 -0.018848357926667919 0.0014318379728573225 0 -0.024631491463549531 0.0016419259081395139 0 -0.024210649000374004 0.0021620950314465747 0 -0.024575470650409163 0.0021894844637384411 0 -0.023918201271827425 0.0019055360199932672 0 -0.023757384511129721 0.002295275629196074 0 -0.024210649000374004 0.0021620950314465747 0 -0.014977111087748348 0.00060856702946473194 0 -0.015187412075026184 0.00080838167252441327 0 -0.014946033114966948 0.00073890067308256474 0 -0.014977111087748348 0.00060856702946473194 0 -0.014798934343024072 0.00067334940353533726 0 -0.014946033114966948 0.00073890067308256474 0 -0.014798934343024072 0.00067334940353533726 0 -0.014946033114966948 0.00073890067308256474 0 -0.014861354385655629 0.00076148181512642398 0 -0.018848357926667919 0.0014318379728573225 0 -0.020130230011348331 0.00094833932376123947 0 -0.014861354385655629 0.00076148181512642398 0 -0.014964583067980061 0.000840085073546814 0 -0.014854827319489096 0.00084710067339603201 0 -0.014946033114966948 0.00073890067308256474 0 -0.014861354385655629 0.00076148181512642398 0 -0.014964583067980061 0.000840085073546814 0 -0.023757384511129721 0.002295275629196074 0 -0.023481302065220356 0.0025199232613007079 0 -0.023151503798287076 0.0021772468393974668 0 -0.023918201271827425 0.0019055360199932672 0 -0.023757384511129721 0.002295275629196074 0 -0.023151503798287076 0.0021772468393974668 0 -0.023756418563934338 0.0025077351543082741 0 -0.023890843530319082 0.0026465556518057267 0 -0.024045306423966847 0.0024963503401162919 0 -0.023756418563934338 0.0025077351543082741 0 -0.023890843530319082 0.0026465556518057267 0 -0.02359624755869737 0.0025787877845098238 0 -0.023757384511129721 0.002295275629196074 0 -0.023756418563934338 0.0025077351543082741 0 -0.024045306423966847 0.0024963503401162919 0 -0.023757384511129721 0.002295275629196074 0 -0.023756418563934338 0.0025077351543082741 0 -0.023481302065220356 0.0025199232613007079 0 -0.023756418563934338 0.0025077351543082741 0 -0.023481302065220356 0.0025199232613007079 0 -0.02359624755869737 0.0025787877845098238 0 -0.025381319897080777 0.0021818181965912262 0 -0.024867538195023606 0.0020516652855451221 0 -0.023488978530306969 0.0025251774157308273 0 -0.02359624755869737 0.0025787877845098238 0 -0.023939036801918681 0.0029611127433512908 0 -0.028635239531133873 0.0010131230497573099 0 -0.028311681476115944 0.00065042357435379501 0 -0.028729144800033107 0.00066057477982244797 0 -0.025381319897080777 0.0021818181965912262 0 -0.026117564125278145 0.0017775916890273983 0 -0.023890843530319082 0.0026465556518057267 0 -0.023939036801918681 0.0029611127433512908 0 -0.024090318959222222 0.0027530539534372021 0 -0.023890843530319082 0.0026465556518057267 0 -0.02359624755869737 0.0025787877845098238 0 -0.023939036801918681 0.0029611127433512908 0 -0.028311681476115944 0.00065042357435379501 0 -0.028752062789859281 0.00023431574570426802 0 -0.028729144800033107 0.00066057477982244797 0 -0.024276340279706883 0.0029336494887398021 0 -0.02448304939673239 0.003088286358185996 0 -0.024369688765954026 0.0034334880711968671 0 -0.024276340279706883 0.0029336494887398021 0 -0.02448304939673239 0.003088286358185996 0 -0.024445825813866361 0.0028696395365488004 0 -0.02448304939673239 0.003088286358185996 0 -0.024445825813866361 0.0028696395365488004 0 -0.024599489265836699 0.0028463168045196295 0 -0.023939036801918681 0.0029611127433512908 0 -0.024276340279706883 0.0029336494887398021 0 -0.024369688765954026 0.0034334880711968671 0 -0.024276340279706883 0.0029336494887398021 0 -0.024090318959222222 0.0027530539534372021 0 -0.024290150148684405 0.0027136155338595108 0 -0.023939036801918681 0.0029611127433512908 0 -0.024276340279706883 0.0029336494887398021 0 -0.024090318959222222 0.0027530539534372021 0 -0.024276340279706883 0.0029336494887398021 0 -0.024290150148684405 0.0027136155338595108 0 -0.024445825813866361 0.0028696395365488004 0 -0.024445825813866361 0.0028696395365488004 0 -0.024546724545524101 0.0028014335098565111 0 -0.024599489265836699 0.0028463168045196295 0 -0.024290150148684405 0.0027136155338595108 0 -0.024445825813866361 0.0028696395365488004 0 -0.024546724545524101 0.0028014335098565111 0 -0.024546724545524101 0.0028014335098565111 0 -0.024313513035913611 0.0024752079815266348 0 -0.024575470650409163 0.0021894844637384411 0 -0.024290150148684405 0.0027136155338595108 0 -0.024546724545524101 0.0028014335098565111 0 -0.024313513035913611 0.0024752079815266348 0 -0.023890843530319082 0.0026465556518057267 0 -0.024090318959222222 0.0027530539534372021 0 -0.024045306423966847 0.0024963503401162919 0 -0.024290150148684405 0.0027136155338595108 0 -0.024313513035913611 0.0024752079815266348 0 -0.024045306423966847 0.0024963503401162919 0 -0.024090318959222222 0.0027530539534372021 0 -0.024290150148684405 0.0027136155338595108 0 -0.024045306423966847 0.0024963503401162919 0 -0.024313513035913611 0.0024752079815266348 0 -0.024045306423966847 0.0024963503401162919 0 -0.024210649000374004 0.0021620950314465747 0 -0.023757384511129721 0.002295275629196074 0 -0.024045306423966847 0.0024963503401162919 0 -0.024210649000374004 0.0021620950314465747 0 -0.024313513035913611 0.0024752079815266348 0 -0.024210649000374004 0.0021620950314465747 0 -0.024575470650409163 0.0021894844637384411 0 -0.024530299419288869 0.002804518016484478 0 -0.024550869681405064 0.0024236943957259135 0 -0.024546724545524101 0.0028014335098565111 0 -0.02451108194109931 0.0028566710871430452 0 -0.024557132203512421 0.0028567494705272404 0 -0.02451108194109931 0.0028566710871430452 0 -0.024523177687248033 0.0028664158880128093 0 -0.024557132203512421 0.0028567494705272404 0 -0.024523177687248033 0.0028664158880128093 0 -0.024554720528599232 0.002889980499401919 0 -0.024557132203512421 0.0028567494705272404 0 -0.024528018989875628 0.0028519080870368653 0 -0.024551618507158753 0.002886018317427358 0 -0.024614778223094151 0.0029122393274355735 0 -0.024528018989875628 0.0028519080870368653 0 -0.024523177687248033 0.0028664158880128093 0 -0.024551618507158753 0.002886018317427358 0 -0.024551618507158753 0.002886018317427358 0 -0.024554720528599232 0.002889980499401919 0 -0.024580576973584515 0.0029256694624466705 0 -0.024523177687248033 0.0028664158880128093 0 -0.024551618507158753 0.002886018317427358 0 -0.024554720528599232 0.002889980499401919 0 -0.024551618507158753 0.002886018317427358 0 -0.024580576973584515 0.0029256694624466705 0 -0.024614778223094151 0.0029122393274355735 0 -0.024580576973584515 0.0029256694624466705 0 -0.02456562335241836 0.0029028893628432651 0 -0.024571180706240692 0.0029711329499087589 0 -0.024554720528599232 0.002889980499401919 0 -0.024580576973584515 0.0029256694624466705 0 -0.02456562335241836 0.0029028893628432651 0 -0.025604815299688988 0.0030066460160826196 0 -0.024599489265836699 0.0028463168045196295 0 -0.025164194856930295 0.0030492506056442855 0 -0.02507286418019462 0.0029865228993350306 0 -0.024642481892546916 0.002863479907236731 0 -0.02456562335241836 0.0029028893628432651 0 -0.024571180706240692 0.0029711329499087589 0 -0.024599489265836699 0.0028463168045196295 0 -0.024546724545524101 0.0028014335098565111 0 -0.024599489265836699 0.0028463168045196295 0 -0.024557132203512421 0.0028567494705272404 0 -0.02456562335241836 0.0029028893628432651 0 -0.024599489265836699 0.0028463168045196295 0 -0.024557132203512421 0.0028567494705272404 0 -0.024554720528599232 0.002889980499401919 0 -0.02456562335241836 0.0029028893628432651 0 -0.024557132203512421 0.0028567494705272404 0 -0.025164194856930295 0.0030492506056442855 0 -0.024749235576281049 0.0030549323727828916 0 -0.0250120286554938 0.0031361788194828079 0 -0.024599489265836699 0.0028463168045196295 0 -0.025164194856930295 0.0030492506056442855 0 -0.024749235576281049 0.0030549323727828916 0 -0.02448304939673239 0.003088286358185996 0 -0.024599489265836699 0.0028463168045196295 0 -0.024749235576281049 0.0030549323727828916 0 -0.02582425513530711 0.003019518893192563 0 -0.02554673497383874 0.0031731927232077533 0 -0.026237326178627608 0.0031987652990703745 0 -0.024749235576281049 0.0030549323727828916 0 -0.0250120286554938 0.0031361788194828079 0 -0.024369688765954026 0.0034334880711968671 0 -0.025138123791843114 0.00347407019212228 0 -0.026186040644564847 0.0022665709331670483 0 -0.02582425513530711 0.003019518893192563 0 -0.026237326178627608 0.0031987652990703745 0 -0.026131164125840191 0.0030828516309796606 0 -0.0250120286554938 0.0031361788194828079 0 -0.02554673497383874 0.0031731927232077533 0 -0.024369688765954026 0.0034334880711968671 0 -0.025604815299688988 0.0030066460160826196 0 -0.02554673497383874 0.0031731927232077533 0 -0.02556180107916179 0.0030281112773968672 0 -0.025164194856930295 0.0030492506056442855 0 -0.0250120286554938 0.0031361788194828079 0 -0.02554673497383874 0.0031731927232077533 0 -0.025604815299688988 0.0030066460160826196 0 -0.025164194856930295 0.0030492506056442855 0 -0.02554673497383874 0.0031731927232077533 0 -0.02582425513530711 0.003019518893192563 0 -0.02554673497383874 0.0031731927232077533 0 -0.025659059574855942 0.003013956534696779 0 -0.02554673497383874 0.0031731927232077533 0 -0.025659059574855942 0.003013956534696779 0 -0.025591778880792185 0.0029944183184560445 0 -0.02554673497383874 0.0031731927232077533 0 -0.025591778880792185 0.0029944183184560445 0 -0.02556180107916179 0.0030281112773968672 0 -0.025591778880792185 0.0029944183184560445 0 -0.02568516204460446 0.0028716178231215999 0 -0.025511211350694344 0.0028820458566044087 0 -0.025659059574855942 0.003013956534696779 0 -0.025591778880792185 0.0029944183184560445 0 -0.02568516204460446 0.0028716178231215999 0 -0.02582425513530711 0.003019518893192563 0 -0.025659059574855942 0.003013956534696779 0 -0.02568516204460446 0.0028716178231215999 0 -0.02568516204460446 0.0028716178231215999 0 -0.025682320612460237 0.002749562974548115 0 -0.025785940093585806 0.0027271903513012043 0 -0.02568516204460446 0.0028716178231215999 0 -0.025583593889888109 0.0028049330528617982 0 -0.025682320612460237 0.002749562974548115 0 -0.02568516204460446 0.0028716178231215999 0 -0.026025075715642151 0.0028043624425414656 0 -0.025785940093585806 0.0027271903513012043 0 -0.02582425513530711 0.003019518893192563 0 -0.02568516204460446 0.0028716178231215999 0 -0.026025075715642151 0.0028043624425414656 0 -0.02582425513530711 0.003019518893192563 0 -0.026025075715642151 0.0028043624425414656 0 -0.026131164125840191 0.0030828516309796606 0 -0.034651858941895902 0.0001841388760388548 0 -0.034750375245474308 0.00020840729531200757 0 -0.034774334963118457 0.00010694122484249538 0 -0.034651858941895902 0.0001841388760388548 0 -0.034750375245474308 0.00020840729531200757 0 -0.034752659642017916 0.00028022448970740644 0 -0.030091766408789262 0.0015219073547469949 0 -0.03028212365865985 0.0019557370492154333 0 -0.034750375245474308 0.00020840729531200757 0 -0.034770530843094366 0.00026518539537088558 0 -0.034956258838153315 0.00010161111426085936 0 -0.034770530843094366 0.00026518539537088558 0 -0.034777349765568628 0.00019207063160438676 0 -0.03477484897487166 0.00025864723750329414 0 -0.034750375245474308 0.00020840729531200757 0 -0.034774334963118457 0.00010694122484249538 0 -0.034956258838153315 0.00010161111426085936 0 -0.034779965072300953 0.0002547368756952568 0 -0.034864309533613351 0.00014697902157508792 0 -0.03028212365865985 0.0019557370492154333 0 -0.032007056638060735 0.00012530805393928381 0 -0.028311681476115944 0.00065042357435379501 0 -0.028149704217746454 0.00028719133081373709 0 -0.028752062789859281 0.00023431574570426802 0 -0.034770530843094366 0.00026518539537088558 0 -0.034752659642017916 0.00028022448970740644 0 -0.03477484897487166 0.00025864723750329414 0 -0.028311681476115944 0.00065042357435379501 0 -0.028149704217746454 0.00028719133081373709 0 -0.027984109466450711 0.000300491276357748 0 -0.026025075715642151 0.0028043624425414656 0 -0.026378137208951016 0.003161096022214648 0 -0.026131164125840191 0.0030828516309796606 0 -0.026117564125278145 0.0017775916890273983 0 -0.026186040644564847 0.0022665709331670483 0 -0.03028212365865985 0.0019557370492154333 0 -0.026186040644564847 0.0022665709331670483 0 -0.02448304939673239 0.003088286358185996 0 -0.024749235576281049 0.0030549323727828916 0 -0.024369688765954026 0.0034334880711968671 0 -0.026378137208951016 0.003161096022214648 0 -0.026238012289166446 0.0031758552010936096 0 -0.026131164125840191 0.0030828516309796606 0 -0.026186040644564847 0.0022665709331670483 0 -0.026371486827350316 0.0027583840561193097 0 -0.034750375245474308 0.00020840729531200757 0 -0.034770530843094366 0.00026518539537088558 0 -0.034752659642017916 0.00028022448970740644 0 -0.024829130155341862 0.0030464171305473698 0 -0.024895121882652829 0.0030268645155595059 0 -0.025103612973247952 0.0029672114966296861 0 -0.024595226080965628 0.0031322426343960378 0 -0.024593340276882533 0.0029480352247203997 0 -0.024829130155341862 0.0030464171305473698 0 -0.024829130155341862 0.0030464171305473698 0 -0.024830765682948105 0.0030660209213946429 0 -0.024895121882652829 0.0030268645155595059 0 -0.024595226080965628 0.0031322426343960378 0 -0.024829130155341862 0.0030464171305473698 0 -0.024830765682948105 0.0030660209213946429 0 -0.024595226080965628 0.0031322426343960378 0 -0.024637765666721202 0.0037665044535271576 0 -0.024821879765324247 0.003788628654916503 0 -0.024612317589152066 0.003111609656479648 0 -0.024908215524587281 0.0034022833811928502 0 -0.024595226080965628 0.0031322426343960378 0 -0.024889201910653823 0.0030235257223290291 0 -0.024830765682948105 0.0030660209213946429 0 -0.024889201910653823 0.0030235257223290291 0 -0.024830765682948105 0.0030660209213946429 0 -0.024859474116787111 0.0030115075429864445 0 -0.024865452149016243 0.0029679191869750932 0 -0.024889201910653823 0.0030235257223290291 0 -0.024859474116787111 0.0030115075429864445 0 -0.024830765682948105 0.0030660209213946429 0 -0.024859474116787111 0.0030115075429864445 0 -0.024895121882652829 0.0030268645155595059 0 -0.024859474116787111 0.0030115075429864445 0 -0.024831896844411949 0.0029696814443201671 0 -0.024895121882652829 0.0030268645155595059 0 -0.024842947995797171 0.002933453780317381 0 -0.024859474116787111 0.0030115075429864445 0 -0.024831896844411949 0.0029696814443201671 0 -0.024831896844411949 0.0029696814443201671 0 -0.024895121882652829 0.0030268645155595059 0 -0.02482623471023979 0.0029864709482889554 0 -0.02482623471023979 0.0029864709482889554 0 -0.024774924265102954 0.0030694096729683737 0 -0.025103612973247952 0.0029672114966296861 0 -0.024895121882652829 0.0030268645155595059 0 -0.02482623471023979 0.0029864709482889554 0 -0.025103612973247952 0.0029672114966296861 0 -0.02482623471023979 0.0029864709482889554 0 -0.024674615400782487 0.002966529688539847 0 -0.024774924265102954 0.0030694096729683737 0 -0.02482623471023979 0.0029864709482889554 0 -0.024705831210140295 0.002933697319026395 0 -0.024674615400782487 0.002966529688539847 0 -0.024831896844411949 0.0029696814443201671 0 -0.02482623471023979 0.0029864709482889554 0 -0.024762854917128468 0.0029255222321021637 0 -0.024790666175715275 0.0028892828096801254 0 -0.024831896844411949 0.0029696814443201671 0 -0.024762854917128468 0.0029255222321021637 0 -0.024656294248298384 0.002883564278772776 0 -0.024762854917128468 0.0029255222321021637 0 -0.024705831210140295 0.002933697319026395 0 -0.02482623471023979 0.0029864709482889554 0 -0.024762854917128468 0.0029255222321021637 0 -0.024705831210140295 0.002933697319026395 0 -0.024656294248298384 0.002883564278772776 0 -0.024528018989875628 0.0028519080870368653 0 -0.024614778223094151 0.0029122393274355735 0 -0.024705831210140295 0.002933697319026395 0 -0.024614778223094151 0.0029122393274355735 0 -0.024674615400782487 0.002966529688539847 0 -0.024656294248298384 0.002883564278772776 0 -0.024705831210140295 0.002933697319026395 0 -0.024614778223094151 0.0029122393274355735 0 -0.024580576973584515 0.0029256694624466705 0 -0.024614778223094151 0.0029122393274355735 0 -0.024674615400782487 0.002966529688539847 0 -0.024580576973584515 0.0029256694624466705 0 -0.024571180706240692 0.0029711329499087589 0 -0.024674615400782487 0.002966529688539847 0 -0.02507286418019462 0.0029865228993350306 0 -0.025121482296538843 0.0030304704863026899 0 -0.024571180706240692 0.0029711329499087589 0 -0.024674615400782487 0.002966529688539847 0 -0.024774924265102954 0.0030694096729683737 0 -0.025604815299688988 0.0030066460160826196 0 -0.02556180107916179 0.0030281112773968672 0 -0.02546786838527652 0.0030180893166580299 0 -0.02556180107916179 0.0030281112773968672 0 -0.025511211350694344 0.0028820458566044087 0 -0.02546786838527652 0.0030180893166580299 0 -0.025591778880792185 0.0029944183184560445 0 -0.02556180107916179 0.0030281112773968672 0 -0.025511211350694344 0.0028820458566044087 0 -0.02568516204460446 0.0028716178231215999 0 -0.025583593889888109 0.0028049330528617982 0 -0.025511211350694344 0.0028820458566044087 0 -0.025511211350694344 0.0028820458566044087 0 -0.025394099723237615 0.002769982506340701 0 -0.025476097931791963 0.0027893524267829056 0 -0.025583593889888109 0.0028049330528617982 0 -0.025511211350694344 0.0028820458566044087 0 -0.025476097931791963 0.0027893524267829056 0 -0.025511211350694344 0.0028820458566044087 0 -0.025394099723237615 0.002769982506340701 0 -0.02546786838527652 0.0030180893166580299 0 -0.025394099723237615 0.002769982506340701 0 -0.02546786838527652 0.0030180893166580299 0 -0.025374473956512572 0.0027459208726410369 0 -0.02546786838527652 0.0030180893166580299 0 -0.025103612973247952 0.0029672114966296861 0 -0.025374473956512572 0.0027459208726410369 0 -0.025121482296538843 0.0030304704863026899 0 -0.025090716049379947 0.0029813395782549291 0 -0.025394099723237615 0.002769982506340701 0 -0.025374473956512572 0.0027459208726410369 0 -0.02572744773937968 0.0026893468571375558 0 -0.026030411621538348 0.0020881279646855918 0 -0.025691268219025468 0.002650196839989578 0 -0.027283285487315203 0.0013659782682337196 0 -0.026751502640716174 0.0032273064860968447 0 -0.02572744773937968 0.0026893468571375558 0 -0.025374473956512572 0.0027459208726410369 0 -0.024799870867861208 0.002684586778641172 0 -0.02572744773937968 0.0026893468571375558 0 -0.025103612973247952 0.0029672114966296861 0 -0.025374473956512572 0.0027459208726410369 0 -0.024799870867861208 0.002684586778641172 0 -0.024593340276882533 0.0029480352247203997 0 -0.025103612973247952 0.0029672114966296861 0 -0.024799870867861208 0.002684586778641172 0 -0.024593340276882533 0.0029480352247203997 0 -0.024829130155341862 0.0030464171305473698 0 -0.025103612973247952 0.0029672114966296861 0 -0.035066184091257876 0.00044169524859383197 0 -0.035054110801929272 0.00040507721653805078 0 -0.034883565916617572 0.00040822854773668777 0 -0.030940619910709032 0.0017957890126192929 0 -0.029858486233601818 0.0015878919581240106 0 -0.025394099723237615 0.002769982506340701 0 -0.02572744773937968 0.0026893468571375558 0 -0.025266831851851263 0.0028578858056071666 0 -0.026751502640716174 0.0032273064860968447 0 -0.02572744773937968 0.0026893468571375558 0 -0.025266831851851263 0.0028578858056071666 0 -0.035054110801929272 0.00040507721653805078 0 -0.034883565916617572 0.00040822854773668777 0 -0.034680674631365573 0.00023295290271057049 0 -0.035066184091257876 0.00044169524859383197 0 -0.034883565916617572 0.00040822854773668777 0 -0.034889737426228994 0.00053321328848518772 0 -0.034883565916617572 0.00040822854773668777 0 -0.034479153781925703 0.00048332602963189244 0 -0.034889737426228994 0.00053321328848518772 0 -0.03532062807846529 0.00023583613945300181 0 -0.03482514175163702 0.00019236859791996229 0 -0.034883565916617572 0.00040822854773668777 0 -0.034479153781925703 0.00048332602963189244 0 -0.034680674631365573 0.00023295290271057049 0 -0.025394099723237615 0.002769982506340701 0 -0.025266831851851263 0.0028578858056071666 0 -0.025476097931791963 0.0027893524267829056 0 -0.025266831851851263 0.0028578858056071666 0 -0.025476097931791963 0.0027893524267829056 0 -0.025639895771053436 0.0026077050944059805 0 -0.029858486233601818 0.0015878919581240106 0 -0.030417753900623304 0.0012382378089677364 0 -0.025583593889888109 0.0028049330528617982 0 -0.025476097931791963 0.0027893524267829056 0 -0.025618468524804185 0.0027201346476216138 0 -0.025476097931791963 0.0027893524267829056 0 -0.025618468524804185 0.0027201346476216138 0 -0.025639895771053436 0.0026077050944059805 0 -0.034479153781925703 0.00048332602963189244 0 -0.034680674631365573 0.00023295290271057049 0 -0.033957137933523306 0.00022448796312177357 0 -0.034937774961680296 -0.00013567067302233478 0 -0.03481194573231243 -0.00016092200734680855 0 -0.034716219938818148 -0.00027072386222562597 0 -0.03532062807846529 0.00023583613945300181 0 -0.030417753900623304 0.0012382378089677364 0 -0.034937774961680296 -0.00013567067302233478 0 -0.03481194573231243 -0.00016092200734680855 0 -0.034796145323796997 -5.0679479888346624e-05 0 -0.034937774961680296 -0.00013567067302233478 0 -0.034796145323796997 -5.0679479888346624e-05 0 -0.03495814211741196 -4.0126753290211982e-05 0 -0.034796145323796997 -5.0679479888346624e-05 0 -0.0349880773539374 6.8204010354361623e-06 0 -0.03495814211741196 -4.0126753290211982e-05 0 -0.035209975732810761 2.2552777768110499e-05 0 -0.03487298196285421 -4.3176309029907879e-05 0 -0.034991190643089441 1.0788965204259496e-07 0 -0.034992036151160456 4.0569744970971161e-06 0 -0.0349880773539374 6.8204010354361623e-06 0 -0.0349880773539374 6.8204010354361623e-06 0 -0.034999945085768126 3.0187018648724611e-08 0 -0.034999988157962798 -8.9393108001510741e-10 0 -0.034992036151160456 4.0569744970971161e-06 0 -0.0349880773539374 6.8204010354361623e-06 0 -0.034999988157962798 -8.9393108001510741e-10 0 -0.034999945085768126 3.0187018648724611e-08 0 -0.034991989836070596 -1.0700808429686498e-05 0 -0.035003086022257629 -7.6432190642077065e-06 0 -0.0349880773539374 6.8204010354361623e-06 0 -0.034991989836070596 -1.0700808429686498e-05 0 -0.03495814211741196 -4.0126753290211982e-05 0 -0.0349880773539374 6.8204010354361623e-06 0 -0.034999945085768126 3.0187018648724611e-08 0 -0.034991989836070596 -1.0700808429686498e-05 0 -0.034991989836070596 -1.0700808429686498e-05 0 -0.03495814211741196 -4.0126753290211982e-05 0 -0.035013621052622852 -3.9223658311042608e-05 0 -0.034937774961680296 -0.00013567067302233478 0 -0.03495814211741196 -4.0126753290211982e-05 0 -0.035013621052622852 -3.9223658311042608e-05 0 -0.035013621052622852 -3.9223658311042608e-05 0 -0.035003086022257629 -7.6432190642077065e-06 0 -0.035007374134391443 -3.8787091872658034e-06 0 -0.034991989836070596 -1.0700808429686498e-05 0 -0.035013621052622852 -3.9223658311042608e-05 0 -0.035003086022257629 -7.6432190642077065e-06 0 -0.034999945085768126 3.0187018648724611e-08 0 -0.035003086022257629 -7.6432190642077065e-06 0 -0.034999992172310458 -4.5986312856287384e-08 0 -0.035003086022257629 -7.6432190642077065e-06 0 -0.034999992172310458 -4.5986312856287384e-08 0 -0.035007374134391443 -3.8787091872658034e-06 0 -0.03482514175163702 0.00019236859791996229 0 -0.03506007824725195 0.00018778531857842413 0 -0.035066184091257876 0.00044169524859383197 0 -0.034889737426228994 0.00053321328848518772 0 -0.035102492236900047 0.00038556363455266482 0 -0.034867481099335969 -7.1472767291322743e-06 0 -0.034930981467976935 -3.0345130690133922e-06 0 -0.03495132380513559 -6.0777512153903384e-06 0 -0.034867481099335969 -7.1472767291322743e-06 0 -0.034950350754456468 4.7957840600541863e-07 0 -0.03495132380513559 -6.0777512153903384e-06 0 -0.034867481099335969 -7.1472767291322743e-06 0 -0.034774334963118457 0.00010694122484249538 0 -0.034956258838153315 0.00010161111426085936 0 -0.034867481099335969 -7.1472767291322743e-06 0 -0.034950350754456468 4.7957840600541863e-07 0 -0.034956258838153315 0.00010161111426085936 0 -0.034867481099335969 -7.1472767291322743e-06 0 -0.034774334963118457 0.00010694122484249538 0 -0.034470604688963631 -2.377308612294137e-05 0 -0.03575394428525773 -7.9662264058748429e-05 0 -0.032676503891076146 0.00014925260734928003 0 -0.030091766408789262 0.0015219073547469949 0 -0.032676503891076146 0.00014925260734928003 0 -0.034651858941895902 0.0001841388760388548 0 -0.034774334963118457 0.00010694122484249538 0 -0.034470604688963631 -2.377308612294137e-05 0 -0.026025075715642151 0.0028043624425414656 0 -0.025785940093585806 0.0027271903513012043 0 -0.025818122472656625 0.002579188062867558 0 -0.025618468524804185 0.0027201346476216138 0 -0.025682320612460237 0.002749562974548115 0 -0.025727502062142627 0.0026376053343468106 0 -0.025583593889888109 0.0028049330528617982 0 -0.025618468524804185 0.0027201346476216138 0 -0.025682320612460237 0.002749562974548115 0 -0.025682320612460237 0.002749562974548115 0 -0.025785940093585806 0.0027271903513012043 0 -0.025727502062142627 0.0026376053343468106 0 -0.025785940093585806 0.0027271903513012043 0 -0.025818122472656625 0.002579188062867558 0 -0.025727502062142627 0.0026376053343468106 0 -0.025618468524804185 0.0027201346476216138 0 -0.025727502062142627 0.0026376053343468106 0 -0.025639895771053436 0.0026077050944059805 0 -0.032676503891076146 0.00014925260734928003 0 -0.030417753900623304 0.0012382378089677364 0 -0.025818122472656625 0.002579188062867558 0 -0.025727502062142627 0.0026376053343468106 0 -0.025683589016131818 0.0026065900111118495 0 -0.027615181228782152 0.00089955343738310574 0 -0.030417753900623304 0.0012382378089677364 0 -0.034991190643089441 1.0788965204259496e-07 0 -0.034962147966054923 -3.7972054044874162e-05 0 -0.034966201611821957 -4.0933507524612405e-06 0 -0.03481194573231243 -0.00016092200734680855 0 -0.034796145323796997 -5.0679479888346624e-05 0 -0.034565900644586381 -0.00025846383662946266 0 -0.035209975732810761 2.2552777768110499e-05 0 -0.032676503891076146 0.00014925260734928003 0 -0.03481194573231243 -0.00016092200734680855 0 -0.034565900644586381 -0.00025846383662946266 0 -0.034716219938818148 -0.00027072386222562597 0 -0.034962147966054923 -3.7972054044874162e-05 0 -0.034930981467976935 -3.0345130690133922e-06 0 -0.034966201611821957 -4.0933507524612405e-06 0 -0.034867481099335969 -7.1472767291322743e-06 0 -0.034962147966054923 -3.7972054044874162e-05 0 -0.034930981467976935 -3.0345130690133922e-06 0 -0.034930981467976935 -3.0345130690133922e-06 0 -0.034966201611821957 -4.0933507524612405e-06 0 -0.034960202393531183 -4.1079221099630404e-07 0 -0.034966201611821957 -4.0933507524612405e-06 0 -0.034960202393531183 -4.1079221099630404e-07 0 -0.034982155846598043 3.7764524819514565e-06 0 -0.034991190643089441 1.0788965204259496e-07 0 -0.034992036151160456 4.0569744970971161e-06 0 -0.034982155846598043 3.7764524819514565e-06 0 -0.034991190643089441 1.0788965204259496e-07 0 -0.034966201611821957 -4.0933507524612405e-06 0 -0.034982155846598043 3.7764524819514565e-06 0 -0.034992036151160456 4.0569744970971161e-06 0 -0.034982155846598043 3.7764524819514565e-06 0 -0.034999988157962798 -8.9393108001510741e-10 0 -0.034960202393531183 -4.1079221099630404e-07 0 -0.034982155846598043 3.7764524819514565e-06 0 -0.034999934825164024 9.2247786776184701e-09 0 -0.034982155846598043 3.7764524819514565e-06 0 -0.034999988157962798 -8.9393108001510741e-10 0 -0.034999934825164024 9.2247786776184701e-09 0 -0.034960202393531183 -4.1079221099630404e-07 0 -0.034999934825164024 9.2247786776184701e-09 0 -0.03495132380513559 -6.0777512153903384e-06 0 -0.034930981467976935 -3.0345130690133922e-06 0 -0.034960202393531183 -4.1079221099630404e-07 0 -0.03495132380513559 -6.0777512153903384e-06 0 -0.034950350754456468 4.7957840600541863e-07 0 -0.03495132380513559 -6.0777512153903384e-06 0 -0.034987260947169099 -7.1191231771185862e-06 0 -0.034999934825164024 9.2247786776184701e-09 0 -0.03495132380513559 -6.0777512153903384e-06 0 -0.03499996602448336 -1.7370910001238562e-08 0 -0.03499996602448336 -1.7370910001238562e-08 0 -0.034994788994363299 -4.6816878184370589e-06 0 -0.034987260947169099 -7.1191231771185862e-06 0 -0.03495132380513559 -6.0777512153903384e-06 0 -0.03499996602448336 -1.7370910001238562e-08 0 -0.034987260947169099 -7.1191231771185862e-06 0 -0.034994788994363299 -4.6816878184370589e-06 0 -0.035000003338809246 -2.0618891207892388e-08 0 -0.03499302322818202 -1.0403207661036072e-05 0 -0.03499996602448336 -1.7370910001238562e-08 0 -0.034994788994363299 -4.6816878184370589e-06 0 -0.035000003338809246 -2.0618891207892388e-08 0 -0.034987260947169099 -7.1191231771185862e-06 0 -0.03499302322818202 -1.0403207661036072e-05 0 -0.034997037174313177 1.0952350810466264e-05 0 -0.034985172600706098 -5.977011386562452e-06 0 -0.034926298050713497 5.4823808882900107e-05 0 -0.034994788994363299 -4.6816878184370589e-06 0 -0.034987260947169099 -7.1191231771185862e-06 0 -0.03499302322818202 -1.0403207661036072e-05 0 -0.03499302322818202 -1.0403207661036072e-05 0 -0.034963000372308296 4.5538653280074557e-05 0 -0.034852152992349263 9.2949240839106952e-05 0 -0.035000020399343912 4.1052277882516845e-09 0 -0.035011313057708653 -1.5580128449586657e-05 0 -0.034991945576823051 -3.9899330898438585e-05 0 -0.035000020399343912 4.1052277882516845e-09 0 -0.035011313057708653 -1.5580128449586657e-05 0 -0.035000003338809246 -2.0618891207892388e-08 0 -0.035011313057708653 -1.5580128449586657e-05 0 -0.035000003338809246 -2.0618891207892388e-08 0 -0.0350142067595057 -1.5167764143537648e-05 0 -0.035000003338809246 -2.0618891207892388e-08 0 -0.03499302322818202 -1.0403207661036072e-05 0 -0.0350142067595057 -1.5167764143537648e-05 0 -0.035022547945260933 -1.7835176359741502e-05 0 -0.035021350732476683 -5.3224028933635365e-05 0 -0.0350142067595057 -1.5167764143537648e-05 0 -0.035037426405573467 -6.0413053607282038e-05 0 -0.035105633465511384 -0.0001384082683571696 0 -0.034963000372308296 4.5538653280074557e-05 0 -0.0350142067595057 -1.5167764143537648e-05 0 -0.0349796478631864 9.4528360021869115e-05 0 -0.03499302322818202 -1.0403207661036072e-05 0 -0.034963000372308296 4.5538653280074557e-05 0 -0.0350142067595057 -1.5167764143537648e-05 0 -0.035011313057708653 -1.5580128449586657e-05 0 -0.0350142067595057 -1.5167764143537648e-05 0 -0.035037426405573467 -6.0413053607282038e-05 0 -0.035011313057708653 -1.5580128449586657e-05 0 -0.035037426405573467 -6.0413053607282038e-05 0 -0.034991945576823051 -3.9899330898438585e-05 0 -0.035037426405573467 -6.0413053607282038e-05 0 -0.035019058812085002 -0.00017665803112470741 0 -0.035105633465511384 -0.0001384082683571696 0 -0.035037426405573467 -6.0413053607282038e-05 0 -0.035019058812085002 -0.00017665803112470741 0 -0.034991945576823051 -3.9899330898438585e-05 0 -0.034963000372308296 4.5538653280074557e-05 0 -0.0349796478631864 9.4528360021869115e-05 0 -0.034852152992349263 9.2949240839106952e-05 0 -0.0349796478631864 9.4528360021869115e-05 0 -0.034953773671055781 0.00017783271763663187 0 -0.034871147855920631 0.00017851140934321705 0 -0.035019058812085002 -0.00017665803112470741 0 -0.035105633465511384 -0.0001384082683571696 0 -0.035117956799307688 -0.00035327336161443271 0 -0.035019058812085002 -0.00017665803112470741 0 -0.035117956799307688 -0.00035327336161443271 0 -0.035001849677960675 -0.0003677686684344156 0 -0.035021350732476683 -5.3224028933635365e-05 0 -0.035195399214006884 -1.5704518117537586e-05 0 -0.034950350754456468 4.7957840600541863e-07 0 -0.034997037174313177 1.0952350810466264e-05 0 -0.034956258838153315 0.00010161111426085936 0 -0.034950350754456468 4.7957840600541863e-07 0 -0.034987260947169099 -7.1191231771185862e-06 0 -0.034997037174313177 1.0952350810466264e-05 0 -0.034852152992349263 9.2949240839106952e-05 0 -0.034871147855920631 0.00017851140934321705 0 -0.034777349765568628 0.00019207063160438676 0 -0.0349796478631864 9.4528360021869115e-05 0 -0.034852152992349263 9.2949240839106952e-05 0 -0.034871147855920631 0.00017851140934321705 0 -0.034926298050713497 5.4823808882900107e-05 0 -0.034864309533613351 0.00014697902157508792 0 -0.034777349765568628 0.00019207063160438676 0 -0.03481768993187459 0.00022363359752505352 0 -0.03477484897487166 0.00025864723750329414 0 -0.034871147855920631 0.00017851140934321705 0 -0.034777349765568628 0.00019207063160438676 0 -0.03481768993187459 0.00022363359752505352 0 -0.03481768993187459 0.00022363359752505352 0 -0.03477484897487166 0.00025864723750329414 0 -0.034850707789308141 0.00025539115627289062 0 -0.032007056638060735 0.00012530805393928381 0 -0.032068722870840213 0.0002825880223623494 0 -0.028752062789859281 0.00023431574570426802 0 -0.029541409945335877 0.00017235688274649792 0 -0.029182340125126213 0.00062157743503193084 0 -0.034871147855920631 0.00017851140934321705 0 -0.03481768993187459 0.00022363359752505352 0 -0.034850707789308141 0.00025539115627289062 0 -0.034953773671055781 0.00017783271763663187 0 -0.034871147855920631 0.00017851140934321705 0 -0.034850707789308141 0.00025539115627289062 0 -0.034953773671055781 0.00017783271763663187 0 -0.034850707789308141 0.00025539115627289062 0 -0.034942785894480383 0.00024403190693517724 0 -0.035195399214006884 -1.5704518117537586e-05 0 -0.032992794714902851 -0.00021472878839983781 0 -0.035117956799307688 -0.00035327336161443271 0 -0.035064047565987091 -0.00057902901169351281 0 -0.035001849677960675 -0.0003677686684344156 0 -0.030349325513041602 0.0001228375769320043 0 -0.029954201683004385 0.00048466627884892645 0 -0.030461641357428577 0.0006019829132579502 0 -0.032992794714902851 -0.00021472878839983781 0 -0.028811156416490437 -0.00077773886137584428 0 -0.032068722870840213 0.0002825880223623494 0 -0.032992794714902851 -0.00021472878839983781 0 -0.029541409945335877 0.00017235688274649792 0 -0.030349325513041602 0.0001228375769320043 0 -0.029954201683004385 0.00048466627884892645 0 -0.029541409945335877 0.00017235688274649792 0 -0.029594603798312275 0.00059457573870341622 0 -0.029954201683004385 0.00048466627884892645 0 -0.029594603798312275 0.00059457573870341622 0 -0.029954201683004385 0.00048466627884892645 0 -0.029770920675885736 0.00094139306117352057 0 -0.029594603798312275 0.00059457573870341622 0 -0.029770920675885736 0.00094139306117352057 0 -0.029490777790510427 0.00080903781126954837 0 -0.029954201683004385 0.00048466627884892645 0 -0.030461641357428577 0.0006019829132579502 0 -0.029770920675885736 0.00094139306117352057 0 -0.028811156416490437 -0.00077773886137584428 0 -0.027282745130553603 -0.00012385693705052806 0 -0.025745916749367461 -0.0015601501836387541 0 -0.025388522643498328 -0.00087491594908324893 0 -0.025867221162610223 -0.0010220151634795247 0 -0.025745916749367461 -0.0015601501836387541 0 -0.025388522643498328 -0.00087491594908324893 0 -0.025069410660749043 -0.0012411129883524391 0 -0.024965529936250102 -0.00060515375576993252 0 -0.025388522643498328 -0.00087491594908324893 0 -0.025069410660749043 -0.0012411129883524391 0 -0.024965529936250102 -0.00060515375576993252 0 -0.02496532958766972 -0.0011915455648384833 0 -0.025069410660749043 -0.0012411129883524391 0 -0.029663747116300744 0.00099268820686419139 0 -0.029770920675885736 0.00094139306117352057 0 -0.029490777790510427 0.00080903781126954837 0 -0.027694295368267004 -0.00036007570079489999 0 -0.027282745130553603 -0.00012385693705052806 0 -0.027694295368267004 -0.00036007570079489999 0 -0.025010543773953144 0.00050796726019632121 0 -0.027694295368267004 -0.00036007570079489999 0 -0.02342652655601762 -0.00012641083712684327 0 -0.024965529936250102 -0.00060515375576993252 0 -0.02496532958766972 -0.0011915455648384833 0 -0.024389399108355751 -0.00091154664428108611 0 -0.029663747116300744 0.00099268820686419139 0 -0.029252912280081721 0.00091055076925685937 0 -0.029006740048917574 0.001225774224059501 0 -0.027494832068916009 -0.00075662230798738113 0 -0.024470785503505781 0.00072151259166536525 0 -0.024088739392738381 0.00051094229219912418 0 -0.029663747116300744 0.00099268820686419139 0 -0.029252912280081721 0.00091055076925685937 0 -0.029490777790510427 0.00080903781126954837 0 -0.02140542547294165 0.00036662959503597448 0 -0.021511634803785366 0.00030346627154966802 0 -0.021462088703019425 0.00040205840309690146 0 -0.02342652655601762 -0.00012641083712684327 0 -0.022237781460701565 0.00033364843993482265 0 -0.02342652655601762 -0.00012641083712684327 0 -0.025010543773953144 0.00050796726019632121 0 -0.021511634803785366 0.00030346627154966802 0 -0.021462088703019425 0.00040205840309690146 0 -0.021596720906591489 0.00035824728942532031 0 -0.025010543773953144 0.00050796726019632121 0 -0.020130230011348331 0.00094833932376123947 0 -0.025381319897080777 0.0021818181965912262 0 -0.020130230011348331 0.00094833932376123947 0 -0.024779981934236341 0.0020537722690980287 0 -0.022314056273802584 0.00067597397859340798 0 -0.023203836292198878 0.00032712372450518541 0 -0.025381319897080777 0.0021818181965912262 0 -0.025010543773953144 0.00050796726019632121 0 -0.028635239531133873 0.0010131230497573099 0 -0.029006740048917574 0.001225774224059501 0 -0.028946981552367919 0.00090881807564894873 0 -0.029252912280081721 0.00091055076925685937 0 -0.029006740048917574 0.001225774224059501 0 -0.028946981552367919 0.00090881807564894873 0 -0.029252912280081721 0.00091055076925685937 0 -0.028946981552367919 0.00090881807564894873 0 -0.029182340125126213 0.00062157743503193084 0 -0.028752062789859281 0.00023431574570426802 0 -0.028729144800033107 0.00066057477982244797 0 -0.029182340125126213 0.00062157743503193084 0 -0.028946981552367919 0.00090881807564894873 0 -0.028729144800033107 0.00066057477982244797 0 -0.029182340125126213 0.00062157743503193084 0 -0.028635239531133873 0.0010131230497573099 0 -0.028946981552367919 0.00090881807564894873 0 -0.028729144800033107 0.00066057477982244797 0 -0.029541409945335877 0.00017235688274649792 0 -0.029594603798312275 0.00059457573870341622 0 -0.029182340125126213 0.00062157743503193084 0 -0.029594603798312275 0.00059457573870341622 0 -0.029182340125126213 0.00062157743503193084 0 -0.029490777790510427 0.00080903781126954837 0 -0.029252912280081721 0.00091055076925685937 0 -0.029182340125126213 0.00062157743503193084 0 -0.029490777790510427 0.00080903781126954837 0 -0.034058541921485039 -0.0011728299465635292 0 -0.034119171324162048 -0.0015069029832625945 0 -0.034128654788529347 -0.0010752365877607032 0 -0.034058541921485039 -0.0011728299465635292 0 -0.033913176441238528 -0.0011449076923544111 0 -0.034119171324162048 -0.0015069029832625945 0 -0.033865372357734208 -0.0016570893244707316 0 -0.034104782308575984 -0.0011195498648075345 0 -0.034058541921485039 -0.0011728299465635292 0 -0.033913176441238528 -0.0011449076923544111 0 -0.034066878940243565 -0.00097489552805620329 0 -0.033913176441238528 -0.0011449076923544111 0 -0.033708419239803361 -0.00093235064236010985 0 -0.033601603676050591 -0.0012026168456751682 0 -0.033913176441238528 -0.0011449076923544111 0 -0.033601603676050591 -0.0012026168456751682 0 -0.033548809776160572 -0.0015904030609529391 0 -0.033913176441238528 -0.0011449076923544111 0 -0.034119171324162048 -0.0015069029832625945 0 -0.033548809776160572 -0.0015904030609529391 0 -0.032553797682039101 -0.0020154364028442499 0 -0.032184182234112804 -0.0017335462983138219 0 -0.03387240180424702 -0.0021524526315576751 0 -0.034250105512248906 -0.0020218375195891931 0 -0.034191752290045216 -0.0014224697698472738 0 -0.03387240180424702 -0.0021524526315576751 0 -0.033609131317654521 -0.0017928429735734862 0 -0.034191752290045216 -0.0014224697698472738 0 -0.030137088614815538 -0.0016178946946374421 0 -0.029797442637844271 -0.0017679447249582334 0 -0.030334246412701743 -0.0021270339357014451 0 -0.028811156416490437 -0.00077773886137584428 0 -0.026227857468162547 -0.0016449911452715014 0 -0.029797442637844271 -0.0017679447249582334 0 -0.030334246412701743 -0.0021270339357014451 0 -0.030154342132434599 -0.0024830596197149956 0 -0.026227857468162547 -0.0016449911452715014 0 -0.03123886137600022 -0.0017193484600214561 0 -0.028415385716891482 -0.0016923273959554661 0 -0.028637070755288024 -0.00079865336237388217 0 -0.02922734376452198 -0.0020807278664908562 0 -0.028811156416490437 -0.00077773886137584428 0 -0.03123886137600022 -0.0017193484600214561 0 -0.032184182234112804 -0.0017335462983138219 0 -0.033109010160359664 -0.0015756522999838217 0 -0.033609131317654521 -0.0017928429735734862 0 -0.034191752290045216 -0.0014224697698472738 0 -0.034128654788529347 -0.0010752365877607032 0 -0.030334246412701743 -0.0021270339357014451 0 -0.030154342132434599 -0.0024830596197149956 0 -0.030529165485141611 -0.0026512241261491269 0 -0.034191752290045216 -0.0014224697698472738 0 -0.034128654788529347 -0.0010752365877607032 0 -0.034170368631626515 -0.00093185160995148009 0 -0.03123886137600022 -0.0017193484600214561 0 -0.033109010160359664 -0.0015756522999838217 0 -0.032281404903304237 -0.0011720839647939825 0 -0.032547455040690357 -0.0017762044720429152 0 -0.033143404065508794 -0.00158889450577148 0 -0.03123886137600022 -0.0017193484600214561 0 -0.03352775792714769 -0.0011289044419520603 0 -0.03352775792714769 -0.0011289044419520603 0 -0.034061516353628661 -0.00091496952326028023 0 -0.03352775792714769 -0.0011289044419520603 0 -0.033677923636917663 -0.0014000519702720155 0 -0.034868500841167979 -0.00068379896751511805 0 -0.034717307511238277 -0.00068534099631345773 0 -0.034766341736292818 -0.00061213701420720942 0 -0.032547455040690357 -0.0017762044720429152 0 -0.033209638810201711 -0.0018044167529048343 0 -0.033143404065508794 -0.00158889450577148 0 -0.034711912422111697 -0.00065257084063670401 0 -0.034717307511238277 -0.00068534099631345773 0 -0.034766341736292818 -0.00061213701420720942 0 -0.033747798228341876 -0.0012496072889599573 0 -0.033677923636917663 -0.0014000519702720155 0 -0.034711912422111697 -0.00065257084063670401 0 -0.034728362561339987 -0.00070844924731370998 0 -0.034690270492865188 -0.00070646718866990285 0 -0.033677923636917663 -0.0014000519702720155 0 -0.033848960089832847 -0.0013730560519458813 0 -0.034717870014260639 -0.00070526360153288343 0 -0.034736846079848116 -0.00073712885953949197 0 -0.034690270492865188 -0.00070646718866990285 0 -0.033677923636917663 -0.0014000519702720155 0 -0.033109010160359664 -0.0015756522999838217 0 -0.031288509814434554 -0.0011044222903103243 0 -0.032292644491075065 -0.0011547110775798847 0 -0.031789430343571796 -0.00087605699663291492 0 -0.031288509814434554 -0.0011044222903103243 0 -0.031447434895185124 -0.00045736060917646863 0 -0.031789430343571796 -0.00087605699663291492 0 -0.035064047565987091 -0.00057902901169351281 0 -0.034836700467176414 -0.00059378356428123791 0 -0.034942846106933878 -0.00049229888125067991 0 -0.032992794714902851 -0.00021472878839983781 0 -0.03352775792714769 -0.0011289044419520603 0 -0.031447434895185124 -0.00045736060917646863 0 -0.032128884710067494 -0.00078687408912237757 0 -0.031789430343571796 -0.00087605699663291492 0 -0.032128884710067494 -0.00078687408912237757 0 -0.032292644491075065 -0.0011547110775798847 0 -0.031789430343571796 -0.00087605699663291492 0 -0.035064047565987091 -0.00057902901169351281 0 -0.034942846106933878 -0.00049229888125067991 0 -0.035001849677960675 -0.0003677686684344156 0 -0.034836700467176414 -0.00059378356428123791 0 -0.034942846106933878 -0.00049229888125067991 0 -0.034868691152270488 -0.00050600051307200095 0 -0.034942846106933878 -0.00049229888125067991 0 -0.034895087268648123 -0.00040713885762983751 0 -0.035001849677960675 -0.0003677686684344156 0 -0.034942846106933878 -0.00049229888125067991 0 -0.034895087268648123 -0.00040713885762983751 0 -0.034868691152270488 -0.00050600051307200095 0 -0.03475231158871233 -0.00055740569845614868 0 -0.034822951039282582 -0.0005589731176444951 0 -0.034818294078873442 -0.00047345956177218928 0 -0.03475231158871233 -0.00055740569845614868 0 -0.034711929247524254 -0.00047463907067460506 0 -0.034688281205008997 -0.00059681255872069368 0 -0.034711912422111697 -0.00065257084063670401 0 -0.03475231158871233 -0.00055740569845614868 0 -0.034766341736292818 -0.00061213701420720942 0 -0.034711912422111697 -0.00065257084063670401 0 -0.03475231158871233 -0.00055740569845614868 0 -0.034688281205008997 -0.00059681255872069368 0 -0.03475231158871233 -0.00055740569845614868 0 -0.034766341736292818 -0.00061213701420720942 0 -0.034822951039282582 -0.0005589731176444951 0 -0.034868500841167979 -0.00068379896751511805 0 -0.034766341736292818 -0.00061213701420720942 0 -0.034822951039282582 -0.0005589731176444951 0 -0.034836700467176414 -0.00059378356428123791 0 -0.034822951039282582 -0.0005589731176444951 0 -0.034868691152270488 -0.00050600051307200095 0 -0.034822951039282582 -0.0005589731176444951 0 -0.034868691152270488 -0.00050600051307200095 0 -0.034818294078873442 -0.00047345956177218928 0 -0.034895087268648123 -0.00040713885762983751 0 -0.034818294078873442 -0.00047345956177218928 0 -0.034813377164119384 -0.00035163726143038935 0 -0.034895087268648123 -0.00040713885762983751 0 -0.034868691152270488 -0.00050600051307200095 0 -0.034818294078873442 -0.00047345956177218928 0 -0.034818294078873442 -0.00047345956177218928 0 -0.034711929247524254 -0.00047463907067460506 0 -0.034813377164119384 -0.00035163726143038935 0 -0.03475231158871233 -0.00055740569845614868 0 -0.034818294078873442 -0.00047345956177218928 0 -0.034711929247524254 -0.00047463907067460506 0 -0.03461788065671309 -0.00045696085777341021 0 -0.034711929247524254 -0.00047463907067460506 0 -0.034628146268443828 -0.00059136869789246365 0 -0.03461788065671309 -0.00045696085777341021 0 -0.034711929247524254 -0.00047463907067460506 0 -0.034680397192179607 -0.00031415829687698619 0 -0.03461788065671309 -0.00045696085777341021 0 -0.034470999837788334 -0.00045001387368799931 0 -0.034628146268443828 -0.00059136869789246365 0 -0.034470999837788334 -0.00045001387368799931 0 -0.034504452112157559 -0.0007060241383076561 0 -0.034628146268443828 -0.00059136869789246365 0 -0.034628146268443828 -0.00059136869789246365 0 -0.034688281205008997 -0.00059681255872069368 0 -0.034690270492865188 -0.00070646718866990285 0 -0.034504452112157559 -0.0007060241383076561 0 -0.034628146268443828 -0.00059136869789246365 0 -0.034690270492865188 -0.00070646718866990285 0 -0.034711929247524254 -0.00047463907067460506 0 -0.034628146268443828 -0.00059136869789246365 0 -0.034688281205008997 -0.00059681255872069368 0 -0.034711912422111697 -0.00065257084063670401 0 -0.034688281205008997 -0.00059681255872069368 0 -0.034690270492865188 -0.00070646718866990285 0 -0.034170368631626515 -0.00093185160995148009 0 -0.034039212892324006 -0.00084874396180295922 0 -0.034066878940243565 -0.00097489552805620329 0 -0.034736846079848116 -0.00073712885953949197 0 -0.034504452112157559 -0.0007060241383076561 0 -0.034690270492865188 -0.00070646718866990285 0 -0.033109010160359664 -0.0015756522999838217 0 -0.034392895990359038 -0.00082633067492888276 0 -0.034039212892324006 -0.00084874396180295922 0 -0.034066878940243565 -0.00097489552805620329 0 -0.033949478080641277 -0.00088913700361396115 0 -0.034058541921485039 -0.0011728299465635292 0 -0.034128654788529347 -0.0010752365877607032 0 -0.034066878940243565 -0.00097489552805620329 0 -0.034128654788529347 -0.0010752365877607032 0 -0.034170368631626515 -0.00093185160995148009 0 -0.034066878940243565 -0.00097489552805620329 0 -0.033949478080641277 -0.00088913700361396115 0 -0.034039328987513717 -0.00064155001661002375 0 -0.033708419239803361 -0.00093235064236010985 0 -0.033913176441238528 -0.0011449076923544111 0 -0.033949478080641277 -0.00088913700361396115 0 -0.033708419239803361 -0.00093235064236010985 0 -0.033913176441238528 -0.0011449076923544111 0 -0.034066878940243565 -0.00097489552805620329 0 -0.033949478080641277 -0.00088913700361396115 0 -0.034392895990359038 -0.00082633067492888276 0 -0.033995304088868389 -0.00062736607625922633 0 -0.034039212892324006 -0.00084874396180295922 0 -0.033949478080641277 -0.00088913700361396115 0 -0.034039328987513717 -0.00064155001661002375 0 -0.034470999837788334 -0.00045001387368799931 0 -0.034504452112157559 -0.0007060241383076561 0 -0.034039328987513717 -0.00064155001661002375 0 -0.034470999837788334 -0.00045001387368799931 0 -0.034039328987513717 -0.00064155001661002375 0 -0.034296725369735187 -0.00032938919574043745 0 -0.034296725369735187 -0.00032938919574043745 0 -0.034180319362083343 -0.00022667205367339629 0 -0.0340087734524325 -0.00039730232567546759 0 -0.034039328987513717 -0.00064155001661002375 0 -0.034296725369735187 -0.00032938919574043745 0 -0.0340087734524325 -0.00039730232567546759 0 -0.034180319362083343 -0.00022667205367339629 0 -0.03438206012920187 -0.00014152137522342075 0 -0.034166649060791338 -7.7384900794249606e-05 0 -0.034296725369735187 -0.00032938919574043745 0 -0.034180319362083343 -0.00022667205367339629 0 -0.03438206012920187 -0.00014152137522342075 0 -0.034296725369735187 -0.00032938919574043745 0 -0.034538502436536153 -0.00022156048363407798 0 -0.03438206012920187 -0.00014152137522342075 0 -0.034470999837788334 -0.00045001387368799931 0 -0.034296725369735187 -0.00032938919574043745 0 -0.034538502436536153 -0.00022156048363407798 0 -0.03461788065671309 -0.00045696085777341021 0 -0.034470999837788334 -0.00045001387368799931 0 -0.034680397192179607 -0.00031415829687698619 0 -0.034470999837788334 -0.00045001387368799931 0 -0.034680397192179607 -0.00031415829687698619 0 -0.034538502436536153 -0.00022156048363407798 0 -0.034680397192179607 -0.00031415829687698619 0 -0.034704624839674354 -0.00013252913817224504 0 -0.034818457686622777 -0.00019390434341887299 0 -0.034680397192179607 -0.00031415829687698619 0 -0.034538502436536153 -0.00022156048363407798 0 -0.034704624839674354 -0.00013252913817224504 0 -0.034538502436536153 -0.00022156048363407798 0 -0.034704624839674354 -0.00013252913817224504 0 -0.034569571488391126 -6.2106372780738994e-05 0 -0.034704624839674354 -0.00013252913817224504 0 -0.034834339088483844 -5.1949141873324991e-05 0 -0.034715886994786511 -2.023635653011055e-05 0 -0.034704624839674354 -0.00013252913817224504 0 -0.034569571488391126 -6.2106372780738994e-05 0 -0.034715886994786511 -2.023635653011055e-05 0 -0.034569571488391126 -6.2106372780738994e-05 0 -0.034641379483837081 5.3160900572423986e-05 0 -0.034715886994786511 -2.023635653011055e-05 0 -0.034569571488391126 -6.2106372780738994e-05 0 -0.034394384564039898 -2.1501529498683529e-05 0 -0.034641379483837081 5.3160900572423986e-05 0 -0.034394384564039898 -2.1501529498683529e-05 0 -0.03438206012920187 -0.00014152137522342075 0 -0.034166649060791338 -7.7384900794249606e-05 0 -0.034569571488391126 -6.2106372780738994e-05 0 -0.034394384564039898 -2.1501529498683529e-05 0 -0.03438206012920187 -0.00014152137522342075 0 -0.034538502436536153 -0.00022156048363407798 0 -0.034569571488391126 -6.2106372780738994e-05 0 -0.03438206012920187 -0.00014152137522342075 0 -0.035019058812085002 -0.00017665803112470741 0 -0.035001849677960675 -0.0003677686684344156 0 -0.034913874335478684 -0.00026504847591116371 0 -0.034895087268648123 -0.00040713885762983751 0 -0.035001849677960675 -0.0003677686684344156 0 -0.034913874335478684 -0.00026504847591116371 0 -0.034913874335478684 -0.00026504847591116371 0 -0.034813377164119384 -0.00035163726143038935 0 -0.034818457686622777 -0.00019390434341887299 0 -0.034895087268648123 -0.00040713885762983751 0 -0.034913874335478684 -0.00026504847591116371 0 -0.034813377164119384 -0.00035163726143038935 0 -0.034711929247524254 -0.00047463907067460506 0 -0.034680397192179607 -0.00031415829687698619 0 -0.034813377164119384 -0.00035163726143038935 0 -0.034680397192179607 -0.00031415829687698619 0 -0.034813377164119384 -0.00035163726143038935 0 -0.034818457686622777 -0.00019390434341887299 0 -0.034818457686622777 -0.00019390434341887299 0 -0.034834339088483844 -5.1949141873324991e-05 0 -0.034936662287004781 -0.00012046289451496441 0 -0.034704624839674354 -0.00013252913817224504 0 -0.034818457686622777 -0.00019390434341887299 0 -0.034834339088483844 -5.1949141873324991e-05 0 -0.034913874335478684 -0.00026504847591116371 0 -0.034818457686622777 -0.00019390434341887299 0 -0.034936662287004781 -0.00012046289451496441 0 -0.035019058812085002 -0.00017665803112470741 0 -0.034936662287004781 -0.00012046289451496441 0 -0.034991945576823051 -3.9899330898438585e-05 0 -0.035019058812085002 -0.00017665803112470741 0 -0.034913874335478684 -0.00026504847591116371 0 -0.034936662287004781 -0.00012046289451496441 0 -0.034936662287004781 -0.00012046289451496441 0 -0.034991945576823051 -3.9899330898438585e-05 0 -0.034946136736084002 -2.5808755494235951e-06 0 -0.034834339088483844 -5.1949141873324991e-05 0 -0.034946136736084002 -2.5808755494235951e-06 0 -0.03482149471410869 4.3493340366206816e-05 0 -0.034834339088483844 -5.1949141873324991e-05 0 -0.034936662287004781 -0.00012046289451496441 0 -0.034946136736084002 -2.5808755494235951e-06 0 -0.034946136736084002 -2.5808755494235951e-06 0 -0.034999832765554323 3.948964442219999e-08 0 -0.03482149471410869 4.3493340366206816e-05 0 -0.035000020399343912 4.1052277882516845e-09 0 -0.034991945576823051 -3.9899330898438585e-05 0 -0.034946136736084002 -2.5808755494235951e-06 0 -0.035000020399343912 4.1052277882516845e-09 0 -0.034946136736084002 -2.5808755494235951e-06 0 -0.034999832765554323 3.948964442219999e-08 0 -0.034641379483837081 5.3160900572423986e-05 0 -0.03482149471410869 4.3493340366206816e-05 0 -0.034762424772633714 8.9626259228853497e-05 0 -0.034641379483837081 5.3160900572423986e-05 0 -0.034762424772633714 8.9626259228853497e-05 0 -0.034470596785088937 4.6763474119897069e-05 0 -0.034394384564039898 -2.1501529498683529e-05 0 -0.034641379483837081 5.3160900572423986e-05 0 -0.034470596785088937 4.6763474119897069e-05 0 -0.034641379483837081 5.3160900572423986e-05 0 -0.034715886994786511 -2.023635653011055e-05 0 -0.03482149471410869 4.3493340366206816e-05 0 -0.034834339088483844 -5.1949141873324991e-05 0 -0.034715886994786511 -2.023635653011055e-05 0 -0.03482149471410869 4.3493340366206816e-05 0 -0.034999832765554323 3.948964442219999e-08 0 -0.03482149471410869 4.3493340366206816e-05 0 -0.034999524632301458 1.0101037437752082e-07 0 -0.03482149471410869 4.3493340366206816e-05 0 -0.034999524632301458 1.0101037437752082e-07 0 -0.034762424772633714 8.9626259228853497e-05 0 -0.034999524632301458 1.0101037437752082e-07 0 -0.034843883258673922 5.8077612465091596e-05 0 -0.034762424772633714 8.9626259228853497e-05 0 -0.034999524632301458 1.0101037437752082e-07 0 -0.034843883258673922 5.8077612465091596e-05 0 -0.034999643596690312 7.0087515067450411e-08 0 -0.034762424772633714 8.9626259228853497e-05 0 -0.034711864550607686 0.00012157323407909927 0 -0.034573516081509034 0.00017385741295129778 0 -0.034762424772633714 8.9626259228853497e-05 0 -0.034470596785088937 4.6763474119897069e-05 0 -0.034106143609100983 2.6996334355101705e-05 0 -0.034762424772633714 8.9626259228853497e-05 0 -0.034106143609100983 2.6996334355101705e-05 0 -0.033872672024250962 1.9417862348022235e-05 0 -0.034679917890006795 8.7222981966313668e-05 0 -0.034225346106340933 9.5069580868536546e-05 0 -0.034843883258673922 5.8077612465091596e-05 0 -0.034762424772633714 8.9626259228853497e-05 0 -0.034711864550607686 0.00012157323407909927 0 -0.034843883258673922 5.8077612465091596e-05 0 -0.034711864550607686 0.00012157323407909927 0 -0.034744790495385321 9.4816876555122671e-05 0 -0.034744790495385321 9.4816876555122671e-05 0 -0.034520426558951822 0.00018245461177241186 0 -0.034607569422517907 0.00016070697173702693 0 -0.034711864550607686 0.00012157323407909927 0 -0.034744790495385321 9.4816876555122671e-05 0 -0.034607569422517907 0.00016070697173702693 0 -0.034843883258673922 5.8077612465091596e-05 0 -0.034744790495385321 9.4816876555122671e-05 0 -0.034999643596690312 7.0087515067450411e-08 0 -0.034744790495385321 9.4816876555122671e-05 0 -0.034999683383969603 1.9929296802106767e-08 0 -0.034730556457881014 8.6238347094120938e-05 0 -0.034744790495385321 9.4816876555122671e-05 0 -0.034999643596690312 7.0087515067450411e-08 0 -0.034999683383969603 1.9929296802106767e-08 0 -0.034999683383969603 1.9929296802106767e-08 0 -0.034730556457881014 8.6238347094120938e-05 0 -0.034801818207133191 6.4149747496913297e-05 0 -0.034730556457881014 8.6238347094120938e-05 0 -0.034630025390446774 0.00014169309072449999 0 -0.034801818207133191 6.4149747496913297e-05 0 -0.034744790495385321 9.4816876555122671e-05 0 -0.034730556457881014 8.6238347094120938e-05 0 -0.034520426558951822 0.00018245461177241186 0 -0.034730556457881014 8.6238347094120938e-05 0 -0.034520426558951822 0.00018245461177241186 0 -0.034468389785313067 0.00020116380873527845 0 -0.034520426558951822 0.00018245461177241186 0 -0.03428019395290912 0.00028753545580766766 0 -0.034378591567441448 0.00024201754498894473 0 -0.034520426558951822 0.00018245461177241186 0 -0.034468389785313067 0.00020116380873527845 0 -0.03428019395290912 0.00028753545580766766 0 -0.034730556457881014 8.6238347094120938e-05 0 -0.034468389785313067 0.00020116380873527845 0 -0.034630025390446774 0.00014169309072449999 0 -0.034468389785313067 0.00020116380873527845 0 -0.034630025390446774 0.00014169309072449999 0 -0.034355139331831028 0.00028297485873091029 0 -0.034630025390446774 0.00014169309072449999 0 -0.034355139331831028 0.00028297485873091029 0 -0.034577023508614114 0.00024322797001048819 0 -0.034355139331831028 0.00028297485873091029 0 -0.034577023508614114 0.00024322797001048819 0 -0.034214621866087355 0.00049533079838204601 0 -0.034355139331831028 0.00028297485873091029 0 -0.034047881178593815 0.00043954167235702547 0 -0.034214621866087355 0.00049533079838204601 0 -0.03428019395290912 0.00028753545580766766 0 -0.034378591567441448 0.00024201754498894473 0 -0.034009917972965736 0.00039218400708532783 0 -0.034468389785313067 0.00020116380873527845 0 -0.034355139331831028 0.00028297485873091029 0 -0.03428019395290912 0.00028753545580766766 0 -0.034355139331831028 0.00028297485873091029 0 -0.03428019395290912 0.00028753545580766766 0 -0.034047881178593815 0.00043954167235702547 0 -0.03428019395290912 0.00028753545580766766 0 -0.034009917972965736 0.00039218400708532783 0 -0.034047881178593815 0.00043954167235702547 0 -0.034378591567441448 0.00024201754498894473 0 -0.034573516081509034 0.00017385741295129778 0 -0.034009917972965736 0.00039218400708532783 0 -0.033817538200390122 6.3792769948918209e-05 0 -0.033872672024250962 1.9417862348022235e-05 0 -0.033603629385346431 0.001002144229893337 0 -0.034225346106340933 9.5069580868536546e-05 0 -0.033767370889308791 0.0007282866989254032 0 -0.033755501747777326 0.00010828327477051124 0 -0.033487844206240541 0.00021216753866892737 0 -0.033817538200390122 6.3792769948918209e-05 0 -0.033372515263746128 0.0011305971835519513 0 -0.033603629385346431 0.001002144229893337 0 -0.033795264601735667 -0.00035064266480894023 0 -0.0340087734524325 -0.00039730232567546759 0 -0.033980583010271556 -0.00016711995599330779 0 -0.033795264601735667 -0.00035064266480894023 0 -0.0340087734524325 -0.00039730232567546759 0 -0.033810183496932017 -0.00060642627437485538 0 -0.033795264601735667 -0.00035064266480894023 0 -0.033817538200390122 6.3792769948918209e-05 0 -0.033534741405194683 -0.00068424606290536311 0 -0.034180319362083343 -0.00022667205367339629 0 -0.0340087734524325 -0.00039730232567546759 0 -0.033980583010271556 -0.00016711995599330779 0 -0.034180319362083343 -0.00022667205367339629 0 -0.033980583010271556 -0.00016711995599330779 0 -0.034166649060791338 -7.7384900794249606e-05 0 -0.033795264601735667 -0.00035064266480894023 0 -0.033980583010271556 -0.00016711995599330779 0 -0.033817538200390122 6.3792769948918209e-05 0 -0.033980583010271556 -0.00016711995599330779 0 -0.033817538200390122 6.3792769948918209e-05 0 -0.034016276315226301 -1.00388930745898e-05 0 -0.034016276315226301 -1.00388930745898e-05 0 -0.033941425943772016 2.9376586519026612e-05 0 -0.034106143609100983 2.6996334355101705e-05 0 -0.033817538200390122 6.3792769948918209e-05 0 -0.034016276315226301 -1.00388930745898e-05 0 -0.033941425943772016 2.9376586519026612e-05 0 -0.033817538200390122 6.3792769948918209e-05 0 -0.033941425943772016 2.9376586519026612e-05 0 -0.033872672024250962 1.9417862348022235e-05 0 -0.033941425943772016 2.9376586519026612e-05 0 -0.034106143609100983 2.6996334355101705e-05 0 -0.033872672024250962 1.9417862348022235e-05 0 -0.034394384564039898 -2.1501529498683529e-05 0 -0.034166649060791338 -7.7384900794249606e-05 0 -0.034106143609100983 2.6996334355101705e-05 0 -0.033980583010271556 -0.00016711995599330779 0 -0.034016276315226301 -1.00388930745898e-05 0 -0.034166649060791338 -7.7384900794249606e-05 0 -0.034016276315226301 -1.00388930745898e-05 0 -0.034166649060791338 -7.7384900794249606e-05 0 -0.034106143609100983 2.6996334355101705e-05 0 -0.034394384564039898 -2.1501529498683529e-05 0 -0.034470596785088937 4.6763474119897069e-05 0 -0.034106143609100983 2.6996334355101705e-05 0 -0.034711864550607686 0.00012157323407909927 0 -0.034607569422517907 0.00016070697173702693 0 -0.034573516081509034 0.00017385741295129778 0 -0.034607569422517907 0.00016070697173702693 0 -0.034514347448482183 0.00019039416069314947 0 -0.034573516081509034 0.00017385741295129778 0 -0.034520426558951822 0.00018245461177241186 0 -0.034607569422517907 0.00016070697173702693 0 -0.034514347448482183 0.00019039416069314947 0 -0.034520426558951822 0.00018245461177241186 0 -0.034514347448482183 0.00019039416069314947 0 -0.034378591567441448 0.00024201754498894473 0 -0.034514347448482183 0.00019039416069314947 0 -0.034378591567441448 0.00024201754498894473 0 -0.034573516081509034 0.00017385741295129778 0 -0.034987192550821687 6.620900897897449e-06 0 -0.034974139906267791 -4.5647071723896172e-06 0 -0.034982745394211832 1.2988312998972877e-05 0 -0.034999979262549628 1.7019030794585972e-08 0 -0.034987192550821687 6.620900897897449e-06 0 -0.034982745394211832 1.2988312998972877e-05 0 -0.034999991341622842 4.9899341234104331e-08 0 -0.035002784081566381 2.4388315969460022e-05 0 -0.035000110321657396 -2.4574348840082783e-09 0 -0.034933444133829657 5.2839325368187484e-05 0 -0.03499984917878312 6.4916930367068065e-09 0 -0.035000110321657396 -2.4574348840082783e-09 0 -0.035004479592038382 8.3211909624284207e-05 0 -0.034933444133829657 5.2839325368187484e-05 0 -0.035004479592038382 8.3211909624284207e-05 0 -0.034933444133829657 5.2839325368187484e-05 0 -0.034936709261492761 0.00015315333980414148 0 -0.034933444133829657 5.2839325368187484e-05 0 -0.03499984917878312 6.4916930367068065e-09 0 -0.034801818207133191 6.4149747496913297e-05 0 -0.034999683383969603 1.9929296802106767e-08 0 -0.03499984917878312 6.4916930367068065e-09 0 -0.034801818207133191 6.4149747496913297e-05 0 -0.034801818207133191 6.4149747496913297e-05 0 -0.034577023508614114 0.00024322797001048819 0 -0.034817829635277499 0.0002284579737235773 0 -0.034630025390446774 0.00014169309072449999 0 -0.034801818207133191 6.4149747496913297e-05 0 -0.034577023508614114 0.00024322797001048819 0 -0.034577023508614114 0.00024322797001048819 0 -0.034554260466038218 0.00042957347948668407 0 -0.034817829635277499 0.0002284579737235773 0 -0.034577023508614114 0.00024322797001048819 0 -0.034554260466038218 0.00042957347948668407 0 -0.034214621866087355 0.00049533079838204601 0 -0.034817829635277499 0.0002284579737235773 0 -0.034932839078996948 0.00041016618599817444 0 -0.034752507287225121 0.00050777382612298219 0 -0.034554260466038218 0.00042957347948668407 0 -0.034817829635277499 0.0002284579737235773 0 -0.034752507287225121 0.00050777382612298219 0 -0.034933444133829657 5.2839325368187484e-05 0 -0.034801818207133191 6.4149747496913297e-05 0 -0.034817829635277499 0.0002284579737235773 0 -0.034933444133829657 5.2839325368187484e-05 0 -0.034817829635277499 0.0002284579737235773 0 -0.034936709261492761 0.00015315333980414148 0 -0.034817829635277499 0.0002284579737235773 0 -0.034936709261492761 0.00015315333980414148 0 -0.034996041956791756 0.00028022817205017737 0 -0.035004479592038382 8.3211909624284207e-05 0 -0.034936709261492761 0.00015315333980414148 0 -0.034996041956791756 0.00028022817205017737 0 -0.034987192550821687 6.620900897897449e-06 0 -0.034984762813246265 -5.9884232518578808e-06 0 -0.034982445725276722 -1.6456389715077253e-06 0 -0.035002784081566381 2.4388315969460022e-05 0 -0.034947817678662785 0.00024427628058114147 0 -0.034880614086393869 0.00025338832354204348 0 -0.034947817678662785 0.00024427628058114147 0 -0.034817829635277499 0.0002284579737235773 0 -0.034932839078996948 0.00041016618599817444 0 -0.035122187207521235 0.00034266850438244468 0 -0.034932839078996948 0.00041016618599817444 0 -0.035048210072033147 0.00042708167720236748 0 -0.035122187207521235 0.00034266850438244468 0 -0.034932839078996948 0.00041016618599817444 0 -0.035048210072033147 0.00042708167720236748 0 -0.034922563052823978 0.00051968776789783854 0 -0.034827407017745546 0.00030214120393706154 0 -0.034923655952099036 0.00033797503188428066 0 -0.034803604210352529 0.0004596862867714666 0 -0.035048210072033147 0.00042708167720236748 0 -0.035122187207521235 0.00034266850438244468 0 -0.035114518812962757 0.00053799181533401312 0 -0.034947817678662785 0.00024427628058114147 0 -0.034789743194328572 0.00057526086882640369 0 -0.03478538022523657 0.00028466549210033555 0 -0.034789743194328572 0.00057526086882640369 0 -0.034947817678662785 0.00024427628058114147 0 -0.03478538022523657 0.00028466549210033555 0 -0.034984762813246265 -5.9884232518578808e-06 0 -0.03498226748687748 -6.3814528276011214e-06 0 -0.034982445725276722 -1.6456389715077253e-06 0 -0.034768645391320963 0.0001409873177230987 0 -0.0348141406189953 9.3701288837612061e-05 0 -0.03481605087085364 0.00012785617084131292 0 -0.034768645391320963 0.0001409873177230987 0 -0.034820264998292619 0.00015800248848762402 0 -0.03481605087085364 0.00012785617084131292 0 -0.03478538022523657 0.00028466549210033555 0 -0.034923244728112167 5.4494236916084809e-06 0 -0.03478538022523657 0.00028466549210033555 0 -0.034631834257336451 0.00041818658030654329 0 -0.034987192550821687 6.620900897897449e-06 0 -0.034982445725276722 -1.6456389715077253e-06 0 -0.034974139906267791 -4.5647071723896172e-06 0 -0.03498226748687748 -6.3814528276011214e-06 0 -0.034982445725276722 -1.6456389715077253e-06 0 -0.034974139906267791 -4.5647071723896172e-06 0 -0.034492778040827968 0.00066727136159976845 0 -0.034516454952967179 0.00070694356901515067 0 -0.034466398199609005 0.00064375972360316224 0 -0.034492778040827968 0.00066727136159976845 0 -0.034556633610328666 0.00073652442765037161 0 -0.034575382495151824 0.0007498707105344939 0 -0.034544470931135898 0.00076648149919255411 0 -0.034516454952967179 0.00070694356901515067 0 -0.034460418533447425 0.0006643605819346899 0 -0.034492778040827968 0.00066727136159976845 0 -0.034516454952967179 0.00070694356901515067 0 -0.034556633610328666 0.00073652442765037161 0 -0.034544470931135898 0.00076648149919255411 0 -0.034516454952967179 0.00070694356901515067 0 -0.034559656162154805 0.00074255877487424814 0 -0.034516454952967179 0.00070694356901515067 0 -0.034556633610328666 0.00073652442765037161 0 -0.034559656162154805 0.00074255877487424814 0 -0.035114518812962757 0.00053799181533401312 0 -0.03479344384786813 0.00063721065548897162 0 -0.034922563052823978 0.00051968776789783854 0 -0.034556633610328666 0.00073652442765037161 0 -0.034575298621300203 0.00074960426679586607 0 -0.034575382495151824 0.0007498707105344939 0 -0.034544470931135898 0.00076648149919255411 0 -0.034559656162154805 0.00074255877487424814 0 -0.034575298621300203 0.00074960426679586607 0 -0.034556633610328666 0.00073652442765037161 0 -0.034559656162154805 0.00074255877487424814 0 -0.034575298621300203 0.00074960426679586607 0 -0.035048210072033147 0.00042708167720236748 0 -0.035114518812962757 0.00053799181533401312 0 -0.034922563052823978 0.00051968776789783854 0 -0.034575298621300203 0.00074960426679586607 0 -0.034575382495151824 0.0007498707105344939 0 -0.034646545504710829 0.00081208364881305071 0 -0.034492778040827968 0.00066727136159976845 0 -0.034575382495151824 0.0007498707105344939 0 -0.034646545504710829 0.00081208364881305071 0 -0.026287665908755795 0.0023323009098122059 0 -0.028077130869166883 0.0023470385095080491 0 -0.027240431567615873 0.0015425560159328059 0 -0.030384103717615414 0.0015651517503334164 0 -0.031361793949460384 0.001583511300312497 0 -0.028077130869166883 0.0023470385095080491 0 -0.030142678095895801 0.0023070921933489737 0 -0.029228538865767616 0.0013338516165268899 0 -0.031361793949460384 0.001583511300312497 0 -0.032333714519040331 0.0016736336820937492 0 -0.034646545504710829 0.00081208364881305071 0 -0.034660899204889788 0.00091669713057242197 0 -0.034596241352759592 0.0011208895161174837 0 -0.034575298621300203 0.00074960426679586607 0 -0.034646545504710829 0.00081208364881305071 0 -0.034660899204889788 0.00091669713057242197 0 -0.034789743194328572 0.00057526086882640369 0 -0.034687858500348778 0.00090747647237693504 0 -0.035114518812962757 0.00053799181533401312 0 -0.034660899204889788 0.00091669713057242197 0 -0.03479344384786813 0.00063721065548897162 0 -0.034932839078996948 0.00041016618599817444 0 -0.034922563052823978 0.00051968776789783854 0 -0.034752507287225121 0.00050777382612298219 0 -0.03479344384786813 0.00063721065548897162 0 -0.034922563052823978 0.00051968776789783854 0 -0.034752507287225121 0.00050777382612298219 0 -0.03479344384786813 0.00063721065548897162 0 -0.034752507287225121 0.00050777382612298219 0 -0.034557179344106022 0.00070646585958377306 0 -0.034660899204889788 0.00091669713057242197 0 -0.03479344384786813 0.00063721065548897162 0 -0.034557179344106022 0.00070646585958377306 0 -0.034554260466038218 0.00042957347948668407 0 -0.034752507287225121 0.00050777382612298219 0 -0.034557179344106022 0.00070646585958377306 0 -0.034554260466038218 0.00042957347948668407 0 -0.034557179344106022 0.00070646585958377306 0 -0.034214621866087355 0.00049533079838204601 0 -0.034557179344106022 0.00070646585958377306 0 -0.034214621866087355 0.00049533079838204601 0 -0.034119783245890059 0.0008100397547869348 0 -0.034557179344106022 0.00070646585958377306 0 -0.034596241352759592 0.0011208895161174837 0 -0.034119783245890059 0.0008100397547869348 0 -0.034660899204889788 0.00091669713057242197 0 -0.034557179344106022 0.00070646585958377306 0 -0.034596241352759592 0.0011208895161174837 0 -0.030142678095895801 0.0023070921933489737 0 -0.031226434466414436 0.0012831997779236763 0 -0.031965241739006681 0.0013918226889619886 0 -0.030142678095895801 0.0023070921933489737 0 -0.030398122899345098 0.0012464582997976314 0 -0.031226434466414436 0.0012831997779236763 0 -0.030142678095895801 0.0023070921933489737 0 -0.030398122899345098 0.0012464582997976314 0 -0.029228538865767616 0.0013338516165268899 0 -0.030398122899345098 0.0012464582997976314 0 -0.030187248194554407 0.00035587379638470779 0 -0.029228538865767616 0.0013338516165268899 0 -0.030398122899345098 0.0012464582997976314 0 -0.031226434466414436 0.0012831997779236763 0 -0.031281865898464392 0.00066070181477877405 0 -0.030398122899345098 0.0012464582997976314 0 -0.030187248194554407 0.00035587379638470779 0 -0.031281865898464392 0.00066070181477877405 0 -0.030187248194554407 0.00035587379638470779 0 -0.031398942955774084 -4.410021783161144e-05 0 -0.03015493783466739 -0.001034237776934272 0 -0.030187248194554407 0.00035587379638470779 0 -0.03015493783466739 -0.001034237776934272 0 -0.028907384530189505 -0.00070401480165864104 0 -0.030187248194554407 0.00035587379638470779 0 -0.028393490006342947 0.0002008185390793381 0 -0.028907384530189505 -0.00070401480165864104 0 -0.030187248194554407 0.00035587379638470779 0 -0.028393490006342947 0.0002008185390793381 0 -0.029228538865767616 0.0013338516165268899 0 -0.028393490006342947 0.0002008185390793381 0 -0.029228538865767616 0.0013338516165268899 0 -0.028078895515591312 0.001264430186075855 0 -0.028077130869166883 0.0023470385095080491 0 -0.029228538865767616 0.0013338516165268899 0 -0.028078895515591312 0.001264430186075855 0 -0.028077130869166883 0.0023470385095080491 0 -0.027240431567615873 0.0015425560159328059 0 -0.028078895515591312 0.001264430186075855 0 -0.027240431567615873 0.0015425560159328059 0 -0.027414952579521479 0.00061675937080795209 0 -0.026378079169574999 0.00099597598470184921 0 -0.027240431567615873 0.0015425560159328059 0 -0.028078895515591312 0.001264430186075855 0 -0.027414952579521479 0.00061675937080795209 0 -0.028393490006342947 0.0002008185390793381 0 -0.028078895515591312 0.001264430186075855 0 -0.027414952579521479 0.00061675937080795209 0 -0.028393490006342947 0.0002008185390793381 0 -0.027414952579521479 0.00061675937080795209 0 -0.026965923034593747 -0.00056247324824327302 0 -0.027414952579521479 0.00061675937080795209 0 -0.026628166389646952 0.00018261028367765677 0 -0.026965923034593747 -0.00056247324824327302 0 -0.027414952579521479 0.00061675937080795209 0 -0.026628166389646952 0.00018261028367765677 0 -0.026378079169574999 0.00099597598470184921 0 -0.026628166389646952 0.00018261028367765677 0 -0.026041020762920569 -0.00073761838800764977 0 -0.026965923034593747 -0.00056247324824327302 0 -0.026628166389646952 0.00018261028367765677 0 -0.025771988141775171 7.8184473273501195e-05 0 -0.026041020762920569 -0.00073761838800764977 0 -0.026628166389646952 0.00018261028367765677 0 -0.025771988141775171 7.8184473273501195e-05 0 -0.026378079169574999 0.00099597598470184921 0 -0.026287665908755795 0.0023323009098122059 0 -0.027240431567615873 0.0015425560159328059 0 -0.026378079169574999 0.00099597598470184921 0 -0.025771988141775171 7.8184473273501195e-05 0 -0.026378079169574999 0.00099597598470184921 0 -0.02540799994250257 0.0012781176489515985 0 -0.026287665908755795 0.0023323009098122059 0 -0.026378079169574999 0.00099597598470184921 0 -0.02540799994250257 0.0012781176489515985 0 -0.033487844206240541 0.00021216753866892737 0 -0.03333150561881449 -0.00010067215520780424 0 -0.033372515263746128 0.0011305971835519513 0 -0.033320509266365463 0.001198320660647483 0 -0.033490366938612764 0.0010424453473754456 0 -0.033708419239803361 -0.00093235064236010985 0 -0.033534741405194683 -0.00068424606290536311 0 -0.033206461224251464 -0.0011697422116504689 0 -0.033320509266365463 0.001198320660647483 0 -0.033128169547590673 0.0011887680841744885 0 -0.033490366938612764 0.0010424453473754456 0 -0.034039328987513717 -0.00064155001661002375 0 -0.033708419239803361 -0.00093235064236010985 0 -0.033810183496932017 -0.00060642627437485538 0 -0.033708419239803361 -0.00093235064236010985 0 -0.033810183496932017 -0.00060642627437485538 0 -0.033534741405194683 -0.00068424606290536311 0 -0.034039328987513717 -0.00064155001661002375 0 -0.0340087734524325 -0.00039730232567546759 0 -0.033810183496932017 -0.00060642627437485538 0 -0.033795264601735667 -0.00035064266480894023 0 -0.033810183496932017 -0.00060642627437485538 0 -0.033534741405194683 -0.00068424606290536311 0 -0.033372515263746128 0.0011305971835519513 0 -0.033603629385346431 0.001002144229893337 0 -0.033320509266365463 0.001198320660647483 0 -0.034009917972965736 0.00039218400708532783 0 -0.033798550925873194 0.00064179345418482277 0 -0.033345943594841165 0.0010756255787694434 0 -0.034047881178593815 0.00043954167235702547 0 -0.033798550925873194 0.00064179345418482277 0 -0.033933349764883797 0.00059983824291612699 0 -0.034009917972965736 0.00039218400708532783 0 -0.034047881178593815 0.00043954167235702547 0 -0.033798550925873194 0.00064179345418482277 0 -0.034047881178593815 0.00043954167235702547 0 -0.034214621866087355 0.00049533079838204601 0 -0.033933349764883797 0.00059983824291612699 0 -0.034214621866087355 0.00049533079838204601 0 -0.033933349764883797 0.00059983824291612699 0 -0.033725051504547368 0.00082350596361106311 0 -0.033798550925873194 0.00064179345418482277 0 -0.033933349764883797 0.00059983824291612699 0 -0.033725051504547368 0.00082350596361106311 0 -0.034214621866087355 0.00049533079838204601 0 -0.034119783245890059 0.0008100397547869348 0 -0.033725051504547368 0.00082350596361106311 0 -0.032333714519040331 0.0016736336820937492 0 -0.032941257890164742 0.0015573977240011575 0 -0.034596241352759592 0.0011208895161174837 0 -0.033037730103422952 0.0015086533226686986 0 -0.033540575962649581 0.0011337780940909967 0 -0.034596241352759592 0.0011208895161174837 0 -0.034119783245890059 0.0008100397547869348 0 -0.033540575962649581 0.0011337780940909967 0 -0.030142678095895801 0.0023070921933489737 0 -0.033037730103422952 0.0015086533226686986 0 -0.031965241739006681 0.0013918226889619886 0 -0.034119783245890059 0.0008100397547869348 0 -0.033725051504547368 0.00082350596361106311 0 -0.033540575962649581 0.0011337780940909967 0 -0.033447776334704402 0.0010641251281954206 0 -0.033260261477280166 0.0012374287585454808 0 -0.033540575962649581 0.0011337780940909967 0 -0.033725051504547368 0.00082350596361106311 0 -0.033447776334704402 0.0010641251281954206 0 -0.033345943594841165 0.0010756255787694434 0 -0.033725051504547368 0.00082350596361106311 0 -0.033447776334704402 0.0010641251281954206 0 -0.033540575962649581 0.0011337780940909967 0 -0.033037730103422952 0.0015086533226686986 0 -0.031965241739006681 0.0013918226889619886 0 -0.03267108012580465 0.0013224250351226404 0 -0.033260261477280166 0.0012374287585454808 0 -0.033037730103422952 0.0015086533226686986 0 -0.033540575962649581 0.0011337780940909967 0 -0.033447776334704402 0.0010641251281954206 0 -0.033260261477280166 0.0012374287585454808 0 -0.033195593862235195 0.0012321144172326656 0 -0.033260261477280166 0.0012374287585454808 0 -0.033109659212956818 0.0013474584182209183 0 -0.033195593862235195 0.0012321144172326656 0 -0.033260261477280166 0.0012374287585454808 0 -0.033109659212956818 0.0013474584182209183 0 -0.033037730103422952 0.0015086533226686986 0 -0.033037730103422952 0.0015086533226686986 0 -0.032885829536709973 0.0013625689553438188 0 -0.03267108012580465 0.0013224250351226404 0 -0.034009917972965736 0.00039218400708532783 0 -0.033345943594841165 0.0010756255787694434 0 -0.033018508123817583 0.001368857900785976 0 -0.033767370889308791 0.0007282866989254032 0 -0.033175316479217259 0.0013121521307386155 0 -0.033603629385346431 0.001002144229893337 0 -0.033320509266365463 0.001198320660647483 0 -0.033018508123817583 0.001368857900785976 0 -0.033798550925873194 0.00064179345418482277 0 -0.033725051504547368 0.00082350596361106311 0 -0.033345943594841165 0.0010756255787694434 0 -0.033447776334704402 0.0010641251281954206 0 -0.033345943594841165 0.0010756255787694434 0 -0.033195593862235195 0.0012321144172326656 0 -0.033109659212956818 0.0013474584182209183 0 -0.033195593862235195 0.0012321144172326656 0 -0.033018508123817583 0.001368857900785976 0 -0.033345943594841165 0.0010756255787694434 0 -0.033195593862235195 0.0012321144172326656 0 -0.033018508123817583 0.001368857900785976 0 -0.033109659212956818 0.0013474584182209183 0 -0.033037730103422952 0.0015086533226686986 0 -0.033018508123817583 0.001368857900785976 0 -0.033037730103422952 0.0015086533226686986 0 -0.032885829536709973 0.0013625689553438188 0 -0.033018508123817583 0.001368857900785976 0 -0.032885829536709973 0.0013625689553438188 0 -0.033018508123817583 0.001368857900785976 0 -0.03281682662694807 0.0012518976340649538 0 -0.033320509266365463 0.001198320660647483 0 -0.033018508123817583 0.001368857900785976 0 -0.033128169547590673 0.0011887680841744885 0 -0.033128169547590673 0.0011887680841744885 0 -0.032900987650459575 0.0011528470528202554 0 -0.032937493700359304 0.00091837333584109777 0 -0.033128169547590673 0.0011887680841744885 0 -0.032937493700359304 0.00091837333584109777 0 -0.033490366938612764 0.0010424453473754456 0 -0.032937493700359304 0.00091837333584109777 0 -0.032619075180407568 0.00015492510079926332 0 -0.033490366938612764 0.0010424453473754456 0 -0.033018508123817583 0.001368857900785976 0 -0.033128169547590673 0.0011887680841744885 0 -0.032900987650459575 0.0011528470528202554 0 -0.032900987650459575 0.0011528470528202554 0 -0.032937493700359304 0.00091837333584109777 0 -0.032319556360626923 0.00074648082924272212 0 -0.032900987650459575 0.0011528470528202554 0 -0.032535083450444029 0.0011306742970445302 0 -0.032319556360626923 0.00074648082924272212 0 -0.033018508123817583 0.001368857900785976 0 -0.032900987650459575 0.0011528470528202554 0 -0.03281682662694807 0.0012518976340649538 0 -0.032900987650459575 0.0011528470528202554 0 -0.03281682662694807 0.0012518976340649538 0 -0.032535083450444029 0.0011306742970445302 0 -0.032937493700359304 0.00091837333584109777 0 -0.032319556360626923 0.00074648082924272212 0 -0.032619075180407568 0.00015492510079926332 0 -0.031226434466414436 0.0012831997779236763 0 -0.031965241739006681 0.0013918226889619886 0 -0.031897001115029779 0.0010372118890299425 0 -0.031965241739006681 0.0013918226889619886 0 -0.031897001115029779 0.0010372118890299425 0 -0.032535083450444029 0.0011306742970445302 0 -0.031965241739006681 0.0013918226889619886 0 -0.03267108012580465 0.0013224250351226404 0 -0.032535083450444029 0.0011306742970445302 0 -0.032885829536709973 0.0013625689553438188 0 -0.03281682662694807 0.0012518976340649538 0 -0.03267108012580465 0.0013224250351226404 0 -0.03281682662694807 0.0012518976340649538 0 -0.03267108012580465 0.0013224250351226404 0 -0.032535083450444029 0.0011306742970445302 0 -0.031897001115029779 0.0010372118890299425 0 -0.032535083450444029 0.0011306742970445302 0 -0.032319556360626923 0.00074648082924272212 0 -0.031897001115029779 0.0010372118890299425 0 -0.032319556360626923 0.00074648082924272212 0 -0.031281865898464392 0.00066070181477877405 0 -0.031226434466414436 0.0012831997779236763 0 -0.031897001115029779 0.0010372118890299425 0 -0.031281865898464392 0.00066070181477877405 0 -0.032319556360626923 0.00074648082924272212 0 -0.031398942955774084 -4.410021783161144e-05 0 -0.032619075180407568 0.00015492510079926332 0 -0.031398942955774084 -4.410021783161144e-05 0 -0.032619075180407568 0.00015492510079926332 0 -0.031687616742005494 -0.0013021530785100842 0 -0.030187248194554407 0.00035587379638470779 0 -0.031281865898464392 0.00066070181477877405 0 -0.031398942955774084 -4.410021783161144e-05 0 -0.032319556360626923 0.00074648082924272212 0 -0.031281865898464392 0.00066070181477877405 0 -0.031398942955774084 -4.410021783161144e-05 0 -0.032619075180407568 0.00015492510079926332 0 -0.033490366938612764 0.0010424453473754456 0 -0.033205738350312403 -0.00071780150160364415 0 -0.03333150561881449 -0.00010067215520780424 0 -0.033021531598385487 -0.0012644288758407874 0 -0.033206461224251464 -0.0011697422116504689 0 -0.033548809776160572 -0.0015904030609529391 0 -0.032834183351284782 -0.0018138628435319212 0 -0.033206461224251464 -0.0011697422116504689 0 -0.033601603676050591 -0.0012026168456751682 0 -0.033548809776160572 -0.0015904030609529391 0 -0.033708419239803361 -0.00093235064236010985 0 -0.033206461224251464 -0.0011697422116504689 0 -0.033601603676050591 -0.0012026168456751682 0 -0.033869363086163042 -0.0022039603825699645 0 -0.033548809776160572 -0.0015904030609529391 0 -0.033149364551659163 -0.0023468404546308787 0 -0.033548809776160572 -0.0015904030609529391 0 -0.032834183351284782 -0.0018138628435319212 0 -0.033149364551659163 -0.0023468404546308787 0 -0.032834183351284782 -0.0018138628435319212 0 -0.033149364551659163 -0.0023468404546308787 0 -0.032454555674431854 -0.002653686988294018 0 -0.033021531598385487 -0.0012644288758407874 0 -0.032384860838433636 -0.0027133259651732529 0 -0.033869363086163042 -0.0022039603825699645 0 -0.033480780586535142 -0.0030155699069042323 0 -0.033149364551659163 -0.0023468404546308787 0 -0.033480780586535142 -0.0030155699069042323 0 -0.03283760996475913 -0.0029339944737540318 0 -0.032803856055643149 -0.0033939091060120803 0 -0.033480780586535142 -0.0030155699069042323 0 -0.033149364551659163 -0.0023468404546308787 0 -0.03283760996475913 -0.0029339944737540318 0 -0.03283760996475913 -0.0029339944737540318 0 -0.03227477958687771 -0.0032944516598826896 0 -0.032454555674431854 -0.002653686988294018 0 -0.033149364551659163 -0.0023468404546308787 0 -0.03283760996475913 -0.0029339944737540318 0 -0.032454555674431854 -0.002653686988294018 0 -0.032803856055643149 -0.0033939091060120803 0 -0.03227477958687771 -0.0032944516598826896 0 -0.032630694036540751 -0.0037917131537104883 0 -0.03227477958687771 -0.0032944516598826896 0 -0.032214257042041526 -0.0037102783521681957 0 -0.032131750578844646 -0.0036283552415861766 0 -0.03283760996475913 -0.0029339944737540318 0 -0.032803856055643149 -0.0033939091060120803 0 -0.03227477958687771 -0.0032944516598826896 0 -0.032125724032690657 -0.0031317734511259964 0 -0.032896056924920355 -0.0042162327310053191 0 -0.033039687584486256 -0.0032356564582715769 0 -0.033208932212564449 -0.0037297335963530115 0 -0.032928201496416815 -0.0038102864424038414 0 -0.033257336292813688 -0.0031220171717311943 0 -0.032957172730096074 -0.0037625111423560628 0 -0.033480780586535142 -0.0030155699069042323 0 -0.032803856055643149 -0.0033939091060120803 0 -0.032928201496416815 -0.0038102864424038414 0 -0.030938313642174975 -0.0043767760150973251 0 -0.031064972807757541 -0.0033111151194529869 0 -0.029878352207162052 -0.0035281050751650063 0 -0.030938313642174975 -0.0043767760150973251 0 -0.031528492911758702 -0.0037775898088956007 0 -0.031064972807757541 -0.0033111151194529869 0 -0.030938313642174975 -0.0043767760150973251 0 -0.029878352207162052 -0.0035281050751650063 0 -0.030091930356339981 -0.0050298673280925179 0 -0.032057168888064043 -0.003561938349282613 0 -0.03227477958687771 -0.0032944516598826896 0 -0.032454555674431854 -0.002653686988294018 0 -0.030938313642174975 -0.0043767760150973251 0 -0.031645173888823264 -0.0045838437462038849 0 -0.031528492911758702 -0.0037775898088956007 0 -0.031645173888823264 -0.0045838437462038849 0 -0.031528492911758702 -0.0037775898088956007 0 -0.032506380802428021 -0.0027734702103219275 0 -0.032057168888064043 -0.003561938349282613 0 -0.03227477958687771 -0.0032944516598826896 0 -0.032131750578844646 -0.0036283552415861766 0 -0.032502022443956405 -0.0040376758416836595 0 -0.032384860838433636 -0.0027133259651732529 0 -0.031528492911758702 -0.0037775898088956007 0 -0.032506380802428021 -0.0027734702103219275 0 -0.031064972807757541 -0.0033111151194529869 0 -0.032506380802428021 -0.0027734702103219275 0 -0.031064972807757541 -0.0033111151194529869 0 -0.031431194588761764 -0.0024453956331323828 0 -0.031064972807757541 -0.0033111151194529869 0 -0.030397779115137708 -0.0022728337525854767 0 -0.029878352207162052 -0.0035281050751650063 0 -0.030397779115137708 -0.0022728337525854767 0 -0.031431194588761764 -0.0024453956331323828 0 -0.031687616742005494 -0.0013021530785100842 0 -0.031064972807757541 -0.0033111151194529869 0 -0.030397779115137708 -0.0022728337525854767 0 -0.031431194588761764 -0.0024453956331323828 0 -0.033205738350312403 -0.00071780150160364415 0 -0.032506380802428021 -0.0027734702103219275 0 -0.031687616742005494 -0.0013021530785100842 0 -0.032506380802428021 -0.0027734702103219275 0 -0.031431194588761764 -0.0024453956331323828 0 -0.031687616742005494 -0.0013021530785100842 0 -0.032619075180407568 0.00015492510079926332 0 -0.033205738350312403 -0.00071780150160364415 0 -0.031687616742005494 -0.0013021530785100842 0 -0.031398942955774084 -4.410021783161144e-05 0 -0.031687616742005494 -0.0013021530785100842 0 -0.03015493783466739 -0.001034237776934272 0 -0.030397779115137708 -0.0022728337525854767 0 -0.031687616742005494 -0.0013021530785100842 0 -0.03015493783466739 -0.001034237776934272 0 -0.028907384530189505 -0.00070401480165864104 0 -0.028493081659124689 -0.002217722567168063 0 -0.027832406597402114 -0.0011637017240798816 0 -0.028393490006342947 0.0002008185390793381 0 -0.028907384530189505 -0.00070401480165864104 0 -0.027832406597402114 -0.0011637017240798816 0 -0.03015493783466739 -0.001034237776934272 0 -0.028907384530189505 -0.00070401480165864104 0 -0.028493081659124689 -0.002217722567168063 0 -0.030397779115137708 -0.0022728337525854767 0 -0.03015493783466739 -0.001034237776934272 0 -0.028493081659124689 -0.002217722567168063 0 -0.026041020762920569 -0.00073761838800764977 0 -0.026965923034593747 -0.00056247324824327302 0 -0.02668664832053735 -0.0018303386842430083 0 -0.026041020762920569 -0.00073761838800764977 0 -0.02668664832053735 -0.0018303386842430083 0 -0.025617992254023763 -0.0015205995339562161 0 -0.028393490006342947 0.0002008185390793381 0 -0.027832406597402114 -0.0011637017240798816 0 -0.026965923034593747 -0.00056247324824327302 0 -0.027832406597402114 -0.0011637017240798816 0 -0.026965923034593747 -0.00056247324824327302 0 -0.02668664832053735 -0.0018303386842430083 0 -0.028493081659124689 -0.002217722567168063 0 -0.02668664832053735 -0.0018303386842430083 0 -0.026803375828675528 -0.0032346827975619028 0 -0.028493081659124689 -0.002217722567168063 0 -0.027832406597402114 -0.0011637017240798816 0 -0.02668664832053735 -0.0018303386842430083 0 -0.02668664832053735 -0.0018303386842430083 0 -0.025586000465259249 -0.0026914352179310502 0 -0.026803375828675528 -0.0032346827975619028 0 -0.02668664832053735 -0.0018303386842430083 0 -0.025617992254023763 -0.0015205995339562161 0 -0.025586000465259249 -0.0026914352179310502 0 -0.025586000465259249 -0.0026914352179310502 0 -0.026803375828675528 -0.0032346827975619028 0 -0.025335994999173099 -0.0039858528281905186 0 -0.026720284728558474 -0.0043883941453464357 0 -0.027952448144093058 -0.0038344345585302917 0 -0.027373398751235158 -0.0053637302988878014 0 -0.026803375828675528 -0.0032346827975619028 0 -0.026720284728558474 -0.0043883941453464357 0 -0.027952448144093058 -0.0038344345585302917 0 -0.026803375828675528 -0.0032346827975619028 0 -0.026720284728558474 -0.0043883941453464357 0 -0.025335994999173099 -0.0039858528281905186 0 -0.026720284728558474 -0.0043883941453464357 0 -0.026030331377168221 -0.0053029147379934551 0 -0.025335994999173099 -0.0039858528281905186 0 -0.030397779115137708 -0.0022728337525854767 0 -0.028493081659124689 -0.002217722567168063 0 -0.029878352207162052 -0.0035281050751650063 0 -0.028493081659124689 -0.002217722567168063 0 -0.026803375828675528 -0.0032346827975619028 0 -0.027952448144093058 -0.0038344345585302917 0 -0.028493081659124689 -0.002217722567168063 0 -0.029878352207162052 -0.0035281050751650063 0 -0.027952448144093058 -0.0038344345585302917 0 -0.027715573140756594 -0.0037240988534686533 0 -0.029948886237165302 -0.0051350770909582046 0 -0.029878352207162052 -0.0035281050751650063 0 -0.027952448144093058 -0.0038344345585302917 0 -0.030091930356339981 -0.0050298673280925179 0 -0.027952448144093058 -0.0038344345585302917 0 -0.028520077155152271 -0.0048652110935461079 0 -0.027373398751235158 -0.0053637302988878014 0 -0.027373398751235158 -0.0053637302988878014 0 -0.026341587395215499 -0.0061556895868333647 0 -0.027301304609981116 -0.0067536249499124306 0 -0.027373398751235158 -0.0053637302988878014 0 -0.028501308746343035 -0.0062570390050977961 0 -0.027301304609981116 -0.0067536249499124306 0 -0.028520077155152271 -0.0048652110935461079 0 -0.027373398751235158 -0.0053637302988878014 0 -0.028501308746343035 -0.0062570390050977961 0 -0.026030331377168221 -0.0053029147379934551 0 -0.025077338240244877 -0.0052168968475035434 0 -0.025335994999173099 -0.0039858528281905186 0 -0.026720284728558474 -0.0043883941453464357 0 -0.027373398751235158 -0.0053637302988878014 0 -0.026030331377168221 -0.0053029147379934551 0 -0.027373398751235158 -0.0053637302988878014 0 -0.026030331377168221 -0.0053029147379934551 0 -0.026341587395215499 -0.0061556895868333647 0 -0.026030331377168221 -0.0053029147379934551 0 -0.026341587395215499 -0.0061556895868333647 0 -0.025237792047551118 -0.0063490059986149733 0 -0.026030331377168221 -0.0053029147379934551 0 -0.025237792047551118 -0.0063490059986149733 0 -0.025077338240244877 -0.0052168968475035434 0 -0.026341587395215499 -0.0061556895868333647 0 -0.025237792047551118 -0.0063490059986149733 0 -0.025938769442044055 -0.0071064696762055228 0 -0.013060642071034153 -0.0055510700546646278 0 -0.01366939011838421 -0.0059522420081959022 0 -0.013170015198136917 -0.0059711075461517642 0 -0.013060642071034153 -0.0055510700546646278 0 -0.013170015198136917 -0.0059711075461517642 0 -0.012757330916065717 -0.0057557495995793793 0 -0.019230490969653794 -0.0060265345014276781 0 -0.01770717859255256 -0.0058937181790031969 0 -0.01770717859255256 -0.0058937181790031969 0 -0.021990506389289833 -0.005522719831078971 0 -0.026341587395215499 -0.0061556895868333647 0 -0.025938769442044055 -0.0071064696762055228 0 -0.027301304609981116 -0.0067536249499124306 0 -0.013658661042186972 -0.0061467822975036935 0 -0.01360410820943604 -0.005539042052746232 0 -0.015250190879436354 -0.0062823037460363511 0 -0.01770717859255256 -0.0058937181790031969 0 -0.013833793557540146 -0.0057740067584564347 0 -0.01770717859255256 -0.0058937181790031969 0 -0.012937998393362264 -0.0065820554575865475 0 -0.013658661042186972 -0.0061467822975036935 0 -0.01360410820943604 -0.005539042052746232 0 -0.013170015198136917 -0.0059711075461517642 0 -0.013658661042186972 -0.0061467822975036935 0 -0.013170015198136917 -0.0059711075461517642 0 -0.013096077403314848 -0.0063824169175419696 0 -0.013170015198136917 -0.0059711075461517642 0 -0.012847142617532148 -0.0062267672899300229 0 -0.013096077403314848 -0.0063824169175419696 0 -0.013170015198136917 -0.0059711075461517642 0 -0.012847142617532148 -0.0062267672899300229 0 -0.01277860823439762 -0.0060038908198927522 0 -0.017053191390866564 -0.0039764714988430351 0 -0.015551126748897238 -0.0045594266782474991 0 -0.016947921475942304 -0.0051003448876760799 0 -0.022192793680736775 -0.0052326943041321053 0 -0.021990506389289833 -0.005522719831078971 0 -0.014445859178986735 -0.0050204140815968161 0 -0.015551126748897238 -0.0045594266782474991 0 -0.015848768211376336 -0.0054012042701982038 0 -0.014445859178986735 -0.0050204140815968161 0 -0.015848768211376336 -0.0054012042701982038 0 -0.015250190879436354 -0.0062823037460363511 0 -0.015848768211376336 -0.0054012042701982038 0 -0.016947921475942304 -0.0051003448876760799 0 -0.016741441759049878 -0.0065383517670423354 0 -0.015551126748897238 -0.0045594266782474991 0 -0.015848768211376336 -0.0054012042701982038 0 -0.016947921475942304 -0.0051003448876760799 0 -0.012302320369832503 -0.0064385672743658921 0 -0.01217109516251549 -0.006735000021978012 0 -0.011767656097070442 -0.0069379698513242841 0 -0.016947921475942304 -0.0051003448876760799 0 -0.018454596674051887 -0.0053564229489858686 0 -0.016741441759049878 -0.0065383517670423354 0 -0.017272369639322768 -0.0056680863114081208 0 -0.013915290869091925 -0.0068526112395043467 0 -0.012302320369832503 -0.0064385672743658921 0 -0.012246482524258279 -0.00673557434781712 0 -0.01217109516251549 -0.006735000021978012 0 -0.017053191390866564 -0.0039764714988430351 0 -0.016947921475942304 -0.0051003448876760799 0 -0.018092129591891052 -0.0043439079986260171 0 -0.017053191390866564 -0.0039764714988430351 0 -0.018092129591891052 -0.0043439079986260171 0 -0.018923860222206258 -0.0035468466420094883 0 -0.016947921475942304 -0.0051003448876760799 0 -0.018092129591891052 -0.0043439079986260171 0 -0.018454596674051887 -0.0053564229489858686 0 -0.018092129591891052 -0.0043439079986260171 0 -0.018454596674051887 -0.0053564229489858686 0 -0.019097814538117389 -0.0037068655962871062 0 -0.017272369639322768 -0.0056680863114081208 0 -0.026778220462021555 -0.0044229697123024971 0 -0.021933067009536407 -0.0064341066907288502 0 -0.023677914611475025 -0.0048649150662543042 0 -0.022409923780923071 -0.0037493111587596269 0 -0.017272369639322768 -0.0056680863114081208 0 -0.02440032429320995 -0.0045427852128335604 0 -0.019137383811341311 -0.0049178515000368314 0 -0.018546741192363905 -0.0050217195260827329 0 -0.01930766684135421 -0.0043520201267745065 0 -0.02440032429320995 -0.0045427852128335604 0 -0.026778220462021555 -0.0044229697123024971 0 -0.019137383811341311 -0.0049178515000368314 0 -0.019449249394833404 -0.0051237101069914947 0 -0.018459594661061954 -0.0055271680639200496 0 -0.019137383811341311 -0.0049178515000368314 0 -0.018546741192363905 -0.0050217195260827329 0 -0.018459594661061954 -0.0055271680639200496 0 -0.017272369639322768 -0.0056680863114081208 0 -0.014272828378212797 -0.0068649257644095331 0 -0.019449249394833404 -0.0051237101069914947 0 -0.018459594661061954 -0.0055271680639200496 0 -0.019780761259651451 -0.0054720238742924096 0 -0.019449249394833404 -0.0051237101069914947 0 -0.020103233688946901 -0.0050241738886993908 0 -0.019691979806852604 -0.0047098348256778269 0 -0.019449249394833404 -0.0051237101069914947 0 -0.020103233688946901 -0.0050241738886993908 0 -0.019780761259651451 -0.0054720238742924096 0 -0.019137383811341311 -0.0049178515000368314 0 -0.019449249394833404 -0.0051237101069914947 0 -0.019691979806852604 -0.0047098348256778269 0 -0.020906006106707137 -0.0054370433564965848 0 -0.020103233688946901 -0.0050241738886993908 0 -0.019780761259651451 -0.0054720238742924096 0 -0.020103233688946901 -0.0050241738886993908 0 -0.020465044828478125 -0.0046444058903189721 0 -0.019691979806852604 -0.0047098348256778269 0 -0.020465044828478125 -0.0046444058903189721 0 -0.019691979806852604 -0.0047098348256778269 0 -0.020042915082283494 -0.0038594117048842825 0 -0.021148947364260262 -0.0037577799348645826 0 -0.026718229808511389 -0.0034694580832284154 0 -0.019691979806852604 -0.0047098348256778269 0 -0.019409374164303897 -0.0044270215689261308 0 -0.020042915082283494 -0.0038594117048842825 0 -0.019753161921219408 -0.0034860111377146121 0 -0.02440032429320995 -0.0045427852128335604 0 -0.019137383811341311 -0.0049178515000368314 0 -0.019691979806852604 -0.0047098348256778269 0 -0.01930766684135421 -0.0043520201267745065 0 -0.032105963719169579 -0.0039223568374026655 0 -0.032259383196156115 -0.0039295221166420436 0 -0.032214257042041526 -0.0037102783521681957 0 -0.02440032429320995 -0.0045427852128335604 0 -0.026718229808511389 -0.0034694580832284154 0 -0.032019418987182059 -0.0041471550850516346 0 -0.032105963719169579 -0.0039223568374026655 0 -0.032259383196156115 -0.0039295221166420436 0 -0.032019418987182059 -0.0041471550850516346 0 -0.032105963719169579 -0.0039223568374026655 0 -0.031999396161562783 -0.0039482975549307757 0 -0.032105963719169579 -0.0039223568374026655 0 -0.032041804551302899 -0.0037796572185369694 0 -0.031999396161562783 -0.0039482975549307757 0 -0.022577023958881073 -0.0031087077832058058 0 -0.02237419384966936 -0.0034591058759391308 0 -0.022152535881240602 -0.0030380305308856733 0 -0.027934380830836231 -0.0031685533819002646 0 -0.026718229808511389 -0.0034694580832284154 0 -0.032838250229868422 -0.0041035436268629065 0 -0.032928201496416815 -0.0038102864424038414 0 -0.032630694036540751 -0.0037917131537104883 0 -0.033208932212564449 -0.0037297335963530115 0 -0.032838250229868422 -0.0041035436268629065 0 -0.032928201496416815 -0.0038102864424038414 0 -0.032105963719169579 -0.0039223568374026655 0 -0.032214257042041526 -0.0037102783521681957 0 -0.032041804551302899 -0.0037796572185369694 0 -0.026718229808511389 -0.0034694580832284154 0 -0.032896056924920355 -0.0042162327310053191 0 -0.032803856055643149 -0.0033939091060120803 0 -0.032928201496416815 -0.0038102864424038414 0 -0.032630694036540751 -0.0037917131537104883 0 -0.032214257042041526 -0.0037102783521681957 0 -0.032131750578844646 -0.0036283552415861766 0 -0.032041804551302899 -0.0037796572185369694 0 -0.032057168888064043 -0.003561938349282613 0 -0.032131750578844646 -0.0036283552415861766 0 -0.032041804551302899 -0.0037796572185369694 0 -0.032057168888064043 -0.003561938349282613 0 -0.032041804551302899 -0.0037796572185369694 0 -0.031858324832976313 -0.0040054803311780178 0 -0.031645173888823264 -0.0045838437462038849 0 -0.030930918698180581 -0.00498665313764149 0 -0.030939465890555296 -0.005348006072652481 0 -0.032502022443956405 -0.0040376758416836595 0 -0.026778220462021555 -0.0044229697123024971 0 -0.030938313642174975 -0.0043767760150973251 0 -0.031645173888823264 -0.0045838437462038849 0 -0.030930918698180581 -0.00498665313764149 0 -0.029948886237165302 -0.0051350770909582046 0 -0.026913277100845501 -0.0052150936041782548 0 -0.030091930356339981 -0.0050298673280925179 0 -0.030930918698180581 -0.00498665313764149 0 -0.030948572730996268 -0.0053764470377644881 0 -0.030938313642174975 -0.0043767760150973251 0 -0.030091930356339981 -0.0050298673280925179 0 -0.030930918698180581 -0.00498665313764149 0 -0.022192793680736775 -0.0052326943041321053 0 -0.026913277100845501 -0.0052150936041782548 0 -0.028520077155152271 -0.0048652110935461079 0 -0.028501308746343035 -0.0062570390050977961 0 -0.029497938422095853 -0.0058352780130719803 0 -0.031645173888823264 -0.0045838437462038849 0 -0.030939465890555296 -0.005348006072652481 0 -0.030883876604374999 -0.005432368979631611 0 -0.018092129591891052 -0.0043439079986260171 0 -0.018923860222206258 -0.0035468466420094883 0 -0.019097814538117389 -0.0037068655962871062 0 -0.026913277100845501 -0.0052150936041782548 0 -0.027499075165840818 -0.0050609294634926631 0 -0.03065101962794536 -0.0052845860272279013 0 -0.030939465890555296 -0.005348006072652481 0 -0.030883876604374999 -0.005432368979631611 0 -0.026913277100845501 -0.0052150936041782548 0 -0.026778220462021555 -0.0044229697123024971 0 -0.032019418987182059 -0.0041471550850516346 0 -0.031858324832976313 -0.0040054803311780178 0 -0.031999396161562783 -0.0039482975549307757 0 -0.032041804551302899 -0.0037796572185369694 0 -0.031858324832976313 -0.0040054803311780178 0 -0.031999396161562783 -0.0039482975549307757 0 -0.030930918698180581 -0.00498665313764149 0 -0.030948572730996268 -0.0053764470377644881 0 -0.030939465890555296 -0.005348006072652481 0 -0.013964732637062105 -0.0056478827530197229 0 -0.013811048575786938 -0.0051345674149889196 0 -0.013739841523299682 -0.0057091509842696281 0 -0.016080073566201267 -0.0035387456181365912 0 -0.015489184475308965 -0.0032412627796034382 0 -0.014282179638457789 -0.0056337753219134279 0 -0.013811048575786938 -0.0051345674149889196 0 -0.01343912332822818 -0.0057754389362064101 0 -0.013739841523299682 -0.0057091509842696281 0 -0.013964732637062105 -0.0056478827530197229 0 -0.014182984602891295 -0.0055666748866207774 0 -0.013811048575786938 -0.0051345674149889196 0 -0.015315155231217684 -0.004220735147339707 0 -0.013828660607823801 -0.0056197764792980075 0 -0.013964732637062105 -0.0056478827530197229 0 -0.014182984602891295 -0.0055666748866207774 0 -0.014192123856585158 -0.0058751488557793833 0 -0.014182984602891295 -0.0055666748866207774 0 -0.014467166309305165 -0.0054638993228171111 0 -0.013811048575786938 -0.0051345674149889196 0 -0.016505720668902331 -0.0053020926944519894 0 -0.015315155231217684 -0.004220735147339707 0 -0.016505720668902331 -0.0053020926944519894 0 -0.015575803707515058 -0.0055370088763519601 0 -0.014182984602891295 -0.0055666748866207774 0 -0.014467166309305165 -0.0054638993228171111 0 -0.014477740197654266 -0.0057079837062397479 0 -0.016505720668902331 -0.0053020926944519894 0 -0.018279672315907117 -0.003903345931087222 0 -0.016521679446622344 -0.0035054089950543404 0 -0.019384162192060107 -0.0025872087945517756 0 -0.017872439232361221 -0.0048749215017371561 0 -0.017796632196534729 -0.0037524037208361781 0 -0.016397873679349188 -0.0037902653393106756 0 -0.017796632196534729 -0.0037524037208361781 0 -0.016397873679349188 -0.0037902653393106756 0 -0.017721760082336353 -0.0026279318975971355 0 -0.017872439232361221 -0.0048749215017371561 0 -0.016397873679349188 -0.0037902653393106756 0 -0.01623590627174578 -0.0040737286286450895 0 -0.018279672315907117 -0.003903345931087222 0 -0.019384162192060107 -0.0025872087945517756 0 -0.016823473754590923 -0.0031826244316380124 0 -0.016059042458678764 -0.0017153930651035273 0 -0.018114722198777761 -0.0013317925157954715 0 -0.016521679446622344 -0.0035054089950543404 0 -0.018085341147529164 -0.0016777978597029607 0 -0.016521679446622344 -0.0035054089950543404 0 -0.015315155231217684 -0.004220735147339707 0 -0.015315155231217684 -0.004220735147339707 0 -0.015469052208597013 -0.0039331647923602454 0 -0.016823473754590923 -0.0031826244316380124 0 -0.016450357868225726 -0.0037123136453853954 0 -0.016059042458678764 -0.0017153930651035273 0 -0.016450357868225726 -0.0037123136453853954 0 -0.015489184475308965 -0.0032412627796034382 0 -0.016059042458678764 -0.0017153930651035273 0 -0.014427491819481011 -0.0023200399303885447 0 -0.012542077223361797 -0.00260542530152551 0 -0.013567807106267022 -0.0041888106115061221 0 -0.015489184475308965 -0.0032412627796034382 0 -0.014427491819481011 -0.0023200399303885447 0 -0.013567807106267022 -0.0041888106115061221 0 -0.015489184475308965 -0.0032412627796034382 0 -0.014427491819481011 -0.0023200399303885447 0 -0.016059042458678764 -0.0017153930651035273 0 -0.014197401822617826 -0.0028146971900768441 0 -0.013281861762706904 -0.0043844318967571254 0 -0.012542077223361797 -0.00260542530152551 0 -0.013567807106267022 -0.0041888106115061221 0 -0.011195980529925216 -0.0050728914000116613 0 -0.013567807106267022 -0.0041888106115061221 0 -0.012525628992473423 -0.0058612536904009633 0 -0.011195980529925216 -0.0050728914000116613 0 -0.015489184475308965 -0.0032412627796034382 0 -0.013567807106267022 -0.0041888106115061221 0 -0.014282179638457789 -0.0056337753219134279 0 -0.013567807106267022 -0.0041888106115061221 0 -0.014282179638457789 -0.0056337753219134279 0 -0.012525628992473423 -0.0058612536904009633 0 -0.014282179638457789 -0.0056337753219134279 0 -0.012525628992473423 -0.0058612536904009633 0 -0.013252446509542796 -0.0065197567144591306 0 -0.01343912332822818 -0.0057754389362064101 0 -0.013218060867626613 -0.0061630994298842254 0 -0.013696578577831096 -0.0061092263901219353 0 -0.013828660607823801 -0.0056197764792980075 0 -0.012369711401017336 -0.0065986280161941897 0 -0.012525628992473423 -0.0058612536904009633 0 -0.012616823153350873 -0.0069876259599155922 0 -0.013252446509542796 -0.0065197567144591306 0 -0.012616823153350873 -0.0069876259599155922 0 -0.011511981249273898 -0.0068208079823855548 0 -0.011297009024670856 -0.0075035185531566661 0 -0.012525628992473423 -0.0058612536904009633 0 -0.012616823153350873 -0.0069876259599155922 0 -0.011511981249273898 -0.0068208079823855548 0 -0.012369711401017336 -0.0065986280161941897 0 -0.01259831316539029 -0.0072439099191236754 0 -0.011225234492540226 -0.0075799193710612859 0 -0.011222630378545767 -0.0075890837937140927 0 -0.011185333366361313 -0.007548679271674903 0 -0.011913546711135899 -0.0072287150435760153 0 -0.012369711401017336 -0.0065986280161941897 0 -0.013218060867626613 -0.0061630994298842254 0 -0.013696578577831096 -0.0061092263901219353 0 -0.013833911393463133 -0.0067377005664464827 0 -0.013696578577831096 -0.0061092263901219353 0 -0.014127241817170424 -0.0062344824980816267 0 -0.013833911393463133 -0.0067377005664464827 0 -0.013696578577831096 -0.0061092263901219353 0 -0.013938170629312761 -0.005914183482601987 0 -0.014127241817170424 -0.0062344824980816267 0 -0.013964732637062105 -0.0056478827530197229 0 -0.013938170629312761 -0.005914183482601987 0 -0.013739841523299682 -0.0057091509842696281 0 -0.013696578577831096 -0.0061092263901219353 0 -0.013938170629312761 -0.005914183482601987 0 -0.013739841523299682 -0.0057091509842696281 0 -0.01343912332822818 -0.0057754389362064101 0 -0.013696578577831096 -0.0061092263901219353 0 -0.013739841523299682 -0.0057091509842696281 0 -0.014182984602891295 -0.0055666748866207774 0 -0.014477740197654266 -0.0057079837062397479 0 -0.014192123856585158 -0.0058751488557793833 0 -0.014477740197654266 -0.0057079837062397479 0 -0.014192123856585158 -0.0058751488557793833 0 -0.014462526916542595 -0.0059980104162723853 0 -0.013964732637062105 -0.0056478827530197229 0 -0.013938170629312761 -0.005914183482601987 0 -0.014192123856585158 -0.0058751488557793833 0 -0.013938170629312761 -0.005914183482601987 0 -0.014192123856585158 -0.0058751488557793833 0 -0.014127241817170424 -0.0062344824980816267 0 -0.014192123856585158 -0.0058751488557793833 0 -0.014462526916542595 -0.0059980104162723853 0 -0.014127241817170424 -0.0062344824980816267 0 -0.014127241817170424 -0.0062344824980816267 0 -0.0142508522175977 -0.0066917792053294766 0 -0.013833911393463133 -0.0067377005664464827 0 -0.014462526916542595 -0.0059980104162723853 0 -0.014127241817170424 -0.0062344824980816267 0 -0.014636001757498582 -0.0064948146276423719 0 -0.014127241817170424 -0.0062344824980816267 0 -0.014636001757498582 -0.0064948146276423719 0 -0.0142508522175977 -0.0066917792053294766 0 -0.010918924191831231 -0.0063123629607152688 0 -0.011428168218885046 -0.0060217276662324478 0 -0.011464095068778778 -0.0064347871472969853 0 -0.011428168218885046 -0.0060217276662324478 0 -0.011805981234727937 -0.0061321139330774476 0 -0.011464095068778778 -0.0064347871472969853 0 -0.011428168218885046 -0.0060217276662324478 0 -0.011718348764222359 -0.0057393105660363758 0 -0.011805981234727937 -0.0061321139330774476 0 -0.017539583010781415 -0.0057394549723848625 0 -0.016763443157022492 -0.0058049732907820067 0 -0.011428168218885046 -0.0060217276662324478 0 -0.011718348764222359 -0.0057393105660363758 0 -0.011240748739854105 -0.0055036721241766935 0 -0.010918924191831231 -0.0063123629607152688 0 -0.011428168218885046 -0.0060217276662324478 0 -0.011240748739854105 -0.0055036721241766935 0 -0.012303401497289281 -0.0064227467506189464 0 -0.016763443157022492 -0.0058049732907820067 0 -0.014462526916542595 -0.0059980104162723853 0 -0.014636001757498582 -0.0064948146276423719 0 -0.014880008890254707 -0.0056740098723229142 0 -0.014477740197654266 -0.0057079837062397479 0 -0.014462526916542595 -0.0059980104162723853 0 -0.014880008890254707 -0.0056740098723229142 0 -0.013170015198136917 -0.0059711075461517642 0 -0.01277860823439762 -0.0060038908198927522 0 -0.012757330916065717 -0.0057557495995793793 0 -0.01265216421820335 -0.005909194988745624 0 -0.01277860823439762 -0.0060038908198927522 0 -0.012757330916065717 -0.0057557495995793793 0 -0.01265216421820335 -0.005909194988745624 0 -0.01277860823439762 -0.0060038908198927522 0 -0.012560899154001343 -0.0060335909951488324 0 -0.012847142617532148 -0.0062267672899300229 0 -0.01277860823439762 -0.0060038908198927522 0 -0.012543676572362052 -0.0062329753053779573 0 -0.01277860823439762 -0.0060038908198927522 0 -0.012543676572362052 -0.0062329753053779573 0 -0.012560899154001343 -0.0060335909951488324 0 -0.012543676572362052 -0.0062329753053779573 0 -0.012267722130935584 -0.0062409685165247981 0 -0.012560899154001343 -0.0060335909951488324 0 -0.012543676572362052 -0.0062329753053779573 0 -0.012267722130935584 -0.0062409685165247981 0 -0.012268862745561488 -0.0064822930889580034 0 -0.013631347209583217 -0.0062113826958630552 0 -0.016712091803672367 -0.0051844503893575394 0 -0.01265216421820335 -0.005909194988745624 0 -0.012501719047147492 -0.0058379062506874434 0 -0.012757330916065717 -0.0057557495995793793 0 -0.012267722130935584 -0.0062409685165247981 0 -0.012560899154001343 -0.0060335909951488324 0 -0.012501719047147492 -0.0058379062506874434 0 -0.01265216421820335 -0.005909194988745624 0 -0.012560899154001343 -0.0060335909951488324 0 -0.012501719047147492 -0.0058379062506874434 0 -0.012267722130935584 -0.0062409685165247981 0 -0.012245303405354914 -0.0059411000783828249 0 -0.011805981234727937 -0.0061321139330774476 0 -0.012267722130935584 -0.0062409685165247981 0 -0.011805981234727937 -0.0061321139330774476 0 -0.011897699430237068 -0.0064662164648300966 0 -0.011805981234727937 -0.0061321139330774476 0 -0.011897699430237068 -0.0064662164648300966 0 -0.011464095068778778 -0.0064347871472969853 0 -0.023398434339944475 -0.0057753760012166592 0 -0.023505569222787539 -0.0050872955819885142 0 -0.023193448149214382 -0.0052695232185659691 0 -0.011718348764222359 -0.0057393105660363758 0 -0.012245303405354914 -0.0059411000783828249 0 -0.011805981234727937 -0.0061321139330774476 0 -0.017539583010781415 -0.0057394549723848625 0 -0.016712091803672367 -0.0051844503893575394 0 -0.022968961390744728 -0.0055718188982852622 0 -0.023398434339944475 -0.0057753760012166592 0 -0.023193448149214382 -0.0052695232185659691 0 -0.013060642071034153 -0.0055510700546646278 0 -0.012757330916065717 -0.0057557495995793793 0 -0.012645986122507098 -0.0051676167629197828 0 -0.012501719047147492 -0.0058379062506874434 0 -0.012757330916065717 -0.0057557495995793793 0 -0.012645986122507098 -0.0051676167629197828 0 -0.016712091803672367 -0.0051844503893575394 0 -0.020333889273888621 -0.0056730377563159028 0 -0.025237792047551118 -0.0063490059986149733 0 -0.024492672973062294 -0.005698747000044112 0 -0.025077338240244877 -0.0052168968475035434 0 -0.019230490969653794 -0.0060265345014276781 0 -0.020333889273888621 -0.0056730377563159028 0 -0.022968961390744728 -0.0055718188982852622 0 -0.023193448149214382 -0.0052695232185659691 0 -0.022871245986487588 -0.0050763928510655261 0 -0.023505569222787539 -0.0050872955819885142 0 -0.023435445827513276 -0.004949576721667466 0 -0.023193448149214382 -0.0052695232185659691 0 -0.020333889273888621 -0.0056730377563159028 0 -0.0223936942843002 -0.0060189475831644136 0 -0.023193448149214382 -0.0052695232185659691 0 -0.023152056488290641 -0.0050068842625334408 0 -0.022871245986487588 -0.0050763928510655261 0 -0.023435445827513276 -0.004949576721667466 0 -0.023193448149214382 -0.0052695232185659691 0 -0.023152056488290641 -0.0050068842625334408 0 -0.02364497891445061 -0.0051526748636806933 0 -0.023435445827513276 -0.004949576721667466 0 -0.02382349616508396 -0.0043108965662133902 0 -0.023435445827513276 -0.004949576721667466 0 -0.023388273347865751 -0.0044107215517319217 0 -0.02382349616508396 -0.0043108965662133902 0 -0.020333889273888621 -0.0056730377563159028 0 -0.024325437928479802 -0.0043975956725126478 0 -0.023435445827513276 -0.004949576721667466 0 -0.023388273347865751 -0.0044107215517319217 0 -0.02309771116566255 -0.0047011728469287832 0 -0.023435445827513276 -0.004949576721667466 0 -0.023152056488290641 -0.0050068842625334408 0 -0.02309771116566255 -0.0047011728469287832 0 -0.023388273347865751 -0.0044107215517319217 0 -0.02309771116566255 -0.0047011728469287832 0 -0.023020527147648875 -0.0042113281986052931 0 -0.024394379331132844 -0.0046395258830640822 0 -0.025077338240244877 -0.0052168968475035434 0 -0.025335994999173099 -0.0039858528281905186 0 -0.024492672973062294 -0.005698747000044112 0 -0.024394379331132844 -0.0046395258830640822 0 -0.025077338240244877 -0.0052168968475035434 0 -0.018905473137605551 -0.0052554776796348004 0 -0.020022604956988151 -0.005802388363669757 0 -0.020502582308219042 -0.0040113160840460974 0 -0.014468000213290923 -0.0054707436028749645 0 -0.014477740197654266 -0.0057079837062397479 0 -0.014880008890254707 -0.0056740098723229142 0 -0.016505720668902331 -0.0053020926944519894 0 -0.016763443157022492 -0.0058049732907820067 0 -0.022968961390744728 -0.0055718188982852622 0 -0.022388722807581168 -0.0053485716312553326 0 -0.022871245986487588 -0.0050763928510655261 0 -0.016763443157022492 -0.0058049732907820067 0 -0.021989369259389373 -0.0041127554399085862 0 -0.022388722807581168 -0.0053485716312553326 0 -0.022871245986487588 -0.0050763928510655261 0 -0.022602246124464747 -0.0046060070665197737 0 -0.023152056488290641 -0.0050068842625334408 0 -0.022871245986487588 -0.0050763928510655261 0 -0.02309771116566255 -0.0047011728469287832 0 -0.022871245986487588 -0.0050763928510655261 0 -0.02309771116566255 -0.0047011728469287832 0 -0.022602246124464747 -0.0046060070665197737 0 -0.02309771116566255 -0.0047011728469287832 0 -0.022602246124464747 -0.0046060070665197737 0 -0.023020527147648875 -0.0042113281986052931 0 -0.018831526848674059 -0.0040565589742015519 0 -0.020502582308219042 -0.0040113160840460974 0 -0.019941031554179003 -0.0028080497381448551 0 -0.018905473137605551 -0.0052554776796348004 0 -0.018831526848674059 -0.0040565589742015519 0 -0.020502582308219042 -0.0040113160840460974 0 -0.018831526848674059 -0.0040565589742015519 0 -0.019941031554179003 -0.0028080497381448551 0 -0.018752362237760948 -0.0028529020024708764 0 -0.021413734553766956 -0.0015513145677324587 0 -0.019384162192060107 -0.0025872087945517756 0 -0.019941031554179003 -0.0028080497381448551 0 -0.02009687857758552 -0.0016291545060617598 0 -0.018752362237760948 -0.0028529020024708764 0 -0.020502582308219042 -0.0040113160840460974 0 -0.019941031554179003 -0.0028080497381448551 0 -0.020980289843528063 -0.0022128764940066866 0 -0.022602246124464747 -0.0046060070665197737 0 -0.023020527147648875 -0.0042113281986052931 0 -0.022834839079990767 -0.0035065632462834111 0 -0.021989369259389373 -0.0041127554399085862 0 -0.02180677795032927 -0.0029687237606187762 0 -0.023020527147648875 -0.0042113281986052931 0 -0.022834839079990767 -0.0035065632462834111 0 -0.02322533570060278 -0.0031345912249820225 0 -0.023060379699309005 -0.0040836126866917455 0 -0.02320453373138328 -0.0033020824723981679 0 -0.019941031554179003 -0.0028080497381448551 0 -0.020980289843528063 -0.0022128764940066866 0 -0.02009687857758552 -0.0016291545060617598 0 -0.020980289843528063 -0.0022128764940066866 0 -0.02009687857758552 -0.0016291545060617598 0 -0.021453313680631234 -0.00040458098907848511 0 -0.02180677795032927 -0.0029687237606187762 0 -0.022819173174755403 -0.001057329594701897 0 -0.021413734553766956 -0.0015513145677324587 0 -0.022819173174755403 -0.001057329594701897 0 -0.022834839079990767 -0.0035065632462834111 0 -0.02322533570060278 -0.0031345912249820225 0 -0.023132442343329649 -0.0022419135125783742 0 -0.022563167083188604 -0.0016233203524849678 0 -0.022637162683580968 -0.0009898439035082912 0 -0.023020765839805876 -0.00073570900645419425 0 -0.022563167083188604 -0.0016233203524849678 0 -0.022637162683580968 -0.0009898439035082912 0 -0.021393121955428366 -0.0017247426210452096 0 -0.022563167083188604 -0.0016233203524849678 0 -0.021393121955428366 -0.0017247426210452096 0 -0.021449505982674363 -0.0026303983799907671 0 -0.024394379331132844 -0.0046395258830640822 0 -0.025335994999173099 -0.0039858528281905186 0 -0.02417800119349962 -0.0033262769767533813 0 -0.024325437928479802 -0.0043975956725126478 0 -0.024124053616395077 -0.0033998740237366292 0 -0.02382349616508396 -0.0043108965662133902 0 -0.023538041786061142 -0.0037996649280611864 0 -0.02417800119349962 -0.0033262769767533813 0 -0.023020527147648875 -0.0042113281986052931 0 -0.023538041786061142 -0.0037996649280611864 0 -0.023292344571644447 -0.0031962674127543737 0 -0.023388273347865751 -0.0044107215517319217 0 -0.02382349616508396 -0.0043108965662133902 0 -0.023538041786061142 -0.0037996649280611864 0 -0.023388273347865751 -0.0044107215517319217 0 -0.023020527147648875 -0.0042113281986052931 0 -0.023538041786061142 -0.0037996649280611864 0 -0.023538041786061142 -0.0037996649280611864 0 -0.023292344571644447 -0.0031962674127543737 0 -0.02417800119349962 -0.0033262769767533813 0 -0.023292344571644447 -0.0031962674127543737 0 -0.02417800119349962 -0.0033262769767533813 0 -0.023939842763975122 -0.002548594077966941 0 -0.02417800119349962 -0.0033262769767533813 0 -0.024685803018355067 -0.0026844810072615102 0 -0.023939842763975122 -0.002548594077966941 0 -0.025335994999173099 -0.0039858528281905186 0 -0.02417800119349962 -0.0033262769767533813 0 -0.024952995097130285 -0.0031907119875070142 0 -0.025586000465259249 -0.0026914352179310502 0 -0.025335994999173099 -0.0039858528281905186 0 -0.024952995097130285 -0.0031907119875070142 0 -0.02417800119349962 -0.0033262769767533813 0 -0.024685803018355067 -0.0026844810072615102 0 -0.024952995097130285 -0.0031907119875070142 0 -0.025586000465259249 -0.0026914352179310502 0 -0.024685803018355067 -0.0026844810072615102 0 -0.024952995097130285 -0.0031907119875070142 0 -0.025617992254023763 -0.0015205995339562161 0 -0.025586000465259249 -0.0026914352179310502 0 -0.02513552001225931 -0.0020176389483932424 0 -0.025617992254023763 -0.0015205995339562161 0 -0.02513552001225931 -0.0020176389483932424 0 -0.024472648196368404 -0.0018435249259410669 0 -0.025586000465259249 -0.0026914352179310502 0 -0.024685803018355067 -0.0026844810072615102 0 -0.02513552001225931 -0.0020176389483932424 0 -0.024685803018355067 -0.0026844810072615102 0 -0.02513552001225931 -0.0020176389483932424 0 -0.024325140356881939 -0.0022820726447822627 0 -0.02513552001225931 -0.0020176389483932424 0 -0.024472648196368404 -0.0018435249259410669 0 -0.024325140356881939 -0.0022820726447822627 0 -0.02322533570060278 -0.0031345912249820225 0 -0.023429305739769084 -0.0019668319076176395 0 -0.023132442343329649 -0.0022419135125783742 0 -0.023292344571644447 -0.0031962674127543737 0 -0.023939842763975122 -0.002548594077966941 0 -0.023557437101238438 -0.0017931110997892732 0 -0.02320453373138328 -0.0033020824723981679 0 -0.023985507219258451 -0.0013088921981143364 0 -0.024431092480880767 -0.001478720356766557 0 -0.024355721871818687 -0.00097602823463552497 0 -0.024472648196368404 -0.0018435249259410669 0 -0.023851024331142365 -0.0015107114554732805 0 -0.024027225326886982 -0.0019988015028137829 0 -0.024027225326886982 -0.0019988015028137829 0 -0.023939842763975122 -0.002548594077966941 0 -0.023557437101238438 -0.0017931110997892732 0 -0.024685803018355067 -0.0026844810072615102 0 -0.024325140356881939 -0.0022820726447822627 0 -0.023939842763975122 -0.002548594077966941 0 -0.024472648196368404 -0.0018435249259410669 0 -0.024027225326886982 -0.0019988015028137829 0 -0.024325140356881939 -0.0022820726447822627 0 -0.024027225326886982 -0.0019988015028137829 0 -0.024325140356881939 -0.0022820726447822627 0 -0.023939842763975122 -0.002548594077966941 0 -0.023945521268516293 -0.00037822588123015411 0 -0.023740260274851974 -0.00017293868553471545 0 -0.023604163489054093 -0.00069370734212590172 0 -0.023985507219258451 -0.0013088921981143364 0 -0.022819173174755403 -0.001057329594701897 0 -0.023851024331142365 -0.0015107114554732805 0 -0.024027225326886982 -0.0019988015028137829 0 -0.023557437101238438 -0.0017931110997892732 0 -0.024796448781771549 -0.0008007369348965582 0 -0.02452723249773104 -0.001049814584567825 0 -0.024591784807793751 -0.00068874885400875714 0 -0.023985507219258451 -0.0013088921981143364 0 -0.02511494077455776 -0.0003484688600574448 0 -0.024355721871818687 -0.00097602823463552497 0 -0.023985507219258451 -0.0013088921981143364 0 -0.023945521268516293 -0.00037822588123015411 0 -0.023740260274851974 -0.00017293868553471545 0 -0.024002019801159732 -2.621123840341663e-05 0 -0.027496105173285705 0.0003916693878677745 0 -0.02753540716069066 0.00050077927974747087 0 -0.027488501079883671 0.00045559991549136116 0 -0.02511494077455776 -0.0003484688600574448 0 -0.025595077781279871 0.00058377267654527443 0 -0.024058055506028759 -0.0011766936631795468 0 -0.025014283503475846 -0.00059400241417032883 0 -0.024346375223381695 0.00053228407084592326 0 -0.024355721871818687 -0.00097602823463552497 0 -0.02511494077455776 -0.0003484688600574448 0 -0.024260658765947955 -0.0012866366701935038 0 -0.024058055506028759 -0.0011766936631795468 0 -0.025014283503475846 -0.00059400241417032883 0 -0.024472648196368404 -0.0018435249259410669 0 -0.023872286897064648 -0.0015111610728855776 0 -0.024767919880840653 -0.00072761866011381677 0 -0.024355721871818687 -0.00097602823463552497 0 -0.024849674682291975 -0.0007041864638546038 0 -0.025771988141775171 7.8184473273501195e-05 0 -0.026041020762920569 -0.00073761838800764977 0 -0.024767919880840653 -0.00072761866011381677 0 -0.026041020762920569 -0.00073761838800764977 0 -0.025617992254023763 -0.0015205995339562161 0 -0.024767919880840653 -0.00072761866011381677 0 -0.025617992254023763 -0.0015205995339562161 0 -0.024472648196368404 -0.0018435249259410669 0 -0.024767919880840653 -0.00072761866011381677 0 -0.022696061734430437 -0.00022449788492732742 0 -0.02035095511206465 -0.00018071770333330585 0 -0.022221239617778003 -0.00030325449520033298 0 -0.022637162683580968 -0.0009898439035082912 0 -0.021393121955428366 -0.0017247426210452096 0 -0.022277659169423075 -0.00035628511755432339 0 -0.022715959169014838 -0.00056699308152073646 0 -0.023005209224589828 -0.00024728993880805081 0 -0.022696061734430437 -0.00022449788492732742 0 -0.022643414129989759 -0.00077517196167200262 0 -0.022277659169423075 -0.00035628511755432339 0 -0.022715959169014838 -0.00056699308152073646 0 -0.022637162683580968 -0.0009898439035082912 0 -0.022563167083188604 -0.0016233203524849678 0 -0.023020765839805876 -0.00073570900645419425 0 -0.023620274905309283 -0.00065756993405910208 0 -0.022715959169014838 -0.00056699308152073646 0 -0.022637162683580968 -0.0009898439035082912 0 -0.023020765839805876 -0.00073570900645419425 0 -0.023020765839805876 -0.00073570900645419425 0 -0.023620274905309283 -0.00065756993405910208 0 -0.023347364991452166 -0.00045204911253487714 0 -0.023341418348837961 -0.00028135823643558666 0 -0.022819173174755403 -0.001057329594701897 0 -0.023740260274851974 -0.00017293868553471545 0 -0.023347364991452166 -0.00045204911253487714 0 -0.023005209224589828 -0.00024728993880805081 0 -0.023740260274851974 -0.00017293868553471545 0 -0.023620274905309283 -0.00065756993405910208 0 -0.023347364991452166 -0.00045204911253487714 0 -0.022715959169014838 -0.00056699308152073646 0 -0.023020765839805876 -0.00073570900645419425 0 -0.023005209224589828 -0.00024728993880805081 0 -0.023020765839805876 -0.00073570900645419425 0 -0.023347364991452166 -0.00045204911253487714 0 -0.023005209224589828 -0.00024728993880805081 0 -0.027496105173285705 0.0003916693878677745 0 -0.02743012975335658 0.00043575144636587082 0 -0.027488501079883671 0.00045559991549136116 0 -0.023740260274851974 -0.00017293868553471545 0 -0.023005209224589828 -0.00024728993880805081 0 -0.022842250885082772 0.00060938331324630662 0 -0.02511494077455776 -0.0003484688600574448 0 -0.025749563574240217 0.00040043138381733477 0 -0.023740260274851974 -0.00017293868553471545 0 -0.024002019801159732 -2.621123840341663e-05 0 -0.022842250885082772 0.00060938331324630662 0 -0.024070674815539018 -9.3163457710508914e-05 0 -0.024324597826056591 0.00033739363786566167 0 -0.023858863142072993 0.00026241960202552878 0 -0.024324597826056591 0.00033739363786566167 0 -0.023858863142072993 0.00026241960202552878 0 -0.023644952113367611 0.00061493589751690362 0 -0.022277659169423075 -0.00035628511755432339 0 -0.023005209224589828 -0.00024728993880805081 0 -0.022842250885082772 0.00060938331324630662 0 -0.022696061734430437 -0.00022449788492732742 0 -0.025749563574240217 0.00040043138381733477 0 -0.022696061734430437 -0.00022449788492732742 0 -0.02270378046484333 0.00047131590318869493 0 -0.021772849939472878 0.00037129560090325402 0 -0.021618199619696722 0.00062353553314165489 0 -0.021492082853932785 0.00041852952680684289 0 -0.020237378777146969 0.001479807314762709 0 -0.022604370775721864 0.00065641101972109062 0 -0.02270378046484333 0.00047131590318869493 0 -0.022604370775721864 0.00065641101972109062 0 -0.021618199619696722 0.00062353553314165489 0 -0.021492082853932785 0.00041852952680684289 0 -0.021479035307646947 0.00086927337215896342 0 -0.019796049032176015 0.0015916974989832503 0 -0.019402487382426611 0.0022161148617117505 0 -0.019387833581789721 0.00063119842580502722 0 -0.019796049032176015 0.0015916974989832503 0 -0.020259708722649809 0.0011037459248786085 0 -0.019387833581789721 0.00063119842580502722 0 -0.019796049032176015 0.0015916974989832503 0 -0.019402487382426611 0.0022161148617117505 0 -0.019647942142028828 0.0020222978564661096 0 -0.019796049032176015 0.0015916974989832503 0 -0.019873380442922639 0.001859907807762547 0 -0.019647942142028828 0.0020222978564661096 0 -0.020854647623020011 0.001276710992705912 0 -0.020426613954755087 0.0015022042492621873 0 -0.020259708722649809 0.0011037459248786085 0 -0.020854647623020011 0.001276710992705912 0 -0.020426613954755087 0.0015022042492621873 0 -0.020726431060318722 0.0015634795222377502 0 -0.020426613954755087 0.0015022042492621873 0 -0.020259708722649809 0.0011037459248786085 0 -0.020102988283423936 0.0016175157671784869 0 -0.019796049032176015 0.0015916974989832503 0 -0.020259708722649809 0.0011037459248786085 0 -0.020102988283423936 0.0016175157671784869 0 -0.019873380442922639 0.001859907807762547 0 -0.020058690483321349 0.0018504114291550981 0 -0.020102988283423936 0.0016175157671784869 0 -0.019796049032176015 0.0015916974989832503 0 -0.019873380442922639 0.001859907807762547 0 -0.020102988283423936 0.0016175157671784869 0 -0.019873380442922639 0.001859907807762547 0 -0.019960432585653647 0.0019804365090510569 0 -0.019774837681720236 0.0020605074381290014 0 -0.019873380442922639 0.001859907807762547 0 -0.019774837681720236 0.0020605074381290014 0 -0.019647942142028828 0.0020222978564661096 0 -0.019873380442922639 0.001859907807762547 0 -0.020058690483321349 0.0018504114291550981 0 -0.019960432585653647 0.0019804365090510569 0 -0.020058690483321349 0.0018504114291550981 0 -0.019960432585653647 0.0019804365090510569 0 -0.020168853413850035 0.0019575396887757026 0 -0.020168853413850035 0.0019575396887757026 0 -0.020263591902386139 0.0017612787068636748 0 -0.020385580288879043 0.0018730551363156168 0 -0.020058690483321349 0.0018504114291550981 0 -0.020168853413850035 0.0019575396887757026 0 -0.020263591902386139 0.0017612787068636748 0 -0.020058690483321349 0.0018504114291550981 0 -0.020263591902386139 0.0017612787068636748 0 -0.020102988283423936 0.0016175157671784869 0 -0.020426613954755087 0.0015022042492621873 0 -0.020263591902386139 0.0017612787068636748 0 -0.020102988283423936 0.0016175157671784869 0 -0.020854647623020011 0.001276710992705912 0 -0.020768486388210553 0.0018715808538126639 0 -0.020726431060318722 0.0015634795222377502 0 -0.020426613954755087 0.0015022042492621873 0 -0.020263591902386139 0.0017612787068636748 0 -0.020498587609021606 0.0016994141536266058 0 -0.020426613954755087 0.0015022042492621873 0 -0.020498587609021606 0.0016994141536266058 0 -0.020726431060318722 0.0015634795222377502 0 -0.020498587609021606 0.0016994141536266058 0 -0.020670423202869857 0.0017490362867744905 0 -0.020726431060318722 0.0015634795222377502 0 -0.020263591902386139 0.0017612787068636748 0 -0.020498587609021606 0.0016994141536266058 0 -0.020385580288879043 0.0018730551363156168 0 -0.020498587609021606 0.0016994141536266058 0 -0.020385580288879043 0.0018730551363156168 0 -0.020768486388210553 0.0018715808538126639 0 -0.020385580288879043 0.0018730551363156168 0 -0.020768486388210553 0.0018715808538126639 0 -0.020304537951572461 0.0020537930174110851 0 -0.020168853413850035 0.0019575396887757026 0 -0.020385580288879043 0.0018730551363156168 0 -0.020304537951572461 0.0020537930174110851 0 -0.020768486388210553 0.0018715808538126639 0 -0.020670423202869857 0.0017490362867744905 0 -0.020726431060318722 0.0015634795222377502 0 -0.020498587609021606 0.0016994141536266058 0 -0.020768486388210553 0.0018715808538126639 0 -0.020670423202869857 0.0017490362867744905 0 -0.016460815007504046 -0.0016867275909012306 0 -0.016686277965767351 -0.0019550861323074354 0 -0.016141853109649548 -0.0020942935097678426 0 -0.01973614482654823 0.0003766544211519733 0 -0.018060397980118211 0.00095277577639403055 0 -0.020768486388210553 0.0018715808538126639 0 -0.020304537951572461 0.0020537930174110851 0 -0.019882909512347977 0.0023654097143243455 0 -0.019882909512347977 0.0023654097143243455 0 -0.019902958138739178 0.0020999751135229389 0 -0.019749538262486172 0.0022165952510224897 0 -0.018060397980118211 0.00095277577639403055 0 -0.018310641023878225 0.0012366600582307029 0 -0.020304537951572461 0.0020537930174110851 0 -0.020063618608367539 0.0020631802866697972 0 -0.019902958138739178 0.0020999751135229389 0 -0.020304537951572461 0.0020537930174110851 0 -0.019882909512347977 0.0023654097143243455 0 -0.019902958138739178 0.0020999751135229389 0 -0.020168853413850035 0.0019575396887757026 0 -0.020304537951572461 0.0020537930174110851 0 -0.020063618608367539 0.0020631802866697972 0 -0.019960432585653647 0.0019804365090510569 0 -0.020063618608367539 0.0020631802866697972 0 -0.019902958138739178 0.0020999751135229389 0 -0.019960432585653647 0.0019804365090510569 0 -0.020168853413850035 0.0019575396887757026 0 -0.020063618608367539 0.0020631802866697972 0 -0.019902958138739178 0.0020999751135229389 0 -0.019774837681720236 0.0020605074381290014 0 -0.019749538262486172 0.0022165952510224897 0 -0.019960432585653647 0.0019804365090510569 0 -0.019902958138739178 0.0020999751135229389 0 -0.019774837681720236 0.0020605074381290014 0 -0.019774837681720236 0.0020605074381290014 0 -0.019749538262486172 0.0022165952510224897 0 -0.019630541198740942 0.0021262129903980532 0 -0.019749538262486172 0.0022165952510224897 0 -0.019630541198740942 0.0021262129903980532 0 -0.019507775237901474 0.002099464883297921 0 -0.019672210846856664 0.0022099939685004512 0 -0.019749538262486172 0.0022165952510224897 0 -0.019507775237901474 0.002099464883297921 0 -0.020237378777146969 0.001479807314762709 0 -0.02035095511206465 -0.00018071770333330585 0 -0.019402487382426611 0.0022161148617117505 0 -0.019381370983482027 0.0020339139351786212 0 -0.01914431967943234 0.0017434313478861829 0 -0.021772849939472878 0.00037129560090325402 0 -0.021492082853932785 0.00041852952680684289 0 -0.021513608301646264 -6.0977483817932335e-05 0 -0.019402487382426611 0.0022161148617117505 0 -0.019494579775641462 0.0021197206916603877 0 -0.019381370983482027 0.0020339139351786212 0 -0.019402487382426611 0.0022161148617117505 0 -0.019647942142028828 0.0020222978564661096 0 -0.019494579775641462 0.0021197206916603877 0 -0.019774837681720236 0.0020605074381290014 0 -0.019647942142028828 0.0020222978564661096 0 -0.019630541198740942 0.0021262129903980532 0 -0.019647942142028828 0.0020222978564661096 0 -0.019494579775641462 0.0021197206916603877 0 -0.019630541198740942 0.0021262129903980532 0 -0.019494579775641462 0.0021197206916603877 0 -0.019630541198740942 0.0021262129903980532 0 -0.019507775237901474 0.002099464883297921 0 -0.019672210846856664 0.0022099939685004512 0 -0.019507775237901474 0.002099464883297921 0 -0.01914431967943234 0.0017434313478861829 0 -0.018060397980118211 0.00095277577639403055 0 -0.018879874424647339 0.0022688724012493414 0 -0.019381370983482027 0.0020339139351786212 0 -0.019507775237901474 0.002099464883297921 0 -0.01914431967943234 0.0017434313478861829 0 -0.019494579775641462 0.0021197206916603877 0 -0.019381370983482027 0.0020339139351786212 0 -0.019507775237901474 0.002099464883297921 0 -0.019402487382426611 0.0022161148617117505 0 -0.019462315206299353 0.0013657840657097979 0 -0.01914431967943234 0.0017434313478861829 0 -0.017970025842785148 0.00044685649643368645 0 -0.01914431967943234 0.0017434313478861829 0 -0.017228930872710678 0.0016680976890344527 0 -0.019462315206299353 0.0013657840657097979 0 -0.017970025842785148 0.00044685649643368645 0 -0.01914431967943234 0.0017434313478861829 0 -0.017234452454192913 0.0040300597663054469 0 -0.017228930872710678 0.0016680976890344527 0 -0.014610402338176978 0.00055892135754799304 0 -0.017970025842785148 0.00044685649643368645 0 -0.017228930872710678 0.0016680976890344527 0 -0.014610402338176978 0.00055892135754799304 0 -0.018060397980118211 0.00095277577639403055 0 -0.015245130648735209 -0.0010261452850963014 0 -0.017234452454192913 0.0040300597663054469 0 -0.01914431967943234 0.0017434313478861829 0 -0.017228930872710678 0.0016680976890344527 0 -0.017970025842785148 0.00044685649643368645 0 -0.016059042458678764 -0.0017153930651035273 0 -0.014610402338176978 0.00055892135754799304 0 -0.017970025842785148 0.00044685649643368645 0 -0.016059042458678764 -0.0017153930651035273 0 -0.018114722198777761 -0.0013317925157954715 0 -0.02035095511206465 -0.00018071770333330585 0 -0.018085341147529164 -0.0016777978597029607 0 -0.019462315206299353 0.0013657840657097979 0 -0.017970025842785148 0.00044685649643368645 0 -0.018114722198777761 -0.0013317925157954715 0 -0.019308418702938882 -0.00022283719337640783 0 -0.01815265388061698 -0.0022471934894751542 0 -0.019429149868672928 -0.0019013329773417773 0 -0.017263175833397412 -0.0038038437811529812 0 -0.01815265388061698 -0.0022471934894751542 0 -0.019429149868672928 -0.0019013329773417773 0 -0.02035095511206465 -0.00018071770333330585 0 -0.019384162192060107 -0.0025872087945517756 0 -0.015750517076685473 -0.0030829727601999393 0 -0.016201505867351258 -0.0025481973078755257 0 -0.015471519470414566 -0.0024342459403538458 0 -0.014197401822617826 -0.0028146971900768441 0 -0.015245130648735209 -0.0010261452850963014 0 -0.014427491819481011 -0.0023200399303885447 0 -0.016059042458678764 -0.0017153930651035273 0 -0.014610402338176978 0.00055892135754799304 0 -0.014427491819481011 -0.0023200399303885447 0 -0.012542077223361797 -0.00260542530152551 0 -0.014610402338176978 0.00055892135754799304 0 -0.016686277965767351 -0.0019550861323074354 0 -0.016201505867351258 -0.0025481973078755257 0 -0.016141853109649548 -0.0020942935097678426 0 -0.016201505867351258 -0.0025481973078755257 0 -0.016141853109649548 -0.0020942935097678426 0 -0.015471519470414566 -0.0024342459403538458 0 -0.016141853109649548 -0.0020942935097678426 0 -0.015709112115115723 -0.0018090664356428528 0 -0.015471519470414566 -0.0024342459403538458 0 -0.016460815007504046 -0.0016867275909012306 0 -0.016141853109649548 -0.0020942935097678426 0 -0.015709112115115723 -0.0018090664356428528 0 -0.01973614482654823 0.0003766544211519733 0 -0.022699995266658651 0.00014605301196913859 0 -0.020854647623020011 0.001276710992705912 0 -0.020768486388210553 0.0018715808538126639 0 -0.022183153149684103 0.00051547744981496498 0 -0.01973614482654823 0.0003766544211519733 0 -0.019261501713335221 -0.00090293790215961961 0 -0.022220286790015233 0.00028056074819328799 0 -0.023019034286984152 0.00030524746408588542 0 -0.022722023907569527 -0.0002541776433805722 0 -0.023019034286984152 0.00030524746408588542 0 -0.022722023907569527 -0.0002541776433805722 0 -0.023545751854237105 -0.00020880851192155096 0 -0.023152179693179082 -0.00069876432148226013 0 -0.022722023907569527 -0.0002541776433805722 0 -0.023545751854237105 -0.00020880851192155096 0 -0.023036800790833173 -0.00063391338632487622 0 -0.022699995266658651 0.00014605301196913859 0 -0.023152179693179082 -0.00069876432148226013 0 -0.022155864161392022 -0.00044188624967148634 0 -0.022183153149684103 0.00051547744981496498 0 -0.023152179693179082 -0.00069876432148226013 0 -0.022155864161392022 -0.00044188624967148634 0 -0.022387102044223894 -0.00092717361234954704 0 -0.022155864161392022 -0.00044188624967148634 0 -0.021436464798702908 -0.00047895470169348394 0 -0.021697668673329142 -0.00099729365847101904 0 -0.022155864161392022 -0.00044188624967148634 0 -0.022387102044223894 -0.00092717361234954704 0 -0.021697668673329142 -0.00099729365847101904 0 -0.022155864161392022 -0.00044188624967148634 0 -0.021436464798702908 -0.00047895470169348394 0 -0.021582811685978354 5.7087745667370051e-05 0 -0.021436464798702908 -0.00047895470169348394 0 -0.021582811685978354 5.7087745667370051e-05 0 -0.020816294555852852 0.00018797017252316422 0 -0.022155864161392022 -0.00044188624967148634 0 -0.021582811685978354 5.7087745667370051e-05 0 -0.022183153149684103 0.00051547744981496498 0 -0.020854647623020011 0.001276710992705912 0 -0.022183153149684103 0.00051547744981496498 0 -0.021022739620934757 0.0005609603004461056 0 -0.021582811685978354 5.7087745667370051e-05 0 -0.022183153149684103 0.00051547744981496498 0 -0.021022739620934757 0.0005609603004461056 0 -0.020854647623020011 0.001276710992705912 0 -0.020259708722649809 0.0011037459248786085 0 -0.021022739620934757 0.0005609603004461056 0 -0.020259708722649809 0.0011037459248786085 0 -0.021022739620934757 0.0005609603004461056 0 -0.020246414235586901 0.00052236777676099324 0 -0.020259708722649809 0.0011037459248786085 0 -0.020246414235586901 0.00052236777676099324 0 -0.019387833581789721 0.00063119842580502722 0 -0.020246414235586901 0.00052236777676099324 0 -0.020816294555852852 0.00018797017252316422 0 -0.019605140797442903 0.0002360296672739332 0 -0.021022739620934757 0.0005609603004461056 0 -0.020246414235586901 0.00052236777676099324 0 -0.020816294555852852 0.00018797017252316422 0 -0.021582811685978354 5.7087745667370051e-05 0 -0.021022739620934757 0.0005609603004461056 0 -0.020816294555852852 0.00018797017252316422 0 -0.027848061540664448 0.00058719907639573138 0 -0.027862236035183542 0.00061278097316506725 0 -0.027865748764682414 0.00053976890760626297 0 -0.020246414235586901 0.00052236777676099324 0 -0.019387833581789721 0.00063119842580502722 0 -0.019605140797442903 0.0002360296672739332 0 -0.027848061540664448 0.00058719907639573138 0 -0.027832742401256844 0.00062842218156128544 0 -0.027862236035183542 0.00061278097316506725 0 -0.02495337177933777 0.00033202210970697984 0 -0.024405001719273425 0.00024456609803566464 0 -0.022604370775721864 0.00065641101972109062 0 -0.022639985101634334 0.00036431467939427713 0 -0.024405001719273425 0.00024456609803566464 0 -0.022639985101634334 0.00036431467939427713 0 -0.022731126007929873 0.00035260354614707673 0 -0.022759040838818159 -3.0408661013846477e-05 0 -0.023061908852371839 -0.0001969583120758361 0 -0.022604370775721864 0.00065641101972109062 0 -0.024405001719273425 0.00024456609803566464 0 -0.027848061540664448 0.00058719907639573138 0 -0.027810120896562433 0.00054304288249433757 0 -0.027764367813415753 0.00059040576337663774 0 -0.027848061540664448 0.00058719907639573138 0 -0.027840371484359208 0.00061475691644649079 0 -0.027764367813415753 0.00059040576337663774 0 -0.027862236035183542 0.00061278097316506725 0 -0.027865748764682414 0.00053976890760626297 0 -0.027976879876241319 0.00047903617950069037 0 -0.027865748764682414 0.00053976890760626297 0 -0.027837222273123938 0.00047682057217268145 0 -0.027976879876241319 0.00047903617950069037 0 -0.027810120896562433 0.00054304288249433757 0 -0.027865748764682414 0.00053976890760626297 0 -0.027837222273123938 0.00047682057217268145 0 -0.027848061540664448 0.00058719907639573138 0 -0.027810120896562433 0.00054304288249433757 0 -0.027865748764682414 0.00053976890760626297 0 -0.022639985101634334 0.00036431467939427713 0 -0.024269026778431707 -0.00018359109839326016 0 -0.020759169309460757 -0.00092341962718018493 0 -0.021005116868762039 -0.00037783601692810052 0 -0.023593968333860429 -0.0019254247351274754 0 -0.020357849161138804 -0.00018705992391728477 0 -0.022639985101634334 0.00036431467939427713 0 -0.021436464798702908 -0.00047895470169348394 0 -0.020816294555852852 0.00018797017252316422 0 -0.019605140797442903 0.0002360296672739332 0 -0.020371317506367431 0.00041420354356706032 0 -0.020759169309460757 -0.00092341962718018493 0 -0.021005116868762039 -0.00037783601692810052 0 -0.021436464798702908 -0.00047895470169348394 0 -0.020371317506367431 0.00041420354356706032 0 -0.021005116868762039 -0.00037783601692810052 0 -0.021436464798702908 -0.00047895470169348394 0 -0.021005116868762039 -0.00037783601692810052 0 -0.021697668673329142 -0.00099729365847101904 0 -0.021389185370985657 -0.00060715146126344985 0 -0.022214318512267715 -0.0011314986578105323 0 -0.020759169309460757 -0.00092341962718018493 0 -0.022541607422124972 -0.0037365175787693228 0 -0.023593968333860429 -0.0019254247351274754 0 -0.027976879876241319 0.00047903617950069037 0 -0.028092410471166177 0.00032918971212299558 0 -0.02786314139922224 0.00036049678316056236 0 -0.03040293110469227 -0.00033436603018145467 0 -0.031529720370925961 0.00035355054302091616 0 -0.024269026778431707 -0.00018359109839326016 0 -0.03040293110469227 -0.00033436603018145467 0 -0.027837222273123938 0.00047682057217268145 0 -0.027976879876241319 0.00047903617950069037 0 -0.02786314139922224 0.00036049678316056236 0 -0.034882747702273439 0.00020977384111016281 0 -0.03487869882292588 0.00015357677115899768 0 -0.034886467330818759 0.0001513890198574161 0 -0.034855752578008353 0.00013407995323527939 0 -0.034886467330818759 0.0001513890198574161 0 -0.034864738759354065 0.00013922606924120269 0 -0.034855752578008353 0.00013407995323527939 0 -0.034882747702273439 0.00020977384111016281 0 -0.034886467330818759 0.0001513890198574161 0 -0.034855752578008353 0.00013407995323527939 0 -0.034864738759354065 0.00013922606924120269 0 -0.034807386854116808 0.00013306619363552254 0 -0.03040293110469227 -0.00033436603018145467 0 -0.03584267407422477 -7.0752447712606751e-05 0 -0.034536002639840906 0.00025596856913825001 0 -0.034742639152000557 0.00023030551290853131 0 -0.034807386854116808 0.00013306619363552254 0 -0.029106982302493756 -0.0016490483180247831 0 -0.03408786795383064 0.00031278655050367645 0 -0.034742639152000557 0.00023030551290853131 0 -0.034824640120824757 0.00013807487680717723 0 -0.03483303914616518 0.00016486787457939024 0 -0.034742639152000557 0.00023030551290853131 0 -0.034824640120824757 0.00013807487680717723 0 -0.034807386854116808 0.00013306619363552254 0 -0.023152179693179082 -0.00069876432148226013 0 -0.022562520246904923 -0.0014655490617247256 0 -0.023584907129223964 -0.0012718953072576396 0 -0.029106982302493756 -0.0016490483180247831 0 -0.027169166557509852 -0.0011014219134813834 0 -0.023152179693179082 -0.00069876432148226013 0 -0.022562520246904923 -0.0014655490617247256 0 -0.022387102044223894 -0.00092717361234954704 0 -0.022541607422124972 -0.0037365175787693228 0 -0.026252240002981826 -0.0039564259321668389 0 -0.023593968333860429 -0.0019254247351274754 0 -0.03040293110469227 -0.00033436603018145467 0 -0.029106982302493756 -0.0016490483180247831 0 -0.029106982302493756 -0.0016490483180247831 0 -0.022214318512267715 -0.0011314986578105323 0 -0.022562520246904923 -0.0014655490617247256 0 -0.022387102044223894 -0.00092717361234954704 0 -0.021697668673329142 -0.00099729365847101904 0 -0.02540799994250257 0.0012781176489515985 0 -0.024346375223381695 0.00053228407084592326 0 -0.024675257797815254 0.0023593929245634402 0 -0.025771988141775171 7.8184473273501195e-05 0 -0.02540799994250257 0.0012781176489515985 0 -0.024346375223381695 0.00053228407084592326 0 -0.025771988141775171 7.8184473273501195e-05 0 -0.025014283503475846 -0.00059400241417032883 0 -0.024346375223381695 0.00053228407084592326 0 -0.025662057788864392 3.2632816660030357e-06 0 -0.024849674682291975 -0.0007041864638546038 0 -0.02753540716069066 0.00050077927974747087 0 -0.027488257509159272 0.00048811878132738176 0 -0.027488501079883671 0.00045559991549136116 0 -0.02753540716069066 0.00050077927974747087 0 -0.027560699865005971 0.00049073928675491389 0 -0.027532646098331792 0.00043741849555850679 0 -0.025595077781279871 0.00058377267654527443 0 -0.02957831941314942 0.00083165351749508174 0 -0.02753540716069066 0.00050077927974747087 0 -0.027560699865005971 0.00049073928675491389 0 -0.027488257509159272 0.00048811878132738176 0 -0.027645585350474192 0.00051880465868277118 0 -0.027730159665745581 0.00051188582039381821 0 -0.027668912727162903 0.00039111780841666143 0 -0.027560699865005971 0.00049073928675491389 0 -0.027645585350474192 0.00051880465868277118 0 -0.027668912727162903 0.00039111780841666143 0 -0.02752281464485852 0.00045258382107436936 0 -0.027608448449383951 0.00070387138625595171 0 -0.027560699865005971 0.00049073928675491389 0 -0.027645585350474192 0.00051880465868277118 0 -0.027612721352878403 0.00060483270144370848 0 -0.027655441466131195 0.00070472199276625067 0 -0.027612721352878403 0.00060483270144370848 0 -0.027681878989430014 0.00058729100615478782 0 -0.02743012975335658 0.00043575144636587082 0 -0.027488257509159272 0.00048811878132738176 0 -0.027488501079883671 0.00045559991549136116 0 -0.025749563574240217 0.00040043138381733477 0 -0.027608448449383951 0.00070387138625595171 0 -0.027645585350474192 0.00051880465868277118 0 -0.027612721352878403 0.00060483270144370848 0 -0.027681878989430014 0.00058729100615478782 0 -0.025749563574240217 0.00040043138381733477 0 -0.024405001719273425 0.00024456609803566464 0 -0.027655441466131195 0.00070472199276625067 0 -0.027681878989430014 0.00058729100615478782 0 -0.027764367813415753 0.00059040576337663774 0 -0.024324597826056591 0.00033739363786566167 0 -0.023644952113367611 0.00061493589751690362 0 -0.023638902667426583 0.00070603806548847215 0 -0.027655441466131195 0.00070472199276625067 0 -0.027840371484359208 0.00061475691644649079 0 -0.027764367813415753 0.00059040576337663774 0 -0.027837222273123938 0.00047682057217268145 0 -0.02786314139922224 0.00036049678316056236 0 -0.027730159665745581 0.00051188582039381821 0 -0.027810120896562433 0.00054304288249433757 0 -0.027764367813415753 0.00059040576337663774 0 -0.027730159665745581 0.00051188582039381821 0 -0.027681878989430014 0.00058729100615478782 0 -0.027764367813415753 0.00059040576337663774 0 -0.027730159665745581 0.00051188582039381821 0 -0.027645585350474192 0.00051880465868277118 0 -0.027681878989430014 0.00058729100615478782 0 -0.027730159665745581 0.00051188582039381821 0 -0.027810120896562433 0.00054304288249433757 0 -0.027837222273123938 0.00047682057217268145 0 -0.027730159665745581 0.00051188582039381821 0 -0.031529720370925961 0.00035355054302091616 0 -0.03142016046901025 0.00035400996081100554 0 -0.02786314139922224 0.00036049678316056236 0 -0.027730159665745581 0.00051188582039381821 0 -0.027668912727162903 0.00039111780841666143 0 -0.034882747702273439 0.00020977384111016281 0 -0.034749951250105715 0.00030000609500930496 0 -0.034665747299266782 0.00041133740767537556 0 -0.034882747702273439 0.00020977384111016281 0 -0.03487869882292588 0.00015357677115899768 0 -0.034831950352852449 0.00019139816957704453 0 -0.03487869882292588 0.00015357677115899768 0 -0.034831950352852449 0.00019139816957704453 0 -0.034860644373011444 0.0001362048030116465 0 -0.034882747702273439 0.00020977384111016281 0 -0.034749951250105715 0.00030000609500930496 0 -0.034831950352852449 0.00019139816957704453 0 -0.034831950352852449 0.00019139816957704453 0 -0.034812095978786733 0.0001859324934064653 0 -0.034860644373011444 0.0001362048030116465 0 -0.034749951250105715 0.00030000609500930496 0 -0.034831950352852449 0.00019139816957704453 0 -0.034812095978786733 0.0001859324934064653 0 -0.034749951250105715 0.00030000609500930496 0 -0.034812095978786733 0.0001859324934064653 0 -0.03482393199655956 0.00017123806787128635 0 -0.034762365933447364 0.00031759851337869062 0 -0.034692862459476767 0.00033921101188234354 0 -0.034812095978786733 0.0001859324934064653 0 -0.03482393199655956 0.00017123806787128635 0 -0.034838623313355736 0.00015521657873112036 0 -0.034749951250105715 0.00030000609500930496 0 -0.034665747299266782 0.00041133740767537556 0 -0.034520088889466373 0.00048712277825620762 0 -0.034665747299266782 0.00041133740767537556 0 -0.0344384828238508 0.00060549022832181857 0 -0.034520088889466373 0.00048712277825620762 0 -0.027560699865005971 0.00049073928675491389 0 -0.027668912727162903 0.00039111780841666143 0 -0.027532646098331792 0.00043741849555850679 0 -0.03142016046901025 0.00035400996081100554 0 -0.02957831941314942 0.00083165351749508174 0 -0.0344384828238508 0.00060549022832181857 0 -0.034441849321775839 0.00059595971634925776 0 -0.034520088889466373 0.00048712277825620762 0 -0.02957831941314942 0.00083165351749508174 0 -0.029806214324264082 0.00089246042641060624 0 -0.034441849321775839 0.00059595971634925776 0 -0.034520088889466373 0.00048712277825620762 0 -0.034460418533447425 0.0006643605819346899 0 -0.03482393199655956 0.00017123806787128635 0 -0.034820264998292619 0.00015800248848762402 0 -0.034838623313355736 0.00015521657873112036 0 -0.034692862459476767 0.00033921101188234354 0 -0.034631834257336451 0.00041818658030654329 0 -0.034441849321775839 0.00059595971634925776 0 -0.034460418533447425 0.0006643605819346899 0 -0.034466398199609005 0.00064375972360316224 0 -0.034516454952967179 0.00070694356901515067 0 -0.034460418533447425 0.0006643605819346899 0 -0.034466398199609005 0.00064375972360316224 0 -0.030384103717615414 0.0015651517503334164 0 -0.02957831941314942 0.00083165351749508174 0 -0.034492778040827968 0.00066727136159976845 0 -0.034434310416128162 0.00059463572265324588 0 -0.034466398199609005 0.00064375972360316224 0 -0.026287665908755795 0.0023323009098122059 0 -0.02540799994250257 0.0012781176489515985 0 -0.024675257797815254 0.0023593929245634402 0 -0.034434310416128162 0.00059463572265324588 0 -0.034441849321775839 0.00059595971634925776 0 -0.034466398199609005 0.00064375972360316224 0 -0.0348141406189953 9.3701288837612061e-05 0 -0.034859271406239699 0.00011944294197829732 0 -0.034930077120874856 2.6139680582347547e-05 0 -0.034923244728112167 5.4494236916084809e-06 0 -0.034911376102892348 4.3222059392263121e-05 0 -0.034820264998292619 0.00015800248848762402 0 -0.03481605087085364 0.00012785617084131292 0 -0.034859271406239699 0.00011944294197829732 0 -0.0348141406189953 9.3701288837612061e-05 0 -0.03481605087085364 0.00012785617084131292 0 -0.034859271406239699 0.00011944294197829732 0 -0.034820264998292619 0.00015800248848762402 0 -0.034859271406239699 0.00011944294197829732 0 -0.034838623313355736 0.00015521657873112036 0 -0.034859271406239699 0.00011944294197829732 0 -0.034910645448698562 7.752654065020843e-05 0 -0.034930077120874856 2.6139680582347547e-05 0 -0.034859271406239699 0.00011944294197829732 0 -0.034910645448698562 7.752654065020843e-05 0 -0.034860644373011444 0.0001362048030116465 0 -0.034859271406239699 0.00011944294197829732 0 -0.034838623313355736 0.00015521657873112036 0 -0.034860644373011444 0.0001362048030116465 0 -0.034812095978786733 0.0001859324934064653 0 -0.034838623313355736 0.00015521657873112036 0 -0.034860644373011444 0.0001362048030116465 0 -0.03487869882292588 0.00015357677115899768 0 -0.034860644373011444 0.0001362048030116465 0 -0.034904078432615761 0.00010676019703876443 0 -0.034910645448698562 7.752654065020843e-05 0 -0.034860644373011444 0.0001362048030116465 0 -0.034904078432615761 0.00010676019703876443 0 -0.034910645448698562 7.752654065020843e-05 0 -0.034904078432615761 0.00010676019703876443 0 -0.034935865998967898 6.4799931376129907e-05 0 -0.034910645448698562 7.752654065020843e-05 0 -0.034959138808480797 3.2016537301493289e-05 0 -0.034935865998967898 6.4799931376129907e-05 0 -0.034959138808480797 3.2016537301493289e-05 0 -0.034999923178679268 1.4660489447109538e-08 0 -0.034999945110442791 2.5104801762207661e-08 0 -0.034959138808480797 3.2016537301493289e-05 0 -0.034999923178679268 1.4660489447109538e-08 0 -0.034930077120874856 2.6139680582347547e-05 0 -0.034910645448698562 7.752654065020843e-05 0 -0.034959138808480797 3.2016537301493289e-05 0 -0.034930077120874856 2.6139680582347547e-05 0 -0.034999923178679268 1.4660489447109538e-08 0 -0.034930077120874856 2.6139680582347547e-05 0 -0.03499994020930814 2.3249208837226568e-08 0 -0.034930077120874856 2.6139680582347547e-05 0 -0.03499994020930814 2.3249208837226568e-08 0 -0.034982745394211832 1.2988312998972877e-05 0 -0.034999979262549628 1.7019030794585972e-08 0 -0.03499994020930814 2.3249208837226568e-08 0 -0.034982745394211832 1.2988312998972877e-05 0 -0.034974139906267791 -4.5647071723896172e-06 0 -0.034930077120874856 2.6139680582347547e-05 0 -0.034982745394211832 1.2988312998972877e-05 0 -0.034903927190593841 0.00010665609632173999 0 -0.034941097080646799 6.3586509159289055e-05 0 -0.03495330409795628 5.3092905833889071e-05 0 -0.034903927190593841 0.00010665609632173999 0 -0.034922166270023584 9.2428835458226624e-05 0 -0.034860572136458358 0.00013693403016549151 0 -0.034903927190593841 0.00010665609632173999 0 -0.034922166270023584 9.2428835458226624e-05 0 -0.03495330409795628 5.3092905833889071e-05 0 -0.034922166270023584 9.2428835458226624e-05 0 -0.034860572136458358 0.00013693403016549151 0 -0.034997594043414591 7.2630997948986998e-05 0 -0.034868253226420828 0.00013348527402828341 0 -0.034909154065355746 0.00011162636991817747 0 -0.034922166270023584 9.2428835458226624e-05 0 -0.03495330409795628 5.3092905833889071e-05 0 -0.034997594043414591 7.2630997948986998e-05 0 -0.034824640120824757 0.00013807487680717723 0 -0.034860572136458358 0.00013693403016549151 0 -0.034825925833353512 0.00014695982537530527 0 -0.034824640120824757 0.00013807487680717723 0 -0.034807386854116808 0.00013306619363552254 0 -0.034860572136458358 0.00013693403016549151 0 -0.034807386854116808 0.00013306619363552254 0 -0.034860572136458358 0.00013693403016549151 0 -0.034867313244252136 0.00013625746317480418 0 -0.034903927190593841 0.00010665609632173999 0 -0.034867313244252136 0.00013625746317480418 0 -0.034888633981757435 0.00013200894703285443 0 -0.034903927190593841 0.00010665609632173999 0 -0.034860572136458358 0.00013693403016549151 0 -0.034867313244252136 0.00013625746317480418 0 -0.034864738759354065 0.00013922606924120269 0 -0.034807386854116808 0.00013306619363552254 0 -0.034867313244252136 0.00013625746317480418 0 -0.034886467330818759 0.0001513890198574161 0 -0.034864738759354065 0.00013922606924120269 0 -0.034888633981757435 0.00013200894703285443 0 -0.034864738759354065 0.00013922606924120269 0 -0.034867313244252136 0.00013625746317480418 0 -0.034888633981757435 0.00013200894703285443 0 -0.034886467330818759 0.0001513890198574161 0 -0.034888633981757435 0.00013200894703285443 0 -0.034898594571307437 0.00012808139303157069 0 -0.034888633981757435 0.00013200894703285443 0 -0.034898594571307437 0.00012808139303157069 0 -0.034919774930682553 9.4826603746038708e-05 0 -0.03487869882292588 0.00015357677115899768 0 -0.034904078432615761 0.00010676019703876443 0 -0.034898594571307437 0.00012808139303157069 0 -0.03487869882292588 0.00015357677115899768 0 -0.034886467330818759 0.0001513890198574161 0 -0.034898594571307437 0.00012808139303157069 0 -0.034904078432615761 0.00010676019703876443 0 -0.034935865998967898 6.4799931376129907e-05 0 -0.034919774930682553 9.4826603746038708e-05 0 -0.034904078432615761 0.00010676019703876443 0 -0.034898594571307437 0.00012808139303157069 0 -0.034919774930682553 9.4826603746038708e-05 0 -0.034903927190593841 0.00010665609632173999 0 -0.034919774930682553 9.4826603746038708e-05 0 -0.034941097080646799 6.3586509159289055e-05 0 -0.034903927190593841 0.00010665609632173999 0 -0.034888633981757435 0.00013200894703285443 0 -0.034919774930682553 9.4826603746038708e-05 0 -0.034919774930682553 9.4826603746038708e-05 0 -0.034941097080646799 6.3586509159289055e-05 0 -0.034961612643217191 3.9259632474190322e-05 0 -0.034941097080646799 6.3586509159289055e-05 0 -0.034961612643217191 3.9259632474190322e-05 0 -0.034971783052335177 2.9581097832042191e-05 0 -0.034959138808480797 3.2016537301493289e-05 0 -0.034935865998967898 6.4799931376129907e-05 0 -0.034961612643217191 3.9259632474190322e-05 0 -0.034935865998967898 6.4799931376129907e-05 0 -0.034919774930682553 9.4826603746038708e-05 0 -0.034961612643217191 3.9259632474190322e-05 0 -0.034959138808480797 3.2016537301493289e-05 0 -0.034961612643217191 3.9259632474190322e-05 0 -0.034999945110442791 2.5104801762207661e-08 0 -0.034961612643217191 3.9259632474190322e-05 0 -0.034999945110442791 2.5104801762207661e-08 0 -0.034999947992543239 3.0017516341171414e-08 0 -0.034961612643217191 3.9259632474190322e-05 0 -0.034999947992543239 3.0017516341171414e-08 0 -0.034971783052335177 2.9581097832042191e-05 0 -0.034999947992543239 3.0017516341171414e-08 0 -0.034971783052335177 2.9581097832042191e-05 0 -0.034999958680537249 9.66533235888636e-09 0 -0.034971783052335177 2.9581097832042191e-05 0 -0.03495330409795628 5.3092905833889071e-05 0 -0.034999958680537249 9.66533235888636e-09 0 -0.034941097080646799 6.3586509159289055e-05 0 -0.034971783052335177 2.9581097832042191e-05 0 -0.03495330409795628 5.3092905833889071e-05 0 -0.03495330409795628 5.3092905833889071e-05 0 -0.034997923336498045 2.4112148593838936e-05 0 -0.034997594043414591 7.2630997948986998e-05 0 -0.03495330409795628 5.3092905833889071e-05 0 -0.034999958680537249 9.66533235888636e-09 0 -0.034997923336498045 2.4112148593838936e-05 0 -0.035000062643899765 1.3741801271457125e-08 0 -0.034997923336498045 2.4112148593838936e-05 0 -0.035024817025330279 2.8172297733841881e-05 0 -0.034999958680537249 9.66533235888636e-09 0 -0.035000062643899765 1.3741801271457125e-08 0 -0.034997923336498045 2.4112148593838936e-05 0 -0.034999998394576459 6.5737505050764729e-10 0 -0.034999569508744201 6.2747486208831748e-07 0 -0.035000000604668742 2.4416633274568684e-11 0 -0.035000012788612117 -1.7439231665688308e-09 0 -0.034932666381145318 4.8834447158286222e-05 0 -0.03486683896144626 4.4462260824926539e-05 0 -0.034868290022604255 0.0001490353441997606 0 -0.034935449459107835 5.90919896117952e-05 0 -0.034932666381145318 4.8834447158286222e-05 0 -0.034853036067628282 0.00015585536418427404 0 -0.034932666381145318 4.8834447158286222e-05 0 -0.034909154065355746 0.00011162636991817747 0 -0.034997923336498045 2.4112148593838936e-05 0 -0.035024817025330279 2.8172297733841881e-05 0 -0.034997594043414591 7.2630997948986998e-05 0 -0.034846767778540857 0.00011698307566425049 0 -0.034825925833353512 0.00014695982537530527 0 -0.034837280433316214 0.00014894372403505317 0 -0.034824640120824757 0.00013807487680717723 0 -0.034825925833353512 0.00014695982537530527 0 -0.034837280433316214 0.00014894372403505317 0 -0.034846767778540857 0.00011698307566425049 0 -0.034837280433316214 0.00014894372403505317 0 -0.034868290022604255 0.0001490353441997606 0 -0.034837280433316214 0.00014894372403505317 0 -0.034868290022604255 0.0001490353441997606 0 -0.034849531362272784 0.00017174961141822005 0 -0.029501697767443089 0.0022629364876963491 0 -0.030147575191040533 0.00088427135282081743 0 -0.031707714085276568 0.00062298761037412969 0 -0.034837280433316214 0.00014894372403505317 0 -0.034849531362272784 0.00017174961141822005 0 -0.03483303914616518 0.00016486787457939024 0 -0.03209067052528982 0.0012324244177440251 0 -0.03408786795383064 0.00031278655050367645 0 -0.029576993215425919 0.0022834492378489492 0 -0.029501697767443089 0.0022629364876963491 0 -0.029514905345311263 0.0014818360994409017 0 -0.029514905345311263 0.0014818360994409017 0 -0.030147575191040533 0.00088427135282081743 0 -0.028672040553840181 0.00066411962583415687 0 -0.029501697767443089 0.0022629364876963491 0 -0.029514905345311263 0.0014818360994409017 0 -0.030147575191040533 0.00088427135282081743 0 -0.034824640120824757 0.00013807487680717723 0 -0.034837280433316214 0.00014894372403505317 0 -0.03483303914616518 0.00016486787457939024 0 -0.03213747066504196 0.0021806006785748955 0 -0.031585130984781239 0.0030742116896692838 0 -0.031088947124266166 0.0020746700518792043 0 -0.03213747066504196 0.0021806006785748955 0 -0.031585130984781239 0.0030742116896692838 0 -0.032391234710911591 0.0028139685433197044 0 -0.029477826096049629 0.0022628029242500562 0 -0.028913241018582444 0.0019536008321458303 0 -0.029576993215425919 0.0022834492378489492 0 -0.031585130984781239 0.0030742116896692838 0 -0.031088947124266166 0.0020746700518792043 0 -0.029576993215425919 0.0022834492378489492 0 -0.026178729572132423 0.0009364116045788804 0 -0.028672040553840181 0.00066411962583415687 0 -0.029576993215425919 0.0022834492378489492 0 -0.029514905345311263 0.0014818360994409017 0 -0.028672040553840181 0.00066411962583415687 0 -0.03209067052528982 0.0012324244177440251 0 -0.033100724351313823 0.00059315952388661075 0 -0.034868290022604255 0.0001490353441997606 0 -0.034849531362272784 0.00017174961141822005 0 -0.034959321064476474 0.00010229347721564518 0 -0.029576993215425919 0.0022834492378489492 0 -0.031088947124266166 0.0020746700518792043 0 -0.031198922505652104 0.0010381383879106052 0 -0.029576993215425919 0.0022834492378489492 0 -0.029501697767443089 0.0022629364876963491 0 -0.031198922505652104 0.0010381383879106052 0 -0.034868290022604255 0.0001490353441997606 0 -0.034959321064476474 0.00010229347721564518 0 -0.034935449459107835 5.90919896117952e-05 0 -0.031904789934659485 0.0011077765735865055 0 -0.031198922505652104 0.0010381383879106052 0 -0.031668318287512966 0.0015790100725438204 0 -0.031088947124266166 0.0020746700518792043 0 -0.031198922505652104 0.0010381383879106052 0 -0.031668318287512966 0.0015790100725438204 0 -0.03213747066504196 0.0021806006785748955 0 -0.031088947124266166 0.0020746700518792043 0 -0.031668318287512966 0.0015790100725438204 0 -0.03213747066504196 0.0021806006785748955 0 -0.031668318287512966 0.0015790100725438204 0 -0.03217732082504289 0.0015545861752858197 0 -0.031904789934659485 0.0011077765735865055 0 -0.03217732082504289 0.0015545861752858197 0 -0.032448032840664207 0.0011964934642183628 0 -0.031904789934659485 0.0011077765735865055 0 -0.031668318287512966 0.0015790100725438204 0 -0.03217732082504289 0.0015545861752858197 0 -0.031904789934659485 0.0011077765735865055 0 -0.031198922505652104 0.0010381383879106052 0 -0.033438359873590819 0.00017521862260408224 0 -0.033100724351313823 0.00059315952388661075 0 -0.034167315409034629 0.00014730193211562331 0 -0.034959321064476474 0.00010229347721564518 0 -0.034981224710945169 3.1937319941544066e-05 0 -0.03500557061782817 2.6234386404466902e-05 0 -0.034959321064476474 0.00010229347721564518 0 -0.034935449459107835 5.90919896117952e-05 0 -0.034981224710945169 3.1937319941544066e-05 0 -0.034932666381145318 4.8834447158286222e-05 0 -0.034999989375600983 -1.786840554177413e-08 0 -0.03486683896144626 4.4462260824926539e-05 0 -0.034935449459107835 5.90919896117952e-05 0 -0.034999818374411525 -2.0245005106794631e-08 0 -0.034935449459107835 5.90919896117952e-05 0 -0.034999818374411525 -2.0245005106794631e-08 0 -0.034981224710945169 3.1937319941544066e-05 0 -0.034981224710945169 3.1937319941544066e-05 0 -0.035000047995620967 2.8338378617773908e-08 0 -0.03500557061782817 2.6234386404466902e-05 0 -0.034999818374411525 -2.0245005106794631e-08 0 -0.034981224710945169 3.1937319941544066e-05 0 -0.035000047995620967 2.8338378617773908e-08 0 -0.034999708213012633 2.6781123029805147e-08 0 -0.034167315409034629 0.00014730193211562331 0 -0.034997751213696408 -3.9250520173235983e-08 0 -0.033438359873590819 0.00017521862260408224 0 -0.034414392662536965 0.00034100517843723658 0 -0.035000047995620967 2.8338378617773908e-08 0 -0.034999992694054148 -1.0454764386376874e-08 0 -0.03500557061782817 2.6234386404466902e-05 0 -0.033774644789875435 0.00041394576077534141 0 -0.034999729655707891 6.669277624179627e-08 0 -0.034114258910824306 0.00049697398704859894 0 -0.033242341373266836 0.00047418771135414333 0 -0.034998163432974634 -1.1573566513660152e-07 0 -0.034997751213696408 -3.9250520173235983e-08 0 -0.034414392662536965 0.00034100517843723658 0 -0.035001862398847949 -1.2258542816278496e-07 0 -0.034114258910824306 0.00049697398704859894 0 -0.033615703748243589 0.00084846895163409174 0 -0.033242341373266836 0.00047418771135414333 0 -0.034114258910824306 0.00049697398704859894 0 -0.033615703748243589 0.00084846895163409174 0 -0.034060998646324191 0.00091464141095677881 0 -0.033615703748243589 0.00084846895163409174 0 -0.034060998646324191 0.00091464141095677881 0 -0.033634352969612487 0.0013098497819498561 0 -0.034060998646324191 0.00091464141095677881 0 -0.034177822737334877 0.0012793345404191079 0 -0.033634352969612487 0.0013098497819498561 0 -0.033615703748243589 0.00084846895163409174 0 -0.03325616001802404 0.0011022061072951939 0 -0.033634352969612487 0.0013098497819498561 0 -0.032069190379450739 0.0010970078869743858 0 -0.033774644789875435 0.00041394576077534141 0 -0.031904789934659485 0.0011077765735865055 0 -0.03288186553998218 0.00098707837385455968 0 -0.032448032840664207 0.0011964934642183628 0 -0.031904789934659485 0.0011077765735865055 0 -0.03288186553998218 0.00098707837385455968 0 -0.033242341373266836 0.00047418771135414333 0 -0.031904789934659485 0.0011077765735865055 0 -0.033438359873590819 0.00017521862260408224 0 -0.034414392662536965 0.00034100517843723658 0 -0.033615703748243589 0.00084846895163409174 0 -0.03325616001802404 0.0011022061072951939 0 -0.03288186553998218 0.00098707837385455968 0 -0.03325616001802404 0.0011022061072951939 0 -0.03288186553998218 0.00098707837385455968 0 -0.032878786549638973 0.0011999896776560335 0 -0.03288186553998218 0.00098707837385455968 0 -0.032878786549638973 0.0011999896776560335 0 -0.032448032840664207 0.0011964934642183628 0 -0.033615703748243589 0.00084846895163409174 0 -0.03288186553998218 0.00098707837385455968 0 -0.033242341373266836 0.00047418771135414333 0 -0.034998163432974634 -1.1573566513660152e-07 0 -0.034708178760560794 0.00043586440278636047 0 -0.034999822202894292 4.1923674731649459e-07 0 -0.034998163432974634 -1.1573566513660152e-07 0 -0.03467261521243109 0.00027990265816865044 0 -0.034708178760560794 0.00043586440278636047 0 -0.034114258910824306 0.00049697398704859894 0 -0.034998163432974634 -1.1573566513660152e-07 0 -0.03467261521243109 0.00027990265816865044 0 -0.034114258910824306 0.00049697398704859894 0 -0.034060998646324191 0.00091464141095677881 0 -0.03467261521243109 0.00027990265816865044 0 -0.034652291437078847 0.00035557181452691619 0 -0.034396008600569898 0.0010890850755984321 0 -0.03467261521243109 0.00027990265816865044 0 -0.034583975490487757 0.00061037036402260389 0 -0.034529335829983653 0.00073177552322904716 0 -0.03467261521243109 0.00027990265816865044 0 -0.034177822737334877 0.0012793345404191079 0 -0.034432138035853661 0.0016520628365524865 0 -0.034060998646324191 0.00091464141095677881 0 -0.03467261521243109 0.00027990265816865044 0 -0.034177822737334877 0.0012793345404191079 0 -0.034708178760560794 0.00043586440278636047 0 -0.034583975490487757 0.00061037036402260389 0 -0.034472766384756277 0.00070244565709735494 0 -0.03467261521243109 0.00027990265816865044 0 -0.034708178760560794 0.00043586440278636047 0 -0.034583975490487757 0.00061037036402260389 0 -0.034472766384756277 0.00070244565709735494 0 -0.034426002621692112 0.00067913775110344779 0 -0.034249108610702253 0.00071345970491812176 0 -0.034583975490487757 0.00061037036402260389 0 -0.034426002621692112 0.00067913775110344779 0 -0.034529335829983653 0.00073177552322904716 0 -0.034583975490487757 0.00061037036402260389 0 -0.034472766384756277 0.00070244565709735494 0 -0.034426002621692112 0.00067913775110344779 0 -0.034426002621692112 0.00067913775110344779 0 -0.034529335829983653 0.00073177552322904716 0 -0.03432368341095831 0.00041145931636068399 0 -0.034177822737334877 0.0012793345404191079 0 -0.034432138035853661 0.0016520628365524865 0 -0.033909129552994188 0.001743089273804295 0 -0.034432138035853661 0.0016520628365524865 0 -0.034056599781295875 0.0021913866045106889 0 -0.033909129552994188 0.001743089273804295 0 -0.034056599781295875 0.0021913866045106889 0 -0.033923570063013643 0.0026804195769869789 0 -0.034310607148042974 0.0029181590456766799 0 -0.034432138035853661 0.0016520628365524865 0 -0.034056599781295875 0.0021913866045106889 0 -0.034310607148042974 0.0029181590456766799 0 -0.034396008600569898 0.0010890850755984321 0 -0.035067663059239848 0.001656343739274274 0 -0.034056599781295875 0.0021913866045106889 0 -0.033923570063013643 0.0026804195769869789 0 -0.033648813763521281 0.0025705192419352325 0 -0.03432368341095831 0.00041145931636068399 0 -0.034496276103192496 1.2752793329995038e-05 0 -0.033693184313506389 0.00021119750521056389 0 -0.034529335829983653 0.00073177552322904716 0 -0.03432368341095831 0.00041145931636068399 0 -0.034496276103192496 1.2752793329995038e-05 0 -0.034357716470482955 0.00065307360231446089 0 -0.033967273857119638 0.00030234372525442162 0 -0.034426002621692112 0.00067913775110344779 0 -0.034249108610702253 0.00071345970491812176 0 -0.034246987699661086 0.00042283028651496444 0 -0.034426002621692112 0.00067913775110344779 0 -0.03432368341095831 0.00041145931636068399 0 -0.033693184313506389 0.00021119750521056389 0 -0.032758535459351222 0.001890145669432811 0 -0.033363355749869907 0.0017784868922953226 0 -0.033216114575832352 0.0022606886166887967 0 -0.032758535459351222 0.001890145669432811 0 -0.033023031720127174 0.0014649282074661197 0 -0.033363355749869907 0.0017784868922953226 0 -0.03213747066504196 0.0021806006785748955 0 -0.03217732082504289 0.0015545861752858197 0 -0.032758535459351222 0.001890145669432811 0 -0.03217732082504289 0.0015545861752858197 0 -0.032758535459351222 0.001890145669432811 0 -0.032597512770668545 0.0014384120684059842 0 -0.03217732082504289 0.0015545861752858197 0 -0.032597512770668545 0.0014384120684059842 0 -0.032448032840664207 0.0011964934642183628 0 -0.032878786549638973 0.0011999896776560335 0 -0.032597512770668545 0.0014384120684059842 0 -0.032448032840664207 0.0011964934642183628 0 -0.032878786549638973 0.0011999896776560335 0 -0.032597512770668545 0.0014384120684059842 0 -0.033023031720127174 0.0014649282074661197 0 -0.032758535459351222 0.001890145669432811 0 -0.032597512770668545 0.0014384120684059842 0 -0.033023031720127174 0.0014649282074661197 0 -0.03325616001802404 0.0011022061072951939 0 -0.032878786549638973 0.0011999896776560335 0 -0.033023031720127174 0.0014649282074661197 0 -0.03325616001802404 0.0011022061072951939 0 -0.033023031720127174 0.0014649282074661197 0 -0.033634352969612487 0.0013098497819498561 0 -0.033023031720127174 0.0014649282074661197 0 -0.033634352969612487 0.0013098497819498561 0 -0.033363355749869907 0.0017784868922953226 0 -0.034177822737334877 0.0012793345404191079 0 -0.033634352969612487 0.0013098497819498561 0 -0.033909129552994188 0.001743089273804295 0 -0.033634352969612487 0.0013098497819498561 0 -0.033909129552994188 0.001743089273804295 0 -0.033363355749869907 0.0017784868922953226 0 -0.034056599781295875 0.0021913866045106889 0 -0.033909129552994188 0.001743089273804295 0 -0.03364773628900021 0.0021147317180888734 0 -0.033909129552994188 0.001743089273804295 0 -0.033363355749869907 0.0017784868922953226 0 -0.03364773628900021 0.0021147317180888734 0 -0.033363355749869907 0.0017784868922953226 0 -0.033216114575832352 0.0022606886166887967 0 -0.03364773628900021 0.0021147317180888734 0 -0.033216114575832352 0.0022606886166887967 0 -0.03364773628900021 0.0021147317180888734 0 -0.033648813763521281 0.0025705192419352325 0 -0.034056599781295875 0.0021913866045106889 0 -0.03364773628900021 0.0021147317180888734 0 -0.033648813763521281 0.0025705192419352325 0 -0.033216114575832352 0.0022606886166887967 0 -0.033648813763521281 0.0025705192419352325 0 -0.033248958174557509 0.0028898799679860157 0 -0.033216114575832352 0.0022606886166887967 0 -0.032889505925383172 0.0026033487417544952 0 -0.033248958174557509 0.0028898799679860157 0 -0.032758535459351222 0.001890145669432811 0 -0.033216114575832352 0.0022606886166887967 0 -0.032889505925383172 0.0026033487417544952 0 -0.03213747066504196 0.0021806006785748955 0 -0.032758535459351222 0.001890145669432811 0 -0.032889505925383172 0.0026033487417544952 0 -0.03213747066504196 0.0021806006785748955 0 -0.032889505925383172 0.0026033487417544952 0 -0.032391234710911591 0.0028139685433197044 0 -0.031585130984781239 0.0030742116896692838 0 -0.032391234710911591 0.0028139685433197044 0 -0.03290734645980143 0.0033026369263266368 0 -0.032889505925383172 0.0026033487417544952 0 -0.03290734645980143 0.0033026369263266368 0 -0.033248958174557509 0.0028898799679860157 0 -0.032889505925383172 0.0026033487417544952 0 -0.032391234710911591 0.0028139685433197044 0 -0.03290734645980143 0.0033026369263266368 0 -0.024459912713650271 -0.00052523007149691387 0 -0.024619911871458081 -0.00062732277874269504 0 -0.025077492416667017 -0.00071663783860822291 0 -0.03290734645980143 0.0033026369263266368 0 -0.033248958174557509 0.0028898799679860157 0 -0.03367308051941819 0.0030103188348908887 0 -0.03290734645980143 0.0033026369263266368 0 -0.03367308051941819 0.0030103188348908887 0 -0.033735316732958529 0.0034494947884793621 0 -0.033648813763521281 0.0025705192419352325 0 -0.033248958174557509 0.0028898799679860157 0 -0.03367308051941819 0.0030103188348908887 0 -0.033923570063013643 0.0026804195769869789 0 -0.033648813763521281 0.0025705192419352325 0 -0.03367308051941819 0.0030103188348908887 0 -0.024459912713650271 -0.00052523007149691387 0 -0.024735103118819421 -0.00054232561301839415 0 -0.024619911871458081 -0.00062732277874269504 0 -0.024735103118819421 -0.00054232561301839415 0 -0.024619911871458081 -0.00062732277874269504 0 -0.024629594466909977 -0.00054379638008381288 0 -0.028684726146118576 0.0014115652042729437 0 -0.029243568359588294 0.0016023863772038935 0 -0.024619911871458081 -0.00062732277874269504 0 -0.024629594466909977 -0.00054379638008381288 0 -0.02478441010326676 -0.00064943285977546136 0 -0.024619911871458081 -0.00062732277874269504 0 -0.025077492416667017 -0.00071663783860822291 0 -0.02478441010326676 -0.00064943285977546136 0 -0.034496276103192496 1.2752793329995038e-05 0 -0.033731591401255902 -0.00068307653668090535 0 -0.033693184313506389 0.00021119750521056389 0 -0.03367308051941819 0.0030103188348908887 0 -0.033735316732958529 0.0034494947884793621 0 -0.034310607148042974 0.0029181590456766799 0 -0.033923570063013643 0.0026804195769869789 0 -0.03367308051941819 0.0030103188348908887 0 -0.034310607148042974 0.0029181590456766799 0 -0.029243568359588294 0.0016023863772038935 0 -0.029693505989791136 0.0003666832449127836 0 -0.033735316732958529 0.0034494947884793621 0 -0.034310607148042974 0.0029181590456766799 0 -0.034224913515952374 0.003655552521510719 0 -0.034496276103192496 1.2752793329995038e-05 0 -0.033731591401255902 -0.00068307653668090535 0 -0.034251023759353828 -0.0016197262549995004 0 -0.035067663059239848 0.001656343739274274 0 -0.029693505989791136 0.0003666832449127836 0 -0.033731591401255902 -0.00068307653668090535 0 -0.034251023759353828 -0.0016197262549995004 0 -0.033387395928800752 -0.0014507166579970311 0 -0.024863194119188314 -0.00043109545898894802 0 -0.024740946624287746 -0.00037612832485173534 0 -0.024789278168316262 -0.00033194126507907505 0 -0.025526773037717939 -5.929337731858606e-05 0 -0.025345218812118382 -0.0007938946544294122 0 -0.024743581876345708 -0.00048467404063952548 0 -0.029693505989791136 0.0003666832449127836 0 -0.025134284377165014 -0.0004217446994295427 0 -0.029693505989791136 0.0003666832449127836 0 -0.028774692125002711 -0.0015804592850079406 0 -0.024735103118819421 -0.00054232561301839415 0 -0.024740946624287746 -0.00037612832485173534 0 -0.024678487967986457 -0.00043939185835212182 0 -0.024735103118819421 -0.00054232561301839415 0 -0.024863194119188314 -0.00043109545898894802 0 -0.024740946624287746 -0.00037612832485173534 0 -0.024740946624287746 -0.00037612832485173534 0 -0.0246483364544305 -0.00027251673922706551 0 -0.024712096977084954 -0.00029294461006079681 0 -0.024740946624287746 -0.00037612832485173534 0 -0.024712096977084954 -0.00029294461006079681 0 -0.024789278168316262 -0.00033194126507907505 0 -0.025345218812118382 -0.0007938946544294122 0 -0.024737694162376093 -0.0010467078054085699 0 -0.025165346820298449 -0.0014852305507890887 0 -0.024712096977084954 -0.00029294461006079681 0 -0.024789278168316262 -0.00033194126507907505 0 -0.024726485203354211 -0.00023194035238995118 0 -0.025134284377165014 -0.0004217446994295427 0 -0.019030106242519614 -0.0020770406878909855 0 -0.024629594466909977 -0.00054379638008381288 0 -0.024586108096410025 -0.0003904734251561553 0 -0.024616084960503545 -0.00051894544487542408 0 -0.024629594466909977 -0.00054379638008381288 0 -0.024678487967986457 -0.00043939185835212182 0 -0.024586108096410025 -0.0003904734251561553 0 -0.024629594466909977 -0.00054379638008381288 0 -0.024616084960503545 -0.00051894544487542408 0 -0.02478441010326676 -0.00064943285977546136 0 -0.024740946624287746 -0.00037612832485173534 0 -0.024678487967986457 -0.00043939185835212182 0 -0.024633323897856288 -0.00033996294065326207 0 -0.024735103118819421 -0.00054232561301839415 0 -0.024629594466909977 -0.00054379638008381288 0 -0.024678487967986457 -0.00043939185835212182 0 -0.024740946624287746 -0.00037612832485173534 0 -0.0246483364544305 -0.00027251673922706551 0 -0.024633323897856288 -0.00033996294065326207 0 -0.024678487967986457 -0.00043939185835212182 0 -0.024633323897856288 -0.00033996294065326207 0 -0.024586108096410025 -0.0003904734251561553 0 -0.0246483364544305 -0.00027251673922706551 0 -0.024633323897856288 -0.00033996294065326207 0 -0.024549679390541645 -0.00021666458838534141 0 -0.024586108096410025 -0.0003904734251561553 0 -0.024385797005501052 -0.00020769734581239487 0 -0.024549679390541645 -0.00021666458838534141 0 -0.024633323897856288 -0.00033996294065326207 0 -0.024586108096410025 -0.0003904734251561553 0 -0.024549679390541645 -0.00021666458838534141 0 -0.024385797005501052 -0.00020769734581239487 0 -0.02444365895175938 -0.00041040299722772664 0 -0.024141423189634102 -0.00039583536850044151 0 -0.024586108096410025 -0.0003904734251561553 0 -0.024385797005501052 -0.00020769734581239487 0 -0.02444365895175938 -0.00041040299722772664 0 -0.024586108096410025 -0.0003904734251561553 0 -0.02444365895175938 -0.00041040299722772664 0 -0.024616084960503545 -0.00051894544487542408 0 -0.02444365895175938 -0.00041040299722772664 0 -0.024465426695183055 -0.00058994056779861125 0 -0.024616084960503545 -0.00051894544487542408 0 -0.024465426695183055 -0.00058994056779861125 0 -0.024616084960503545 -0.00051894544487542408 0 -0.02478441010326676 -0.00064943285977546136 0 -0.02444365895175938 -0.00041040299722772664 0 -0.024465426695183055 -0.00058994056779861125 0 -0.024141423189634102 -0.00039583536850044151 0 -0.024465426695183055 -0.00058994056779861125 0 -0.024141423189634102 -0.00039583536850044151 0 -0.024114658802087494 -0.00074709624587293935 0 -0.024385797005501052 -0.00020769734581239487 0 -0.024141423189634102 -0.00039583536850044151 0 -0.024061603796405682 -8.9375307679992463e-05 0 -0.024141423189634102 -0.00039583536850044151 0 -0.023545751854237105 -0.00020880851192155096 0 -0.023740169000757556 -0.00063095543911824317 0 -0.024141423189634102 -0.00039583536850044151 0 -0.023545751854237105 -0.00020880851192155096 0 -0.024061603796405682 -8.9375307679992463e-05 0 -0.023152179693179082 -0.00069876432148226013 0 -0.023545751854237105 -0.00020880851192155096 0 -0.023740169000757556 -0.00063095543911824317 0 -0.024141423189634102 -0.00039583536850044151 0 -0.023740169000757556 -0.00063095543911824317 0 -0.024114658802087494 -0.00074709624587293935 0 -0.023740169000757556 -0.00063095543911824317 0 -0.023584907129223964 -0.0012718953072576396 0 -0.024114658802087494 -0.00074709624587293935 0 -0.023584907129223964 -0.0012718953072576396 0 -0.024243187188570516 -0.0010710947799511751 0 -0.024114658802087494 -0.00074709624587293935 0 -0.027169166557509852 -0.0011014219134813834 0 -0.026354176330991574 -0.0010265452274448809 0 -0.023152179693179082 -0.00069876432148226013 0 -0.023740169000757556 -0.00063095543911824317 0 -0.023584907129223964 -0.0012718953072576396 0 -0.033703526454889436 -0.0011052512872162083 0 -0.031232025514380046 -0.00099295653448843086 0 -0.031707714085276568 0.00062298761037412969 0 -0.030147575191040533 0.00088427135282081743 0 -0.031232025514380046 -0.00099295653448843086 0 -0.031707714085276568 0.00062298761037412969 0 -0.030147575191040533 0.00088427135282081743 0 -0.031232025514380046 -0.00099295653448843086 0 -0.028450207792271268 -0.0010404389075299079 0 -0.030147575191040533 0.00088427135282081743 0 -0.028672040553840181 0.00066411962583415687 0 -0.028450207792271268 -0.0010404389075299079 0 -0.026178729572132423 0.0009364116045788804 0 -0.028672040553840181 0.00066411962583415687 0 -0.028450207792271268 -0.0010404389075299079 0 -0.026354176330991574 -0.0010265452274448809 0 -0.025129495465457282 -0.00077985848955599766 0 -0.026178729572132423 0.0009364116045788804 0 -0.024459912713650271 -0.00052523007149691387 0 -0.025077492416667017 -0.00071663783860822291 0 -0.026178729572132423 0.0009364116045788804 0 -0.028450207792271268 -0.0010404389075299079 0 -0.025077492416667017 -0.00071663783860822291 0 -0.028913241018582444 0.0019536008321458303 0 -0.028684726146118576 0.0014115652042729437 0 -0.024465426695183055 -0.00058994056779861125 0 -0.024243187188570516 -0.0010710947799511751 0 -0.02478441010326676 -0.00064943285977546136 0 -0.024243187188570516 -0.0010710947799511751 0 -0.025077492416667017 -0.00071663783860822291 0 -0.02478441010326676 -0.00064943285977546136 0 -0.024465426695183055 -0.00058994056779861125 0 -0.024243187188570516 -0.0010710947799511751 0 -0.024114658802087494 -0.00074709624587293935 0 -0.031578559090062464 -5.8052099042756339e-07 0 -0.031423868442121757 -0.00020852283840595362 0 -0.032835736738523032 0.00016129475264174846 0 -0.031578559090062464 -5.8052099042756339e-07 0 -0.031423868442121757 -0.00020852283840595362 0 -0.030590779052537907 1.1825130003995061e-05 0 -0.031423868442121757 -0.00020852283840595362 0 -0.033421760774385384 -0.00040688156542819845 0 -0.032835736738523032 0.00016129475264174846 0 -0.031599204574383505 -0.00033976325056058766 0 -0.03163948199149199 0.00022751455516845041 0 -0.031423868442121757 -0.00020852283840595362 0 -0.030469359176143507 -0.00053015207725222251 0 -0.030601975857709383 0.00012686160036352715 0 -0.03163948199149199 0.00022751455516845041 0 -0.029894833735252691 0.00021972644424368953 0 -0.033421760774385384 -0.00040688156542819845 0 -0.032835736738523032 0.00016129475264174846 0 -0.033970413776425297 0.00017121515811894741 0 -0.032835736738523032 0.00016129475264174846 0 -0.033714454718463974 0.00032051029251988899 0 -0.033970413776425297 0.00017121515811894741 0 -0.031578559090062464 -5.8052099042756339e-07 0 -0.032835736738523032 0.00016129475264174846 0 -0.033267616476197109 0.00042609537116443911 0 -0.031579632516416094 6.1399875337786314e-08 0 -0.033422732852770295 0.0002048406948689423 0 -0.031580929251566782 -3.5881404954772188e-07 0 -0.033612058514080875 3.2281559200988294e-07 0 -0.034999126939789904 2.4056723567228927e-07 0 -0.033612058514080875 3.2281559200988294e-07 0 -0.034999126939789904 2.4056723567228927e-07 0 -0.034999725231527161 -1.1819793863155286e-07 0 -0.033422732852770295 0.0002048406948689423 0 -0.03499938976330589 4.585582835968175e-08 0 -0.033267616476197109 0.00042609537116443911 0 -0.034998720809956613 6.1767888615331147e-07 0 -0.034316633011115739 0.00026368355604713479 0 -0.034998720809956613 6.1767888615331147e-07 0 -0.034316633011115739 0.00026368355604713479 0 -0.034998618944751383 1.9166277580618477e-07 0 -0.033267616476197109 0.00042609537116443911 0 -0.034316633011115739 0.00026368355604713479 0 -0.033714454718463974 0.00032051029251988899 0 -0.032835736738523032 0.00016129475264174846 0 -0.033267616476197109 0.00042609537116443911 0 -0.033714454718463974 0.00032051029251988899 0 -0.0343123216799891 0.00024033688288647051 0 -0.03342976569096609 0.0003163555926079004 0 -0.033714454718463974 0.00032051029251988899 0 -0.034292529492972762 0.00030852234929342766 0 -0.033970413776425297 0.00017121515811894741 0 -0.034316633011115739 0.00026368355604713479 0 -0.033714454718463974 0.00032051029251988899 0 -0.034292529492972762 0.00030852234929342766 0 -0.0330547848097806 0.00078172483739037148 0 -0.033129667451545559 0.00053620684221845644 0 -0.032874770516627197 0.00038509856851779236 0 -0.0343123216799891 0.00024033688288647051 0 -0.033959244265165132 0.00042867055134858904 0 -0.034993687905906352 6.0107690787641889e-06 0 -0.035000003878569989 2.6343731768576707e-09 0 -0.03499998890728178 6.1808934564162225e-10 0 -0.034316633011115739 0.00026368355604713479 0 -0.034292529492972762 0.00030852234929342766 0 -0.034998618944751383 1.9166277580618477e-07 0 -0.0343123216799891 0.00024033688288647051 0 -0.034999920297525966 -2.5885543537377859e-08 0 -0.0343123216799891 0.00024033688288647051 0 -0.035000168028888501 -7.3551992249261044e-09 0 -0.034996736851408229 2.1582764284649319e-05 0 -0.035000005514344804 9.257505119924217e-09 0 -0.03499200009552611 1.4584992874292334e-05 0 -0.035000005514344804 9.257505119924217e-09 0 -0.03499200009552611 1.4584992874292334e-05 0 -0.034999984410971158 -1.7905351009142287e-09 0 -0.0351120007073462 0.00019709976268786309 0 -0.035000023849319405 9.3743867186419405e-09 0 -0.035212572315633725 0.00024503840076169834 0 -0.035303409052974966 0.00043919425381877514 0 -0.035149862954309267 0.00044301579210346322 0 -0.034996736851408229 2.1582764284649319e-05 0 -0.03499200009552611 1.4584992874292334e-05 0 -0.034988781090123086 3.3900670319360061e-05 0 -0.0351120007073462 0.00019709976268786309 0 -0.033959244265165132 0.00042867055134858904 0 -0.033959244265165132 0.00042867055134858904 0 -0.032041851166532083 0.0014878531903182244 0 -0.035303409052974966 0.00043919425381877514 0 -0.035235862285527518 0.00060228011991471971 0 -0.035149862954309267 0.00044301579210346322 0 -0.03163948199149199 0.00022751455516845041 0 -0.03342976569096609 0.0003163555926079004 0 -0.033129667451545559 0.00053620684221845644 0 -0.032874770516627197 0.00038509856851779236 0 -0.032828045836613702 1.9220164404732164e-05 0 -0.032323909058246975 0.0011192704202514316 0 -0.03240767912584927 0.00084482977019180222 0 -0.032120088243717461 0.00077146619602415421 0 -0.032693216090854398 -1.4749960148590418e-05 0 -0.032874770516627197 0.00038509856851779236 0 -0.032828045836613702 1.9220164404732164e-05 0 -0.033959244265165132 0.00042867055134858904 0 -0.030835359385219082 0.0010310030125121176 0 -0.030835359385219082 0.0010310030125121176 0 -0.028601349041242279 0.0010024662050918541 0 -0.032041851166532083 0.0014878531903182244 0 -0.030835359385219082 0.0010310030125121176 0 -0.028287076579018432 0.0030003418840381939 0 -0.028142876048671474 0.0018775073097577341 0 -0.027550931461378353 0.0014598612085897128 0 -0.029882667815298379 0.0034909011335031107 0 -0.028287076579018432 0.0030003418840381939 0 -0.029223501646229198 0.0020160101981781106 0 -0.029990087854992607 0.0011933721738091705 0 -0.030233274164493826 0.0012554525046235008 0 -0.02979512427548895 0.00048422288542264766 0 -0.03163948199149199 0.00022751455516845041 0 -0.030835359385219082 0.0010310030125121176 0 -0.028287076579018432 0.0030003418840381939 0 -0.028487171295336823 0.0020058692731673984 0 -0.028142876048671474 0.0018775073097577341 0 -0.028287076579018432 0.0030003418840381939 0 -0.028487171295336823 0.0020058692731673984 0 -0.029223501646229198 0.0020160101981781106 0 -0.029882667815298379 0.0034909011335031107 0 -0.029223501646229198 0.0020160101981781106 0 -0.030828572942813801 0.00053552124439776522 0 -0.032041851166532083 0.0014878531903182244 0 -0.03029783341607693 0.0010923285744241255 0 -0.030887401123709298 0.0014285970799351802 0 -0.031935662817161474 0.00085611635510366259 0 -0.032379265373337615 0.0015429690478910294 0 -0.030887401123709298 0.0014285970799351802 0 -0.031935662817161474 0.00085611635510366259 0 -0.030828572942813801 0.00053552124439776522 0 -0.031935662817161474 0.00085611635510366259 0 -0.032379265373337615 0.0015429690478910294 0 -0.033445214942664371 0.00064460815649931716 0 -0.035235862285527518 0.00060228011991471971 0 -0.035000271268324751 0.00060716774635536817 0 -0.035149862954309267 0.00044301579210346322 0 -0.032041851166532083 0.0014878531903182244 0 -0.033894935912808156 0.00098871334440388172 0 -0.035000271268324751 0.00060716774635536817 0 -0.035149862954309267 0.00044301579210346322 0 -0.035027418457572054 0.00026014215933725882 0 -0.035212572315633725 0.00024503840076169834 0 -0.035149862954309267 0.00044301579210346322 0 -0.035027418457572054 0.00026014215933725882 0 -0.035212572315633725 0.00024503840076169834 0 -0.035027418457572054 0.00026014215933725882 0 -0.035000671119032059 1.997183014766095e-07 0 -0.035027418457572054 0.00026014215933725882 0 -0.035000671119032059 1.997183014766095e-07 0 -0.034999668354190744 1.6955682780482209e-07 0 -0.035027418457572054 0.00026014215933725882 0 -0.034999668354190744 1.6955682780482209e-07 0 -0.034849533778448336 0.00034360724920113911 0 -0.035000271268324751 0.00060716774635536817 0 -0.035027418457572054 0.00026014215933725882 0 -0.034849533778448336 0.00034360724920113911 0 -0.034849533778448336 0.00034360724920113911 0 -0.034999822202894292 4.1923674731649459e-07 0 -0.034382649570370433 0.00085922574296570136 0 -0.035000271268324751 0.00060716774635536817 0 -0.034849533778448336 0.00034360724920113911 0 -0.034382649570370433 0.00085922574296570136 0 -0.034999668354190744 1.6955682780482209e-07 0 -0.034849533778448336 0.00034360724920113911 0 -0.034999822202894292 4.1923674731649459e-07 0 -0.034708178760560794 0.00043586440278636047 0 -0.034472766384756277 0.00070244565709735494 0 -0.034382649570370433 0.00085922574296570136 0 -0.034708178760560794 0.00043586440278636047 0 -0.034999822202894292 4.1923674731649459e-07 0 -0.034382649570370433 0.00085922574296570136 0 -0.034382649570370433 0.00085922574296570136 0 -0.034249108610702253 0.00071345970491812176 0 -0.033445214942664371 0.00064460815649931716 0 -0.034472766384756277 0.00070244565709735494 0 -0.034382649570370433 0.00085922574296570136 0 -0.034249108610702253 0.00071345970491812176 0 -0.032379265373337615 0.0015429690478910294 0 -0.034382649570370433 0.00085922574296570136 0 -0.033445214942664371 0.00064460815649931716 0 -0.033894935912808156 0.00098871334440388172 0 -0.034168617896314681 0.00090010527479045005 0 -0.034249108610702253 0.00071345970491812176 0 -0.033445214942664371 0.00064460815649931716 0 -0.034246987699661086 0.00042283028651496444 0 -0.033967273857119638 0.00030234372525442162 0 -0.033189547645067714 -0.00052463491480969984 0 -0.033445214942664371 0.00064460815649931716 0 -0.034246987699661086 0.00042283028651496444 0 -0.033686766911895233 -0.00024551876129435418 0 -0.033731591401255902 -0.00068307653668090535 0 -0.033693184313506389 0.00021119750521056389 0 -0.032786247028215074 -0.00073074350681657412 0 -0.033445214942664371 0.00064460815649931716 0 -0.033686766911895233 -0.00024551876129435418 0 -0.032459283976134901 -0.00011795638309003603 0 -0.032786247028215074 -0.00073074350681657412 0 -0.032782862119515116 -0.0017512652225480064 0 -0.031781723721232599 -0.0019387554429004671 0 -0.033686766911895233 -0.00024551876129435418 0 -0.033011614626134292 -0.0012206532451380894 0 -0.032459283976134901 -0.00011795638309003603 0 -0.033189547645067714 -0.00052463491480969984 0 -0.032769948576392205 -0.0015952009066745637 0 -0.032786247028215074 -0.00073074350681657412 0 -0.033387395928800752 -0.0014507166579970311 0 -0.032782862119515116 -0.0017512652225480064 0 -0.033731591401255902 -0.00068307653668090535 0 -0.032786247028215074 -0.00073074350681657412 0 -0.033387395928800752 -0.0014507166579970311 0 -0.034251023759353828 -0.0016197262549995004 0 -0.033387395928800752 -0.0014507166579970311 0 -0.033039716954370614 -0.0023732355642867198 0 -0.033387395928800752 -0.0014507166579970311 0 -0.032782862119515116 -0.0017512652225480064 0 -0.033039716954370614 -0.0023732355642867198 0 -0.032782862119515116 -0.0017512652225480064 0 -0.033039716954370614 -0.0023732355642867198 0 -0.032403765635218934 -0.0022352566290323368 0 -0.025345218812118382 -0.0007938946544294122 0 -0.024737694162376093 -0.0010467078054085699 0 -0.024448118249103729 -0.00076285750845880807 0 -0.025345218812118382 -0.0007938946544294122 0 -0.024743581876345708 -0.00048467404063952548 0 -0.024448118249103729 -0.00076285750845880807 0 -0.020856244092444121 -0.0017316639940137925 0 -0.024092489023723778 -0.0017987644441975776 0 -0.020856244092444121 -0.0017316639940137925 0 -0.02331687651974455 -0.0024984689968283475 0 -0.033039716954370614 -0.0023732355642867198 0 -0.031953440356176012 -0.0028940791846598958 0 -0.03156336440261609 -0.0032206462673393982 0 -0.024714648485548347 -0.0010355093935697976 0 -0.024448118249103729 -0.00076285750845880807 0 -0.024032044206152337 -0.00089301572882502555 0 -0.024714648485548347 -0.0010355093935697976 0 -0.024032044206152337 -0.00089301572882502555 0 -0.023893292508618384 -0.0010085509978573271 0 -0.024743581876345708 -0.00048467404063952548 0 -0.024448118249103729 -0.00076285750845880807 0 -0.024032044206152337 -0.00089301572882502555 0 -0.031953440356176012 -0.0028940791846598958 0 -0.031524625845048268 -0.00321904944194859 0 -0.031781723721232599 -0.0019387554429004671 0 -0.016092335716871145 -0.0037730351894617615 0 -0.017398254846218399 -0.0039683978930399738 0 -0.016815244103120346 -0.003414176864785172 0 -0.031367776273921323 -0.0032969971746757555 0 -0.031524625845048268 -0.00321904944194859 0 -0.031781723721232599 -0.0019387554429004671 0 -0.028774692125002711 -0.0015804592850079406 0 -0.028242520774438968 -0.0019413082565582647 0 -0.031367776273921323 -0.0032969971746757555 0 -0.031520190494889785 -0.0032148738183622027 0 -0.031190989280946834 -0.0034717976359788291 0 -0.028242520774438968 -0.0019413082565582647 0 -0.02331687651974455 -0.0024984689968283475 0 -0.028605496896172356 -0.0018790656007034096 0 -0.028242520774438968 -0.0019413082565582647 0 -0.030233265916403483 -0.0016746412418249931 0 -0.028242520774438968 -0.0019413082565582647 0 -0.033039716954370614 -0.0023732355642867198 0 -0.031953440356176012 -0.0028940791846598958 0 -0.032403765635218934 -0.0022352566290323368 0 -0.031953440356176012 -0.0028940791846598958 0 -0.032403765635218934 -0.0022352566290323368 0 -0.031781723721232599 -0.0019387554429004671 0 -0.032782862119515116 -0.0017512652225480064 0 -0.032403765635218934 -0.0022352566290323368 0 -0.031781723721232599 -0.0019387554429004671 0 -0.033011614626134292 -0.0012206532451380894 0 -0.032148385266819846 -0.0015566811921202911 0 -0.032233434324326363 -0.0025567214583151468 0 -0.033011614626134292 -0.0012206532451380894 0 -0.032292485323938344 -0.00092568007583253406 0 -0.032148385266819846 -0.0015566811921202911 0 -0.032292485323938344 -0.00092568007583253406 0 -0.032148385266819846 -0.0015566811921202911 0 -0.031605174763106716 -0.0011861355850984285 0 -0.032148385266819846 -0.0015566811921202911 0 -0.031441159083268187 -0.0019428516900069912 0 -0.031605174763106716 -0.0011861355850984285 0 -0.032769948576392205 -0.0015952009066745637 0 -0.02774942176739751 -0.0018216656022580855 0 -0.031367776273921323 -0.0032969971746757555 0 -0.031781723721232599 -0.0019387554429004671 0 -0.030699659172287792 -0.0034264240910004346 0 -0.032148385266819846 -0.0015566811921202911 0 -0.032233434324326363 -0.0025567214583151468 0 -0.031441159083268187 -0.0019428516900069912 0 -0.02774942176739751 -0.0018216656022580855 0 -0.020996020360661734 -0.0027687609708259794 0 -0.025005129394495305 -0.0014075662417582029 0 -0.023883988498621448 -0.0013251951887947745 0 -0.022629487167378368 -0.0033113064892354932 0 -0.02331687651974455 -0.0024984689968283475 0 -0.020996020360661734 -0.0027687609708259794 0 -0.031367776273921323 -0.0032969971746757555 0 -0.031190989280946834 -0.0034717976359788291 0 -0.030699659172287792 -0.0034264240910004346 0 -0.02331687651974455 -0.0024984689968283475 0 -0.02774942176739751 -0.0018216656022580855 0 -0.032233434324326363 -0.0025567214583151468 0 -0.030580164505520407 -0.0024674713286013915 0 -0.031441159083268187 -0.0019428516900069912 0 -0.030580164505520407 -0.0024674713286013915 0 -0.031441159083268187 -0.0019428516900069912 0 -0.03015375389649735 -0.0011519218003058162 0 -0.02774942176739751 -0.0018216656022580855 0 -0.027468084135491858 -0.0014793726269481421 0 -0.02385596678350799 -0.00051451344330122274 0 -0.024250928235894979 -0.00053508843000698398 0 -0.023956957910468896 -0.00031359240921971623 0 -0.031605174763106716 -0.0011861355850984285 0 -0.031209222235545918 -0.0004616763697641015 0 -0.03015375389649735 -0.0011519218003058162 0 -0.031441159083268187 -0.0019428516900069912 0 -0.031605174763106716 -0.0011861355850984285 0 -0.03015375389649735 -0.0011519218003058162 0 -0.032292485323938344 -0.00092568007583253406 0 -0.031605174763106716 -0.0011861355850984285 0 -0.031209222235545918 -0.0004616763697641015 0 -0.031209222235545918 -0.0004616763697641015 0 -0.032459283976134901 -0.00011795638309003603 0 -0.030828572942813801 0.00053552124439776522 0 -0.032292485323938344 -0.00092568007583253406 0 -0.031209222235545918 -0.0004616763697641015 0 -0.032459283976134901 -0.00011795638309003603 0 -0.033011614626134292 -0.0012206532451380894 0 -0.032292485323938344 -0.00092568007583253406 0 -0.032459283976134901 -0.00011795638309003603 0 -0.031935662817161474 0.00085611635510366259 0 -0.033445214942664371 0.00064460815649931716 0 -0.032459283976134901 -0.00011795638309003603 0 -0.031935662817161474 0.00085611635510366259 0 -0.032459283976134901 -0.00011795638309003603 0 -0.030828572942813801 0.00053552124439776522 0 -0.030828572942813801 0.00053552124439776522 0 -0.029174182761650645 0.00078176735563680326 0 -0.029400916743657655 -4.2076149106292182e-05 0 -0.029223501646229198 0.0020160101981781106 0 -0.030828572942813801 0.00053552124439776522 0 -0.029174182761650645 0.00078176735563680326 0 -0.029223501646229198 0.0020160101981781106 0 -0.028392932868589158 0.001303181627063722 0 -0.029174182761650645 0.00078176735563680326 0 -0.028487171295336823 0.0020058692731673984 0 -0.029223501646229198 0.0020160101981781106 0 -0.028392932868589158 0.001303181627063722 0 -0.028487171295336823 0.0020058692731673984 0 -0.028142876048671474 0.0018775073097577341 0 -0.028392932868589158 0.001303181627063722 0 -0.028142876048671474 0.0018775073097577341 0 -0.028392932868589158 0.001303181627063722 0 -0.027550931461378353 0.0014598612085897128 0 -0.028272120492463821 0.0012036868213788517 0 -0.027450054976475298 0.00038410325334455405 0 -0.028392932868589158 0.001303181627063722 0 -0.028293780508810672 0.00053586576389295774 0 -0.027443924403200752 0.00048207406435667887 0 -0.028392932868589158 0.001303181627063722 0 -0.029174182761650645 0.00078176735563680326 0 -0.028293780508810672 0.00053586576389295774 0 -0.027843117907320785 -0.00010555606491303658 0 -0.029400916743657655 -4.2076149106292182e-05 0 -0.028725048030814861 -0.00071163192257231922 0 -0.028293780508810672 0.00053586576389295774 0 -0.027843117907320785 -0.00010555606491303658 0 -0.029400916743657655 -4.2076149106292182e-05 0 -0.029174182761650645 0.00078176735563680326 0 -0.028293780508810672 0.00053586576389295774 0 -0.029400916743657655 -4.2076149106292182e-05 0 -0.028293780508810672 0.00053586576389295774 0 -0.027843117907320785 -0.00010555606491303658 0 -0.027443924403200752 0.00048207406435667887 0 -0.031209222235545918 -0.0004616763697641015 0 -0.030828572942813801 0.00053552124439776522 0 -0.029400916743657655 -4.2076149106292182e-05 0 -0.031209222235545918 -0.0004616763697641015 0 -0.029400916743657655 -4.2076149106292182e-05 0 -0.03015375389649735 -0.0011519218003058162 0 -0.029400916743657655 -4.2076149106292182e-05 0 -0.03015375389649735 -0.0011519218003058162 0 -0.028725048030814861 -0.00071163192257231922 0 -0.03015375389649735 -0.0011519218003058162 0 -0.028582133491781972 -0.0020831896773304856 0 -0.028725048030814861 -0.00071163192257231922 0 -0.030580164505520407 -0.0024674713286013915 0 -0.03015375389649735 -0.0011519218003058162 0 -0.028582133491781972 -0.0020831896773304856 0 -0.027468084135491858 -0.0014793726269481421 0 -0.026679967018903995 -0.0012967743342894441 0 -0.024250928235894979 -0.00053508843000698398 0 -0.024684991552127292 -0.00066032209537940801 0 -0.024463800817774613 -0.00036806263202308957 0 -0.024250928235894979 -0.00053508843000698398 0 -0.024463800817774613 -0.00036806263202308957 0 -0.024259302795445876 -0.00028180210109349485 0 -0.028582133491781972 -0.0020831896773304856 0 -0.02739544647805248 -0.00068860309765127658 0 -0.026243214995976913 -0.00070307113805263084 0 -0.024684991552127292 -0.00066032209537940801 0 -0.026243214995976913 -0.00070307113805263084 0 -0.02514822667642936 -0.00023065928163468695 0 -0.026679967018903995 -0.0012967743342894441 0 -0.026337991989693811 -0.00087589818461176496 0 -0.028582133491781972 -0.0020831896773304856 0 -0.028725048030814861 -0.00071163192257231922 0 -0.02739544647805248 -0.00068860309765127658 0 -0.027843117907320785 -0.00010555606491303658 0 -0.028725048030814861 -0.00071163192257231922 0 -0.02739544647805248 -0.00068860309765127658 0 -0.027843117907320785 -0.00010555606491303658 0 -0.027100926252106854 -0.00039591865885976751 0 -0.02739544647805248 -0.00068860309765127658 0 -0.027100926252106854 -0.00039591865885976751 0 -0.026774751174618281 -0.0005208478481037146 0 -0.026859747984080067 -0.00052285405596012163 0 -0.027100926252106854 -0.00039591865885976751 0 -0.026774751174618281 -0.0005208478481037146 0 -0.02739544647805248 -0.00068860309765127658 0 -0.026774751174618281 -0.0005208478481037146 0 -0.02739544647805248 -0.00068860309765127658 0 -0.026243214995976913 -0.00070307113805263084 0 -0.026243214995976913 -0.00070307113805263084 0 -0.027697403570878971 -2.0102990743009994e-06 0 -0.025995311795456312 1.7946007068304137e-07 0 -0.026774751174618281 -0.0005208478481037146 0 -0.027697403570878971 -2.0102990743009994e-06 0 -0.026859747984080067 -0.00052285405596012163 0 -0.026774751174618281 -0.0005208478481037146 0 -0.026243214995976913 -0.00070307113805263084 0 -0.027697403570878971 -2.0102990743009994e-06 0 -0.027697403570878971 -2.0102990743009994e-06 0 -0.026777307173909925 -0.00067584438500335395 0 -0.026859747984080067 -0.00052285405596012163 0 -0.027702023065915939 1.4376850876727311e-07 0 -0.027745118519081114 -0.00015575063801221805 0 -0.027703208744006749 -1.1009457399393008e-06 0 -0.029718057852195723 -0.00011835319877178417 0 -0.029640582453954522 4.3793527667886353e-07 0 -0.029718057852195723 -0.00011835319877178417 0 -0.030099217896659022 -5.9016213723403293e-05 0 -0.030590779052537907 1.1825130003995061e-05 0 -0.027745118519081114 -0.00015575063801221805 0 -0.027587204193803734 -0.00034099592707295716 0 -0.027100926252106854 -0.00039591865885976751 0 -0.026863441420514309 -0.00029150860972578429 0 -0.027287561655452628 -8.1963562432146931e-05 0 -0.027100926252106854 -0.00039591865885976751 0 -0.026863441420514309 -0.00029150860972578429 0 -0.026859747984080067 -0.00052285405596012163 0 -0.027745118519081114 -0.00015575063801221805 0 -0.028658444136264352 1.2837582709466627e-05 0 -0.027843117907320785 -0.00010555606491303658 0 -0.027100926252106854 -0.00039591865885976751 0 -0.027287561655452628 -8.1963562432146931e-05 0 -0.027843117907320785 -0.00010555606491303658 0 -0.027287561655452628 -8.1963562432146931e-05 0 -0.027443924403200752 0.00048207406435667887 0 -0.026671432940286715 -0.00035031029935062952 0 -0.027499644726164042 0.00046765417357541068 0 -0.026865851907239925 0.00014507565181598871 0 -0.026863441420514309 -0.00029150860972578429 0 -0.027287561655452628 -8.1963562432146931e-05 0 -0.027443924403200752 0.00048207406435667887 0 -0.027745118519081114 -0.00015575063801221805 0 -0.027450054976475298 0.00038410325334455405 0 -0.029990087854992607 0.0011933721738091705 0 -0.02979512427548895 0.00048422288542264766 0 -0.029601297112823062 0.00030795348515906182 0 -0.027499644726164042 0.00046765417357541068 0 -0.026865851907239925 0.00014507565181598871 0 -0.027550931461378353 0.0014598612085897128 0 -0.02933976229765901 -0.00027860660841985793 0 -0.02979512427548895 0.00048422288542264766 0 -0.029601297112823062 0.00030795348515906182 0 -0.028658444136264352 1.2837582709466627e-05 0 -0.028601349041242279 0.0010024662050918541 0 -0.028658444136264352 1.2837582709466627e-05 0 -0.029894833735252691 0.00021972644424368953 0 -0.030099217896659022 -5.9016213723403293e-05 0 -0.030601975857709383 0.00012686160036352715 0 -0.030590779052537907 1.1825130003995061e-05 0 -0.028392932868589158 0.001303181627063722 0 -0.027499644726164042 0.00046765417357541068 0 -0.027550931461378353 0.0014598612085897128 0 -0.029718057852195723 -0.00011835319877178417 0 -0.030590779052537907 1.1825130003995061e-05 0 -0.029640582453954522 4.3793527667886353e-07 0 -0.031423868442121757 -0.00020852283840595362 0 -0.030601975857709383 0.00012686160036352715 0 -0.030590779052537907 1.1825130003995061e-05 0 -0.031578559090062464 -5.8052099042756339e-07 0 -0.030590779052537907 1.1825130003995061e-05 0 -0.029640582453954522 4.3793527667886353e-07 0 -0.022581112882052751 -1.3974180003845545e-07 0 -0.022799113038793423 -0.00016570142337349222 0 -0.022031927799734317 0.00014220776342131105 0 -0.022903173642369563 -0.00020568478115823405 0 -0.022916766800795553 -0.00059338838953284915 0 -0.022799113038793423 -0.00016570142337349222 0 -0.023862220726685097 5.8784917237059477e-05 0 -0.024437413280165288 0.00010687951071944891 0 -0.022581112882052751 -1.3974180003845545e-07 0 -0.023862220726685097 5.8784917237059477e-05 0 -0.024287123072119055 2.7050498729169589e-07 0 -0.022581112882052751 -1.3974180003845545e-07 0 -0.022799113038793423 -0.00016570142337349222 0 -0.023862220726685097 5.8784917237059477e-05 0 -0.023862220726685097 5.8784917237059477e-05 0 -0.024287123072119055 2.7050498729169589e-07 0 -0.024901308713886221 0.00012628908650948216 0 -0.024287123072119055 2.7050498729169589e-07 0 -0.025995311795456312 1.7946007068304137e-07 0 -0.024901308713886221 0.00012628908650948216 0 -0.026243214995976913 -0.00070307113805263084 0 -0.025995311795456312 1.7946007068304137e-07 0 -0.024901308713886221 0.00012628908650948216 0 -0.026243214995976913 -0.00070307113805263084 0 -0.024901308713886221 0.00012628908650948216 0 -0.02514822667642936 -0.00023065928163468695 0 -0.023862220726685097 5.8784917237059477e-05 0 -0.024901308713886221 0.00012628908650948216 0 -0.024437413280165288 0.00010687951071944891 0 -0.024901308713886221 0.00012628908650948216 0 -0.024708009858710755 -4.0181718485697655e-05 0 -0.024437413280165288 0.00010687951071944891 0 -0.024684991552127292 -0.00066032209537940801 0 -0.02514822667642936 -0.00023065928163468695 0 -0.024708009858710755 -4.0181718485697655e-05 0 -0.024684991552127292 -0.00066032209537940801 0 -0.024708009858710755 -4.0181718485697655e-05 0 -0.024463800817774613 -0.00036806263202308957 0 -0.024901308713886221 0.00012628908650948216 0 -0.02514822667642936 -0.00023065928163468695 0 -0.024708009858710755 -4.0181718485697655e-05 0 -0.024463800817774613 -0.00036806263202308957 0 -0.024375235230173393 3.7088945295803238e-05 0 -0.024259302795445876 -0.00028180210109349485 0 -0.024708009858710755 -4.0181718485697655e-05 0 -0.024463800817774613 -0.00036806263202308957 0 -0.024375235230173393 3.7088945295803238e-05 0 -0.024708009858710755 -4.0181718485697655e-05 0 -0.024375235230173393 3.7088945295803238e-05 0 -0.024437413280165288 0.00010687951071944891 0 -0.022154512291768499 -0.0011432884038818732 0 -0.022916766800795553 -0.00059338838953284915 0 -0.01982372173497857 -0.0025748565746146639 0 -0.021512765452564888 -0.001326633510521267 0 -0.019603467809421168 -0.00031660090279139269 0 -0.022799113038793423 -0.00016570142337349222 0 -0.021512765452564888 -0.001326633510521267 0 -0.02144227859737256 0.00050042834577216581 0 -0.017345322054478647 -0.0010500509203985003 0 -0.017171462559464584 -0.00081878716809754681 0 -0.017375366655602256 -0.0008375276465072566 0 -0.018449103083671727 -0.00073045193130298061 0 -0.019376129475079426 -0.00021956085956788336 0 -0.021512765452564888 -0.001326633510521267 0 -0.019603467809421168 -0.00031660090279139269 0 -0.02144227859737256 0.00050042834577216581 0 -0.017345322054478647 -0.0010500509203985003 0 -0.017040557714095451 -0.0010869767162189979 0 -0.017171462559464584 -0.00081878716809754681 0 -0.017040557714095451 -0.0010869767162189979 0 -0.017471272734926862 -0.0015776112739154156 0 -0.01694079000836313 -0.0016493153938892597 0 -0.017345322054478647 -0.0010500509203985003 0 -0.017040557714095451 -0.0010869767162189979 0 -0.017471272734926862 -0.0015776112739154156 0 -0.017471272734926862 -0.0015776112739154156 0 -0.017160308058248523 -0.0021954432563225197 0 -0.01694079000836313 -0.0016493153938892597 0 -0.019603467809421168 -0.00031660090279139269 0 -0.017471272734926862 -0.0015776112739154156 0 -0.018632516908996862 -0.0020761157895899046 0 -0.01982372173497857 -0.0025748565746146639 0 -0.019603467809421168 -0.00031660090279139269 0 -0.018632516908996862 -0.0020761157895899046 0 -0.018449103083671727 -0.00073045193130298061 0 -0.017484341622319047 -0.0015416961683818843 0 -0.018632516908996862 -0.0020761157895899046 0 -0.018630340869879518 -0.0029889047650590739 0 -0.017775902785360221 -0.0027041515299024649 0 -0.01982372173497857 -0.0025748565746146639 0 -0.018632516908996862 -0.0020761157895899046 0 -0.018630340869879518 -0.0029889047650590739 0 -0.024375235230173393 3.7088945295803238e-05 0 -0.024259302795445876 -0.00028180210109349485 0 -0.023956957910468896 -0.00031359240921971623 0 -0.01982372173497857 -0.0025748565746146639 0 -0.018630340869879518 -0.0029889047650590739 0 -0.018123283500402054 -0.0036767493965107461 0 -0.022154512291768499 -0.0011432884038818732 0 -0.020996020360661734 -0.0027687609708259794 0 -0.018852330030849306 -0.0037258784828926176 0 -0.020996020360661734 -0.0027687609708259794 0 -0.024250928235894979 -0.00053508843000698398 0 -0.024259302795445876 -0.00028180210109349485 0 -0.023956957910468896 -0.00031359240921971623 0 -0.017398254846218399 -0.0039683978930399738 0 -0.017451884955419075 -0.0033357609962061515 0 -0.018163223054249 -0.003488400303365365 0 -0.017451884955419075 -0.0033357609962061515 0 -0.018163223054249 -0.003488400303365365 0 -0.017775902785360221 -0.0027041515299024649 0 -0.018630340869879518 -0.0029889047650590739 0 -0.018163223054249 -0.003488400303365365 0 -0.017775902785360221 -0.0027041515299024649 0 -0.017451884955419075 -0.0033357609962061515 0 -0.017775902785360221 -0.0027041515299024649 0 -0.017000187143179683 -0.0029000647592531069 0 -0.017471272734926862 -0.0015776112739154156 0 -0.017775902785360221 -0.0027041515299024649 0 -0.017160308058248523 -0.0021954432563225197 0 -0.017471272734926862 -0.0015776112739154156 0 -0.018632516908996862 -0.0020761157895899046 0 -0.017775902785360221 -0.0027041515299024649 0 -0.017775902785360221 -0.0027041515299024649 0 -0.017160308058248523 -0.0021954432563225197 0 -0.017000187143179683 -0.0029000647592531069 0 -0.016709892402809699 -0.0022288632772254893 0 -0.017000187143179683 -0.0029000647592531069 0 -0.016098408578019585 -0.0030125265600195652 0 -0.017160308058248523 -0.0021954432563225197 0 -0.016709892402809699 -0.0022288632772254893 0 -0.01694079000836313 -0.0016493153938892597 0 -0.017160308058248523 -0.0021954432563225197 0 -0.016709892402809699 -0.0022288632772254893 0 -0.017000187143179683 -0.0029000647592531069 0 -0.017451884955419075 -0.0033357609962061515 0 -0.017000187143179683 -0.0029000647592531069 0 -0.016815244103120346 -0.003414176864785172 0 -0.017000187143179683 -0.0029000647592531069 0 -0.016815244103120346 -0.003414176864785172 0 -0.016098408578019585 -0.0030125265600195652 0 -0.017398254846218399 -0.0039683978930399738 0 -0.017451884955419075 -0.0033357609962061515 0 -0.016815244103120346 -0.003414176864785172 0 -0.020856244092444121 -0.0017316639940137925 0 -0.019030106242519614 -0.0020770406878909855 0 -0.016092335716871145 -0.0037730351894617615 0 -0.016098408578019585 -0.0030125265600195652 0 -0.015591815945555594 -0.0031450536094245994 0 -0.016092335716871145 -0.0037730351894617615 0 -0.016815244103120346 -0.003414176864785172 0 -0.016098408578019585 -0.0030125265600195652 0 -0.016098408578019585 -0.0030125265600195652 0 -0.015759199717812512 -0.0022504648656316963 0 -0.016080370109662134 -0.002142226598146215 0 -0.016102524991760285 -0.0029611260716205985 0 -0.016267348278527834 -0.0018201806506348524 0 -0.016709892402809699 -0.0022288632772254893 0 -0.016098408578019585 -0.0030125265600195652 0 -0.016460512307616006 -0.0014227533958430583 0 -0.016098408578019585 -0.0030125265600195652 0 -0.015759199717812512 -0.0022504648656316963 0 -0.015591815945555594 -0.0031450536094245994 0 -0.017040557714095451 -0.0010869767162189979 0 -0.016460512307616006 -0.0014227533958430583 0 -0.01694079000836313 -0.0016493153938892597 0 -0.016709892402809699 -0.0022288632772254893 0 -0.016460512307616006 -0.0014227533958430583 0 -0.01694079000836313 -0.0016493153938892597 0 -0.017040557714095451 -0.0010869767162189979 0 -0.016460512307616006 -0.0014227533958430583 0 -0.016677822168468786 -0.00072715975274981128 0 -0.016267348278527834 -0.0018201806506348524 0 -0.01637333665166206 -0.0011456161563191606 0 -0.015759199717812512 -0.0022504648656316963 0 -0.016080370109662134 -0.002142226598146215 0 -0.015858676242993964 -0.0016603997308048204 0 -0.013113515835367691 -0.0026163067145900123 0 -0.014003365793338255 -0.0018808224645273533 0 -0.011951886234732574 -0.0024316311888975665 0 -0.01192945913505423 -0.0022371469146155736 0 -0.011864353900014498 -0.002294917887116847 0 -0.016080370109662134 -0.002142226598146215 0 -0.015858676242993964 -0.0016603997308048204 0 -0.01607344042732026 -0.001565318474462986 0 -0.015858676242993964 -0.0016603997308048204 0 -0.01607344042732026 -0.001565318474462986 0 -0.015922983101557125 -0.0012250744919185123 0 -0.01192945913505423 -0.0022371469146155736 0 -0.011865387041967525 -0.002110524460604737 0 -0.011840398847789457 -0.002177387490386162 0 -0.017040557714095451 -0.0010869767162189979 0 -0.016677822168468786 -0.00072715975274981128 0 -0.016955679766201461 -0.00078610649905866132 0 -0.016677822168468786 -0.00072715975274981128 0 -0.016848054012965671 -0.00056765004331522321 0 -0.016955679766201461 -0.00078610649905866132 0 -0.01607344042732026 -0.001565318474462986 0 -0.015922983101557125 -0.0012250744919185123 0 -0.016094530460316957 -0.001131402256923148 0 -0.016677822168468786 -0.00072715975274981128 0 -0.016703580224296573 -0.00036672267693820741 0 -0.016848054012965671 -0.00056765004331522321 0 -0.01637333665166206 -0.0011456161563191606 0 -0.016387908680559511 -0.00076454189105523327 0 -0.014003365793338255 -0.0018808224645273533 0 -0.013915783450654251 -0.0016564260252932067 0 -0.01192945913505423 -0.0022371469146155736 0 -0.011951399856941766 -0.002074508301014924 0 -0.011865387041967525 -0.002110524460604737 0 -0.011831908481888694 -0.0021769395147264352 0 -0.011922315067554848 -0.00189046099711002 0 -0.013915783450654251 -0.0016564260252932067 0 -0.014066108934698755 -0.0013918634891335775 0 -0.011951399856941766 -0.002074508301014924 0 -0.011865387041967525 -0.002110524460604737 0 -0.011920717882460703 -0.0019977083268200467 0 -0.011951399856941766 -0.002074508301014924 0 -0.011920717882460703 -0.0019977083268200467 0 -0.012028369231241176 -0.0018593345242281659 0 -0.011772155934754211 -0.00218977873594352 0 -0.011777919292789762 -0.002299683586816639 0 -0.011856071756655111 -0.002110072231528478 0 -0.011920717882460703 -0.0019977083268200467 0 -0.011985563606642369 -0.0018817830696601285 0 -0.012028369231241176 -0.0018593345242281659 0 -0.011772155934754211 -0.00218977873594352 0 -0.011777919292789762 -0.002299683586816639 0 -0.011706793384440322 -0.0023478789044938052 0 -0.011922315067554848 -0.00189046099711002 0 -0.01121052119058113 -0.0033340456065332207 0 -0.010096010928965454 -0.004157218503705977 0 -0.01121052119058113 -0.0033340456065332207 0 -0.010096010928965454 -0.004157218503705977 0 -0.0088684446034380422 -0.0056704662106001379 0 -0.0093780579394564401 -0.0049353349736276433 0 -0.00907190648039196 -0.0051326526118612506 0 -0.0089764805274380518 -0.005490797964618003 0 -0.01121052119058113 -0.0033340456065332207 0 -0.014066108934698755 -0.0013918634891335775 0 -0.0093327747978373642 -0.004981298765072196 0 -0.0095687831550231271 -0.0055345324152048167 0 -0.0089764805274380518 -0.005490797964618003 0 -0.016387908680559511 -0.00076454189105523327 0 -0.016508854390470298 -0.00036016010330058471 0 -0.015982312856298184 -0.00084073937665682754 0 -0.016094530460316957 -0.001131402256923148 0 -0.016144996060683644 -0.00073502236843660945 0 -0.016703580224296573 -0.00036672267693820741 0 -0.016789592900362141 -0.00023524319394546502 0 -0.016709129813043015 -0.00010559074043108118 0 -0.014066108934698755 -0.0013918634891335775 0 -0.016508854390470298 -0.00036016010330058471 0 -0.015922983101557125 -0.0012250744919185123 0 -0.015982312856298184 -0.00084073937665682754 0 -0.016094530460316957 -0.001131402256923148 0 -0.016703580224296573 -0.00036672267693820741 0 -0.016869925515907155 -0.00040744143187383572 0 -0.016789592900362141 -0.00023524319394546502 0 -0.016869925515907155 -0.00040744143187383572 0 -0.016789592900362141 -0.00023524319394546502 0 -0.016867518191328344 -0.00021292355439781147 0 -0.016869925515907155 -0.00040744143187383572 0 -0.016867518191328344 -0.00021292355439781147 0 -0.016995862029562811 -0.00042789614567235074 0 -0.016789592900362141 -0.00023524319394546502 0 -0.016802929389056594 -0.00013034316902360712 0 -0.016709129813043015 -0.00010559074043108118 0 -0.016789592900362141 -0.00023524319394546502 0 -0.016867518191328344 -0.00021292355439781147 0 -0.016802929389056594 -0.00013034316902360712 0 -0.016867518191328344 -0.00021292355439781147 0 -0.016963136466651433 -0.00014944759307773455 0 -0.017040113632118416 -0.0003000825472981009 0 -0.016867518191328344 -0.00021292355439781147 0 -0.016802929389056594 -0.00013034316902360712 0 -0.016922723643052247 -7.9451555398596927e-05 0 -0.016867518191328344 -0.00021292355439781147 0 -0.016963136466651433 -0.00014944759307773455 0 -0.016922723643052247 -7.9451555398596927e-05 0 -0.016995862029562811 -0.00042789614567235074 0 -0.017165729794995727 -0.00059147774650728294 0 -0.017040113632118416 -0.0003000825472981009 0 -0.016867518191328344 -0.00021292355439781147 0 -0.016995862029562811 -0.00042789614567235074 0 -0.017040113632118416 -0.0003000825472981009 0 -0.016995862029562811 -0.00042789614567235074 0 -0.017008538144231852 -0.00061441686430410074 0 -0.017165729794995727 -0.00059147774650728294 0 -0.016703580224296573 -0.00036672267693820741 0 -0.016869925515907155 -0.00040744143187383572 0 -0.016848054012965671 -0.00056765004331522321 0 -0.016869925515907155 -0.00040744143187383572 0 -0.016995862029562811 -0.00042789614567235074 0 -0.017008538144231852 -0.00061441686430410074 0 -0.016869925515907155 -0.00040744143187383572 0 -0.016848054012965671 -0.00056765004331522321 0 -0.017008538144231852 -0.00061441686430410074 0 -0.017008538144231852 -0.00061441686430410074 0 -0.016955679766201461 -0.00078610649905866132 0 -0.017171462559464584 -0.00081878716809754681 0 -0.017040557714095451 -0.0010869767162189979 0 -0.016955679766201461 -0.00078610649905866132 0 -0.017171462559464584 -0.00081878716809754681 0 -0.016848054012965671 -0.00056765004331522321 0 -0.017008538144231852 -0.00061441686430410074 0 -0.016955679766201461 -0.00078610649905866132 0 -0.017008538144231852 -0.00061441686430410074 0 -0.017171462559464584 -0.00081878716809754681 0 -0.017165729794995727 -0.00059147774650728294 0 -0.017171462559464584 -0.00081878716809754681 0 -0.017375366655602256 -0.0008375276465072566 0 -0.017165729794995727 -0.00059147774650728294 0 -0.019376129475079426 -0.00021956085956788336 0 -0.019693254981709391 -0.00025321571911180276 0 -0.017375366655602256 -0.0008375276465072566 0 -0.017242345201929892 -0.00036684581148224037 0 -0.017688673230791783 -0.00074037222905987501 0 -0.017375366655602256 -0.0008375276465072566 0 -0.017165729794995727 -0.00059147774650728294 0 -0.017242345201929892 -0.00036684581148224037 0 -0.017165729794995727 -0.00059147774650728294 0 -0.017040113632118416 -0.0003000825472981009 0 -0.017242345201929892 -0.00036684581148224037 0 -0.017040113632118416 -0.0003000825472981009 0 -0.017010662108132808 -2.6770230277051089e-05 0 -0.017242345201929892 -0.00036684581148224037 0 -0.016963136466651433 -0.00014944759307773455 0 -0.017010662108132808 -2.6770230277051089e-05 0 -0.016922723643052247 -7.9451555398596927e-05 0 -0.016963136466651433 -0.00014944759307773455 0 -0.017040113632118416 -0.0003000825472981009 0 -0.017010662108132808 -2.6770230277051089e-05 0 -0.017010662108132808 -2.6770230277051089e-05 0 -0.01715546676791236 8.0481604731360857e-05 0 -0.017242345201929892 -0.00036684581148224037 0 -0.01715546676791236 8.0481604731360857e-05 0 -0.017242345201929892 -0.00036684581148224037 0 -0.017659021694702647 2.878042036405916e-05 0 -0.017242345201929892 -0.00036684581148224037 0 -0.017659021694702647 2.878042036405916e-05 0 -0.017688673230791783 -0.00074037222905987501 0 -0.01715546676791236 8.0481604731360857e-05 0 -0.017659021694702647 2.878042036405916e-05 0 -0.016794282909816927 0.00015668878665648088 0 -0.017659021694702647 2.878042036405916e-05 0 -0.017556660810092359 7.375896584362386e-07 0 -0.016794282909816927 0.00015668878665648088 0 -0.017659021694702647 2.878042036405916e-05 0 -0.017556660810092359 7.375896584362386e-07 0 -0.019163083957683728 -1.5184974380772667e-06 0 -0.017659021694702647 2.878042036405916e-05 0 -0.019163083957683728 -1.5184974380772667e-06 0 -0.017688673230791783 -0.00074037222905987501 0 -0.019169501606084879 -1.3879586217011756e-06 0 -0.021715764338905555 4.4791939814020794e-05 0 -0.020873805244215528 7.5592015783904902e-07 0 -0.01916739650482082 4.4462109124752511e-08 0 -0.019693254981709391 -0.00025321571911180276 0 -0.022799113038793423 -0.00016570142337349222 0 -0.02144227859737256 0.00050042834577216581 0 -0.022031927799734317 0.00014220776342131105 0 -0.02144227859737256 0.00050042834577216581 0 -0.021715764338905555 4.4791939814020794e-05 0 -0.022031927799734317 0.00014220776342131105 0 -0.021715764338905555 4.4791939814020794e-05 0 -0.020873805244215528 7.5592015783904902e-07 0 -0.022031927799734317 0.00014220776342131105 0 -0.022581112882052751 -1.3974180003845545e-07 0 -0.020873805244215528 7.5592015783904902e-07 0 -0.022031927799734317 0.00014220776342131105 0 -0.014541016990298675 -0.0025451632990490095 0 -0.014823922046353038 -0.0023737947898718036 0 -0.014557911203320128 -0.0022444918318171901 0 -0.014541016990298675 -0.0025451632990490095 0 -0.014918316077234518 -0.0027115943609998371 0 -0.014823922046353038 -0.0023737947898718036 0 -0.014541016990298675 -0.0025451632990490095 0 -0.014557911203320128 -0.0022444918318171901 0 -0.01444155825576509 -0.0024615040538940574 0 -0.014541016990298675 -0.0025451632990490095 0 -0.01444155825576509 -0.0024615040538940574 0 -0.014315455422273174 -0.0026538809669301084 0 -0.014541016990298675 -0.0025451632990490095 0 -0.014524744097176915 -0.0028430044340387573 0 -0.014315455422273174 -0.0026538809669301084 0 -0.014541016990298675 -0.0025451632990490095 0 -0.014524744097176915 -0.0028430044340387573 0 -0.014918316077234518 -0.0027115943609998371 0 -0.014524744097176915 -0.0028430044340387573 0 -0.014918316077234518 -0.0027115943609998371 0 -0.014741541906516801 -0.0031614403778480417 0 -0.014918316077234518 -0.0027115943609998371 0 -0.015471519470414566 -0.0024342459403538458 0 -0.015242232501062641 -0.0029898257957430129 0 -0.015750517076685473 -0.0030829727601999393 0 -0.015471519470414566 -0.0024342459403538458 0 -0.015242232501062641 -0.0029898257957430129 0 -0.014918316077234518 -0.0027115943609998371 0 -0.015471519470414566 -0.0024342459403538458 0 -0.014823922046353038 -0.0023737947898718036 0 -0.015471519470414566 -0.0024342459403538458 0 -0.014823922046353038 -0.0023737947898718036 0 -0.015032565534923445 -0.00198235636080132 0 -0.015709112115115723 -0.0018090664356428528 0 -0.015471519470414566 -0.0024342459403538458 0 -0.015032565534923445 -0.00198235636080132 0 -0.019261501713335221 -0.00090293790215961961 0 -0.019453516009716513 -0.00085233858563769167 0 -0.023019034286984152 0.00030524746408588542 0 -0.023545751854237105 -0.00020880851192155096 0 -0.023753345153083298 0.00024737433710413629 0 -0.023545751854237105 -0.00020880851192155096 0 -0.023753345153083298 0.00024737433710413629 0 -0.024061603796405682 -8.9375307679992463e-05 0 -0.024385797005501052 -0.00020769734581239487 0 -0.024061603796405682 -8.9375307679992463e-05 0 -0.024305265018405558 5.5661519539389836e-05 0 -0.023753345153083298 0.00024737433710413629 0 -0.024061603796405682 -8.9375307679992463e-05 0 -0.024305265018405558 5.5661519539389836e-05 0 -0.019453516009716513 -0.00085233858563769167 0 -0.019263608732350754 -0.0011148194931127435 0 -0.014823922046353038 -0.0023737947898718036 0 -0.015032565534923445 -0.00198235636080132 0 -0.014557911203320128 -0.0022444918318171901 0 -0.024385797005501052 -0.00020769734581239487 0 -0.024305265018405558 5.5661519539389836e-05 0 -0.024549679390541645 -0.00021666458838534141 0 -0.024305265018405558 5.5661519539389836e-05 0 -0.024549679390541645 -0.00021666458838534141 0 -0.024495739738276175 -0.00010815083238310026 0 -0.0246483364544305 -0.00027251673922706551 0 -0.024549679390541645 -0.00021666458838534141 0 -0.024589321463622624 -0.00019369457770823277 0 -0.024549679390541645 -0.00021666458838534141 0 -0.024589321463622624 -0.00019369457770823277 0 -0.024495739738276175 -0.00010815083238310026 0 -0.014517709375185078 -0.0024763217365944019 0 -0.014840316893445055 -0.0025142429585248726 0 -0.014515208451932472 -0.0024183835290254724 0 -0.024589321463622624 -0.00019369457770823277 0 -0.024495739738276175 -0.00010815083238310026 0 -0.024584102399710064 -0.00016269257391204417 0 -0.020232429735603165 -0.0011692481296656774 0 -0.016552204497357767 -0.002019819332696746 0 -0.014557911203320128 -0.0022444918318171901 0 -0.014517709375185078 -0.0024763217365944019 0 -0.01444155825576509 -0.0024615040538940574 0 -0.019263608732350754 -0.0011148194931127435 0 -0.020232429735603165 -0.0011692481296656774 0 -0.024712096977084954 -0.00029294461006079681 0 -0.024726485203354211 -0.00023194035238995118 0 -0.024647931857209492 -0.00022446815131472279 0 -0.024726485203354211 -0.00023194035238995118 0 -0.024647931857209492 -0.00022446815131472279 0 -0.024584102399710064 -0.00016269257391204417 0 -0.019030106242519614 -0.0020770406878909855 0 -0.016552204497357767 -0.002019819332696746 0 -0.0246483364544305 -0.00027251673922706551 0 -0.024712096977084954 -0.00029294461006079681 0 -0.024647931857209492 -0.00022446815131472279 0 -0.0246483364544305 -0.00027251673922706551 0 -0.024589321463622624 -0.00019369457770823277 0 -0.024647931857209492 -0.00022446815131472279 0 -0.024589321463622624 -0.00019369457770823277 0 -0.024647931857209492 -0.00022446815131472279 0 -0.024584102399710064 -0.00016269257391204417 0 -0.011804325989340442 -0.0025597849474212888 0 -0.011831659367047817 -0.0024717560995883197 0 -0.011606987830853443 -0.0022921124628012607 0 -0.016552204497357767 -0.002019819332696746 0 -0.012583880602635456 -0.0022818976128210497 0 -0.011951886234732574 -0.0024316311888975665 0 -0.0120097905832309 -0.0026410064818903015 0 -0.011912349635677314 -0.002474699440705361 0 -0.013113515835367691 -0.0026163067145900123 0 -0.019030106242519614 -0.0020770406878909855 0 -0.0120097905832309 -0.0026410064818903015 0 -0.011918270551831979 -0.0025397600428868562 0 -0.011912349635677314 -0.002474699440705361 0 -0.0120097905832309 -0.0026410064818903015 0 -0.011883222892733301 -0.0025400351538716255 0 -0.011918270551831979 -0.0025397600428868562 0 -0.016552204497357767 -0.002019819332696746 0 -0.011966918891018811 -0.0024336787597452367 0 -0.011804325989340442 -0.0025597849474212888 0 -0.011918270551831979 -0.0025397600428868562 0 -0.011831659367047817 -0.0024717560995883197 0 -0.011918270551831979 -0.0025397600428868562 0 -0.011831659367047817 -0.0024717560995883197 0 -0.011912349635677314 -0.002474699440705361 0 -0.011951886234732574 -0.0024316311888975665 0 -0.011844061477234507 -0.0023604384068468764 0 -0.011864353900014498 -0.002294917887116847 0 -0.011951886234732574 -0.0024316311888975665 0 -0.011912349635677314 -0.002474699440705361 0 -0.011844061477234507 -0.0023604384068468764 0 -0.011831659367047817 -0.0024717560995883197 0 -0.011912349635677314 -0.002474699440705361 0 -0.011777215570526401 -0.002391306482822768 0 -0.011912349635677314 -0.002474699440705361 0 -0.011844061477234507 -0.0023604384068468764 0 -0.011777215570526401 -0.002391306482822768 0 -0.011777215570526401 -0.002391306482822768 0 -0.011687312443351595 -0.0023463707090009321 0 -0.011606987830853443 -0.0022921124628012607 0 -0.011831659367047817 -0.0024717560995883197 0 -0.011777215570526401 -0.002391306482822768 0 -0.011606987830853443 -0.0022921124628012607 0 -0.011844061477234507 -0.0023604384068468764 0 -0.011777215570526401 -0.002391306482822768 0 -0.011687312443351595 -0.0023463707090009321 0 -0.011687312443351595 -0.0023463707090009321 0 -0.011771935004266551 -0.0022771893315757298 0 -0.01154510252949051 -0.0023690453086903057 0 -0.011844061477234507 -0.0023604384068468764 0 -0.011687312443351595 -0.0023463707090009321 0 -0.011771935004266551 -0.0022771893315757298 0 -0.011844061477234507 -0.0023604384068468764 0 -0.011771935004266551 -0.0022771893315757298 0 -0.011864353900014498 -0.002294917887116847 0 -0.01444155825576509 -0.0024615040538940574 0 -0.014515208451932472 -0.0024183835290254724 0 -0.014315455422273174 -0.0026538809669301084 0 -0.014517709375185078 -0.0024763217365944019 0 -0.01444155825576509 -0.0024615040538940574 0 -0.014515208451932472 -0.0024183835290254724 0 -0.012583880602635456 -0.0022818976128210497 0 -0.013329920504732088 -0.0025834791438463277 0 -0.011606987830853443 -0.0022921124628012607 0 -0.01154510252949051 -0.0023690453086903057 0 -0.012123453106207358 -0.002367349405071086 0 -0.011687312443351595 -0.0023463707090009321 0 -0.011606987830853443 -0.0022921124628012607 0 -0.01154510252949051 -0.0023690453086903057 0 -0.012123453106207358 -0.002367349405071086 0 -0.011812704107125189 -0.0032133960805025594 0 -0.01304715084583377 -0.0029830775968937252 0 -0.01154510252949051 -0.0023690453086903057 0 -0.012123453106207358 -0.002367349405071086 0 -0.011812704107125189 -0.0032133960805025594 0 -0.01154510252949051 -0.0023690453086903057 0 -0.011812704107125189 -0.0032133960805025594 0 -0.010716121438406256 -0.0031710884922700922 0 -0.011812704107125189 -0.0032133960805025594 0 -0.011486412684633197 -0.0039162434542836027 0 -0.010716121438406256 -0.0031710884922700922 0 -0.011812704107125189 -0.0032133960805025594 0 -0.012785860414695023 -0.003799492667403028 0 -0.01304715084583377 -0.0029830775968937252 0 -0.011812704107125189 -0.0032133960805025594 0 -0.011486412684633197 -0.0039162434542836027 0 -0.012078005216486989 -0.0042647488912776173 0 -0.011812704107125189 -0.0032133960805025594 0 -0.012078005216486989 -0.0042647488912776173 0 -0.012785860414695023 -0.003799492667403028 0 -0.01192945913505423 -0.0022371469146155736 0 -0.011864353900014498 -0.002294917887116847 0 -0.011840398847789457 -0.002177387490386162 0 -0.011771935004266551 -0.0022771893315757298 0 -0.011864353900014498 -0.002294917887116847 0 -0.011840398847789457 -0.002177387490386162 0 -0.011771935004266551 -0.0022771893315757298 0 -0.011840398847789457 -0.002177387490386162 0 -0.011732035235116048 -0.0021599251422154135 0 -0.011771935004266551 -0.0022771893315757298 0 -0.01154510252949051 -0.0023690453086903057 0 -0.011732035235116048 -0.0021599251422154135 0 -0.011511353868709764 -0.0023785719916135156 0 -0.011209600296124493 -0.0027110365612327916 0 -0.010716121438406256 -0.0031710884922700922 0 -0.01012343114239778 -0.0040021734219141611 0 -0.010799773486963551 -0.0039886773480187817 0 -0.011486412684633197 -0.0039162434542836027 0 -0.010716121438406256 -0.0031710884922700922 0 -0.010799773486963551 -0.0039886773480187817 0 -0.011840398847789457 -0.002177387490386162 0 -0.011732035235116048 -0.0021599251422154135 0 -0.011856071756655111 -0.002110072231528478 0 -0.011209600296124493 -0.0027110365612327916 0 -0.01110722335915792 -0.0029076904421888846 0 -0.011865387041967525 -0.002110524460604737 0 -0.011840398847789457 -0.002177387490386162 0 -0.011856071756655111 -0.002110072231528478 0 -0.010096010928965454 -0.004157218503705977 0 -0.01110722335915792 -0.0029076904421888846 0 -0.0096806056090744334 -0.004667909303852167 0 -0.01012343114239778 -0.0040021734219141611 0 -0.010197684899919951 -0.0043290615184080738 0 -0.01012343114239778 -0.0040021734219141611 0 -0.010197684899919951 -0.0043290615184080738 0 -0.010799773486963551 -0.0039886773480187817 0 -0.010096010928965454 -0.004157218503705977 0 -0.0099917939534741769 -0.0045026204236061499 0 -0.011865387041967525 -0.002110524460604737 0 -0.011772155934754211 -0.00218977873594352 0 -0.011856071756655111 -0.002110072231528478 0 -0.010004327234369555 -0.004511774137840016 0 -0.010799773486963551 -0.0039886773480187817 0 -0.010562031274488952 -0.0049218189024618402 0 -0.010799773486963551 -0.0039886773480187817 0 -0.010562031274488952 -0.0049218189024618402 0 -0.011291423762215796 -0.0046630983930804849 0 -0.0099917939534741769 -0.0045026204236061499 0 -0.010772068632064927 -0.0040004553973150428 0 -0.010562031274488952 -0.0049218189024618402 0 -0.011117021632974537 -0.0055623851250234391 0 -0.010256171447872942 -0.0055899334304842525 0 -0.010004327234369555 -0.004511774137840016 0 -0.010562031274488952 -0.0049218189024618402 0 -0.0099257257467296744 -0.0051193289315046367 0 -0.010562031274488952 -0.0049218189024618402 0 -0.0099257257467296744 -0.0051193289315046367 0 -0.010256171447872942 -0.0055899334304842525 0 -0.0093327747978373642 -0.004981298765072196 0 -0.0099257257467296744 -0.0051193289315046367 0 -0.0095687831550231271 -0.0055345324152048167 0 -0.0099257257467296744 -0.0051193289315046367 0 -0.010256171447872942 -0.0055899334304842525 0 -0.0095687831550231271 -0.0055345324152048167 0 -0.0093327747978373642 -0.004981298765072196 0 -0.010004327234369555 -0.004511774137840016 0 -0.0099257257467296744 -0.0051193289315046367 0 -0.012078005216486989 -0.0042647488912776173 0 -0.011884413993312231 -0.0050780840453002766 0 -0.013041873853520229 -0.0048289202223676022 0 -0.012078005216486989 -0.0042647488912776173 0 -0.011291423762215796 -0.0046630983930804849 0 -0.011884413993312231 -0.0050780840453002766 0 -0.011486412684633197 -0.0039162434542836027 0 -0.012078005216486989 -0.0042647488912776173 0 -0.011291423762215796 -0.0046630983930804849 0 -0.011486412684633197 -0.0039162434542836027 0 -0.010799773486963551 -0.0039886773480187817 0 -0.011291423762215796 -0.0046630983930804849 0 -0.010562031274488952 -0.0049218189024618402 0 -0.011291423762215796 -0.0046630983930804849 0 -0.011117021632974537 -0.0055623851250234391 0 -0.011291423762215796 -0.0046630983930804849 0 -0.011884413993312231 -0.0050780840453002766 0 -0.011117021632974537 -0.0055623851250234391 0 -0.011884413993312231 -0.0050780840453002766 0 -0.012183528135610747 -0.0058093167334783841 0 -0.011117021632974537 -0.0055623851250234391 0 -0.011884413993312231 -0.0050780840453002766 0 -0.013041873853520229 -0.0048289202223676022 0 -0.012183528135610747 -0.0058093167334783841 0 -0.013041873853520229 -0.0048289202223676022 0 -0.013508325819405 -0.0060322136487465398 0 -0.012183528135610747 -0.0058093167334783841 0 -0.013041873853520229 -0.0048289202223676022 0 -0.014652050464015387 -0.0047849342666625725 0 -0.013508325819405 -0.0060322136487465398 0 -0.012691363875683799 -0.0057138706441873946 0 -0.012261088910242116 -0.0066963848083301135 0 -0.013041873853520229 -0.0048289202223676022 0 -0.014278960386105934 -0.0037851535905989312 0 -0.014652050464015387 -0.0047849342666625725 0 -0.013041873853520229 -0.0048289202223676022 0 -0.012785860414695023 -0.003799492667403028 0 -0.014278960386105934 -0.0037851535905989312 0 -0.012078005216486989 -0.0042647488912776173 0 -0.013041873853520229 -0.0048289202223676022 0 -0.012785860414695023 -0.003799492667403028 0 -0.012785860414695023 -0.003799492667403028 0 -0.014278960386105934 -0.0037851535905989312 0 -0.01304715084583377 -0.0029830775968937252 0 -0.014288052881500595 -0.0037605168886218074 0 -0.013686963038332403 -0.0030737915072090454 0 -0.014278960386105934 -0.0037851535905989312 0 -0.014298746200891327 -0.0031135442301986989 0 -0.014741541906516801 -0.0031614403778480417 0 -0.014524744097176915 -0.0028430044340387573 0 -0.014298746200891327 -0.0031135442301986989 0 -0.014741541906516801 -0.0031614403778480417 0 -0.013329920504732088 -0.0025834791438463277 0 -0.013686963038332403 -0.0030737915072090454 0 -0.014524744097176915 -0.0028430044340387573 0 -0.014315455422273174 -0.0026538809669301084 0 -0.014298746200891327 -0.0031135442301986989 0 -0.015750517076685473 -0.0030829727601999393 0 -0.015242232501062641 -0.0029898257957430129 0 -0.015338062677246475 -0.0037125571911452025 0 -0.015242232501062641 -0.0029898257957430129 0 -0.014741541906516801 -0.0031614403778480417 0 -0.015338062677246475 -0.0037125571911452025 0 -0.014918316077234518 -0.0027115943609998371 0 -0.015242232501062641 -0.0029898257957430129 0 -0.014741541906516801 -0.0031614403778480417 0 -0.014278960386105934 -0.0037851535905989312 0 -0.014741541906516801 -0.0031614403778480417 0 -0.015338062677246475 -0.0037125571911452025 0 -0.012525628992473423 -0.0058612536904009633 0 -0.011195980529925216 -0.0050728914000116613 0 -0.011511981249273898 -0.0068208079823855548 0 -0.011195980529925216 -0.0050728914000116613 0 -0.010695547269770102 -0.0067060432521939195 0 -0.011511981249273898 -0.0068208079823855548 0 -0.013281861762706904 -0.0043844318967571254 0 -0.012691363875683799 -0.0057138706441873946 0 -0.014278960386105934 -0.0037851535905989312 0 -0.015338062677246475 -0.0037125571911452025 0 -0.014652050464015387 -0.0047849342666625725 0 -0.010695547269770102 -0.0067060432521939195 0 -0.011511981249273898 -0.0068208079823855548 0 -0.010935297424052784 -0.0073824468010195415 0 -0.011511981249273898 -0.0068208079823855548 0 -0.010935297424052784 -0.0073824468010195415 0 -0.011297009024670856 -0.0075035185531566661 0 -0.010695547269770102 -0.0067060432521939195 0 -0.010935297424052784 -0.0073824468010195415 0 -0.010971818608958997 -0.0074799756104173545 0 -0.010935297424052784 -0.0073824468010195415 0 -0.010833424252435105 -0.0073984830564296031 0 -0.011141253936240355 -0.0072925350530816503 0 -0.010935297424052784 -0.0073824468010195415 0 -0.010833424252435105 -0.0073984830564296031 0 -0.011297009024670856 -0.0075035185531566661 0 -0.010833424252435105 -0.0073984830564296031 0 -0.011297009024670856 -0.0075035185531566661 0 -0.011020847194163907 -0.0075025114813340073 0 -0.010833424252435105 -0.0073984830564296031 0 -0.010658566433872993 -0.0076172601621528222 0 -0.011020847194163907 -0.0075025114813340073 0 -0.010833424252435105 -0.0073984830564296031 0 -0.010712497599343574 -0.0072013854239025539 0 -0.011141253936240355 -0.0072925350530816503 0 -0.010833424252435105 -0.0073984830564296031 0 -0.010712497599343574 -0.0072013854239025539 0 -0.010658566433872993 -0.0076172601621528222 0 -0.010712497599343574 -0.0072013854239025539 0 -0.010498471152872191 -0.0074986162153724235 0 -0.010658566433872993 -0.0076172601621528222 0 -0.010498471152872191 -0.0074986162153724235 0 -0.010658566433872993 -0.0076172601621528222 0 -0.010391475535929581 -0.0076233300741865807 0 -0.010658566433872993 -0.0076172601621528222 0 -0.010391475535929581 -0.0076233300741865807 0 -0.010224720394782375 -0.0076515709127518965 0 -0.0097598690188928812 -0.0074246196149767079 0 -0.010233706121882428 -0.0075150496821194679 0 -0.010183648300608061 -0.0072178903923273289 0 -0.0097598690188928812 -0.0074246196149767079 0 -0.010183648300608061 -0.0072178903923273289 0 -0.0098019149407101731 -0.0070911177652786391 0 -0.0097598690188928812 -0.0074246196149767079 0 -0.0095997241561028204 -0.0070674813063868686 0 -0.0098019149407101731 -0.0070911177652786391 0 -0.010712497599343574 -0.0072013854239025539 0 -0.010498471152872191 -0.0074986162153724235 0 -0.010183648300608061 -0.0072178903923273289 0 -0.010498471152872191 -0.0074986162153724235 0 -0.010233706121882428 -0.0075150496821194679 0 -0.010183648300608061 -0.0072178903923273289 0 -0.0097598690188928812 -0.0074246196149767079 0 -0.010233706121882428 -0.0075150496821194679 0 -0.010184380009756114 -0.0076430885969830603 0 -0.010498471152872191 -0.0074986162153724235 0 -0.010233706121882428 -0.0075150496821194679 0 -0.010327753583271999 -0.0076327074206500927 0 -0.010712497599343574 -0.0072013854239025539 0 -0.0120557453825653 -0.0069784282070760933 0 -0.011141253936240355 -0.0072925350530816503 0 -0.010712497599343574 -0.0072013854239025539 0 -0.010183648300608061 -0.0072178903923273289 0 -0.0097268931084592627 -0.0067070245260865266 0 -0.010747167484261196 -0.0071405052842211641 0 -0.010838908341799066 -0.0068734602537606406 0 -0.010183648300608061 -0.0072178903923273289 0 -0.0098019149407101731 -0.0070911177652786391 0 -0.0097268931084592627 -0.0067070245260865266 0 -0.0095997241561028204 -0.0070674813063868686 0 -0.0098019149407101731 -0.0070911177652786391 0 -0.0097268931084592627 -0.0067070245260865266 0 -0.012045647822330889 -0.0070542846999020904 0 -0.012297452672761862 -0.006408368228683463 0 -0.013508325819405 -0.0060322136487465398 0 -0.012086236720739501 -0.007001647231795919 0 -0.012261088910242116 -0.0066963848083301135 0 -0.0120557453825653 -0.0069784282070760933 0 -0.012045647822330889 -0.0070542846999020904 0 -0.011141253936240355 -0.0072925350530816503 0 -0.012045647822330889 -0.0070542846999020904 0 -0.011141253936240355 -0.0072925350530816503 0 -0.010971818608958997 -0.0074799756104173545 0 -0.010935297424052784 -0.0073824468010195415 0 -0.011141253936240355 -0.0072925350530816503 0 -0.010971818608958997 -0.0074799756104173545 0 -0.012297452672761862 -0.006408368228683463 0 -0.013508325819405 -0.0060322136487465398 0 -0.012183528135610747 -0.0058093167334783841 0 -0.012183528135610747 -0.0058093167334783841 0 -0.011117021632974537 -0.0055623851250234391 0 -0.011721758620463282 -0.0066356291887337904 0 -0.012297452672761862 -0.006408368228683463 0 -0.012183528135610747 -0.0058093167334783841 0 -0.011721758620463282 -0.0066356291887337904 0 -0.011117021632974537 -0.0055623851250234391 0 -0.011721758620463282 -0.0066356291887337904 0 -0.010688449866236656 -0.0062763900122205724 0 -0.011721758620463282 -0.0066356291887337904 0 -0.010688449866236656 -0.0062763900122205724 0 -0.011214150915545286 -0.0069526999533840259 0 -0.0120557453825653 -0.0069784282070760933 0 -0.011721758620463282 -0.0066356291887337904 0 -0.011214150915545286 -0.0069526999533840259 0 -0.012045647822330889 -0.0070542846999020904 0 -0.012297452672761862 -0.006408368228683463 0 -0.011721758620463282 -0.0066356291887337904 0 -0.0120557453825653 -0.0069784282070760933 0 -0.012045647822330889 -0.0070542846999020904 0 -0.011721758620463282 -0.0066356291887337904 0 -0.0099245705591133847 -0.0060764772022293681 0 -0.0095687831550231271 -0.0055345324152048167 0 -0.0092800354093386783 -0.0061004269018172987 0 -0.010256171447872942 -0.0055899334304842525 0 -0.0099245705591133847 -0.0060764772022293681 0 -0.0095687831550231271 -0.0055345324152048167 0 -0.011117021632974537 -0.0055623851250234391 0 -0.010256171447872942 -0.0055899334304842525 0 -0.010688449866236656 -0.0062763900122205724 0 -0.010256171447872942 -0.0055899334304842525 0 -0.0099245705591133847 -0.0060764772022293681 0 -0.010688449866236656 -0.0062763900122205724 0 -0.010688449866236656 -0.0062763900122205724 0 -0.0099166443215091809 -0.0067794953934178408 0 -0.011214150915545286 -0.0069526999533840259 0 -0.008126515188163666 -0.0066102795277422867 0 -0.0098166815275882273 -0.0066180717161573813 0 -0.0099245705591133847 -0.0060764772022293681 0 -0.010688449866236656 -0.0062763900122205724 0 -0.0099166443215091809 -0.0067794953934178408 0 -0.0099245705591133847 -0.0060764772022293681 0 -0.0099166443215091809 -0.0067794953934178408 0 -0.0092800354093386783 -0.0061004269018172987 0 -0.0068039808184994308 -0.0060765462821317515 0 -0.0066011835245339814 -0.006883077181937587 0 -0.0075221790587211091 -0.0070112861963871178 0 -0.0068039808184994308 -0.0060765462821317515 0 -0.0066011835245339814 -0.006883077181937587 0 -0.0061406528222767848 -0.0063727346581002875 0 -0.0068039808184994308 -0.0060765462821317515 0 -0.0075221790587211091 -0.0070112861963871178 0 -0.0083297521899923926 -0.0063415320290645637 0 -0.0077463004968995027 -0.0076133350306318908 0 -0.0075221790587211091 -0.0070112861963871178 0 -0.0083877047417886593 -0.0074667107543420364 0 -0.0077463004968995027 -0.0076133350306318908 0 -0.0075221790587211091 -0.0070112861963871178 0 -0.0071776648655361647 -0.0075425418278381763 0 -0.0077463004968995027 -0.0076133350306318908 0 -0.0071776648655361647 -0.0075425418278381763 0 -0.007593978190592216 -0.0078982920047530689 0 -0.0066011835245339814 -0.006883077181937587 0 -0.0075221790587211091 -0.0070112861963871178 0 -0.0071776648655361647 -0.0075425418278381763 0 -0.0071776648655361647 -0.0075425418278381763 0 -0.0065856760888432378 -0.0074962383321156133 0 -0.00688266722637388 -0.0077821288247936059 0 -0.0065856760888432378 -0.0074962383321156133 0 -0.0064516324643740146 -0.0079057974237046452 0 -0.00688266722637388 -0.0077821288247936059 0 -0.0066011835245339814 -0.006883077181937587 0 -0.0071776648655361647 -0.0075425418278381763 0 -0.0065856760888432378 -0.0074962383321156133 0 -0.0097268931084592627 -0.0067070245260865266 0 -0.009105592274158969 -0.0070272790190543839 0 -0.0083297521899923926 -0.0063415320290645637 0 -0.010838908341799066 -0.0068734602537606406 0 -0.0098166815275882273 -0.0066180717161573813 0 -0.0095997241561028204 -0.0070674813063868686 0 -0.0097268931084592627 -0.0067070245260865266 0 -0.009105592274158969 -0.0070272790190543839 0 -0.009105592274158969 -0.0070272790190543839 0 -0.0083297521899923926 -0.0063415320290645637 0 -0.0083877047417886593 -0.0074667107543420364 0 -0.0075221790587211091 -0.0070112861963871178 0 -0.0083297521899923926 -0.0063415320290645637 0 -0.0083877047417886593 -0.0074667107543420364 0 -0.0077463004968995027 -0.0076133350306318908 0 -0.0083877047417886593 -0.0074667107543420364 0 -0.0080098072078795164 -0.0079640141592165255 0 -0.0083877047417886593 -0.0074667107543420364 0 -0.0090562626700267292 -0.0077564938240807626 0 -0.0084557533986789647 -0.0080956057208407591 0 -0.009105592274158969 -0.0070272790190543839 0 -0.0083877047417886593 -0.0074667107543420364 0 -0.0090562626700267292 -0.0077564938240807626 0 -0.0097598690188928812 -0.0074246196149767079 0 -0.009105592274158969 -0.0070272790190543839 0 -0.0090562626700267292 -0.0077564938240807626 0 -0.0097598690188928812 -0.0074246196149767079 0 -0.0095997241561028204 -0.0070674813063868686 0 -0.009105592274158969 -0.0070272790190543839 0 -0.0097598690188928812 -0.0074246196149767079 0 -0.0090562626700267292 -0.0077564938240807626 0 -0.0095662054851585725 -0.0080708879435643401 0 -0.0090562626700267292 -0.0077564938240807626 0 -0.0090441046999183723 -0.0084627568387504841 0 -0.0095662054851585725 -0.0080708879435643401 0 -0.0090562626700267292 -0.0077564938240807626 0 -0.0090441046999183723 -0.0084627568387504841 0 -0.0084557533986789647 -0.0080956057208407591 0 -0.0067793479653556928 -0.0054458773189612134 0 -0.0059493277045832857 -0.0056510422383298708 0 -0.0090441046999183723 -0.0084627568387504841 0 -0.0084557533986789647 -0.0080956057208407591 0 -0.0077836492818802814 -0.0084097100077222837 0 -0.0083877047417886593 -0.0074667107543420364 0 -0.0084557533986789647 -0.0080956057208407591 0 -0.0080098072078795164 -0.0079640141592165255 0 -0.0084557533986789647 -0.0080956057208407591 0 -0.0080098072078795164 -0.0079640141592165255 0 -0.0077836492818802814 -0.0084097100077222837 0 -0.0026251305117532668 -0.0037032050678216782 0 -0.00089040309595754129 -0.0033522647863004468 0 -0.0038404682902293558 -0.0049573808994647544 0 -0.0048354352528937692 -0.00264497608496901 0 -0.0044545724512581797 -0.0034238137492854886 0 -0.0032898623675535798 -0.0026967909145633982 0 -0.0026251305117532668 -0.0037032050678216782 0 -0.0044545724512581797 -0.0034238137492854886 0 -0.0010951639616665319 -0.0029846881270640959 0 -0.0044545724512581797 -0.0034238137492854886 0 -0.0032898623675535798 -0.0026967909145633982 0 -0.0031699239884701211 -0.0029957005506361539 0 -0.0044760303862319151 -0.0035277829669548826 0 -0.0018430696744439782 -0.0027262982828546497 0 -0.0026251305117532668 -0.0037032050678216782 0 -0.0044545724512581797 -0.0034238137492854886 0 -0.0039216937976397151 -0.0040935346573382908 0 -0.0044545724512581797 -0.0034238137492854886 0 -0.0046723299466854057 -0.0041874525173156768 0 -0.0039216937976397151 -0.0040935346573382908 0 -0.0044545724512581797 -0.0034238137492854886 0 -0.0055713773299044932 -0.0036761263941155809 0 -0.0046723299466854057 -0.0041874525173156768 0 -0.0048354352528937692 -0.00264497608496901 0 -0.0044545724512581797 -0.0034238137492854886 0 -0.0055713773299044932 -0.0036761263941155809 0 -0.0025594305951249169 -0.0048428459811755984 0 -0.0018430696744439782 -0.0027262982828546497 0 -0.0025594305951249169 -0.0048428459811755984 0 -0.0059493277045832857 -0.0056510422383298708 0 -0.0064663278055423351 -0.0083195505573016634 0 -0.0068721641794154366 -0.0080821703896524575 0 -0.0077836492818802814 -0.0084097100077222837 0 -0.0064663278055423351 -0.0083195505573016634 0 -0.006414029341729399 -0.0081301112430748872 0 -0.0068721641794154366 -0.0080821703896524575 0 -0.0064516324643740146 -0.0079057974237046452 0 -0.006414029341729399 -0.0081301112430748872 0 -0.0068721641794154366 -0.0080821703896524575 0 -0.0064516324643740146 -0.0079057974237046452 0 -0.0068721641794154366 -0.0080821703896524575 0 -0.00688266722637388 -0.0077821288247936059 0 -0.0071776648655361647 -0.0075425418278381763 0 -0.00688266722637388 -0.0077821288247936059 0 -0.0072499722144898759 -0.0079619669126727178 0 -0.0068721641794154366 -0.0080821703896524575 0 -0.00688266722637388 -0.0077821288247936059 0 -0.0072499722144898759 -0.0079619669126727178 0 -0.0021079696251214111 -0.0027380187507912673 0 -0.0032898623675535798 -0.0026967909145633982 0 -0.0031699239884701211 -0.0029957005506361539 0 -0.0068721641794154366 -0.0080821703896524575 0 -0.0072499722144898759 -0.0079619669126727178 0 -0.0077836492818802814 -0.0084097100077222837 0 -0.0072499722144898759 -0.0079619669126727178 0 -0.007593978190592216 -0.0078982920047530689 0 -0.0077836492818802814 -0.0084097100077222837 0 -0.0071776648655361647 -0.0075425418278381763 0 -0.0072499722144898759 -0.0079619669126727178 0 -0.007593978190592216 -0.0078982920047530689 0 -0.0077463004968995027 -0.0076133350306318908 0 -0.0080098072078795164 -0.0079640141592165255 0 -0.007593978190592216 -0.0078982920047530689 0 -0.0080098072078795164 -0.0079640141592165255 0 -0.007593978190592216 -0.0078982920047530689 0 -0.0077836492818802814 -0.0084097100077222837 0 -0.00054095330894106039 -0.0034780615438380212 0 -0.0003788199836977511 -0.003559896433151162 0 -0.00057263546230968483 -0.0035895445082728896 0 -0.0026251305117532668 -0.0037032050678216782 0 -0.0010951639616665319 -0.0029846881270640959 0 -0.00089040309595754129 -0.0033522647863004468 0 -0.00064922279654961584 -0.0034895849004722727 0 -0.00089040309595754129 -0.0033522647863004468 0 -0.00057263546230968483 -0.0035895445082728896 0 -0.00064922279654961584 -0.0034895849004722727 0 -0.00054095330894106039 -0.0034780615438380212 0 -0.00057263546230968483 -0.0035895445082728896 0 -0.00064922279654961584 -0.0034895849004722727 0 -0.0006809792566470766 -0.003417266355303396 0 -0.00089040309595754129 -0.0033522647863004468 0 -0.00064922279654961584 -0.0034895849004722727 0 -0.0006809792566470766 -0.003417266355303396 0 -0.00054095330894106039 -0.0034780615438380212 0 -0.0006809792566470766 -0.003417266355303396 0 -0.00065867552291430859 -0.0033156940221495007 0 -0.00054095330894106039 -0.0034780615438380212 0 -0.0010951639616665319 -0.0029846881270640959 0 -0.00065867552291430859 -0.0033156940221495007 0 -0.00043062049556758929 -0.003198237635205397 0 -0.0010951639616665319 -0.0029846881270640959 0 -0.00065867552291430859 -0.0033156940221495007 0 -0.00089040309595754129 -0.0033522647863004468 0 -0.0006809792566470766 -0.003417266355303396 0 -0.00065867552291430859 -0.0033156940221495007 0 -0.00089040309595754129 -0.0033522647863004468 0 -5.0739223336570134e-05 -0.0029611875147390488 0 -0.00043062049556758929 -0.003198237635205397 0 -0.0003788199836977511 -0.003559896433151162 0 0.0038446917467555531 -0.0052414720755962069 0 -0.00099589810299579684 -0.0062258482409013119 0 -5.0739223336570134e-05 -0.0029611875147390488 0 -0.0003788199836977511 -0.003559896433151162 0 0.00011541217166079277 -0.0029602590908733946 0 -5.0739223336570134e-05 -0.0029611875147390488 0 -0.0010951639616665319 -0.0029846881270640959 0 -0.00043062049556758929 -0.003198237635205397 0 0.0048806558431710939 -0.0070153831128087945 0 0.0043994514405873899 -0.007963733492361692 0 0.004432100009426918 -0.0073665037181283284 0 -0.00065867552291430859 -0.0033156940221495007 0 -0.00043062049556758929 -0.003198237635205397 0 -0.00048853667440176016 -0.0033947826181354112 0 -0.00065867552291430859 -0.0033156940221495007 0 -0.00048853667440176016 -0.0033947826181354112 0 -0.00054095330894106039 -0.0034780615438380212 0 -0.00048853667440176016 -0.0033947826181354112 0 -0.00054095330894106039 -0.0034780615438380212 0 -0.0003788199836977511 -0.003559896433151162 0 -0.00043062049556758929 -0.003198237635205397 0 -0.00048853667440176016 -0.0033947826181354112 0 -0.0003788199836977511 -0.003559896433151162 0 0.0038446917467555531 -0.0052414720755962069 0 0.0041607627594144473 -0.0068561635153056326 0 0.0049340233863888984 -0.0070223495230951763 0 0.0054663179169773491 -0.0060119205184267785 0 0.0045523992658483845 -0.0061947704042379379 0 0.0038446917467555531 -0.0052414720755962069 0 0.0057369607084315575 -0.0047097730382077646 0 0.0054122709979084731 -0.0039465897984865142 0 0.0059106174925108281 -0.0035282942262986243 0 0.0057113002781504435 -0.0034103368981435729 0 -0.00089040309595754129 -0.0033522647863004468 0 -0.00057263546230968483 -0.0035895445082728896 0 9.4847699024668792e-06 -0.0038728329909568189 0 -0.0003788199836977511 -0.003559896433151162 0 -0.00057263546230968483 -0.0035895445082728896 0 -0.00049744086827735814 -0.0036284542480634458 0 0.0038446917467555531 -0.0052414720755962069 0 0.002546153467556185 -0.0034239991938719129 0 0.0059106174925108281 -0.0035282942262986243 0 0.0057113002781504435 -0.0034103368981435729 0 0.005972442091120406 -0.0032926351195285528 0 0.0054663179169773491 -0.0060119205184267785 0 0.0049501239141292418 -0.0056900270388353475 0 0.0045523992658483845 -0.0061947704042379379 0 0.0054663179169773491 -0.0060119205184267785 0 0.0049501239141292418 -0.0056900270388353475 0 0.005324553915615652 -0.0053944135062389247 0 -0.0056050503223861597 -0.0047108501566501277 0 -0.0046723299466854057 -0.0041874525173156768 0 -0.0038404682902293558 -0.0049573808994647544 0 -0.0055713773299044932 -0.0036761263941155809 0 -0.0056050503223861597 -0.0047108501566501277 0 -0.0046723299466854057 -0.0041874525173156768 0 -0.00088581368981758212 -0.0033562625297994149 0 -0.0018241302143492532 -0.0043231697486678655 0 -0.00057263546230968483 -0.0035895445082728896 0 -0.00049744086827735814 -0.0036284542480634458 0 9.4847699024668792e-06 -0.0038728329909568189 0 -0.0026251305117532668 -0.0037032050678216782 0 -0.0039216937976397151 -0.0040935346573382908 0 -0.0038404682902293558 -0.0049573808994647544 0 -0.0046723299466854057 -0.0041874525173156768 0 -0.0039216937976397151 -0.0040935346573382908 0 -0.0038404682902293558 -0.0049573808994647544 0 0.002546153467556185 -0.0034239991938719129 0 0.0033379362321482781 -0.0032767597123701474 0 0.0059106174925108281 -0.0035282942262986243 0 0.005972442091120406 -0.0032926351195285528 0 0.006080675363858902 -0.0031950170988275205 0 -0.00049744086827735814 -0.0036284542480634458 0 9.4847699024668792e-06 -0.0038728329909568189 0 0.00062286058037960975 -0.0032805199852125855 0 9.4847699024668792e-06 -0.0038728329909568189 0 0.0013810860550720666 -0.0035118208874070915 0 0.00062286058037960975 -0.0032805199852125855 0 -0.0018241302143492532 -0.0043231697486678655 0 -0.0021683649050712015 -0.0047427134216657552 0 -0.0056050503223861597 -0.0047108501566501277 0 -0.0038404682902293558 -0.0049573808994647544 0 -0.0057495027246424208 -0.0059769876791075103 0 -0.0056050503223861597 -0.0047108501566501277 0 -0.0057495027246424208 -0.0059769876791075103 0 -0.0066249742336094717 -0.0050544091207021481 0 -0.0057495027246424208 -0.0059769876791075103 0 -0.0066249742336094717 -0.0050544091207021481 0 -0.0072186856584740616 -0.0057579120419119648 0 -0.0056050503223861597 -0.0047108501566501277 0 -0.0066249742336094717 -0.0050544091207021481 0 -0.0065077263882868785 -0.0041802343015891162 0 -0.0055713773299044932 -0.0036761263941155809 0 -0.0056050503223861597 -0.0047108501566501277 0 -0.0065077263882868785 -0.0041802343015891162 0 -0.0066249742336094717 -0.0050544091207021481 0 -0.0065077263882868785 -0.0041802343015891162 0 -0.0077176755060695589 -0.0046288632997187398 0 -0.0077176755060695589 -0.0046288632997187398 0 -0.0072186856584740616 -0.0057579120419119648 0 -0.0084771660661380529 -0.0060676038162063425 0 -0.0066249742336094717 -0.0050544091207021481 0 -0.0077176755060695589 -0.0046288632997187398 0 -0.0072186856584740616 -0.0057579120419119648 0 -0.010179536346750517 -0.0075189487023513916 0 -0.009925006379939318 -0.0075152372934312916 0 -0.00990058152266181 -0.0073240704024613995 0 -0.00885620951538197 -0.0057865086757463774 0 -0.0092216136021636488 -0.0067885030314435791 0 -0.0097512286032596096 -0.0074034273300250392 0 -0.009925006379939318 -0.0075152372934312916 0 -0.00990058152266181 -0.0073240704024613995 0 -0.009925006379939318 -0.0075152372934312916 0 -0.010092414607229061 -0.0075982505888630373 0 -0.0099337541996522751 -0.0075795549456699326 0 -0.010179536346750517 -0.0075189487023513916 0 -0.009925006379939318 -0.0075152372934312916 0 -0.010092414607229061 -0.0075982505888630373 0 -0.010179536346750517 -0.0075189487023513916 0 -0.010092414607229061 -0.0075982505888630373 0 -0.01020356255810554 -0.0076226813639417978 0 -0.010092414607229061 -0.0075982505888630373 0 -0.010245260447688634 -0.0076521890475601626 0 -0.01020356255810554 -0.0076226813639417978 0 -0.010245260447688634 -0.0076521890475601626 0 -0.01020356255810554 -0.0076226813639417978 0 -0.010245758863756281 -0.0076911649795313123 0 -0.010092414607229061 -0.0075982505888630373 0 -0.010245260447688634 -0.0076521890475601626 0 -0.010126656631046321 -0.0076270654942822069 0 -0.010092414607229061 -0.0075982505888630373 0 -0.010126656631046321 -0.0076270654942822069 0 -0.0099337541996522751 -0.0075795549456699326 0 -0.010126656631046321 -0.0076270654942822069 0 -0.010391475535929581 -0.0076233300741865807 0 -0.010224720394782375 -0.0076515709127518965 0 -0.010245260447688634 -0.0076521890475601626 0 -0.010126656631046321 -0.0076270654942822069 0 -0.010391475535929581 -0.0076233300741865807 0 -0.010245260447688634 -0.0076521890475601626 0 -0.010391475535929581 -0.0076233300741865807 0 -0.010327753583271999 -0.0076327074206500927 0 -0.010245260447688634 -0.0076521890475601626 0 -0.010327753583271999 -0.0076327074206500927 0 -0.010245758863756281 -0.0076911649795313123 0 -0.010498471152872191 -0.0074986162153724235 0 -0.010391475535929581 -0.0076233300741865807 0 -0.010327753583271999 -0.0076327074206500927 0 -0.010233706121882428 -0.0075150496821194679 0 -0.010327753583271999 -0.0076327074206500927 0 -0.010184380009756114 -0.0076430885969830603 0 -0.010327753583271999 -0.0076327074206500927 0 -0.010184380009756114 -0.0076430885969830603 0 -0.010245758863756281 -0.0076911649795313123 0 -0.010184380009756114 -0.0076430885969830603 0 -0.010245758863756281 -0.0076911649795313123 0 -0.010125285931605173 -0.0077766862870708017 0 -0.010227165851552797 -0.0081583074850173163 0 -0.0089308618100503688 -0.0065451149885222062 0 -0.0097598690188928812 -0.0074246196149767079 0 -0.0095662054851585725 -0.0080708879435643401 0 -0.010201407875723023 -0.0085091490065297461 0 -0.0097598690188928812 -0.0074246196149767079 0 -0.010184380009756114 -0.0076430885969830603 0 -0.010125285931605173 -0.0077766862870708017 0 -0.0090441046999183723 -0.0084627568387504841 0 -0.0095662054851585725 -0.0080708879435643401 0 -0.010201407875723023 -0.0085091490065297461 0 -0.0048354352528937692 -0.00264497608496901 0 -0.0055713773299044932 -0.0036761263941155809 0 -0.006926586044274376 -0.0027810619986825399 0 -0.0067793479653556928 -0.0054458773189612134 0 -0.0089308618100503688 -0.0065451149885222062 0 -0.0055713773299044932 -0.0036761263941155809 0 -0.0065077263882868785 -0.0041802343015891162 0 -0.006926586044274376 -0.0027810619986825399 0 -0.0065077263882868785 -0.0041802343015891162 0 -0.0077176755060695589 -0.0046288632997187398 0 -0.006926586044274376 -0.0027810619986825399 0 -0.010179536346750517 -0.0075189487023513916 0 -0.01020356255810554 -0.0076226813639417978 0 -0.010313824668864907 -0.0076860389601271784 0 -0.00885620951538197 -0.0057865086757463774 0 -0.0089308618100503688 -0.0065451149885222062 0 -0.01020356255810554 -0.0076226813639417978 0 -0.010245758863756281 -0.0076911649795313123 0 -0.010313824668864907 -0.0076860389601271784 0 -0.01046317689010412 -0.0073838530937452426 0 -0.0089308618100503688 -0.0065451149885222062 0 -0.014333236111044478 -3.9238325184424151e-08 0 -0.013622058894213579 -0.00054786906145758564 0 -0.014331587181437839 -1.3459485448625322e-06 0 -0.011761444623069913 -0.00029559685596337296 0 -0.01234646169992964 1.9574733086914643e-07 0 -0.014337207681860368 -1.9035924378622301e-06 0 -0.015723968616782255 -1.9161376822050949e-06 0 -0.01574649468357827 -0.0010974327956376471 0 -0.016333828187892297 -0.00043487766900185946 0 -0.015723968616782255 -1.9161376822050949e-06 0 -0.01574649468357827 -0.0010974327956376471 0 -0.016333828187892297 -0.00043487766900185946 0 -0.016442957042330984 -0.001003810099332141 0 -0.01574649468357827 -0.0010974327956376471 0 -0.016333828187892297 -0.00043487766900185946 0 -0.015723968616782255 -1.9161376822050949e-06 0 -0.01646335900691219 2.5168760503883189e-05 0 -0.014337207681860368 -1.9035924378622301e-06 0 -0.015723968616782255 -1.9161376822050949e-06 0 -0.015944170551758251 8.0742580822471171e-07 0 -0.015723968616782255 -1.9161376822050949e-06 0 -0.015944170551758251 8.0742580822471171e-07 0 -0.016794282909816927 0.00015668878665648088 0 -0.017556660810092359 7.375896584362386e-07 0 -0.015944170551758251 8.0742580822471171e-07 0 -0.016794282909816927 0.00015668878665648088 0 -0.01715546676791236 8.0481604731360857e-05 0 -0.016794282909816927 0.00015668878665648088 0 -0.01686592548647961 0.00010514974657242369 0 -0.016794282909816927 0.00015668878665648088 0 -0.01646335900691219 2.5168760503883189e-05 0 -0.01686592548647961 0.00010514974657242369 0 -0.015723968616782255 -1.9161376822050949e-06 0 -0.016794282909816927 0.00015668878665648088 0 -0.01646335900691219 2.5168760503883189e-05 0 -0.01646335900691219 2.5168760503883189e-05 0 -0.01686592548647961 0.00010514974657242369 0 -0.016723636100444923 -0.00015482282771330311 0 -0.01686592548647961 0.00010514974657242369 0 -0.016940579097007649 2.3361902857098954e-05 0 -0.016723636100444923 -0.00015482282771330311 0 -0.017010662108132808 -2.6770230277051089e-05 0 -0.01715546676791236 8.0481604731360857e-05 0 -0.01686592548647961 0.00010514974657242369 0 -0.017010662108132808 -2.6770230277051089e-05 0 -0.016940579097007649 2.3361902857098954e-05 0 -0.016922723643052247 -7.9451555398596927e-05 0 -0.017010662108132808 -2.6770230277051089e-05 0 -0.01686592548647961 0.00010514974657242369 0 -0.016940579097007649 2.3361902857098954e-05 0 -0.016723636100444923 -0.00015482282771330311 0 -0.016673753518739447 -0.00057310628446516961 0 -0.017033776160886901 -0.0004264986963973503 0 -0.016940579097007649 2.3361902857098954e-05 0 -0.016723636100444923 -0.00015482282771330311 0 -0.017033776160886901 -0.0004264986963973503 0 -0.016333828187892297 -0.00043487766900185946 0 -0.01646335900691219 2.5168760503883189e-05 0 -0.016723636100444923 -0.00015482282771330311 0 -0.016333828187892297 -0.00043487766900185946 0 -0.016723636100444923 -0.00015482282771330311 0 -0.016673753518739447 -0.00057310628446516961 0 -0.016333828187892297 -0.00043487766900185946 0 -0.016673753518739447 -0.00057310628446516961 0 -0.016442957042330984 -0.001003810099332141 0 -0.016673753518739447 -0.00057310628446516961 0 -0.01686455518900138 -0.00097052717949080579 0 -0.016442957042330984 -0.001003810099332141 0 -0.016673753518739447 -0.00057310628446516961 0 -0.017033776160886901 -0.0004264986963973503 0 -0.01686455518900138 -0.00097052717949080579 0 -0.017033776160886901 -0.0004264986963973503 0 -0.017270270032240926 -0.00099094945424352526 0 -0.01686455518900138 -0.00097052717949080579 0 -0.017439139301585665 -0.00050029685008690821 0 -0.017033776160886901 -0.0004264986963973503 0 -0.017270270032240926 -0.00099094945424352526 0 -0.012604945107985016 -0.0015980055874041297 0 -0.012216260644455322 -0.0025878247425744926 0 -0.0075616279131495105 -0.0036517265604085031 0 -0.0079137053617383338 -0.0037862950098536178 0 -0.0078318592240561868 -0.0029851993949589488 0 -0.0075616279131495105 -0.0036517265604085031 0 -0.0078318592240561868 -0.0029851993949589488 0 -0.0073207449171672784 -0.0039408887456424411 0 -0.0075616279131495105 -0.0036517265604085031 0 -0.0078283599152313248 -0.0037745222693956514 0 -0.0073207449171672784 -0.0039408887456424411 0 -0.0038590434264680253 -0.0059680271509759139 0 -0.0068301000116032604 -0.0046584909105180121 0 -0.0079137053617383338 -0.0037862950098536178 0 -0.0078318592240561868 -0.0029851993949589488 0 -0.0083109003395891411 -0.0029045963360623539 0 -0.0068213362925040365 -0.0054581026849723291 0 -0.0038590434264680253 -0.0059680271509759139 0 -0.0078318592240561868 -0.0029851993949589488 0 -0.0084054548623997867 -0.0018925406146497277 0 -0.0083109003395891411 -0.0029045963360623539 0 -0.012604945107985016 -0.0015980055874041297 0 -0.013829747273372633 -0.0019557921179408945 0 -0.017439139301585665 -0.00050029685008690821 0 -0.017033776160886901 -0.0004264986963973503 0 -0.017258196394288293 -6.7260328453811529e-05 0 -0.016940579097007649 2.3361902857098954e-05 0 -0.017033776160886901 -0.0004264986963973503 0 -0.017258196394288293 -6.7260328453811529e-05 0 -0.016735138489702844 3.6271009033514861e-05 0 -0.017640439156494239 4.321266854680903e-05 0 -0.016940579097007649 2.3361902857098954e-05 0 -0.016877677352550659 6.965915076507457e-05 0 -0.016871817169781214 -3.483752911039631e-05 0 -0.016940579097007649 2.3361902857098954e-05 0 -0.016871817169781214 -3.483752911039631e-05 0 -0.016922723643052247 -7.9451555398596927e-05 0 -0.016802929389056594 -0.00013034316902360712 0 -0.016871817169781214 -3.483752911039631e-05 0 -0.016922723643052247 -7.9451555398596927e-05 0 -0.016750996520059142 -0.00010263529874074592 0 -0.016508854390470298 -0.00036016010330058471 0 -0.016802929389056594 -0.00013034316902360712 0 -0.016728264539459973 -8.6984081569678305e-05 0 -0.016709129813043015 -0.00010559074043108118 0 -0.016802929389056594 -0.00013034316902360712 0 -0.016871817169781214 -3.483752911039631e-05 0 -0.016728264539459973 -8.6984081569678305e-05 0 -0.016877677352550659 6.965915076507457e-05 0 -0.016871817169781214 -3.483752911039631e-05 0 -0.016728264539459973 -8.6984081569678305e-05 0 -0.016728264539459973 -8.6984081569678305e-05 0 -0.016515030436268369 -1.1283241329968945e-05 0 -0.016495226110319547 -0.00024960585181423245 0 -0.016877677352550659 6.965915076507457e-05 0 -0.016463072601702346 0.00020837366300658578 0 -0.016515030436268369 -1.1283241329968945e-05 0 -0.017439139301585665 -0.00050029685008690821 0 -0.017258196394288293 -6.7260328453811529e-05 0 -0.017569687594600737 -0.0001406647758950647 0 -0.016877677352550659 6.965915076507457e-05 0 -0.016728264539459973 -8.6984081569678305e-05 0 -0.016515030436268369 -1.1283241329968945e-05 0 -0.017640439156494239 4.321266854680903e-05 0 -0.013829747273372633 -0.0019557921179408945 0 -0.008721423046168679 -0.0019331345129845038 0 -0.0084054548623997867 -0.0018925406146497277 0 -0.0083109003395891411 -0.0029045963360623539 0 -0.0053446009709922741 -0.0063477567256590654 0 -0.0053679981142030347 -0.0063491545678618193 0 -0.0053329183085407674 -0.0064840502635542105 0 -0.0098363636469350202 -0.0035737113789535979 0 -0.013829747273372633 -0.0019557921179408945 0 -0.0098363636469350202 -0.0035737113789535979 0 -0.0080593264189255248 -0.0049569090704074071 0 -0.0080593264189255248 -0.0049569090704074071 0 -0.011314053702856318 -0.0031431764723612631 0 -0.0093065246044104419 -0.0047912372509701954 0 -0.0096834195639756929 -0.0048368842468360113 0 -0.010071549337782829 -0.0027341929917954724 0 -0.0086189466464671322 -0.0065841762911868556 0 -0.0087148668370142374 -0.0060818225237788343 0 -0.0092800354093386783 -0.0061004269018172987 0 -0.0098363636469350202 -0.0035737113789535979 0 -0.011314053702856318 -0.0031431764723612631 0 -0.016212677430652713 0.00026848858784907741 0 -0.016515030436268369 -1.1283241329968945e-05 0 -0.015954457957050638 -0.00019091464023092118 0 -0.016212677430652713 0.00026848858784907741 0 -0.016463072601702346 0.00020837366300658578 0 -0.016515030436268369 -1.1283241329968945e-05 0 -0.016515030436268369 -1.1283241329968945e-05 0 -0.015954457957050638 -0.00019091464023092118 0 -0.016411502102403493 -0.00076275239532213647 0 -0.015735222744215169 -0.0011968061933151147 0 -0.015954457957050638 -0.00019091464023092118 0 -0.016411502102403493 -0.00076275239532213647 0 -0.01121052119058113 -0.0033340456065332207 0 -0.011314053702856318 -0.0031431764723612631 0 -0.016508675042356129 -0.00013318977070259604 0 -0.016508854390470298 -0.00036016010330058471 0 -0.012188745598874473 -0.0021542733490896942 0 -0.011988294597735713 -0.0022852614151183154 0 -0.011845568330188254 -0.0031199952436760368 0 -0.014066108934698755 -0.0013918634891335775 0 -0.011314053702856318 -0.0031431764723612631 0 -0.00907190648039196 -0.0051326526118612506 0 -0.0087148668370142374 -0.0060818225237788343 0 -0.0089764805274380518 -0.005490797964618003 0 -0.0095687831550231271 -0.0055345324152048167 0 -0.0089764805274380518 -0.005490797964618003 0 -0.0092800354093386783 -0.0061004269018172987 0 -0.0087148668370142374 -0.0060818225237788343 0 -0.0089764805274380518 -0.005490797964618003 0 -0.0092800354093386783 -0.0061004269018172987 0 -0.0068039808184994308 -0.0060765462821317515 0 -0.0053402915970843807 -0.0059160365235195831 0 -0.0061406528222767848 -0.0063727346581002875 0 -0.0099166443215091809 -0.0067794953934178408 0 -0.0086189466464671322 -0.0065841762911868556 0 -0.0092800354093386783 -0.0061004269018172987 0 -0.008126515188163666 -0.0066102795277422867 0 -0.0080593264189255248 -0.0049569090704074071 0 -0.0053402915970843807 -0.0059160365235195831 0 -0.0061406528222767848 -0.0063727346581002875 0 -0.005711174362341807 -0.0063795891263719083 0 -0.0059431117325382029 -0.0067608921499348607 0 -0.0054200758580804174 -0.0065518816120170575 0 -0.0058248977625184961 -0.0074293831771249869 0 -0.0066011835245339814 -0.006883077181937587 0 -0.0061406528222767848 -0.0063727346581002875 0 -0.0059431117325382029 -0.0067608921499348607 0 -0.0059431117325382029 -0.0067608921499348607 0 -0.005711174362341807 -0.0063795891263719083 0 -0.0054200758580804174 -0.0065518816120170575 0 -0.0061406528222767848 -0.0063727346581002875 0 -0.0059431117325382029 -0.0067608921499348607 0 -0.005711174362341807 -0.0063795891263719083 0 -0.0080593264189255248 -0.0049569090704074071 0 -0.0057439330323472053 -0.0068650476740142966 0 -0.0053402915970843807 -0.0059160365235195831 0 -0.0054568179525694323 -0.0062904419325809247 0 -0.0053329183085407674 -0.0064840502635542105 0 -0.0053402915970843807 -0.0059160365235195831 0 -0.005711174362341807 -0.0063795891263719083 0 -0.0054568179525694323 -0.0062904419325809247 0 -0.0053446009709922741 -0.0063477567256590654 0 -0.0053329183085407674 -0.0064840502635542105 0 -0.0053210486302455381 -0.0065307103549290708 0 -0.0098363636469350202 -0.0035737113789535979 0 -0.0068301000116032604 -0.0046584909105180121 0 -0.0054568179525694323 -0.0062904419325809247 0 -0.0053329183085407674 -0.0064840502635542105 0 -0.0054200758580804174 -0.0065518816120170575 0 -0.005711174362341807 -0.0063795891263719083 0 -0.0054568179525694323 -0.0062904419325809247 0 -0.0054200758580804174 -0.0065518816120170575 0 -0.005344986657694153 -0.006532978166831128 0 -0.0053210486302455381 -0.0065307103549290708 0 -0.005318583502795687 -0.0065241709962532823 0 -0.0053329183085407674 -0.0064840502635542105 0 -0.005344986657694153 -0.006532978166831128 0 -0.0053210486302455381 -0.0065307103549290708 0 -0.005344986657694153 -0.006532978166831128 0 -0.0054200758580804174 -0.0065518816120170575 0 -0.005318583502795687 -0.0065241709962532823 0 -0.0053329183085407674 -0.0064840502635542105 0 -0.005344986657694153 -0.006532978166831128 0 -0.0054200758580804174 -0.0065518816120170575 0 -0.0053593179739543674 -0.0064692528913255663 0 -0.005318583502795687 -0.0065241709962532823 0 -0.0052749367841991414 -0.0064134094627809803 0 -0.0053593179739543674 -0.0064692528913255663 0 -0.0053210486302455381 -0.0065307103549290708 0 -0.005318583502795687 -0.0065241709962532823 0 -0.0054200758580804174 -0.0065518816120170575 0 -0.005318583502795687 -0.0065241709962532823 0 -0.0052118539466678169 -0.0065080638197635666 0 -0.005318583502795687 -0.0065241709962532823 0 -0.0052118539466678169 -0.0065080638197635666 0 -0.0052749367841991414 -0.0064134094627809803 0 -0.0053158820236657335 -0.0064136487526496484 0 -0.0059080204642737557 -0.007427270864461725 0 -0.0065856760888432378 -0.0074962383321156133 0 -0.0064516324643740146 -0.0079057974237046452 0 -0.0058248977625184961 -0.0074293831771249869 0 -0.0066011835245339814 -0.006883077181937587 0 -0.0059431117325382029 -0.0067608921499348607 0 -0.0058248977625184961 -0.0074293831771249869 0 -0.0066011835245339814 -0.006883077181937587 0 -0.0065856760888432378 -0.0074962383321156133 0 -0.0058248977625184961 -0.0074293831771249869 0 0.0039848011376084702 -0.0079879033329375865 0 0.0043416033266471437 -0.0079533993079913077 0 0.0035308679621987842 -0.0082853177355381898 0 -0.00099589810299579684 -0.0062258482409013119 0 -0.00047646692912400114 -0.0072255727565537532 0 -0.0059080204642737557 -0.007427270864461725 0 -0.00099589810299579684 -0.0062258482409013119 0 -0.0052118539466678169 -0.0065080638197635666 0 -0.0050552652537393392 -0.0063229957322051339 0 -0.0052749367841991414 -0.0064134094627809803 0 -0.0064516324643740146 -0.0079057974237046452 0 -0.0058248977625184961 -0.0074293831771249869 0 -0.006231725804723311 -0.0083011332705585188 0 0.0039848011376084702 -0.0079879033329375865 0 0.0036301221653363609 -0.0077305680440042266 0 0.0040824640837106106 -0.0076271149271846302 0 0.0039848011376084702 -0.0079879033329375865 0 0.0043994514405873899 -0.007963733492361692 0 0.0040824640837106106 -0.0076271149271846302 0 0.0037682701529159232 -0.0068507445182387728 0 -0.00099589810299579684 -0.0062258482409013119 0 -0.0064663278055423351 -0.0083195505573016634 0 -0.006414029341729399 -0.0081301112430748872 0 -0.006231725804723311 -0.0083011332705585188 0 -0.0025594305951249169 -0.0048428459811755984 0 -0.00099589810299579684 -0.0062258482409013119 0 -0.0064516324643740146 -0.0079057974237046452 0 -0.006414029341729399 -0.0081301112430748872 0 -0.006231725804723311 -0.0083011332705585188 0 -0.0038590434264680253 -0.0059680271509759139 0 -0.00047646692912400114 -0.0072255727565537532 0 0.0026809981021224255 -0.0085348708710824544 0 0.0035308679621987842 -0.0082853177355381898 0 0.0030274608489357035 -0.0079340956719819045 0 0.0035308679621987842 -0.0082853177355381898 0 0.0030274608489357035 -0.0079340956719819045 0 0.0036301221653363609 -0.0077305680440042266 0 0.0039848011376084702 -0.0079879033329375865 0 0.0035308679621987842 -0.0082853177355381898 0 0.0036301221653363609 -0.0077305680440042266 0 0.0036301221653363609 -0.0077305680440042266 0 0.0032518253094508068 -0.0073516427952847784 0 0.0038979133382335824 -0.0071832813417723853 0 0.0030274608489357035 -0.0079340956719819045 0 0.0036301221653363609 -0.0077305680440042266 0 0.0032518253094508068 -0.0073516427952847784 0 0.0036301221653363609 -0.0077305680440042266 0 0.0038979133382335824 -0.0071832813417723853 0 0.0040824640837106106 -0.0076271149271846302 0 0.0038979133382335824 -0.0071832813417723853 0 0.0040824640837106106 -0.0076271149271846302 0 0.004432100009426918 -0.0073665037181283284 0 0.0043994514405873899 -0.007963733492361692 0 0.0040824640837106106 -0.0076271149271846302 0 0.004432100009426918 -0.0073665037181283284 0 0.0038979133382335824 -0.0071832813417723853 0 0.004432100009426918 -0.0073665037181283284 0 0.0043853058315910442 -0.0067756134595611623 0 0.0049340233863888984 -0.0070223495230951763 0 0.004432100009426918 -0.0073665037181283284 0 0.0043853058315910442 -0.0067756134595611623 0 0.0043853058315910442 -0.0067756134595611623 0 0.0045523992658483845 -0.0061947704042379379 0 0.0035360486184978519 -0.0063009886881393194 0 0.0038979133382335824 -0.0071832813417723853 0 0.0043853058315910442 -0.0067756134595611623 0 0.0035360486184978519 -0.0063009886881393194 0 0.0049340233863888984 -0.0070223495230951763 0 0.0043853058315910442 -0.0067756134595611623 0 0.0045523992658483845 -0.0061947704042379379 0 0.0045523992658483845 -0.0061947704042379379 0 0.0044273936632868967 -0.005598892728202365 0 0.0035360486184978519 -0.0063009886881393194 0 0.0049501239141292418 -0.0056900270388353475 0 0.0045523992658483845 -0.0061947704042379379 0 0.0044273936632868967 -0.005598892728202365 0 0.0044273936632868967 -0.005598892728202365 0 0.0035360486184978519 -0.0063009886881393194 0 0.0040273112440476176 -0.0051068612113602477 0 0.0035598765606104183 -0.006257792152013583 0 0.0038061359911309251 -0.0051068397343783508 0 0.0035360486184978519 -0.0063009886881393194 0 0.0030645296329422029 -0.0053796536836587024 0 0.0035958645433833867 -0.0050250440408769687 0 0.0032518253094508068 -0.0073516427952847784 0 0.0035360486184978519 -0.0063009886881393194 0 0.0027658145969587664 -0.0068223466437874105 0 0.0032518253094508068 -0.0073516427952847784 0 0.0038979133382335824 -0.0071832813417723853 0 0.0035360486184978519 -0.0063009886881393194 0 0.0027658145969587664 -0.0068223466437874105 0 0.0026050968001731273 -0.0060692816223170253 0 0.0020749439454770141 -0.0067388099466510346 0 0.0035360486184978519 -0.0063009886881393194 0 0.0027658145969587664 -0.0068223466437874105 0 0.0026050968001731273 -0.0060692816223170253 0 0.0035360486184978519 -0.0063009886881393194 0 0.0026050968001731273 -0.0060692816223170253 0 0.0030645296329422029 -0.0053796536836587024 0 0.0026050968001731273 -0.0060692816223170253 0 0.0017596193649746727 -0.0058493530085211055 0 0.0020749439454770141 -0.0067388099466510346 0 0.0026050968001731273 -0.0060692816223170253 0 0.0017596193649746727 -0.0058493530085211055 0 0.0024749178061262327 -0.0051235618710017148 0 -0.0010115002090140199 -0.005629686695694391 0 -0.0026551906355058025 -0.0058908645793793075 0 -0.0068950417582131886 -0.0057997254679780742 0 -0.0071772504891873569 -0.0051657259301381379 0 -0.0065542923603816366 -0.0053907921928623009 0 -0.0071772504891873569 -0.0051657259301381379 0 -0.0069294176170431676 -0.0046913169179842798 0 -0.0065542923603816366 -0.0053907921928623009 0 -0.0071772504891873569 -0.0051657259301381379 0 -0.0069294176170431676 -0.0046913169179842798 0 -0.007481105386756259 -0.0045108936541137824 0 -0.0026551906355058025 -0.0058908645793793075 0 -0.0024517320660021541 -0.0061722913410784536 0 0.0032518253094508068 -0.0073516427952847784 0 0.0027658145969587664 -0.0068223466437874105 0 0.0023848716015605906 -0.007633177250650513 0 0.0030274608489357035 -0.0079340956719819045 0 0.0032518253094508068 -0.0073516427952847784 0 0.0023848716015605906 -0.007633177250650513 0 0.0027658145969587664 -0.0068223466437874105 0 0.0020749439454770141 -0.0067388099466510346 0 0.0023848716015605906 -0.007633177250650513 0 -0.0078283599152313248 -0.0037745222693956514 0 -0.007481105386756259 -0.0045108936541137824 0 -0.0073207449171672784 -0.0039408887456424411 0 0.0026809981021224255 -0.0085348708710824544 0 0.0030274608489357035 -0.0079340956719819045 0 0.0023848716015605906 -0.007633177250650513 0 -0.0038590434264680253 -0.0059680271509759139 0 -0.0024517320660021541 -0.0061722913410784536 0 -0.017006561402349522 -0.0015441944218743404 0 -0.017270270032240926 -0.00099094945424352526 0 -0.01686455518900138 -0.00097052717949080579 0 -0.0069294176170431676 -0.0046913169179842798 0 -0.007481105386756259 -0.0045108936541137824 0 -0.0073207449171672784 -0.0039408887456424411 0 -0.012490722956303761 -0.0027098746937810887 0 -0.012216260644455322 -0.0025878247425744926 0 -0.017006561402349522 -0.0015441944218743404 0 -0.01686455518900138 -0.00097052717949080579 0 -0.016635343467300657 -0.0013908287382929057 0 -0.01686455518900138 -0.00097052717949080579 0 -0.016442957042330984 -0.001003810099332141 0 -0.016635343467300657 -0.0013908287382929057 0 -0.016442957042330984 -0.001003810099332141 0 -0.016236728573788561 -0.0014595215319653356 0 -0.016635343467300657 -0.0013908287382929057 0 -0.016236728573788561 -0.0014595215319653356 0 -0.016606726444092706 -0.0018242751637667638 0 -0.016553310520350147 -0.0019001771399753719 0 -0.016236728573788561 -0.0014595215319653356 0 -0.016635343467300657 -0.0013908287382929057 0 -0.016606726444092706 -0.0018242751637667638 0 -0.01380773121394234 -0.00067067851899372741 0 -0.0090900938651077897 -0.0026330831175144041 0 -0.017006561402349522 -0.0015441944218743404 0 -0.016635343467300657 -0.0013908287382929057 0 -0.016606726444092706 -0.0018242751637667638 0 -0.017006561402349522 -0.0015441944218743404 0 -0.016606726444092706 -0.0018242751637667638 0 -0.016673307829821439 -0.0021055492165050235 0 -0.012490722956303761 -0.0027098746937810887 0 -0.0070299987422731622 -0.0046996799079713648 0 -0.00057229873627564056 -0.0065191346208952582 0 -0.00029005909600894213 -0.0062195337383783673 0 -0.00051220915978013196 -0.0055946336014556465 0 -0.016606726444092706 -0.0018242751637667638 0 -0.016531946590879896 -0.0019219731543285018 0 -0.016673307829821439 -0.0021055492165050235 0 -0.010757874928298623 -0.0014072031984569198 0 -0.0090900938651077897 -0.0026330831175144041 0 -0.0090900938651077897 -0.0026330831175144041 0 -0.0070299987422731622 -0.0046996799079713648 0 -0.0010115002090140199 -0.005629686695694391 0 -0.0070299987422731622 -0.0046996799079713648 0 0.00055850485176996948 -0.0056921641812489234 0 -0.00011533136570359527 -0.0064193750006585051 0 4.3594615929325612e-05 -0.0055164178230810669 0 -0.0070299987422731622 -0.0046996799079713648 0 -0.00041656947421243163 -0.0070700120847694515 0 -0.00011533136570359527 -0.0064193750006585051 0 -0.00051220915978013196 -0.0055946336014556465 0 4.3594615929325612e-05 -0.0055164178230810669 0 -0.00051220915978013196 -0.0055946336014556465 0 4.3594615929325612e-05 -0.0055164178230810669 0 -0.00038708946948993116 -0.0050799546493577874 0 0.00055850485176996948 -0.0056921641812489234 0 4.3594615929325612e-05 -0.0055164178230810669 0 8.5411140521617955e-05 -0.0049896242316401686 0 -0.0090900938651077897 -0.0026330831175144041 0 -0.0048874089860835466 -0.0029348602860151916 0 -0.00057229873627564056 -0.0065191346208952582 0 -0.00051220915978013196 -0.0055946336014556465 0 -0.0011522568458425177 -0.005549382643732414 0 -0.00051220915978013196 -0.0055946336014556465 0 -0.0011522568458425177 -0.005549382643732414 0 -0.00094467271771147177 -0.004985099190941816 0 -0.010285639462101844 -3.5136953448557516e-05 0 -0.0098326868414701334 0.00016785749346472824 0 -0.01003013436621907 0.00024298195043738786 0 -0.0098326868414701334 0.00016785749346472824 0 -0.0096633940234337051 0.00020857468725671332 0 -0.01003013436621907 0.00024298195043738786 0 -0.0096633940234337051 0.00020857468725671332 0 -0.01003013436621907 0.00024298195043738786 0 -0.0091619670126471629 0.00019820703348566508 0 -0.0091619670126471629 0.00019820703348566508 0 -0.010359871666108203 5.444442590246321e-07 0 -0.008373672628014155 3.4735134493050556e-07 0 -0.01003013436621907 0.00024298195043738786 0 -0.010359871666108203 5.444442590246321e-07 0 -0.010893515652265612 0.00013247970790507171 0 -0.01003013436621907 0.00024298195043738786 0 -0.0091619670126471629 0.00019820703348566508 0 -0.010359871666108203 5.444442590246321e-07 0 -0.010359871666108203 5.444442590246321e-07 0 -0.010893515652265612 0.00013247970790507171 0 -0.01234646169992964 1.9574733086914643e-07 0 -0.010285639462101844 -3.5136953448557516e-05 0 -0.01003013436621907 0.00024298195043738786 0 -0.010893515652265612 0.00013247970790507171 0 -0.010285639462101844 -3.5136953448557516e-05 0 -0.010893515652265612 0.00013247970790507171 0 -0.011761444623069913 -0.00029559685596337296 0 -0.016442957042330984 -0.001003810099332141 0 -0.016236728573788561 -0.0014595215319653356 0 -0.01574649468357827 -0.0010974327956376471 0 -0.01380773121394234 -0.00067067851899372741 0 -0.013622058894213579 -0.00054786906145758564 0 -0.010893515652265612 0.00013247970790507171 0 -0.011761444623069913 -0.00029559685596337296 0 -0.01234646169992964 1.9574733086914643e-07 0 -0.0047999959790391211 -0.00019630112379702601 0 -0.0050489789731046992 -0.0012951321808756854 0 -0.0045655803009139453 -0.00014352404214589717 0 -0.0028413440907393149 -0.0014408174819594147 0 -0.0030681752794484061 -0.0026257858997214417 0 -0.0045655803009139453 -0.00014352404214589717 0 -0.0043985882529905592 -1.8948568468273147e-06 0 -0.0063876702807579679 -1.3475528788300874e-07 0 -0.0045655803009139453 -0.00014352404214589717 0 -0.003202047239682889 -0.00063149199213925712 0 -0.0028413440907393149 -0.0014408174819594147 0 -0.0045655803009139453 -0.00014352404214589717 0 -0.003202047239682889 -0.00063149199213925712 0 -0.002788679182789969 -0.00019396764616536673 0 -0.003202047239682889 -0.00063149199213925712 0 -0.0022944229273033447 -0.0010058367412544378 0 -0.002788679182789969 -0.00019396764616536673 0 -0.0022944229273033447 -0.0010058367412544378 0 -0.0010215748964857727 -0.00066178099853485067 0 -0.002788679182789969 -0.00019396764616536673 0 -0.0022944229273033447 -0.0010058367412544378 0 -0.0028413440907393149 -0.0014408174819594147 0 -0.0016230560815278532 -0.002230133447328521 0 -0.003202047239682889 -0.00063149199213925712 0 -0.0022944229273033447 -0.0010058367412544378 0 -0.0028413440907393149 -0.0014408174819594147 0 -0.0030681752794484061 -0.0026257858997214417 0 -0.0019585515965802043 -0.003134766797593586 0 -0.0016230560815278532 -0.002230133447328521 0 -0.0028413440907393149 -0.0014408174819594147 0 -0.0030681752794484061 -0.0026257858997214417 0 -0.0016230560815278532 -0.002230133447328521 0 -0.0045655803009139453 -0.00014352404214589717 0 -0.0070423611503834136 -0.00020563272094616301 0 -0.0063876702807579679 -1.3475528788300874e-07 0 -0.0063876702807579679 -1.3475528788300874e-07 0 -0.0078623612441667007 1.5932226915546252e-05 0 -0.008373672628014155 3.4735134493050556e-07 0 -0.0070423611503834136 -0.00020563272094616301 0 -0.0063876702807579679 -1.3475528788300874e-07 0 -0.0078623612441667007 1.5932226915546252e-05 0 -0.0091619670126471629 0.00019820703348566508 0 -0.0078623612441667007 1.5932226915546252e-05 0 -0.008373672628014155 3.4735134493050556e-07 0 -0.0091619670126471629 0.00019820703348566508 0 -0.0078623612441667007 1.5932226915546252e-05 0 -0.0087114404775550866 -3.3935374301722923e-05 0 -0.0096633940234337051 0.00020857468725671332 0 -0.0091619670126471629 0.00019820703348566508 0 -0.0087114404775550866 -3.3935374301722923e-05 0 -0.0070423611503834136 -0.00020563272094616301 0 -0.0078623612441667007 1.5932226915546252e-05 0 -0.0087114404775550866 -3.3935374301722923e-05 0 -0.0050489789731046992 -0.0012951321808756854 0 -0.0054799279564114395 -0.0019589050254970189 0 -0.0030681752794484061 -0.0026257858997214417 0 -0.0020865608319497282 -0.0041604223202876553 0 -0.0019585515965802043 -0.003134766797593586 0 -0.0020865608319497282 -0.0041604223202876553 0 -0.0010633080938346935 -0.0034781584115022458 0 -0.00077485457528205545 -0.0044339766891953718 0 -0.0020865608319497282 -0.0041604223202876553 0 -0.0019585515965802043 -0.003134766797593586 0 -0.0010633080938346935 -0.0034781584115022458 0 -0.0010633080938346935 -0.0034781584115022458 0 -0.00041381718252126988 -0.0038339838026315138 0 -0.00024917764504628755 -0.0024012654407667561 0 -0.0010633080938346935 -0.0034781584115022458 0 -0.00077485457528205545 -0.0044339766891953718 0 -0.00041381718252126988 -0.0038339838026315138 0 -0.0020865608319497282 -0.0041604223202876553 0 -0.00077485457528205545 -0.0044339766891953718 0 -0.00094467271771147177 -0.004985099190941816 0 -0.0048874089860835466 -0.0029348602860151916 0 -0.0054799279564114395 -0.0019589050254970189 0 -0.0011522568458425177 -0.005549382643732414 0 -0.0020865608319497282 -0.0041604223202876553 0 -0.00094467271771147177 -0.004985099190941816 0 -0.00077485457528205545 -0.0044339766891953718 0 -0.00094467271771147177 -0.004985099190941816 0 -0.00038708946948993116 -0.0050799546493577874 0 -0.0010115002090140199 -0.005629686695694391 0 0.00083936139039542926 -0.004489342192345913 0 0.00055850485176996948 -0.0056921641812489234 0 8.5411140521617955e-05 -0.0049896242316401686 0 0.0002711711677690311 -0.0041070096790444413 0 4.3594615929325612e-05 -0.0055164178230810669 0 8.5411140521617955e-05 -0.0049896242316401686 0 -0.00038708946948993116 -0.0050799546493577874 0 -0.00051220915978013196 -0.0055946336014556465 0 -0.00094467271771147177 -0.004985099190941816 0 -0.00038708946948993116 -0.0050799546493577874 0 8.5411140521617955e-05 -0.0049896242316401686 0 -0.00038708946948993116 -0.0050799546493577874 0 -0.00023499027417386137 -0.0045418673262827827 0 -0.00077485457528205545 -0.0044339766891953718 0 -0.00038708946948993116 -0.0050799546493577874 0 -0.00023499027417386137 -0.0045418673262827827 0 -0.00077485457528205545 -0.0044339766891953718 0 -0.00023499027417386137 -0.0045418673262827827 0 -0.00041381718252126988 -0.0038339838026315138 0 8.5411140521617955e-05 -0.0049896242316401686 0 -0.00023499027417386137 -0.0045418673262827827 0 0.0002711711677690311 -0.0041070096790444413 0 0.00059662159275912377 -0.004502520919919175 0 0.0002711711677690311 -0.0041070096790444413 0 0.001006486373382193 -0.0053261758802086922 0 0.00059662159275912377 -0.004502520919919175 0 0.0002711711677690311 -0.0041070096790444413 0 -0.00024917764504628755 -0.0024012654407667561 0 0.00075824618202933135 -0.0044606518494532729 0 0.00091767109412973873 -0.002992148428442361 0 0.00075824618202933135 -0.0044606518494532729 0 -6.1050404264882563e-05 -0.0025848948055702966 0 0.0002711711677690311 -0.0041070096790444413 0 -0.00041381718252126988 -0.0038339838026315138 0 -0.00024917764504628755 -0.0024012654407667561 0 -0.00023499027417386137 -0.0045418673262827827 0 0.0002711711677690311 -0.0041070096790444413 0 -0.00041381718252126988 -0.0038339838026315138 0 0.00070545872191668264 -0.0040944036894053964 0 0.00073640584191729389 -0.0025439632686251185 0 0.00017169930579814121 -0.0028311932391323256 0 -0.0010633080938346935 -0.0034781584115022458 0 -0.00024917764504628755 -0.0024012654407667561 0 -0.0016230560815278532 -0.002230133447328521 0 -0.0019585515965802043 -0.003134766797593586 0 -0.0010633080938346935 -0.0034781584115022458 0 -0.0016230560815278532 -0.002230133447328521 0 -0.00024917764504628755 -0.0024012654407667561 0 -0.0016230560815278532 -0.002230133447328521 0 -0.0010215748964857727 -0.00066178099853485067 0 -6.1050404264882563e-05 -0.0025848948055702966 0 -0.00066557052892102936 -0.0011389186767835314 0 -0.0022944229273033447 -0.0010058367412544378 0 -0.0016230560815278532 -0.002230133447328521 0 -0.0010215748964857727 -0.00066178099853485067 0 0.00073640584191729389 -0.0025439632686251185 0 -0.00034222030876773589 -0.0016094185617520113 0 0.00075373239229998288 -0.0010108236342692195 0 0.00091767109412973873 -0.002992148428442361 0 0.00086970756387376457 -0.0013623412455977832 0 0.00073640584191729389 -0.0025439632686251185 0 0.00017169930579814121 -0.0028311932391323256 0 -0.00034222030876773589 -0.0016094185617520113 0 0.0010893667838619081 -0.0034205099740432583 0 0.001767587773314028 -0.0026350416867970154 0 0.00099378295513321679 -0.0017583927790960627 0 0.0010893667838619081 -0.0034205099740432583 0 0.001767587773314028 -0.0026350416867970154 0 0.0019814224676080157 -0.0033813834746092993 0 0.002598631378672174 -0.0027232099694106085 0 0.0019814224676080157 -0.0033813834746092993 0 0.0029886348584605041 -0.0034655266178918727 0 0.001767587773314028 -0.0026350416867970154 0 0.002598631378672174 -0.0027232099694106085 0 0.0019814224676080157 -0.0033813834746092993 0 0.002601408336508528 -0.0040180119006441974 0 0.0019814224676080157 -0.0033813834746092993 0 0.0018871397953385111 -0.0041913418029586591 0 0.002601408336508528 -0.0040180119006441974 0 0.0019814224676080157 -0.0033813834746092993 0 0.0029886348584605041 -0.0034655266178918727 0 0.0010893667838619081 -0.0034205099740432583 0 0.0019814224676080157 -0.0033813834746092993 0 0.0014132018757607727 -0.0039942591795399142 0 0.0019814224676080157 -0.0033813834746092993 0 0.0014132018757607727 -0.0039942591795399142 0 0.0018871397953385111 -0.0041913418029586591 0 0.00098939147657557268 -0.0049071406192338109 0 0.0014132018757607727 -0.0039942591795399142 0 0.001389561113027819 -0.0045112708143983859 0 0.00098939147657557268 -0.0049071406192338109 0 0.0010893667838619081 -0.0034205099740432583 0 0.0014132018757607727 -0.0039942591795399142 0 0.0014132018757607727 -0.0039942591795399142 0 0.0018871397953385111 -0.0041913418029586591 0 0.001389561113027819 -0.0045112708143983859 0 0.0018871397953385111 -0.0041913418029586591 0 0.0015989327374826489 -0.0049103068388797527 0 0.0022949358783036131 -0.0045539664787466556 0 0.0018871397953385111 -0.0041913418029586591 0 0.001389561113027819 -0.0045112708143983859 0 0.0015989327374826489 -0.0049103068388797527 0 0.001389561113027819 -0.0045112708143983859 0 0.0012775330654232388 -0.0048420193628760724 0 0.0015989327374826489 -0.0049103068388797527 0 0.00098939147657557268 -0.0049071406192338109 0 0.001389561113027819 -0.0045112708143983859 0 0.0012775330654232388 -0.0048420193628760724 0 -0.0010115002090140199 -0.005629686695694391 0 0.0026637974820042571 -0.0050998500960783609 0 0.0012447533070365168 -0.0065383270727954069 0 0.0002711711677690311 -0.0041070096790444413 0 0.001006486373382193 -0.0053261758802086922 0 0.00075824618202933135 -0.0044606518494532729 0 0.0010026626153585955 -0.0051553265586841137 0 0.0011972941275399122 -0.0050094771215029041 0 0.0015989327374826489 -0.0049103068388797527 0 0.001006486373382193 -0.0053261758802086922 0 0.0012447533070365168 -0.0065383270727954069 0 0.001006486373382193 -0.0053261758802086922 0 0.0022449219305068599 -0.00525449545165754 0 0.0015989327374826489 -0.0049103068388797527 0 0.001006486373382193 -0.0053261758802086922 0 0.0022449219305068599 -0.00525449545165754 0 0.00098939147657557268 -0.0049071406192338109 0 0.0011972941275399122 -0.0050094771215029041 0 0.001006486373382193 -0.0053261758802086922 0 0.00098939147657557268 -0.0049071406192338109 0 0.0012775330654232388 -0.0048420193628760724 0 0.0011972941275399122 -0.0050094771215029041 0 0.0012775330654232388 -0.0048420193628760724 0 0.0011972941275399122 -0.0050094771215029041 0 0.0015989327374826489 -0.0049103068388797527 0 0.0024749178061262327 -0.0051235618710017148 0 0.0031081916925462219 -0.0044265747832054631 0 0.0030645296329422029 -0.0053796536836587024 0 0.0026050968001731273 -0.0060692816223170253 0 0.0024749178061262327 -0.0051235618710017148 0 0.0030645296329422029 -0.0053796536836587024 0 0.0015989327374826489 -0.0049103068388797527 0 0.0022449219305068599 -0.00525449545165754 0 0.0022949358783036131 -0.0045539664787466556 0 0.0022449219305068599 -0.00525449545165754 0 0.0022949358783036131 -0.0045539664787466556 0 0.0031081916925462219 -0.0044265747832054631 0 0.0026637974820042571 -0.0050998500960783609 0 0.0029649593959853475 -0.0045369292193739186 0 0.002601408336508528 -0.0040180119006441974 0 0.0018871397953385111 -0.0041913418029586591 0 0.0022949358783036131 -0.0045539664787466556 0 0.002601408336508528 -0.0040180119006441974 0 0.0022949358783036131 -0.0045539664787466556 0 0.0031081916925462219 -0.0044265747832054631 0 0.002601408336508528 -0.0040180119006441974 0 0.0031081916925462219 -0.0044265747832054631 0 0.0033382720371357569 -0.0040109562815480761 0 0.0035958645433833867 -0.0050250440408769687 0 0.003867346289046615 -0.0037086141829995346 0 0.0033382720371357569 -0.0040109562815480761 0 0.0031081916925462219 -0.0044265747832054631 0 0.0035958645433833867 -0.0050250440408769687 0 0.0033382720371357569 -0.0040109562815480761 0 0.0038061359911309251 -0.0051068397343783508 0 0.0041144098832222517 -0.0039173473131054659 0 0.0031081916925462219 -0.0044265747832054631 0 0.0030645296329422029 -0.0053796536836587024 0 0.0035958645433833867 -0.0050250440408769687 0 0.0044273936632868967 -0.005598892728202365 0 0.0044968633420472987 -0.0050809578377616288 0 0.0049246129903269507 -0.0052412271372199197 0 0.0044273936632868967 -0.005598892728202365 0 0.0040273112440476176 -0.0051068612113602477 0 0.0044968633420472987 -0.0050809578377616288 0 0.0040273112440476176 -0.0051068612113602477 0 0.0045261033015914012 -0.0046829972326772745 0 0.0043409580024335297 -0.0042300763975330084 0 0.0044968633420472987 -0.0050809578377616288 0 0.0045261033015914012 -0.0046829972326772745 0 0.0050301873676392595 -0.0046249231674399035 0 0.0040273112440476176 -0.0051068612113602477 0 0.0044968633420472987 -0.0050809578377616288 0 0.0045261033015914012 -0.0046829972326772745 0 0.0045261033015914012 -0.0046829972326772745 0 0.0048197895832514884 -0.0042539319788468949 0 0.0050301873676392595 -0.0046249231674399035 0 0.0048197895832514884 -0.0042539319788468949 0 0.0048324512530492558 -0.0036793557889099764 0 0.0052221341918751839 -0.0040711321317310834 0 0.0048197895832514884 -0.0042539319788468949 0 0.0043409580024335297 -0.0042300763975330084 0 0.0048324512530492558 -0.0036793557889099764 0 0.0045261033015914012 -0.0046829972326772745 0 0.0048197895832514884 -0.0042539319788468949 0 0.0043409580024335297 -0.0042300763975330084 0 0.003867346289046615 -0.0037086141829995346 0 0.0033382720371357569 -0.0040109562815480761 0 0.0029886348584605041 -0.0034655266178918727 0 0.003867346289046615 -0.0037086141829995346 0 0.0029886348584605041 -0.0034655266178918727 0 0.0034360850460801893 -0.0028512365648657406 0 0.002601408336508528 -0.0040180119006441974 0 0.0033382720371357569 -0.0040109562815480761 0 0.0029886348584605041 -0.0034655266178918727 0 0.003867346289046615 -0.0037086141829995346 0 0.0034360850460801893 -0.0028512365648657406 0 0.0044870634721154035 -0.0021907413386334377 0 0.002598631378672174 -0.0027232099694106085 0 0.0029886348584605041 -0.0034655266178918727 0 0.0034360850460801893 -0.0028512365648657406 0 0.002598631378672174 -0.0027232099694106085 0 0.0034360850460801893 -0.0028512365648657406 0 0.0031559608629881607 -0.0019485720728061988 0 0.0041144098832222517 -0.0039173473131054659 0 0.0044536238602076363 -0.0022561596125612988 0 0.0048324512530492558 -0.0036793557889099764 0 0.0044870634721154035 -0.0021907413386334377 0 0.0060078255066188446 -0.0026703458113319202 0 0.0043409580024335297 -0.0042300763975330084 0 0.0048324512530492558 -0.0036793557889099764 0 0.0044870634721154035 -0.0021907413386334377 0 0.0044870634721154035 -0.0021907413386334377 0 0.0052601891152265637 -0.00070514913880282261 0 0.0057616929810467366 -0.0019486782273549588 0 0.0044870634721154035 -0.0021907413386334377 0 0.0057616929810467366 -0.0019486782273549588 0 0.0060078255066188446 -0.0026703458113319202 0 0.0034360850460801893 -0.0028512365648657406 0 0.0044870634721154035 -0.0021907413386334377 0 0.0031559608629881607 -0.0019485720728061988 0 0.0044870634721154035 -0.0021907413386334377 0 0.0031559608629881607 -0.0019485720728061988 0 0.0036349411508994076 -0.00093630624186531069 0 0.0031559608629881607 -0.0019485720728061988 0 0.0036349411508994076 -0.00093630624186531069 0 0.0025546241584084601 -0.00090536815302486408 0 0.0044870634721154035 -0.0021907413386334377 0 0.0036349411508994076 -0.00093630624186531069 0 0.0052601891152265637 -0.00070514913880282261 0 0.0036349411508994076 -0.00093630624186531069 0 0.0052601891152265637 -0.00070514913880282261 0 0.003721055567113715 0.00017121881995990734 0 0.0066633268658259342 -0.0015526709168847326 0 0.0054770602031195504 -0.00075457224734120525 0 0.0079763798427626084 -0.0022493560072960168 0 0.0078563480215727167 -0.0018361813476366782 0 0.00755577762522821 -0.0019814244431508956 0 0.0079763798427626084 -0.0022493560072960168 0 0.0078563480215727167 -0.0018361813476366782 0 0.0080553204872347364 -0.0020930307205962945 0 0.0078563480215727167 -0.0018361813476366782 0 0.0082475095387150449 -0.0013446868705406019 0 0.0080553204872347364 -0.0020930307205962945 0 0.0078769001684890552 -0.00058201960616157528 0 0.0082475095387150449 -0.0013446868705406019 0 0.007696934898450955 -0.0014175285445495742 0 0.0078563480215727167 -0.0018361813476366782 0 0.0082475095387150449 -0.0013446868705406019 0 0.007696934898450955 -0.0014175285445495742 0 0.007696934898450955 -0.0014175285445495742 0 0.00755577762522821 -0.0019814244431508956 0 0.006854883674998041 -0.0014260661342603862 0 0.007365608079505731 -0.00086009303686839379 0 0.007696934898450955 -0.0014175285445495742 0 0.0067776637259813095 -0.0015384419276195539 0 0.0081651360883289014 -0.0015058231669851036 0 0.0054319079026416322 -0.00088620798382692983 0 0.0078563480215727167 -0.0018361813476366782 0 0.007696934898450955 -0.0014175285445495742 0 0.00755577762522821 -0.0019814244431508956 0 0.0054770602031195504 -0.00075457224734120525 0 0.0054319079026416322 -0.00088620798382692983 0 0.0036349411508994076 -0.00093630624186531069 0 0.003721055567113715 0.00017121881995990734 0 0.002800527319054964 -0.00012969436578164331 0 0.002800527319054964 -0.00012969436578164331 0 0.0023909999475456201 0.0010312113178723688 0 0.0018217969263478657 8.6505420987515125e-05 0 0.003721055567113715 0.00017121881995990734 0 0.002800527319054964 -0.00012969436578164331 0 0.0023909999475456201 0.0010312113178723688 0 0.002800527319054964 -0.00012969436578164331 0 0.0018217969263478657 8.6505420987515125e-05 0 0.0025546241584084601 -0.00090536815302486408 0 0.0056181956731373526 -0.00076689507144008233 0 0.0070037849457550922 -0.0019298746956248562 0 0.0041043158253132647 -0.0017575661981402851 0 0.0054319079026416322 -0.00088620798382692983 0 0.002135405964802915 -0.00050714195110939796 0 0.0023909999475456201 0.0010312113178723688 0 0.0018217969263478657 8.6505420987515125e-05 0 0.00038620066619047004 0.00054361709093249996 0 0.0062186542091595349 -0.0012067430168443856 0 0.0054319079026416322 -0.00088620798382692983 0 0.00080858206878662328 4.7522009082565825e-05 0 0.0018217969263478657 8.6505420987515125e-05 0 0.00038620066619047004 0.00054361709093249996 0 0.00080858206878662328 4.7522009082565825e-05 0 0.0018217969263478657 8.6505420987515125e-05 0 0.0016438109552929291 -0.00086920733832491169 0 0.00082380454974214279 -7.7923655806970262e-06 0 0.00086970756387376457 -0.0013623412455977832 0 0.00080858206878662328 4.7522009082565825e-05 0 0.0016438109552929291 -0.00086920733832491169 0 0.00099378295513321679 -0.0017583927790960627 0 0.0018217969263478657 8.6505420987515125e-05 0 0.0016438109552929291 -0.00086920733832491169 0 0.0025546241584084601 -0.00090536815302486408 0 0.0036349411508994076 -0.00093630624186531069 0 0.002800527319054964 -0.00012969436578164331 0 0.0025546241584084601 -0.00090536815302486408 0 0.0016438109552929291 -0.00086920733832491169 0 0.0025546241584084601 -0.00090536815302486408 0 0.0020695345661077029 -0.0017746491302740378 0 0.002598631378672174 -0.0027232099694106085 0 0.0031559608629881607 -0.0019485720728061988 0 0.0020695345661077029 -0.0017746491302740378 0 0.0031559608629881607 -0.0019485720728061988 0 0.0025546241584084601 -0.00090536815302486408 0 0.0020695345661077029 -0.0017746491302740378 0 0.001767587773314028 -0.0026350416867970154 0 0.002598631378672174 -0.0027232099694106085 0 0.0020695345661077029 -0.0017746491302740378 0 0.0016438109552929291 -0.00086920733832491169 0 0.0020695345661077029 -0.0017746491302740378 0 0.00099378295513321679 -0.0017583927790960627 0 0.001767587773314028 -0.0026350416867970154 0 0.0020695345661077029 -0.0017746491302740378 0 0.00099378295513321679 -0.0017583927790960627 0 -0.00034222030876773589 -0.0016094185617520113 0 0.00075373239229998288 -0.0010108236342692195 0 9.6097511554597156e-05 -0.00045204220325499968 0 -0.00034222030876773589 -0.0016094185617520113 0 9.6097511554597156e-05 -0.00045204220325499968 0 -0.00098769992309566314 -0.00016075382981674605 0 -0.00066557052892102936 -0.0011389186767835314 0 -0.00099484012452042531 -0.00020074082175587041 0 9.6097511554597156e-05 -0.00045204220325499968 0 2.4291736286089171e-05 1.7956899876735714e-05 0 -0.00098769992309566314 -0.00016075382981674605 0 0.00080858206878662328 4.7522009082565825e-05 0 0.00075373239229998288 -0.0010108236342692195 0 9.6097511554597156e-05 -0.00045204220325499968 0 0.00080858206878662328 4.7522009082565825e-05 0 9.6097511554597156e-05 -0.00045204220325499968 0 2.4291736286089171e-05 1.7956899876735714e-05 0 0.00080858206878662328 4.7522009082565825e-05 0 0.00038620066619047004 0.00054361709093249996 0 2.4291736286089171e-05 1.7956899876735714e-05 0 0.002135405964802915 -0.00050714195110939796 0 0.00071682362162277474 -0.0004154398789813374 0 0.0025488421715686559 0.00017889470568309844 0 0.0041043158253132647 -0.0017575661981402851 0 0.00044287697408588593 -0.00034827864810042997 0 0.00038620066619047004 0.00054361709093249996 0 2.4291736286089171e-05 1.7956899876735714e-05 0 0.00044287697408588593 -0.00034827864810042997 0 2.4291736286089171e-05 1.7956899876735714e-05 0 0.00044287697408588593 -0.00034827864810042997 0 -0.00098769992309566314 -0.00016075382981674605 0 0.00044287697408588593 -0.00034827864810042997 0 -0.0024118795088122012 5.5528044391470855e-07 0 -0.00098769992309566314 -0.00016075382981674605 0 0.0013088339585616226 0.00010337068727190599 0 0.00044287697408588593 -0.00034827864810042997 0 -0.0004260117123954424 -4.6836891893273833e-07 0 0.00044287697408588593 -0.00034827864810042997 0 -0.0004260117123954424 -4.6836891893273833e-07 0 -0.0024118795088122012 5.5528044391470855e-07 0 -0.0024118795088122012 5.5528044391470855e-07 0 -0.00098769992309566314 -0.00016075382981674605 0 -0.002788679182789969 -0.00019396764616536673 0 -0.0010215748964857727 -0.00066178099853485067 0 -0.00098769992309566314 -0.00016075382981674605 0 -0.002788679182789969 -0.00019396764616536673 0 -0.0043985882529905592 -1.8948568468273147e-06 0 -0.0024118795088122012 5.5528044391470855e-07 0 -0.002788679182789969 -0.00019396764616536673 0 -0.0045655803009139453 -0.00014352404214589717 0 -0.0043985882529905592 -1.8948568468273147e-06 0 -0.002788679182789969 -0.00019396764616536673 0 0.0038714088138437309 -0.0046263798172065289 0 0.0029822733401058143 -0.0039019032169664691 0 0.0027740954468702872 -0.0041402932072099807 0 0.0076504643951493898 -0.0032225839630453147 0 0.0077060991736259393 -0.0027731768714723205 0 0.0079551651311093891 -0.0027489251606443218 0 0.0055612849988793348 -0.0039540154871014165 0 0.0063359917259961226 -0.0035151359461793601 0 0.0076504643951493898 -0.0032225839630453147 0 0.0072754837667537136 -0.002908045207787932 0 0.0077060991736259393 -0.0027731768714723205 0 0.0038714088138437309 -0.0046263798172065289 0 0.0029822733401058143 -0.0039019032169664691 0 0.0046515750793498208 -0.0037277590738825001 0 0.0055612849988793348 -0.0039540154871014165 0 0.0062307201525747726 -0.0036698913862475407 0 0.0076504643951493898 -0.0032225839630453147 0 0.0061738520455211108 -0.0036668359825113525 0 0.0072754837667537136 -0.002908045207787932 0 0.0038714088138437309 -0.0046263798172065289 0 0.0061738520455211108 -0.0036668359825113525 0 0.0046515750793498208 -0.0037277590738825001 0 0.0061738520455211108 -0.0036668359825113525 0 0.0072754837667537136 -0.002908045207787932 0 0.0065894477471342694 -0.0030545631721555205 0 0.0072754837667537136 -0.002908045207787932 0 0.0075384961881152304 -0.0024720124573689808 0 0.0077060991736259393 -0.0027731768714723205 0 0.0072754837667537136 -0.002908045207787932 0 0.0075384961881152304 -0.0024720124573689808 0 0.0065894477471342694 -0.0030545631721555205 0 0.0075384961881152304 -0.0024720124573689808 0 0.0065894477471342694 -0.0030545631721555205 0 0.0064159074843228494 -0.0029102875265053659 0 0.0077060991736259393 -0.0027731768714723205 0 0.0078500918916559435 -0.002590121373324939 0 0.0079551651311093891 -0.0027489251606443218 0 0.0075384961881152304 -0.0024720124573689808 0 0.0077060991736259393 -0.0027731768714723205 0 0.0078500918916559435 -0.002590121373324939 0 0.0078500918916559435 -0.002590121373324939 0 0.0079135519393708827 -0.0026399485381141475 0 0.0079551651311093891 -0.0027489251606443218 0 0.0079135519393708827 -0.0026399485381141475 0 0.0079551651311093891 -0.0027489251606443218 0 0.0078122508860641576 -0.0026965025714582353 0 0.0063359917259961226 -0.0035151359461793601 0 -0.00096815563701348987 -0.004763339399547482 0 -0.0094359476972057325 -0.0072020880181432965 0 -0.0094420526933858377 -0.0072190679547551847 0 -0.0094430073326651313 -0.0071205074436215847 0 -0.00096815563701348987 -0.004763339399547482 0 -0.0036374937417934534 -0.0061606285489212449 0 -0.0094359476972057325 -0.0072020880181432965 0 -0.0094420526933858377 -0.0072190679547551847 0 -0.0088364561575001079 -0.0074306409207673951 0 -0.0094420526933858377 -0.0072190679547551847 0 -0.0088364561575001079 -0.0074306409207673951 0 -0.0093327042649597666 -0.0071696594416995997 0 0.0038714088138437309 -0.0046263798172065289 0 0.0027392919250922585 -0.0048848499820082639 0 0.0027740954468702872 -0.0041402932072099807 0 0.0027392919250922585 -0.0048848499820082639 0 0.0013230644079811826 -0.005428636802309387 0 0.0027740954468702872 -0.0041402932072099807 0 -0.0088364561575001079 -0.0074306409207673951 0 -0.0084187022065614504 -0.0068290746343903606 0 -0.0093327042649597666 -0.0071696594416995997 0 -0.0093382945789790475 -0.0071517758292017723 0 -0.0092216136021636488 -0.0067885030314435791 0 -0.0084187022065614504 -0.0068290746343903606 0 -0.0093327042649597666 -0.0071696594416995997 0 -0.0084771660661380529 -0.0060676038162063425 0 -0.0093327042649597666 -0.0071696594416995997 0 -0.0096024911459178311 -0.0072694042129220985 0 -0.0095116169957478579 -0.0072268990845842616 0 -0.0094420526933858377 -0.0072190679547551847 0 -0.0093327042649597666 -0.0071696594416995997 0 -0.0095116169957478579 -0.0072268990845842616 0 -0.0093327042649597666 -0.0071696594416995997 0 -0.0096024911459178311 -0.0072694042129220985 0 -0.00990058152266181 -0.0073240704024613995 0 -0.0097512286032596096 -0.0074034273300250392 0 -0.0096024911459178311 -0.0072694042129220985 0 -0.0095958421193911882 -0.0073549459291179066 0 -0.0097512286032596096 -0.0074034273300250392 0 -0.0096024911459178311 -0.0072694042129220985 0 -0.00990058152266181 -0.0073240704024613995 0 -0.0084187022065614504 -0.0068290746343903606 0 -0.0084771660661380529 -0.0060676038162063425 0 -0.0078609892917501298 -0.0063739110734103129 0 -0.0072186856584740616 -0.0057579120419119648 0 -0.0084771660661380529 -0.0060676038162063425 0 -0.0078609892917501298 -0.0063739110734103129 0 -0.0072186856584740616 -0.0057579120419119648 0 -0.0078609892917501298 -0.0063739110734103129 0 -0.0072878159477481417 -0.0068329959420833 0 -0.0084187022065614504 -0.0068290746343903606 0 -0.0078609892917501298 -0.0063739110734103129 0 -0.0072878159477481417 -0.0068329959420833 0 -0.0036374937417934534 -0.0061606285489212449 0 -0.0021824533295078724 -0.0049796371671527 0 0.0029626628821128355 -0.0038670494645167584 0 0.003717639208372234 -0.0031037718542858651 0 -0.0088364561575001079 -0.0074306409207673951 0 -0.0084187022065614504 -0.0068290746343903606 0 -0.0072878159477481417 -0.0068329959420833 0 0.0029822733401058143 -0.0039019032169664691 0 0.0027740954468702872 -0.0041402932072099807 0 0.0026116192176955811 -0.0034264614564901243 0 0.0029822733401058143 -0.0039019032169664691 0 0.0046515750793498208 -0.0037277590738825001 0 0.0055548263579523914 -0.0028135685569500306 0 0.0029822733401058143 -0.0039019032169664691 0 0.0026116192176955811 -0.0034264614564901243 0 0.0021028595203888044 -0.0031981161485657313 0 0.0061738520455211108 -0.0036668359825113525 0 0.0046515750793498208 -0.0037277590738825001 0 0.0055548263579523914 -0.0028135685569500306 0 -0.0021683649050712015 -0.0047427134216657552 0 -0.0021824533295078724 -0.0049796371671527 0 -0.0057495027246424208 -0.0059769876791075103 0 -0.0072186856584740616 -0.0057579120419119648 0 -0.0072878159477481417 -0.0068329959420833 0 0.0013810860550720666 -0.0035118208874070915 0 0.0026116192176955811 -0.0034264614564901243 0 0.0021028595203888044 -0.0031981161485657313 0 0.006080675363858902 -0.0031950170988275205 0 0.0055548263579523914 -0.0028135685569500306 0 0.0060314169869243872 -0.0031931404727316396 0 0.0033379362321482781 -0.0032767597123701474 0 0.003717639208372234 -0.0031037718542858651 0 0.0013810860550720666 -0.0035118208874070915 0 0.00062286058037960975 -0.0032805199852125855 0 0.0021028595203888044 -0.0031981161485657313 0 0.006080675363858902 -0.0031950170988275205 0 0.0060374115978666151 -0.0032375431851118111 0 0.0060314169869243872 -0.0031931404727316396 0 0.005972442091120406 -0.0032926351195285528 0 0.0060374115978666151 -0.0032375431851118111 0 0.0059849856063990785 -0.003217509564902416 0 0.005972442091120406 -0.0032926351195285528 0 0.006080675363858902 -0.0031950170988275205 0 0.0060374115978666151 -0.0032375431851118111 0 0.0060374115978666151 -0.0032375431851118111 0 0.006072851969617518 -0.003390729846603218 0 0.005974052764977953 -0.0033708196706597826 0 0.0060374115978666151 -0.0032375431851118111 0 0.0059849856063990785 -0.003217509564902416 0 0.005974052764977953 -0.0033708196706597826 0 0.0059207955282709846 -0.0041812199028785626 0 0.0060462625887622327 -0.0038453948977971099 0 0.0061738520455211108 -0.0036668359825113525 0 0.0055548263579523914 -0.0028135685569500306 0 0.0060314169869243872 -0.0031931404727316396 0 0.0061738520455211108 -0.0036668359825113525 0 0.006072851969617518 -0.003390729846603218 0 0.0060314169869243872 -0.0031931404727316396 0 0.0060374115978666151 -0.0032375431851118111 0 0.006072851969617518 -0.003390729846603218 0 0.0060314169869243872 -0.0031931404727316396 0 0.0049501239141292418 -0.0056900270388353475 0 0.0044273936632868967 -0.005598892728202365 0 0.0049246129903269507 -0.0052412271372199197 0 0.0049501239141292418 -0.0056900270388353475 0 0.0049246129903269507 -0.0052412271372199197 0 0.005324553915615652 -0.0053944135062389247 0 0.0049246129903269507 -0.0052412271372199197 0 0.005324553915615652 -0.0053944135062389247 0 0.0053749267847971365 -0.0049483596719769813 0 0.0057113002781504435 -0.0034103368981435729 0 0.005972442091120406 -0.0032926351195285528 0 0.0059849856063990785 -0.003217509564902416 0 0.0054663179169773491 -0.0060119205184267785 0 0.005324553915615652 -0.0053944135062389247 0 0.0058964267195179736 -0.0051142567842589184 0 0.0057369607084315575 -0.0047097730382077646 0 0.0059207955282709846 -0.0041812199028785626 0 0.005324553915615652 -0.0053944135062389247 0 0.0058964267195179736 -0.0051142567842589184 0 0.0053749267847971365 -0.0049483596719769813 0 0.0058964267195179736 -0.0051142567842589184 0 0.0053749267847971365 -0.0049483596719769813 0 0.0056458361907712465 -0.00435474934877653 0 0.0058964267195179736 -0.0051142567842589184 0 0.0056458361907712465 -0.00435474934877653 0 0.0062795181458234648 -0.0043164592139534807 0 0.0053749267847971365 -0.0049483596719769813 0 0.0050301873676392595 -0.0046249231674399035 0 0.0056458361907712465 -0.00435474934877653 0 0.0044968633420472987 -0.0050809578377616288 0 0.0049246129903269507 -0.0052412271372199197 0 0.0050301873676392595 -0.0046249231674399035 0 0.0049246129903269507 -0.0052412271372199197 0 0.0053749267847971365 -0.0049483596719769813 0 0.0050301873676392595 -0.0046249231674399035 0 0.0050301873676392595 -0.0046249231674399035 0 0.0052221341918751839 -0.0040711321317310834 0 0.0056458361907712465 -0.00435474934877653 0 0.0048197895832514884 -0.0042539319788468949 0 0.0050301873676392595 -0.0046249231674399035 0 0.0052221341918751839 -0.0040711321317310834 0 0.0056458361907712465 -0.00435474934877653 0 0.0055950039162938111 -0.0036741625853185557 0 0.0060226859990600854 -0.0039333675484102132 0 0.0056458361907712465 -0.00435474934877653 0 0.0060226859990600854 -0.0039333675484102132 0 0.0062795181458234648 -0.0043164592139534807 0 0.0052221341918751839 -0.0040711321317310834 0 0.0056458361907712465 -0.00435474934877653 0 0.0055950039162938111 -0.0036741625853185557 0 0.0074480641273508208 -0.0032859296139989228 0 0.0079542701892116978 -0.0026305484302348646 0 0.0078465099829226857 -0.0024501816109449115 0 0.0048324512530492558 -0.0036793557889099764 0 0.0074480641273508208 -0.0032859296139989228 0 0.0060078255066188446 -0.0026703458113319202 0 0.0048324512530492558 -0.0036793557889099764 0 0.0052221341918751839 -0.0040711321317310834 0 0.0055950039162938111 -0.0036741625853185557 0 0.0074480641273508208 -0.0032859296139989228 0 0.0060078255066188446 -0.0026703458113319202 0 0.0073626515319441966 -0.0021765237120756316 0 0.0049190698563693199 -0.0036745584329353214 0 0.0064839631141019073 -0.0034567519534919595 0 0.0061738520455211108 -0.0036668359825113525 0 0.0061108233318548167 -0.0032002866235434258 0 0.0065894477471342694 -0.0030545631721555205 0 0.0061108233318548167 -0.0032002866235434258 0 0.0065894477471342694 -0.0030545631721555205 0 0.0064159074843228494 -0.0029102875265053659 0 0.0061738520455211108 -0.0036668359825113525 0 0.006072851969617518 -0.003390729846603218 0 0.0061108233318548167 -0.0032002866235434258 0 0.0060226859990600854 -0.0039333675484102132 0 0.0062795181458234648 -0.0043164592139534807 0 0.0065430363858784641 -0.0035441336906761821 0 0.006072851969617518 -0.003390729846603218 0 0.0061108233318548167 -0.0032002866235434258 0 0.005974052764977953 -0.0033708196706597826 0 0.0060462625887622327 -0.0038453948977971099 0 0.0069204203388290456 -0.003061838703513539 0 0.0061108233318548167 -0.0032002866235434258 0 0.005974052764977953 -0.0033708196706597826 0 0.0059637883142979768 -0.0026620240058622389 0 0.0074480641273508208 -0.0032859296139989228 0 0.0079542701892116978 -0.0026305484302348646 0 0.0081299080723762386 -0.0025805435841187072 0 0.0055950039162938111 -0.0036741625853185557 0 0.0060226859990600854 -0.0039333675484102132 0 0.0065430363858784641 -0.0035441336906761821 0 0.0062795181458234648 -0.0043164592139534807 0 0.0065430363858784641 -0.0035441336906761821 0 0.006656389724948971 -0.0035307757127003543 0 0.0064839631141019073 -0.0034567519534919595 0 0.0071946534955276602 -0.0030764006409566133 0 0.0079542701892116978 -0.0026305484302348646 0 0.0080625287007981116 -0.0025591617887058232 0 0.0081299080723762386 -0.0025805435841187072 0 0.0080625287007981116 -0.0025591617887058232 0 0.0081299080723762386 -0.0025805435841187072 0 0.0080076019839168851 -0.0025308591116969719 0 0.0075384961881152304 -0.0024720124573689808 0 0.0059637883142979768 -0.0026620240058622389 0 0.0064159074843228494 -0.0029102875265053659 0 0.0075529512020534569 -0.0023960766438420821 0 0.0069204203388290456 -0.003061838703513539 0 0.0075384961881152304 -0.0024720124573689808 0 0.00807637266666149 -0.0025064980592845424 0 0.0080076019839168851 -0.0025308591116969719 0 0.0081299080723762386 -0.0025805435841187072 0 0.00807637266666149 -0.0025064980592845424 0 0.0080076019839168851 -0.0025308591116969719 0 0.0071946534955276602 -0.0030764006409566133 0 0.0069204203388290456 -0.003061838703513539 0 0.0061108233318548167 -0.0032002866235434258 0 0.0059637883142979768 -0.0026620240058622389 0 0.0064159074843228494 -0.0029102875265053659 0 0.0079879391224084786 -0.0025177134774593073 0 0.0080824620873452113 -0.0024392894447363388 0 0.0079092060391794776 -0.0025024740176391729 0 0.0075384961881152304 -0.0024720124573689808 0 0.0079879391224084786 -0.0025177134774593073 0 0.0080076019839168851 -0.0025308591116969719 0 0.0079879391224084786 -0.0025177134774593073 0 0.0080422726189577302 -0.002503647666707381 0 0.0080824620873452113 -0.0024392894447363388 0 0.0079879391224084786 -0.0025177134774593073 0 0.0080076019839168851 -0.0025308591116969719 0 0.0080422726189577302 -0.002503647666707381 0 0.0080625287007981116 -0.0025591617887058232 0 0.0080076019839168851 -0.0025308591116969719 0 0.0080422726189577302 -0.002503647666707381 0 0.0079542701892116978 -0.0026305484302348646 0 0.0080625287007981116 -0.0025591617887058232 0 0.0080422726189577302 -0.002503647666707381 0 0.0079542701892116978 -0.0026305484302348646 0 0.0080422726189577302 -0.002503647666707381 0 0.0078465099829226857 -0.0024501816109449115 0 0.0080422726189577302 -0.002503647666707381 0 0.0079931691883668565 -0.0023832410817997054 0 0.0078465099829226857 -0.0024501816109449115 0 0.0080422726189577302 -0.002503647666707381 0 0.0079931691883668565 -0.0023832410817997054 0 0.0080824620873452113 -0.0024392894447363388 0 0.0079931691883668565 -0.0023832410817997054 0 0.008056092504255704 -0.0023339112666895976 0 0.0080824620873452113 -0.0024392894447363388 0 0.0079931691883668565 -0.0023832410817997054 0 0.008056092504255704 -0.0023339112666895976 0 0.0077799406592672154 -0.0022446684893957093 0 0.008056092504255704 -0.0023339112666895976 0 0.0080824620873452113 -0.0024392894447363388 0 0.0082168195120778664 -0.0023962690250241329 0 0.0080824620873452113 -0.0024392894447363388 0 0.0082168195120778664 -0.0023962690250241329 0 0.0080969617026693634 -0.0024500522983841077 0 0.0052601891152265637 -0.00070514913880282261 0 0.0057616929810467366 -0.0019486782273549588 0 0.0073626515319441966 -0.0021765237120756316 0 0.0057616929810467366 -0.0019486782273549588 0 0.0060078255066188446 -0.0026703458113319202 0 0.0073626515319441966 -0.0021765237120756316 0 0.0074480641273508208 -0.0032859296139989228 0 0.0073626515319441966 -0.0021765237120756316 0 0.0078465099829226857 -0.0024501816109449115 0 0.0073626515319441966 -0.0021765237120756316 0 0.0078465099829226857 -0.0024501816109449115 0 0.0077799406592672154 -0.0022446684893957093 0 0.0079931691883668565 -0.0023832410817997054 0 0.0078465099829226857 -0.0024501816109449115 0 0.0077799406592672154 -0.0022446684893957093 0 0.0073626515319441966 -0.0021765237120756316 0 0.0077799406592672154 -0.0022446684893957093 0 0.0078921094762756158 -0.0022267625817369179 0 0.008056092504255704 -0.0023339112666895976 0 0.0077799406592672154 -0.0022446684893957093 0 0.0079140425522401161 -0.0022675059717403947 0 0.0077799406592672154 -0.0022446684893957093 0 0.0079140425522401161 -0.0022675059717403947 0 0.0078921094762756158 -0.0022267625817369179 0 0.0079763798427626084 -0.0022493560072960168 0 0.0073626515319441966 -0.0021765237120756316 0 0.0078921094762756158 -0.0022267625817369179 0 0.0066633268658259342 -0.0015526709168847326 0 0.0073307668084225354 -0.0021264442603740265 0 0.0079763798427626084 -0.0022493560072960168 0 0.0078921094762756158 -0.0022267625817369179 0 0.0080553204872347364 -0.0020930307205962945 0 0.0078921094762756158 -0.0022267625817369179 0 0.0080553204872347364 -0.0020930307205962945 0 0.0080071699091661102 -0.0022739795254548777 0 0.0080553204872347364 -0.0020930307205962945 0 0.0080071699091661102 -0.0022739795254548777 0 0.0080844352173941279 -0.0023072129026602555 0 0.0079140425522401161 -0.0022675059717403947 0 0.0078921094762756158 -0.0022267625817369179 0 0.0080071699091661102 -0.0022739795254548777 0 0.008056092504255704 -0.0023339112666895976 0 0.0079140425522401161 -0.0022675059717403947 0 0.0080071699091661102 -0.0022739795254548777 0 0.0080071699091661102 -0.0022739795254548777 0 0.0080844352173941279 -0.0023072129026602555 0 0.0082902075515812312 -0.0023553651331255513 0 0.0082475095387150449 -0.0013446868705406019 0 0.0080553204872347364 -0.0020930307205962945 0 0.0090177592188665518 -0.0012397366371342906 0 0.008085604277738594 -0.0020988568240043644 0 0.0085615866876945917 -0.0017546965181554624 0 0.0082168195120778664 -0.0023962690250241329 0 0.0082902075515812312 -0.0023553651331255513 0 0.0083991267217175796 -0.00236701383589695 0 0.008056092504255704 -0.0023339112666895976 0 0.0080071699091661102 -0.0022739795254548777 0 0.0082902075515812312 -0.0023553651331255513 0 0.008056092504255704 -0.0023339112666895976 0 0.0082168195120778664 -0.0023962690250241329 0 0.0082902075515812312 -0.0023553651331255513 0 0.0085131376697773729 -0.0023576400455896109 0 0.0080844352173941279 -0.0023072129026602555 0 0.0082902075515812312 -0.0023553651331255513 0 0.0085131376697773729 -0.0023576400455896109 0 0.0082902075515812312 -0.0023553651331255513 0 0.0086106076960004684 -0.0023308610188746471 0 0.0082902075515812312 -0.0023553651331255513 0 0.0083991267217175796 -0.00236701383589695 0 0.0086106076960004684 -0.0023308610188746471 0 0.0083991267217175796 -0.00236701383589695 0 0.0086106076960004684 -0.0023308610188746471 0 0.0085439316303288042 -0.0023175910890237731 0 0.0083991267217175796 -0.00236701383589695 0 0.0085439316303288042 -0.0023175910890237731 0 0.008322545307026967 -0.0023927811498305517 0 0.0084679205171938766 -0.0022947388427107971 0 0.008322545307026967 -0.0023927811498305517 0 0.0081529134019248904 -0.0024889975007052843 0 0.0084679205171938766 -0.0022947388427107971 0 0.0085439316303288042 -0.0023175910890237731 0 0.008322545307026967 -0.0023927811498305517 0 0.008322545307026967 -0.0023927811498305517 0 0.0080969617026693634 -0.0024500522983841077 0 0.0081529134019248904 -0.0024889975007052843 0 0.0082168195120778664 -0.0023962690250241329 0 0.008322545307026967 -0.0023927811498305517 0 0.0080969617026693634 -0.0024500522983841077 0 0.0082168195120778664 -0.0023962690250241329 0 0.0083991267217175796 -0.00236701383589695 0 0.008322545307026967 -0.0023927811498305517 0 0.0080824620873452113 -0.0024392894447363388 0 0.0080969617026693634 -0.0024500522983841077 0 0.0079092060391794776 -0.0025024740176391729 0 0.0080969617026693634 -0.0024500522983841077 0 0.0079155141540253483 -0.0024941324232055401 0 0.0079092060391794776 -0.0025024740176391729 0 0.0080969617026693634 -0.0024500522983841077 0 0.0080191219392353134 -0.002491415985368711 0 0.0081529134019248904 -0.0024889975007052843 0 0.0080969617026693634 -0.0024500522983841077 0 0.0080191219392353134 -0.002491415985368711 0 0.0079155141540253483 -0.0024941324232055401 0 0.0080191219392353134 -0.002491415985368711 0 0.0079155141540253483 -0.0024941324232055401 0 0.0079402484470051 -0.0025433195169936832 0 0.0075384961881152304 -0.0024720124573689808 0 0.0078500918916559435 -0.002590121373324939 0 0.0079155141540253483 -0.0024941324232055401 0 0.0078500918916559435 -0.002590121373324939 0 0.0079155141540253483 -0.0024941324232055401 0 0.0079402484470051 -0.0025433195169936832 0 0.0075384961881152304 -0.0024720124573689808 0 0.0079879391224084786 -0.0025177134774593073 0 0.0079092060391794776 -0.0025024740176391729 0 0.0075384961881152304 -0.0024720124573689808 0 0.0079155141540253483 -0.0024941324232055401 0 0.0079092060391794776 -0.0025024740176391729 0 0.0078122508860641576 -0.0026965025714582353 0 0.0078848626861802943 -0.0026021463832032665 0 0.0078028317087595975 -0.0026671454931002322 0 0.0079135519393708827 -0.0026399485381141475 0 0.0078122508860641576 -0.0026965025714582353 0 0.0078848626861802943 -0.0026021463832032665 0 0.0079135519393708827 -0.0026399485381141475 0 0.0078848626861802943 -0.0026021463832032665 0 0.0079402484470051 -0.0025433195169936832 0 0.0078500918916559435 -0.002590121373324939 0 0.0079135519393708827 -0.0026399485381141475 0 0.0079402484470051 -0.0025433195169936832 0 0.0078848626861802943 -0.0026021463832032665 0 0.0079402484470051 -0.0025433195169936832 0 0.0079636923570529528 -0.0025285575471682828 0 0.0080191219392353134 -0.002491415985368711 0 0.0079636923570529528 -0.0025285575471682828 0 0.0081529134019248904 -0.0024889975007052843 0 0.0080191219392353134 -0.002491415985368711 0 0.0079402484470051 -0.0025433195169936832 0 0.0079636923570529528 -0.0025285575471682828 0 0.0078848626861802943 -0.0026021463832032665 0 0.0079636923570529528 -0.0025285575471682828 0 0.0079083396892541871 -0.0025561212049551281 0 0.0078848626861802943 -0.0026021463832032665 0 0.0079083396892541871 -0.0025561212049551281 0 0.0078500156887047617 -0.0025862290989827692 0 0.0079636923570529528 -0.0025285575471682828 0 0.0079083396892541871 -0.0025561212049551281 0 0.0079777086348010798 -0.002543889804786305 0 0.0079777086348010798 -0.002543889804786305 0 0.0081529134019248904 -0.0024889975007052843 0 0.0079820838230390979 -0.0026201090008551664 0 0.0079083396892541871 -0.0025561212049551281 0 0.0079777086348010798 -0.002543889804786305 0 0.0079087269670709663 -0.0025786196906429199 0 0.0079777086348010798 -0.002543889804786305 0 0.0079820838230390979 -0.0026201090008551664 0 0.0079087269670709663 -0.0025786196906429199 0 0.0079636923570529528 -0.0025285575471682828 0 0.0079777086348010798 -0.002543889804786305 0 0.0081529134019248904 -0.0024889975007052843 0 0.0082015363498294403 -0.0026969434272216979 0 0.0080614775873847615 -0.002714815697764883 0 0.0081529134019248904 -0.0024889975007052843 0 0.0083425987840425077 -0.0024423459640525546 0 0.0081837513659481619 -0.0024823361347180981 0 0.0080614775873847615 -0.002714815697764883 0 0.0081529134019248904 -0.0024889975007052843 0 0.0079820838230390979 -0.0026201090008551664 0 0.0080614775873847615 -0.002714815697764883 0 0.0079548316373985965 -0.0027198899641252307 0 0.0079820838230390979 -0.0026201090008551664 0 0.0079548316373985965 -0.0027198899641252307 0 0.0078848556014879979 -0.0026321443522796572 0 0.0078388331146621512 -0.0026787613942694691 0 0.0079820838230390979 -0.0026201090008551664 0 0.0078848556014879979 -0.0026321443522796572 0 0.0079087269670709663 -0.0025786196906429199 0 0.0079548316373985965 -0.0027198899641252307 0 0.0079820838230390979 -0.0026201090008551664 0 0.0078848556014879979 -0.0026321443522796572 0 0.0078388331146621512 -0.0026787613942694691 0 0.0077814014023840482 -0.0026365378850006092 0 0.0077122543514358995 -0.0027215804269439094 0 0.0078848556014879979 -0.0026321443522796572 0 0.0078388331146621512 -0.0026787613942694691 0 0.0077814014023840482 -0.0026365378850006092 0 0.0077765382145277579 -0.0027272262856037478 0 0.0078388331146621512 -0.0026787613942694691 0 0.0077127700938544866 -0.0026203017891225778 0 0.0077081709626744561 -0.0026675048505562875 0 0.0080448397137122957 -0.0027333859546401036 0 0.00016281267078711962 -0.0043105362556538403 0 0.00017375168791557028 -0.0043855453578206813 0 2.7027722035567692e-05 -0.0045759870158482421 0 0.0077814014023840482 -0.0026365378850006092 0 0.0078398422097548728 -0.002592932509557418 0 0.0077813518795226497 -0.0025955003597781011 0 0.0078848556014879979 -0.0026321443522796572 0 0.0077814014023840482 -0.0026365378850006092 0 0.0078398422097548728 -0.002592932509557418 0 0.0077441350609650855 -0.0026153411878229583 0 0.0077813518795226497 -0.0025955003597781011 0 0.0077050613858631869 -0.0025805207545961501 0 0.0077814014023840482 -0.0026365378850006092 0 0.0077441350609650855 -0.0026153411878229583 0 0.0077813518795226497 -0.0025955003597781011 0 0.0077814014023840482 -0.0026365378850006092 0 0.0077441350609650855 -0.0026153411878229583 0 0.007701368123411545 -0.0026519121215265932 0 0.0077813518795226497 -0.0025955003597781011 0 0.0078125580180291327 -0.0025766981877714933 0 0.0077050613858631869 -0.0025805207545961501 0 0.0078398422097548728 -0.002592932509557418 0 0.0077813518795226497 -0.0025955003597781011 0 0.0078125580180291327 -0.0025766981877714933 0 0.0078398422097548728 -0.002592932509557418 0 0.0078125580180291327 -0.0025766981877714933 0 0.0078552686848349616 -0.0025669405865333898 0 0.0078398422097548728 -0.002592932509557418 0 0.0079087269670709663 -0.0025786196906429199 0 0.0078552686848349616 -0.0025669405865333898 0 0.0079083396892541871 -0.0025561212049551281 0 0.0079087269670709663 -0.0025786196906429199 0 0.0078552686848349616 -0.0025669405865333898 0 0.0078848556014879979 -0.0026321443522796572 0 0.0078398422097548728 -0.002592932509557418 0 0.0079087269670709663 -0.0025786196906429199 0 0.00057073037825769652 -0.0039911280312852297 0 0.00044601899005889501 -0.0039766381698184503 0 0.00017375168791557028 -0.0043855453578206813 0 -0.0087718249559154155 -0.0062137410668255009 0 -0.0088466899055767642 -0.0060844054824901843 0 -0.0089183877001899996 -0.0063619269015328991 0 0.0035508536901626008 -0.0024176950414470442 0 -0.0013388482143251047 -0.0043380515310363042 0 0.007331035395471479 -0.0026933897302531097 0 0.007400660814609228 -0.0027072346782532029 0 0.0073381568837939714 -0.0027453912882736682 0 0.007400660814609228 -0.0027072346782532029 0 0.0073381568837939714 -0.0027453912882736682 0 0.0072882783709339247 -0.0027475234493248156 0 0.0076132713986502955 -0.0022072400868938429 0 0.0053178239422783128 -0.0034999949298124729 0 0.0075461815202048886 -0.0026674835694636746 0 0.007400660814609228 -0.0027072346782532029 0 0.0075229141799588858 -0.0025761505769738876 0 -0.0013388482143251047 -0.0043380515310363042 0 0.0053178239422783128 -0.0034999949298124729 0 0.0053178239422783128 -0.0034999949298124729 0 0.0080448397137122957 -0.0027333859546401036 0 0.0053178239422783128 -0.0034999949298124729 0 0.0037090902465346156 -0.0035602556908764234 0 0.0075405311590216722 -0.0027166976054897032 0 0.007701368123411545 -0.0026519121215265932 0 0.0077050613858631869 -0.0025805207545961501 0 0.0075461815202048886 -0.0026674835694636746 0 0.0075229141799588858 -0.0025761505769738876 0 0.0077127700938544866 -0.0026203017891225778 0 0.0075405311590216722 -0.0027166976054897032 0 0.0077122543514358995 -0.0027215804269439094 0 0.007701368123411545 -0.0026519121215265932 0 0.0077814014023840482 -0.0026365378850006092 0 0.0077122543514358995 -0.0027215804269439094 0 0.007701368123411545 -0.0026519121215265932 0 -0.0013388482143251047 -0.0043380515310363042 0 -0.0049891615368916108 -0.005737608060404637 0 0.00044601899005889501 -0.0039766381698184503 0 0.00016281267078711962 -0.0043105362556538403 0 0.00017375168791557028 -0.0043855453578206813 0 -0.0091832605878357145 -0.0066953382967474898 0 -0.0089183877001899996 -0.0063619269015328991 0 -0.0090008842780497453 -0.0065348357182027899 0 0.0077441350609650855 -0.0026153411878229583 0 0.007701368123411545 -0.0026519121215265932 0 0.0077050613858631869 -0.0025805207545961501 0 -0.0091832605878357145 -0.0066953382967474898 0 -0.0090509730742618592 -0.0066455213606773627 0 -0.0090008842780497453 -0.0065348357182027899 0 -0.0091832605878357145 -0.0066953382967474898 0 -0.0090509730742618592 -0.0066455213606773627 0 -0.0090898874696943854 -0.0067068410076217043 0 -0.0088466899055767642 -0.0060844054824901843 0 -0.0091832605878357145 -0.0066953382967474898 0 -0.0089183877001899996 -0.0063619269015328991 0 -0.0089183877001899996 -0.0063619269015328991 0 -0.0090008842780497453 -0.0065348357182027899 0 -0.0088983941022800789 -0.0064586045841731428 0 -0.0090509730742618592 -0.0066455213606773627 0 -0.0090008842780497453 -0.0065348357182027899 0 -0.0089686273444546973 -0.0065948641187005977 0 -0.0090008842780497453 -0.0065348357182027899 0 -0.0089686273444546973 -0.0065948641187005977 0 -0.0088983941022800789 -0.0064586045841731428 0 -0.0088983941022800789 -0.0064586045841731428 0 -0.0088673543351072293 -0.0065702199897497192 0 -0.0087926117297154223 -0.0064229735467469708 0 -0.0089686273444546973 -0.0065948641187005977 0 -0.0088983941022800789 -0.0064586045841731428 0 -0.0088673543351072293 -0.0065702199897497192 0 -0.0088983941022800789 -0.0064586045841731428 0 -0.0088224926909773807 -0.0063291557481151865 0 -0.0087926117297154223 -0.0064229735467469708 0 -0.0087718249559154155 -0.0062137410668255009 0 -0.0089183877001899996 -0.0063619269015328991 0 -0.0088224926909773807 -0.0063291557481151865 0 -0.0089183877001899996 -0.0063619269015328991 0 -0.0088983941022800789 -0.0064586045841731428 0 -0.0088224926909773807 -0.0063291557481151865 0 -0.0089272436118874449 -0.0067368696155558384 0 -0.0088673543351072293 -0.0065702199897497192 0 -0.0087540533396650386 -0.0066102333484012159 0 -0.0089686273444546973 -0.0065948641187005977 0 -0.0088673543351072293 -0.0065702199897497192 0 -0.0089609122049367496 -0.0066659558834504954 0 -0.0089272436118874449 -0.0067368696155558384 0 -0.0088673543351072293 -0.0065702199897497192 0 -0.0089609122049367496 -0.0066659558834504954 0 -0.0089686273444546973 -0.0065948641187005977 0 -0.0089609122049367496 -0.0066659558834504954 0 -0.0090338147350838699 -0.0066949290299831259 0 -0.0090509730742618592 -0.0066455213606773627 0 -0.0089686273444546973 -0.0065948641187005977 0 -0.0090338147350838699 -0.0066949290299831259 0 -0.0089609122049367496 -0.0066659558834504954 0 -0.009004382384683365 -0.0067254841832589951 0 -0.0090338147350838699 -0.0066949290299831259 0 -0.0089272436118874449 -0.0067368696155558384 0 -0.0089609122049367496 -0.0066659558834504954 0 -0.009004382384683365 -0.0067254841832589951 0 -0.0089272436118874449 -0.0067368696155558384 0 -0.009004382384683365 -0.0067254841832589951 0 -0.0090377370193903128 -0.0067690427548890908 0 -0.0090410079984123495 -0.0067456288410284509 0 -0.0090451665680621705 -0.0067657684268926516 0 -0.0090377370193903128 -0.0067690427548890908 0 -0.009004382384683365 -0.0067254841832589951 0 -0.0090410079984123495 -0.0067456288410284509 0 -0.0090377370193903128 -0.0067690427548890908 0 -0.0090410079984123495 -0.0067456288410284509 0 -0.0090638680146842791 -0.0067616830578736808 0 -0.0090451665680621705 -0.0067657684268926516 0 -0.009004382384683365 -0.0067254841832589951 0 -0.0090410079984123495 -0.0067456288410284509 0 -0.0090338147350838699 -0.0066949290299831259 0 -0.0090338147350838699 -0.0066949290299831259 0 -0.0090898874696943854 -0.0067068410076217043 0 -0.0090638680146842791 -0.0067616830578736808 0 -0.0090410079984123495 -0.0067456288410284509 0 -0.0090338147350838699 -0.0066949290299831259 0 -0.0090638680146842791 -0.0067616830578736808 0 -0.0090509730742618592 -0.0066455213606773627 0 -0.0090338147350838699 -0.0066949290299831259 0 -0.0090898874696943854 -0.0067068410076217043 0 -0.0091832605878357145 -0.0066953382967474898 0 -0.0090638680146842791 -0.0067616830578736808 0 -0.0089157244720108244 -0.0068355630467956761 0 -0.0091832605878357145 -0.0066953382967474898 0 -0.0090898874696943854 -0.0067068410076217043 0 -0.0090638680146842791 -0.0067616830578736808 0 -0.0090451665680621705 -0.0067657684268926516 0 -0.0090521993549911618 -0.0067167918538027374 0 -0.0089157244720108244 -0.0068355630467956761 0 -0.0090638680146842791 -0.0067616830578736808 0 -0.0090451665680621705 -0.0067657684268926516 0 -0.0089157244720108244 -0.0068355630467956761 0 -0.0090521993549911618 -0.0067167918538027374 0 -0.009053320058893333 -0.0068196946609752479 0 -0.0090846598124837748 -0.0068050064913003682 0 -0.0090521993549911618 -0.0067167918538027374 0 -0.009053320058893333 -0.0068196946609752479 0 -0.0090377370193903128 -0.0067690427548890908 0 -0.0090451665680621705 -0.0067657684268926516 0 -0.0090521993549911618 -0.0067167918538027374 0 -0.0090377370193903128 -0.0067690427548890908 0 -0.0089272436118874449 -0.0067368696155558384 0 -0.0089678128885998711 -0.0068960981197941033 0 -0.0087832456868504691 -0.006848377626688348 0 -0.0089272436118874449 -0.0067368696155558384 0 -0.0090377370193903128 -0.0067690427548890908 0 -0.0089678128885998711 -0.0068960981197941033 0 -0.009053320058893333 -0.0068196946609752479 0 -0.0090377370193903128 -0.0067690427548890908 0 -0.0089678128885998711 -0.0068960981197941033 0 0.0078500156887047617 -0.0025862290989827692 0 0.0078552686848349616 -0.0025669405865333898 0 0.007831932042139474 -0.002560008837027616 0 0.0079083396892541871 -0.0025561212049551281 0 0.0078500156887047617 -0.0025862290989827692 0 0.0078552686848349616 -0.0025669405865333898 0 -0.0091832605878357145 -0.0066953382967474898 0 -0.0089157244720108244 -0.0068355630467956761 0 -0.008254746741141206 -0.0071236705502263934 0 0.00017375168791557028 -0.0043855453578206813 0 2.7027722035567692e-05 -0.0045759870158482421 0 -1.8211236150535686e-05 -0.0046891656463067758 0 -0.0049891615368916108 -0.005737608060404637 0 -0.0040488294708039283 -0.0060894691704357099 0 0.0078125580180291327 -0.0025766981877714933 0 0.0078552686848349616 -0.0025669405865333898 0 0.007831932042139474 -0.002560008837027616 0 0.0078125580180291327 -0.0025766981877714933 0 0.0077050613858631869 -0.0025805207545961501 0 0.007831932042139474 -0.002560008837027616 0 0.0037090902465346156 -0.0035602556908764234 0 0.0043340683123703275 -0.0033603490896121592 0 -0.008906728518125899 -0.0067739934010240515 0 -0.009066943269875961 -0.006499993652734814 0 -0.008254746741141206 -0.0071236705502263934 0 -0.0090521993549911618 -0.0067167918538027374 0 -0.0089157244720108244 -0.0068355630467956761 0 -0.008906728518125899 -0.0067739934010240515 0 -0.0090521993549911618 -0.0067167918538027374 0 -0.008906728518125899 -0.0067739934010240515 0 -0.009066943269875961 -0.006499993652734814 0 -0.0089157244720108244 -0.0068355630467956761 0 -0.008906728518125899 -0.0067739934010240515 0 -0.008254746741141206 -0.0071236705502263934 0 -0.0090521993549911618 -0.0067167918538027374 0 -0.009066943269875961 -0.006499993652734814 0 -0.0090846598124837748 -0.0068050064913003682 0 -0.0086963995042486277 -0.0062372551658536656 0 -0.0088158298189298118 -0.0062005274539101212 0 -0.009066943269875961 -0.006499993652734814 0 -0.008254746741141206 -0.0071236705502263934 0 -0.0070004494339457428 -0.0047966617811725024 0 -0.008254746741141206 -0.0071236705502263934 0 -0.0062365117053537582 -0.0057979097096955562 0 -0.0070004494339457428 -0.0047966617811725024 0 0.0078500156887047617 -0.0025862290989827692 0 0.007831932042139474 -0.002560008837027616 0 0.0078028317087595975 -0.0026671454931002322 0 2.7027722035567692e-05 -0.0045759870158482421 0 -1.8211236150535686e-05 -0.0046891656463067758 0 -9.9888396294303515e-05 -0.0048246413348650482 0 0.0043340683123703275 -0.0033603490896121592 0 0.0010449237543641886 -0.0038763975164418361 0 -0.0040488294708039283 -0.0060894691704357099 0 0.0010449237543641886 -0.0038763975164418361 0 0.0078848626861802943 -0.0026021463832032665 0 0.0078500156887047617 -0.0025862290989827692 0 0.0078028317087595975 -0.0026671454931002322 0 -0.00096815563701348987 -0.004763339399547482 0 0.0010449237543641886 -0.0038763975164418361 0 -0.0094359580000390013 -0.0068785148813480966 0 -0.0094430073326651313 -0.0071205074436215847 0 -0.0092711207087385304 -0.0070359470119595981 0 -0.0030325193519502021 -0.0028528668647927035 0 -0.0062365117053537582 -0.0057979097096955562 0 -0.0070004494339457428 -0.0047966617811725024 0 -0.0094359476972057325 -0.0072020880181432965 0 -0.0094359580000390013 -0.0068785148813480966 0 -0.0094430073326651313 -0.0071205074436215847 0 -0.00096815563701348987 -0.004763339399547482 0 -0.0088158298189298118 -0.0062005274539101212 0 -0.0094420526933858377 -0.0072190679547551847 0 -0.0094361113553892775 -0.0071883481017364212 0 -0.0095116169957478579 -0.0072268990845842616 0 -0.0094420526933858377 -0.0072190679547551847 0 -0.0094430073326651313 -0.0071205074436215847 0 -0.0094361113553892775 -0.0071883481017364212 0 -0.0094430073326651313 -0.0071205074436215847 0 -0.0094361113553892775 -0.0071883481017364212 0 -0.0092711207087385304 -0.0070359470119595981 0 -0.0094361113553892775 -0.0071883481017364212 0 -0.009305737074481334 -0.0071790420526170722 0 -0.0092711207087385304 -0.0070359470119595981 0 -0.0094361113553892775 -0.0071883481017364212 0 -0.009305737074481334 -0.0071790420526170722 0 -0.009469975210342884 -0.0072863249280812224 0 -0.009066943269875961 -0.006499993652734814 0 -0.0092711207087385304 -0.0070359470119595981 0 -0.0090846598124837748 -0.0068050064913003682 0 -0.009066943269875961 -0.006499993652734814 0 -0.0094359580000390013 -0.0068785148813480966 0 -0.0092711207087385304 -0.0070359470119595981 0 -0.0092711207087385304 -0.0070359470119595981 0 -0.0090846598124837748 -0.0068050064913003682 0 -0.0091013202782301364 -0.007000321380664044 0 -0.009053320058893333 -0.0068196946609752479 0 -0.0090846598124837748 -0.0068050064913003682 0 -0.0091013202782301364 -0.007000321380664044 0 -0.0089678128885998711 -0.0068960981197941033 0 -0.0091013202782301364 -0.007000321380664044 0 -0.0089713838665770387 -0.0071063139555070263 0 -0.009053320058893333 -0.0068196946609752479 0 -0.0089678128885998711 -0.0068960981197941033 0 -0.0091013202782301364 -0.007000321380664044 0 -0.0089713838665770387 -0.0071063139555070263 0 -0.0091754261198527445 -0.0072201621498675112 0 -0.0090388814318888219 -0.0072787053543184911 0 -0.0091013202782301364 -0.007000321380664044 0 -0.0089713838665770387 -0.0071063139555070263 0 -0.0091754261198527445 -0.0072201621498675112 0 -0.009305737074481334 -0.0071790420526170722 0 -0.0091013202782301364 -0.007000321380664044 0 -0.0091754261198527445 -0.0072201621498675112 0 -0.009305737074481334 -0.0071790420526170722 0 -0.0092711207087385304 -0.0070359470119595981 0 -0.0091013202782301364 -0.007000321380664044 0 -0.0091754261198527445 -0.0072201621498675112 0 -0.0093473294813533718 -0.0073216403116567108 0 -0.0092899286672915669 -0.007428096887600209 0 -0.009305737074481334 -0.0071790420526170722 0 -0.0091754261198527445 -0.0072201621498675112 0 -0.0093473294813533718 -0.0073216403116567108 0 -0.0091754261198527445 -0.0072201621498675112 0 -0.0092899286672915669 -0.007428096887600209 0 -0.0090388814318888219 -0.0072787053543184911 0 -0.0092899286672915669 -0.007428096887600209 0 -0.0089836398669030943 -0.0075006810657997454 0 -0.0094177583720017697 -0.0076796472456937097 0 -0.0092899286672915669 -0.007428096887600209 0 -0.0095101276479390047 -0.007504064970661666 0 -0.0094177583720017697 -0.0076796472456937097 0 -0.0093473294813533718 -0.0073216403116567108 0 -0.0092899286672915669 -0.007428096887600209 0 -0.0095101276479390047 -0.007504064970661666 0 -0.0093473294813533718 -0.0073216403116567108 0 -0.009469975210342884 -0.0072863249280812224 0 -0.0095101276479390047 -0.007504064970661666 0 -0.0095958421193911882 -0.0073549459291179066 0 -0.009469975210342884 -0.0072863249280812224 0 -0.0095101276479390047 -0.007504064970661666 0 -0.0096024911459178311 -0.0072694042129220985 0 -0.0095958421193911882 -0.0073549459291179066 0 -0.0095116169957478579 -0.0072268990845842616 0 -0.0094361113553892775 -0.0071883481017364212 0 -0.0095116169957478579 -0.0072268990845842616 0 -0.009469975210342884 -0.0072863249280812224 0 -0.0095958421193911882 -0.0073549459291179066 0 -0.0095116169957478579 -0.0072268990845842616 0 -0.009469975210342884 -0.0072863249280812224 0 -0.009305737074481334 -0.0071790420526170722 0 -0.0093473294813533718 -0.0073216403116567108 0 -0.009469975210342884 -0.0072863249280812224 0 -0.0096840099731101796 -0.0089321407200715543 0 -0.0093448095374738336 -0.0085078840917192002 0 -0.008490854086121026 -0.0082414733575291044 0 -0.0096840099731101796 -0.0089321407200715543 0 -0.008490854086121026 -0.0082414733575291044 0 -0.0079142444834005808 -0.008635186815462487 0 -0.010482536506059695 -0.0088666867467020842 0 -0.0096840099731101796 -0.0089321407200715543 0 -0.010599394919849176 -0.0091304858589420154 0 -0.0095832773776370755 -0.0088814566531505539 0 -0.0092267901862085038 -0.0088165710447090199 0 -0.010482536506059695 -0.0088666867467020842 0 -0.010799146066326417 -0.0086243304574574759 0 -0.010342568077911016 -0.0085729349387477054 0 -0.010482536506059695 -0.0088666867467020842 0 -0.0096840099731101796 -0.0089321407200715543 0 -0.010342568077911016 -0.0085729349387477054 0 -0.0096840099731101796 -0.0089321407200715543 0 -0.0096020141291422428 -0.0087921602610630846 0 -0.0099573689543798315 -0.0084349991753423677 0 -0.0092899286672915669 -0.007428096887600209 0 -0.0089836398669030943 -0.0075006810657997454 0 -0.0090388814318888219 -0.0072787053543184911 0 -0.0089836398669030943 -0.0075006810657997454 0 -0.0090388814318888219 -0.0072787053543184911 0 -0.0087485286457523511 -0.0072077805921660345 0 -0.0096840099731101796 -0.0089321407200715543 0 -0.0096020141291422428 -0.0087921602610630846 0 -0.0093448095374738336 -0.0085078840917192002 0 -0.0093017403779328128 -0.0081326584387733051 0 -0.0090256448134856879 -0.0078514759286340031 0 -0.0089713838665770387 -0.0071063139555070263 0 -0.0087485286457523511 -0.0072077805921660345 0 -0.0088064645856637796 -0.0070506723388239724 0 -0.0089713838665770387 -0.0071063139555070263 0 -0.0090388814318888219 -0.0072787053543184911 0 -0.0087485286457523511 -0.0072077805921660345 0 -0.0089678128885998711 -0.0068960981197941033 0 -0.0089713838665770387 -0.0071063139555070263 0 -0.0088064645856637796 -0.0070506723388239724 0 -0.0090256448134856879 -0.0078514759286340031 0 -0.0085765662271427082 -0.007187030471849958 0 -0.0087485286457523511 -0.0072077805921660345 0 -0.0088064645856637796 -0.0070506723388239724 0 -0.0085188352911591998 -0.0071556553429956747 0 -0.008490854086121026 -0.0082414733575291044 0 -0.0076493443417156139 -0.0074419036137938713 0 -0.0085188352911591998 -0.0071556553429956747 0 -0.0093448095374738336 -0.0085078840917192002 0 -0.008490854086121026 -0.0082414733575291044 0 -0.0085188352911591998 -0.0071556553429956747 0 -0.008490854086121026 -0.0082414733575291044 0 -0.0079142444834005808 -0.008635186815462487 0 -0.007423311323268603 -0.0079340877408053002 0 -0.008490854086121026 -0.0082414733575291044 0 -0.007423311323268603 -0.0079340877408053002 0 -0.0076493443417156139 -0.0074419036137938713 0 -0.0079142444834005808 -0.008635186815462487 0 -0.007423311323268603 -0.0079340877408053002 0 -0.0062290075474373324 -0.0078979832669821559 0 -0.007423311323268603 -0.0079340877408053002 0 -0.0076493443417156139 -0.0074419036137938713 0 -0.0067327936398545512 -0.0073225638206877051 0 -0.0076493443417156139 -0.0074419036137938713 0 -0.0072999562972459785 -0.0066304127901359467 0 -0.0067327936398545512 -0.0073225638206877051 0 -0.0085188352911591998 -0.0071556553429956747 0 -0.0081632719402888639 -0.0065491845750001859 0 -0.0072999562972459785 -0.0066304127901359467 0 -0.0076493443417156139 -0.0074419036137938713 0 -0.0085188352911591998 -0.0071556553429956747 0 -0.0072999562972459785 -0.0066304127901359467 0 -0.0081632719402888639 -0.0065491845750001859 0 -0.0072999562972459785 -0.0066304127901359467 0 -0.0078789097155825046 -0.0062400592778699433 0 -0.0081632719402888639 -0.0065491845750001859 0 -0.0083123791515485254 -0.0062980260650728793 0 -0.0078789097155825046 -0.0062400592778699433 0 -0.0072999562972459785 -0.0066304127901359467 0 -0.006670959968817565 -0.0055049563345595026 0 -0.0075400613090791787 -0.0056188159497669353 0 -0.0073354369431492929 -0.006579485936953693 0 -0.0077039766342521156 -0.0060423538770629694 0 -0.0072999562972459785 -0.0066304127901359467 0 -0.006670959968817565 -0.0055049563345595026 0 -0.0058522313228962638 -0.0057896660055191951 0 -0.0089678128885998711 -0.0068960981197941033 0 -0.0088064645856637796 -0.0070506723388239724 0 -0.0087832456868504691 -0.006848377626688348 0 -0.0088064645856637796 -0.0070506723388239724 0 -0.0085188352911591998 -0.0071556553429956747 0 -0.0087832456868504691 -0.006848377626688348 0 -0.0085188352911591998 -0.0071556553429956747 0 -0.0087832456868504691 -0.006848377626688348 0 -0.0085576224134993138 -0.006631402042162139 0 -0.0085188352911591998 -0.0071556553429956747 0 -0.0081632719402888639 -0.0065491845750001859 0 -0.0085576224134993138 -0.006631402042162139 0 -0.0081632719402888639 -0.0065491845750001859 0 -0.0085576224134993138 -0.006631402042162139 0 -0.0083123791515485254 -0.0062980260650728793 0 -0.0085576224134993138 -0.006631402042162139 0 -0.0085682556304333534 -0.0064052604044066161 0 -0.0083123791515485254 -0.0062980260650728793 0 -0.0087832456868504691 -0.006848377626688348 0 -0.0085576224134993138 -0.006631402042162139 0 -0.0087540533396650386 -0.0066102333484012159 0 -0.0085576224134993138 -0.006631402042162139 0 -0.0087540533396650386 -0.0066102333484012159 0 -0.0085682556304333534 -0.0064052604044066161 0 -0.0088673543351072293 -0.0065702199897497192 0 -0.0087540533396650386 -0.0066102333484012159 0 -0.0087745525495440384 -0.0065098776227885012 0 -0.0089272436118874449 -0.0067368696155558384 0 -0.0087832456868504691 -0.006848377626688348 0 -0.0087540533396650386 -0.0066102333484012159 0 -0.0087718249559154155 -0.0062137410668255009 0 -0.0088224926909773807 -0.0063291557481151865 0 -0.0086999989366500878 -0.0062641820281174772 0 -0.0088224926909773807 -0.0063291557481151865 0 -0.0086999989366500878 -0.0062641820281174772 0 -0.0087926117297154223 -0.0064229735467469708 0 -0.0086999989366500878 -0.0062641820281174772 0 -0.0087926117297154223 -0.0064229735467469708 0 -0.0086852748832243129 -0.0063887348647647885 0 -0.0087540533396650386 -0.0066102333484012159 0 -0.0087745525495440384 -0.0065098776227885012 0 -0.0086852748832243129 -0.0063887348647647885 0 -0.0088673543351072293 -0.0065702199897497192 0 -0.0087926117297154223 -0.0064229735467469708 0 -0.0087745525495440384 -0.0065098776227885012 0 -0.0087926117297154223 -0.0064229735467469708 0 -0.0087745525495440384 -0.0065098776227885012 0 -0.0086852748832243129 -0.0063887348647647885 0 -0.0087540533396650386 -0.0066102333484012159 0 -0.0086852748832243129 -0.0063887348647647885 0 -0.0085682556304333534 -0.0064052604044066161 0 -0.0086852748832243129 -0.0063887348647647885 0 -0.0085519973235527041 -0.0061745720341012441 0 -0.0085682556304333534 -0.0064052604044066161 0 -0.0086999989366500878 -0.0062641820281174772 0 -0.0086852748832243129 -0.0063887348647647885 0 -0.0085519973235527041 -0.0061745720341012441 0 -0.0085519973235527041 -0.0061745720341012441 0 -0.0083123791515485254 -0.0062980260650728793 0 -0.0081273188782728257 -0.0059919168894883067 0 -0.0085519973235527041 -0.0061745720341012441 0 -0.0085682556304333534 -0.0064052604044066161 0 -0.0083123791515485254 -0.0062980260650728793 0 -0.0085519973235527041 -0.0061745720341012441 0 -0.0086371049734294946 -0.0060250562122440114 0 -0.0081273188782728257 -0.0059919168894883067 0 -0.0033256191454448959 -0.002990790793878447 0 -0.0021785815914575775 -0.0029227427028196409 0 -0.001717697851483858 -0.0018622849731622924 0 -0.0033256191454448959 -0.002990790793878447 0 -0.001717697851483858 -0.0018622849731622924 0 -0.004098126162498451 -0.0016064198753134302 0 -0.0051161131726384671 -0.004113530282025585 0 -0.0065467346836278733 -0.0039350113114776184 0 -0.0013388482143251047 -0.0043380515310363042 0 -0.0051161131726384671 -0.004113530282025585 0 -0.0010271536051732523 -0.0043203452403826979 0 -0.00033275224778727699 -0.0036316481071133064 0 -0.0015837279841027035 -0.0034862316134130406 0 -0.0087718249559154155 -0.0062137410668255009 0 -0.0088466899055767642 -0.0060844054824901843 0 -0.008594618454634561 -0.0061147557954356795 0 -0.0086999989366500878 -0.0062641820281174772 0 -0.0085519973235527041 -0.0061745720341012441 0 -0.008594618454634561 -0.0061147557954356795 0 -0.0068490005055578214 -0.0050372548305877085 0 -0.0051161131726384671 -0.004113530282025585 0 -0.0021785815914575775 -0.0029227427028196409 0 -0.0010416241091598863 -0.0028780452689324714 0 -0.001717697851483858 -0.0018622849731622924 0 0.0035508536901626008 -0.0024176950414470442 0 -0.0051161131726384671 -0.004113530282025585 0 -0.0087718249559154155 -0.0062137410668255009 0 -0.0086999989366500878 -0.0062641820281174772 0 -0.008594618454634561 -0.0061147557954356795 0 -0.006670959968817565 -0.0055049563345595026 0 -0.0075400613090791787 -0.0056188159497669353 0 -0.006349053190083046 -0.0046325872007236439 0 -0.006670959968817565 -0.0055049563345595026 0 -0.006349053190083046 -0.0046325872007236439 0 -0.0055156913686247406 -0.0050555551925837482 0 -0.0077039766342521156 -0.0060423538770629694 0 -0.0065467346836278733 -0.0039350113114776184 0 -0.0083123791515485254 -0.0062980260650728793 0 -0.0078789097155825046 -0.0062400592778699433 0 -0.0081273188782728257 -0.0059919168894883067 0 -0.0075400613090791787 -0.0056188159497669353 0 -0.0081777840602771899 -0.004377779056285779 0 -0.006349053190083046 -0.0046325872007236439 0 -0.0065961198189514042 -0.004015882198109293 0 -0.0069011969723397366 -0.0039376604706200646 0 -0.0068280330396433553 -0.004312572488333717 0 -0.0052271671002499815 -0.0031590811763058451 0 -0.0065467346836278733 -0.0039350113114776184 0 -0.0065467346836278733 -0.0039350113114776184 0 -0.0067773898968249043 -0.0046432267766027529 0 -0.0059284833695351976 -0.0038632463823679358 0 -0.0065961198189514042 -0.004015882198109293 0 -0.006349053190083046 -0.0046325872007236439 0 -0.0065961198189514042 -0.004015882198109293 0 -0.0068280330396433553 -0.004312572488333717 0 -0.006349053190083046 -0.0046325872007236439 0 -0.0043621187785426799 -0.0046362829278351267 0 -0.0043044987358542668 -0.0047677651395858682 0 -0.0059284833695351976 -0.0038632463823679358 0 -0.006349053190083046 -0.0046325872007236439 0 -0.0055156913686247406 -0.0050555551925837482 0 -0.0034605326578094802 -0.00533884654892673 0 -0.0031951798121445207 -0.0051131165292172247 0 -0.0042561204217534945 -0.0048265855817980121 0 -0.0059284833695351976 -0.0038632463823679358 0 -0.0055156913686247406 -0.0050555551925837482 0 -0.0042561204217534945 -0.0048265855817980121 0 -0.0055156913686247406 -0.0050555551925837482 0 -0.0044794791670707147 -0.0056445708523397021 0 -0.0058522313228962638 -0.0057896660055191951 0 -0.006670959968817565 -0.0055049563345595026 0 -0.0055156913686247406 -0.0050555551925837482 0 -0.0058522313228962638 -0.0057896660055191951 0 -0.0055156913686247406 -0.0050555551925837482 0 -0.0044794791670707147 -0.0056445708523397021 0 -0.0042561204217534945 -0.0048265855817980121 0 -0.0044794791670707147 -0.0056445708523397021 0 -0.0041083557546267467 -0.0052211435633128184 0 -0.0042561204217534945 -0.0048265855817980121 0 -0.0041083557546267467 -0.0052211435633128184 0 -0.0042561204217534945 -0.0048265855817980121 0 -0.0039568544842898739 -0.0050820947069926984 0 -0.0042561204217534945 -0.0048265855817980121 0 -0.0038088252296780778 -0.0051127722213047773 0 -0.0039568544842898739 -0.0050820947069926984 0 -0.0034605326578094802 -0.00533884654892673 0 -0.0037063566656160914 -0.0052073096409101655 0 -0.0042561204217534945 -0.0048265855817980121 0 -0.0037063566656160914 -0.0052073096409101655 0 -0.0042561204217534945 -0.0048265855817980121 0 -0.0038088252296780778 -0.0051127722213047773 0 -0.0039908259070139881 -0.005359439294670987 0 -0.0036942655028634041 -0.0053932482247688353 0 -0.0038509975949408298 -0.0052311182815633394 0 -0.0038016175931443524 -0.0051645730269726875 0 -0.0037318761964768542 -0.0051940069909521512 0 -0.0038509975949408298 -0.0052311182815633394 0 -0.0042371563424491339 -0.0060029280896092829 0 -0.0044084554345065847 -0.0059508118250918632 0 -0.0038088252296780778 -0.0051127722213047773 0 -0.0038016175931443524 -0.0051645730269726875 0 -0.0038196042974843985 -0.0051344373107177679 0 -0.0038509975949408298 -0.0052311182815633394 0 -0.0037573430381015438 -0.0052405162218693265 0 -0.0038016175931443524 -0.0051645730269726875 0 -0.0037573430381015438 -0.0052405162218693265 0 -0.0038088252296780778 -0.0051127722213047773 0 -0.0038016175931443524 -0.0051645730269726875 0 -0.0038016175931443524 -0.0051645730269726875 0 -0.0038196042974843985 -0.0051344373107177679 0 -0.0037318761964768542 -0.0051940069909521512 0 -0.0038088252296780778 -0.0051127722213047773 0 -0.0039568544842898739 -0.0050820947069926984 0 -0.0038196042974843985 -0.0051344373107177679 0 -0.0038509975949408298 -0.0052311182815633394 0 -0.0037551819228409328 -0.0052697671336301979 0 -0.0042371563424491339 -0.0060029280896092829 0 -0.0067848009018907389 -0.005654092379395027 0 -0.0073768190538628046 -0.0067468289655335956 0 -0.0096697622229037165 -0.0061495024830489648 0 -0.0098223690432726728 -0.0069025022787152232 0 -0.010365650002138359 -0.0073313398404494358 0 -0.0098223690432726728 -0.0069025022787152232 0 -0.0095109052725720761 -0.0065942874037347417 0 -0.0093980955978853614 -0.0071152678878359348 0 -0.0096697622229037165 -0.0061495024830489648 0 -0.0098223690432726728 -0.0069025022787152232 0 -0.0095109052725720761 -0.0065942874037347417 0 -0.0098223690432726728 -0.0069025022787152232 0 -0.0099319651100680112 -0.0073492828793054032 0 -0.0093980955978853614 -0.0071152678878359348 0 -0.0098223690432726728 -0.0069025022787152232 0 -0.0099319651100680112 -0.0073492828793054032 0 -0.010365650002138359 -0.0073313398404494358 0 -0.0099319651100680112 -0.0073492828793054032 0 -0.010365650002138359 -0.0073313398404494358 0 -0.010198366323553868 -0.0077815474313808284 0 -0.0099319651100680112 -0.0073492828793054032 0 -0.0097439575699803695 -0.0076049922941001102 0 -0.010198366323553868 -0.0077815474313808284 0 -0.0099319651100680112 -0.0073492828793054032 0 -0.0097439575699803695 -0.0076049922941001102 0 -0.0093980955978853614 -0.0071152678878359348 0 -0.0042371563424491339 -0.0060029280896092829 0 -0.0044084554345065847 -0.0059508118250918632 0 -0.0051699816020972277 -0.0072332678738943959 0 -0.0039568544842898739 -0.0050820947069926984 0 -0.0038196042974843985 -0.0051344373107177679 0 -0.0037318761964768542 -0.0051940069909521512 0 -0.0041083557546267467 -0.0052211435633128184 0 -0.0039568544842898739 -0.0050820947069926984 0 -0.0037318761964768542 -0.0051940069909521512 0 -0.0044794791670707147 -0.0056445708523397021 0 -0.0041083557546267467 -0.0052211435633128184 0 -0.0037318761964768542 -0.0051940069909521512 0 -0.010365650002138359 -0.0073313398404494358 0 -0.010198366323553868 -0.0077815474313808284 0 -0.01071518975246142 -0.0080796399668159238 0 -0.0036942655028634041 -0.0053932482247688353 0 -0.0074673513607821911 -0.0073299032040096794 0 -0.0073768190538628046 -0.0067468289655335956 0 -0.0074673513607821911 -0.0073299032040096794 0 -0.010198366323553868 -0.0077815474313808284 0 -0.010280028690348251 -0.0081356455067590622 0 -0.01071518975246142 -0.0080796399668159238 0 -0.0097439575699803695 -0.0076049922941001102 0 -0.010198366323553868 -0.0077815474313808284 0 -0.0099868871013528964 -0.0080344953755966866 0 -0.010198366323553868 -0.0077815474313808284 0 -0.0099868871013528964 -0.0080344953755966866 0 -0.010280028690348251 -0.0081356455067590622 0 -0.0099868871013528964 -0.0080344953755966866 0 -0.010121603468886593 -0.0084189241129718727 0 -0.0096786830168392735 -0.008224711667614442 0 -0.0099868871013528964 -0.0080344953755966866 0 -0.010121603468886593 -0.0084189241129718727 0 -0.010280028690348251 -0.0081356455067590622 0 -0.010280028690348251 -0.0081356455067590622 0 -0.010518881496101104 -0.0084492164908500037 0 -0.01071518975246142 -0.0080796399668159238 0 -0.010121603468886593 -0.0084189241129718727 0 -0.010280028690348251 -0.0081356455067590622 0 -0.010518881496101104 -0.0084492164908500037 0 -0.0074673513607821911 -0.0073299032040096794 0 -0.008452481890474265 -0.008235557366912602 0 -0.0058775196126179957 -0.0071306849937642991 0 -0.0059874418046577445 -0.0067080632399434178 0 -0.0045335910690555547 -0.0065884296819467905 0 -0.0058775196126179957 -0.0071306849937642991 0 -0.0045335910690555547 -0.0065884296819467905 0 -0.0062290075474373324 -0.0078979832669821559 0 -0.010409763811054682 -0.0083633470534556307 0 -0.010076454925626145 -0.0078365167621375666 0 -0.010821201717773144 -0.008714973984626102 0 -0.010518881496101104 -0.0084492164908500037 0 -0.010812127013274699 -0.0084539786338621945 0 -0.01071518975246142 -0.0080796399668159238 0 -0.010669077510139119 -0.0086983878890831319 0 -0.0074673513607821911 -0.0073299032040096794 0 -0.0072999562972459785 -0.0066304127901359467 0 -0.0067327936398545512 -0.0073225638206877051 0 -0.0059874418046577445 -0.0067080632399434178 0 -0.0058775196126179957 -0.0071306849937642991 0 -0.0067327936398545512 -0.0073225638206877051 0 -0.0062290075474373324 -0.0078979832669821559 0 -0.0058775196126179957 -0.0071306849937642991 0 -0.0067327936398545512 -0.0073225638206877051 0 -0.0059874418046577445 -0.0067080632399434178 0 -0.0072999562972459785 -0.0066304127901359467 0 -0.0059874418046577445 -0.0067080632399434178 0 -0.0058522313228962638 -0.0057896660055191951 0 -0.0059874418046577445 -0.0067080632399434178 0 -0.0058522313228962638 -0.0057896660055191951 0 -0.0052156932478335328 -0.0061755722485825511 0 -0.0044794791670707147 -0.0056445708523397021 0 -0.0037318761964768542 -0.0051940069909521512 0 -0.0045335910690555547 -0.0065884296819467905 0 -0.0044794791670707147 -0.0056445708523397021 0 -0.0058522313228962638 -0.0057896660055191951 0 -0.0052156932478335328 -0.0061755722485825511 0 -0.0044794791670707147 -0.0056445708523397021 0 -0.0052156932478335328 -0.0061755722485825511 0 -0.0045335910690555547 -0.0065884296819467905 0 -0.0059874418046577445 -0.0067080632399434178 0 -0.0052156932478335328 -0.0061755722485825511 0 -0.0045335910690555547 -0.0065884296819467905 0 -0.0062338147711083671 -0.0060312421454377227 0 -0.0062242630959993567 -0.0059879030562313314 0 -0.0062563831606499377 -0.0059875533973025342 0 -0.0022013682648836679 -0.0069752017840661214 0 -0.0020389832436494256 -0.0068941328398042703 0 -0.0020431467280718914 -0.0072620150619090726 0 -0.0045873757705286542 -0.0070007251569554263 0 -0.0049483821938353136 -0.0066163961597002913 0 -0.0024102028421386073 -0.0063687658862410729 0 -0.0017506772782914504 -0.0075102495485718426 0 -0.0012457232029856739 -0.0072414994676453471 0 -0.0045873757705286542 -0.0070007251569554263 0 0.0018302863458660432 -0.0074903166766278244 0 -0.0024086054447757161 -0.0066246252904683719 0 -0.0045873757705286542 -0.0070007251569554263 0 -0.0024086054447757161 -0.0066246252904683719 0 0.0018302863458660432 -0.0074903166766278244 0 -0.0075293584394733742 -0.0059111153814050861 0 -0.0068879178992555991 -0.0070092270912218944 0 -0.0077261190607081261 -0.0066646561437088856 0 -0.0075293584394733742 -0.0059111153814050861 0 -0.0077261190607081261 -0.0066646561437088856 0 -0.0080729454510187933 -0.006330915754889868 0 -0.0068879178992555991 -0.0070092270912218944 0 -0.0077261190607081261 -0.0066646561437088856 0 -0.0078582198021249199 -0.0071645822063113353 0 -0.0045873757705286542 -0.0070007251569554263 0 -0.0077929214656953499 -0.006947371618778125 0 -0.0068879178992555991 -0.0070092270912218944 0 -0.008069064763676588 -0.0076143496995359893 0 -0.0078582198021249199 -0.0071645822063113353 0 -0.0062338147711083671 -0.0060312421454377227 0 -0.0062242630959993567 -0.0059879030562313314 0 -0.0061862708168168379 -0.005996516031448869 0 -0.0081061771839363809 -0.0074899406116541679 0 -0.0080779144360195124 -0.0076091230400945958 0 -0.0085277106521451373 -0.0075050556752733807 0 -0.0081061771839363809 -0.0074899406116541679 0 -0.008069064763676588 -0.0076143496995359893 0 -0.0078582198021249199 -0.0071645822063113353 0 -0.0077917435186200187 -0.0070405675585365913 0 -0.0077929214656953499 -0.006947371618778125 0 -0.0080779144360195124 -0.0076091230400945958 0 -0.0085277106521451373 -0.0075050556752733807 0 -0.008701679954049437 -0.007869571956769782 0 -0.0085277106521451373 -0.0075050556752733807 0 -0.0083549168828870243 -0.0072826997045479149 0 -0.0087642075650318629 -0.0072095344565202002 0 -0.0081061771839363809 -0.0074899406116541679 0 -0.0085277106521451373 -0.0075050556752733807 0 -0.0083549168828870243 -0.0072826997045479149 0 -0.0083549168828870243 -0.0072826997045479149 0 -0.0082776884541908551 -0.0069655480614007146 0 -0.0087642075650318629 -0.0072095344565202002 0 -0.0082776884541908551 -0.0069655480614007146 0 -0.0088324332392165916 -0.0067517712202698598 0 -0.0087642075650318629 -0.0072095344565202002 0 -0.0082776884541908551 -0.0069655480614007146 0 -0.0081494319224392712 -0.0072246720704685213 0 -0.0078582198021249199 -0.0071645822063113353 0 -0.0077261190607081261 -0.0066646561437088856 0 -0.0082776884541908551 -0.0069655480614007146 0 -0.0078582198021249199 -0.0071645822063113353 0 -0.0081061771839363809 -0.0074899406116541679 0 -0.0083549168828870243 -0.0072826997045479149 0 -0.0081494319224392712 -0.0072246720704685213 0 -0.0083549168828870243 -0.0072826997045479149 0 -0.0082776884541908551 -0.0069655480614007146 0 -0.0081494319224392712 -0.0072246720704685213 0 -0.0081061771839363809 -0.0074899406116541679 0 -0.0081494319224392712 -0.0072246720704685213 0 -0.0078582198021249199 -0.0071645822063113353 0 -0.0077261190607081261 -0.0066646561437088856 0 -0.0082776884541908551 -0.0069655480614007146 0 -0.0080729454510187933 -0.006330915754889868 0 -0.0084334384054165629 -0.0059272481149282921 0 -0.0085060385956094806 -0.0064324286820613853 0 -0.0088366029020582864 -0.0062494546962792814 0 -0.0084334384054165629 -0.0059272481149282921 0 -0.0080729454510187933 -0.006330915754889868 0 -0.0085060385956094806 -0.0064324286820613853 0 -0.0082776884541908551 -0.0069655480614007146 0 -0.0080729454510187933 -0.006330915754889868 0 -0.0085060385956094806 -0.0064324286820613853 0 -0.0082776884541908551 -0.0069655480614007146 0 -0.0085060385956094806 -0.0064324286820613853 0 -0.0088324332392165916 -0.0067517712202698598 0 -0.0088324332392165916 -0.0067517712202698598 0 -0.0088366029020582864 -0.0062494546962792814 0 -0.0092024149810295344 -0.0065991492807382151 0 -0.0085060385956094806 -0.0064324286820613853 0 -0.0088324332392165916 -0.0067517712202698598 0 -0.0088366029020582864 -0.0062494546962792814 0 -0.0096697622229037165 -0.0061495024830489648 0 -0.0095109052725720761 -0.0065942874037347417 0 -0.0092439072298739645 -0.0062522339220318123 0 -0.0088366029020582864 -0.0062494546962792814 0 -0.0092439072298739645 -0.0062522339220318123 0 -0.0092024149810295344 -0.0065991492807382151 0 -0.0095109052725720761 -0.0065942874037347417 0 -0.0092439072298739645 -0.0062522339220318123 0 -0.0092024149810295344 -0.0065991492807382151 0 -0.0088324332392165916 -0.0067517712202698598 0 -0.0092024149810295344 -0.0065991492807382151 0 -0.0093980955978853614 -0.0071152678878359348 0 -0.0095109052725720761 -0.0065942874037347417 0 -0.0092024149810295344 -0.0065991492807382151 0 -0.0093980955978853614 -0.0071152678878359348 0 -0.0093980955978853614 -0.0071152678878359348 0 -0.0087642075650318629 -0.0072095344565202002 0 -0.0091380446317452565 -0.0075936257704751382 0 -0.0088324332392165916 -0.0067517712202698598 0 -0.0093980955978853614 -0.0071152678878359348 0 -0.0087642075650318629 -0.0072095344565202002 0 -0.0085277106521451373 -0.0075050556752733807 0 -0.0087642075650318629 -0.0072095344565202002 0 -0.0091380446317452565 -0.0075936257704751382 0 -0.0085277106521451373 -0.0075050556752733807 0 -0.0091380446317452565 -0.0075936257704751382 0 -0.008701679954049437 -0.007869571956769782 0 -0.0097439575699803695 -0.0076049922941001102 0 -0.0093980955978853614 -0.0071152678878359348 0 -0.0091380446317452565 -0.0075936257704751382 0 -0.0091380446317452565 -0.0075936257704751382 0 -0.0088851373345375639 -0.0086790719978727601 0 -0.008701679954049437 -0.007869571956769782 0 -0.0097994425923500425 -0.0075800783636971554 0 -0.0091282546087143607 -0.0085445230856775172 0 -0.0097439575699803695 -0.0076049922941001102 0 -0.0099868871013528964 -0.0080344953755966866 0 -0.0096786830168392735 -0.008224711667614442 0 -0.0097439575699803695 -0.0076049922941001102 0 -0.0091380446317452565 -0.0075936257704751382 0 -0.0088851373345375639 -0.0086790719978727601 0 -0.010121603468886593 -0.0084189241129718727 0 -0.0096786830168392735 -0.008224711667614442 0 -0.0098553690919207949 -0.008594005186257166 0 -0.0088851373345375639 -0.0086790719978727601 0 -0.0082503223043666283 -0.0090139277986334646 0 -0.0080288880909120605 -0.0084969449046323458 0 -0.0061862708168168379 -0.005996516031448869 0 -0.0062120445697024318 -0.0059339489266991858 0 -0.0062122712106642605 -0.0059094844143195643 0 -0.0082438757166276872 -0.0076180724484478215 0 -0.008701679954049437 -0.007869571956769782 0 -0.0080288880909120605 -0.0084969449046323458 0 -0.0077929214656953499 -0.006947371618778125 0 -0.0070467858843150108 -0.0072484802806205718 0 -0.0088851373345375639 -0.0086790719978727601 0 -0.008701679954049437 -0.007869571956769782 0 -0.0080288880909120605 -0.0084969449046323458 0 -0.0077929214656953499 -0.006947371618778125 0 -0.008740017125266163 -0.0077899297964316265 0 -0.0066861754192065626 -0.0058279802397385675 0 -0.0049483821938353136 -0.0066163961597002913 0 -0.0062242630959993567 -0.0059879030562313314 0 -0.0062120445697024318 -0.0059339489266991858 0 -0.0062563831606499377 -0.0059875533973025342 0 -0.0062120445697024318 -0.0059339489266991858 0 -0.0062234678917171158 -0.0058835167143802452 0 -0.0062293108959445226 -0.0058435187054242518 0 -0.0062242630959993567 -0.0059879030562313314 0 -0.0061862708168168379 -0.005996516031448869 0 -0.0062120445697024318 -0.0059339489266991858 0 -0.0062202936192704786 -0.0059056810071438344 0 -0.0062120445697024318 -0.0059339489266991858 0 -0.0062234678917171158 -0.0058835167143802452 0 -0.0062221673841111004 -0.0058945150888935916 0 -0.0062202936192704786 -0.0059056810071438344 0 -0.0062234678917171158 -0.0058835167143802452 0 -0.0062202936192704786 -0.0059056810071438344 0 -0.0062120445697024318 -0.0059339489266991858 0 -0.0062122712106642605 -0.0059094844143195643 0 -0.0062122712106642605 -0.0059094844143195643 0 -0.0062173153344573821 -0.0059047447941428096 0 -0.0062183629631862936 -0.0059117856380552173 0 -0.0070467858843150108 -0.0072484802806205718 0 -0.0075449632809817214 -0.0074141037517442658 0 -0.0082503223043666283 -0.0090139277986334646 0 -0.0080288880909120605 -0.0084969449046323458 0 -0.0078391617152436342 -0.0093063742095221644 0 -0.0062202936192704786 -0.0059056810071438344 0 -0.0062122712106642605 -0.0059094844143195643 0 -0.0062173153344573821 -0.0059047447941428096 0 -0.0062173153344573821 -0.0059047447941428096 0 -0.0062155606286130914 -0.0059111817493845203 0 -0.0062157395842612068 -0.0059063784906582574 0 -0.0062165324485934596 -0.0059040395900941964 0 -0.0062177975558313867 -0.0059030801536682394 0 -0.0062157395842612068 -0.0059063784906582574 0 -0.0062165324485934596 -0.0059040395900941964 0 -0.0062189365264920474 -0.0059004628712882191 0 -0.0062175071079233037 -0.0059015725132262661 0 -0.0062165324485934596 -0.0059040395900941964 0 -0.0062147468068766247 -0.0059048267729012484 0 -0.0062157395842612068 -0.0059063784906582574 0 -0.0062165324485934596 -0.0059040395900941964 0 -0.0062175071079233037 -0.0059015725132262661 0 -0.0062147468068766247 -0.0059048267729012484 0 -0.0062173153344573821 -0.0059047447941428096 0 -0.0062177975558313867 -0.0059030801536682394 0 -0.0062157395842612068 -0.0059063784906582574 0 -0.0062173153344573821 -0.0059047447941428096 0 -0.00621950563491368 -0.0059007606425181425 0 -0.0062177975558313867 -0.0059030801536682394 0 -0.0062165324485934596 -0.0059040395900941964 0 -0.0062177975558313867 -0.0059030801536682394 0 -0.0062189365264920474 -0.0059004628712882191 0 -0.00621950563491368 -0.0059007606425181425 0 -0.0062177975558313867 -0.0059030801536682394 0 -0.0062189365264920474 -0.0059004628712882191 0 -0.00621950563491368 -0.0059007606425181425 0 -0.0062189365264920474 -0.0059004628712882191 0 -0.0062212038618048209 -0.005896493730426583 0 -0.00621950563491368 -0.0059007606425181425 0 -0.0062213496226857425 -0.0058998656566645897 0 -0.0062212038618048209 -0.005896493730426583 0 -0.0062173153344573821 -0.0059047447941428096 0 -0.00621950563491368 -0.0059007606425181425 0 -0.0062213496226857425 -0.0058998656566645897 0 -0.0062202936192704786 -0.0059056810071438344 0 -0.0062173153344573821 -0.0059047447941428096 0 -0.0062213496226857425 -0.0058998656566645897 0 -0.0062213496226857425 -0.0058998656566645897 0 -0.0062224325573952783 -0.0058921714776983746 0 -0.0062212038618048209 -0.005896493730426583 0 -0.0062221673841111004 -0.0058945150888935916 0 -0.0062202936192704786 -0.0059056810071438344 0 -0.0062213496226857425 -0.0058998656566645897 0 -0.0062221673841111004 -0.0058945150888935916 0 -0.0062213496226857425 -0.0058998656566645897 0 -0.0062234166081086232 -0.0058880468096602348 0 -0.0062213496226857425 -0.0058998656566645897 0 -0.0062224325573952783 -0.0058921714776983746 0 -0.0062234166081086232 -0.0058880468096602348 0 -0.0062224325573952783 -0.0058921714776983746 0 -0.006223335388657685 -0.0058860708661949415 0 -0.0062234166081086232 -0.0058880468096602348 0 -0.0062224325573952783 -0.0058921714776983746 0 -0.006223335388657685 -0.0058860708661949415 0 -0.0062221423157044955 -0.0058903826354148566 0 -0.0062233226207444939 -0.0058817996798868569 0 -0.0062221423157044955 -0.0058903826354148566 0 -0.006221277894359379 -0.005887341626481757 0 -0.0062233226207444939 -0.0058817996798868569 0 -0.006223335388657685 -0.0058860708661949415 0 -0.0062243829857708622 -0.0058803443854333511 0 -0.0062233226207444939 -0.0058817996798868569 0 -0.006223335388657685 -0.0058860708661949415 0 -0.0062221423157044955 -0.0058903826354148566 0 -0.0062221423157044955 -0.0058903826354148566 0 -0.0062197908909053671 -0.0058940935493148041 0 -0.006221277894359379 -0.005887341626481757 0 -0.0062221423157044955 -0.0058903826354148566 0 -0.0062196283267489548 -0.0058975055274885337 0 -0.0062197908909053671 -0.0058940935493148041 0 -0.0062224325573952783 -0.0058921714776983746 0 -0.0062221423157044955 -0.0058903826354148566 0 -0.0062212038618048209 -0.005896493730426583 0 -0.0062221423157044955 -0.0058903826354148566 0 -0.0062212038618048209 -0.005896493730426583 0 -0.0062196283267489548 -0.0058975055274885337 0 -0.0062189365264920474 -0.0059004628712882191 0 -0.0062212038618048209 -0.005896493730426583 0 -0.0062196283267489548 -0.0058975055274885337 0 -0.0062189365264920474 -0.0059004628712882191 0 -0.0062196283267489548 -0.0058975055274885337 0 -0.0062175071079233037 -0.0059015725132262661 0 -0.0062196283267489548 -0.0058975055274885337 0 -0.0062169672357284961 -0.005900810486688308 0 -0.0062175071079233037 -0.0059015725132262661 0 -0.0062197908909053671 -0.0058940935493148041 0 -0.0062169672357284961 -0.005900810486688308 0 -0.0062172053379615901 -0.0058978326794908408 0 -0.0062196283267489548 -0.0058975055274885337 0 -0.0062197908909053671 -0.0058940935493148041 0 -0.0062169672357284961 -0.005900810486688308 0 -0.0062169672357284961 -0.005900810486688308 0 -0.006214243997577292 -0.0059035975652952126 0 -0.0062135187134466797 -0.005905042437733204 0 -0.0062169672357284961 -0.005900810486688308 0 -0.0062172053379615901 -0.0058978326794908408 0 -0.006214243997577292 -0.0059035975652952126 0 -0.0062169672357284961 -0.005900810486688308 0 -0.0062147468068766247 -0.0059048267729012484 0 -0.0062135187134466797 -0.005905042437733204 0 -0.0062169672357284961 -0.005900810486688308 0 -0.0062175071079233037 -0.0059015725132262661 0 -0.0062147468068766247 -0.0059048267729012484 0 -0.0062149174035553232 -0.0059008144954018783 0 -0.0062172053379615901 -0.0058978326794908408 0 -0.0062168146227672087 -0.0058948979444732154 0 -0.0062142227957539802 -0.0058976450856699104 0 -0.0062149174035553232 -0.0059008144954018783 0 -0.0062116237749132658 -0.0059076240106243965 0 -0.0062142227957539802 -0.0058976450856699104 0 -0.0062149174035553232 -0.0059008144954018783 0 -0.0062168146227672087 -0.0058948979444732154 0 -0.0062149174035553232 -0.0059008144954018783 0 -0.0062172053379615901 -0.0058978326794908408 0 -0.006214243997577292 -0.0059035975652952126 0 -0.0062172053379615901 -0.0058978326794908408 0 -0.0062191662989049589 -0.0058906860954397238 0 -0.0062168146227672087 -0.0058948979444732154 0 -0.0062197908909053671 -0.0058940935493148041 0 -0.0062172053379615901 -0.0058978326794908408 0 -0.0062191662989049589 -0.0058906860954397238 0 -0.0062171324075939328 -0.0058872197900234182 0 -0.0062191662989049589 -0.0058906860954397238 0 -0.0062168146227672087 -0.0058948979444732154 0 -0.0062171324075939328 -0.0058872197900234182 0 -0.0062191662989049589 -0.0058906860954397238 0 -0.0062202350285422425 -0.0058827629646953988 0 -0.0062181123404758164 -0.0058789028963728718 0 -0.0062171324075939328 -0.0058872197900234182 0 -0.0062202350285422425 -0.0058827629646953988 0 -0.0062197908909053671 -0.0058940935493148041 0 -0.0062191662989049589 -0.0058906860954397238 0 -0.006221277894359379 -0.005887341626481757 0 -0.0062191662989049589 -0.0058906860954397238 0 -0.0062202350285422425 -0.0058827629646953988 0 -0.006221277894359379 -0.005887341626481757 0 -0.0062202350285422425 -0.0058827629646953988 0 -0.006221277894359379 -0.005887341626481757 0 -0.0062219261668553872 -0.0058801950957678368 0 -0.0062233226207444939 -0.0058817996798868569 0 -0.006221277894359379 -0.005887341626481757 0 -0.0062219261668553872 -0.0058801950957678368 0 -0.0062233226207444939 -0.0058817996798868569 0 -0.0062219261668553872 -0.0058801950957678368 0 -0.0062231209955565551 -0.0058726906964159829 0 -0.0062181123404758164 -0.0058789028963728718 0 -0.0062202350285422425 -0.0058827629646953988 0 -0.0062203632103100875 -0.0058741317928311648 0 -0.0062202350285422425 -0.0058827629646953988 0 -0.0062219261668553872 -0.0058801950957678368 0 -0.0062203632103100875 -0.0058741317928311648 0 -0.0062219261668553872 -0.0058801950957678368 0 -0.0062203632103100875 -0.0058741317928311648 0 -0.0062231209955565551 -0.0058726906964159829 0 -0.0062203632103100875 -0.0058741317928311648 0 -0.0062215845417840365 -0.0058667964314990401 0 -0.0062231209955565551 -0.0058726906964159829 0 -0.0062193091294902173 -0.0058599462288234667 0 -0.0062203632103100875 -0.0058741317928311648 0 -0.0062215845417840365 -0.0058667964314990401 0 -0.0062193091294902173 -0.0058599462288234667 0 -0.0062215845417840365 -0.0058667964314990401 0 -0.0062213050512687764 -0.0058593841130056539 0 -0.0062215845417840365 -0.0058667964314990401 0 -0.0062230649905639524 -0.0058656692899645337 0 -0.0062213050512687764 -0.0058593841130056539 0 -0.0062215845417840365 -0.0058667964314990401 0 -0.0062230649905639524 -0.0058656692899645337 0 -0.0062231209955565551 -0.0058726906964159829 0 -0.0062229109175825593 -0.0058591328939623056 0 -0.0062243433368628634 -0.0058593664093180078 0 -0.006224281030969751 -0.0058661490930615613 0 -0.0062230649905639524 -0.0058656692899645337 0 -0.0062229109175825593 -0.0058591328939623056 0 -0.006224281030969751 -0.0058661490930615613 0 -0.0062230649905639524 -0.0058656692899645337 0 -0.0062229109175825593 -0.0058591328939623056 0 -0.0062213050512687764 -0.0058593841130056539 0 -0.0062205325579697754 -0.0058520990818968837 0 -0.0062229109175825593 -0.0058591328939623056 0 -0.0062213050512687764 -0.0058593841130056539 0 -0.0062205325579697754 -0.0058520990818968837 0 -0.0062229109175825593 -0.0058591328939623056 0 -0.0062225847694305442 -0.0058520596580369268 0 -0.0062205325579697754 -0.0058520990818968837 0 -0.0062215280746097529 -0.0058436094162272649 0 -0.0062225847694305442 -0.0058520596580369268 0 -0.0062229109175825593 -0.0058591328939623056 0 -0.0062225847694305442 -0.0058520596580369268 0 -0.0062243433368628634 -0.0058593664093180078 0 -0.0062225847694305442 -0.0058520596580369268 0 -0.0062243433368628634 -0.0058593664093180078 0 -0.0062243566534553093 -0.0058525819700883429 0 -0.0062243433368628634 -0.0058593664093180078 0 -0.0062243566534553093 -0.0058525819700883429 0 -0.0062254404660735205 -0.0058606326329019055 0 -0.0062243566534553093 -0.0058525819700883429 0 -0.0062257344505197432 -0.0058539313184188908 0 -0.0062250241177510962 -0.0058462683277785829 0 -0.0062215280746097529 -0.0058436094162272649 0 -0.0062243566534553093 -0.0058525819700883429 0 -0.0062250241177510962 -0.0058462683277785829 0 -0.0062215280746097529 -0.0058436094162272649 0 -0.0062225847694305442 -0.0058520596580369268 0 -0.0062243566534553093 -0.0058525819700883429 0 -0.0062260846915583841 -0.0058626657763642485 0 -0.0062259326684770385 -0.0058665065289051511 0 -0.0062271399750319801 -0.0058546171808485838 0 -0.0062260846915583841 -0.0058626657763642485 0 -0.0062257344505197432 -0.0058539313184188908 0 -0.0062271399750319801 -0.0058546171808485838 0 -0.0062260846915583841 -0.0058626657763642485 0 -0.0062257344505197432 -0.0058539313184188908 0 -0.0062254404660735205 -0.0058606326329019055 0 -0.0062243566534553093 -0.0058525819700883429 0 -0.0062257344505197432 -0.0058539313184188908 0 -0.0062254404660735205 -0.0058606326329019055 0 -0.0062254404660735205 -0.0058606326329019055 0 -0.0062251158888970036 -0.0058670800930275156 0 -0.006224281030969751 -0.0058661490930615613 0 -0.0062243433368628634 -0.0058593664093180078 0 -0.0062254404660735205 -0.0058606326329019055 0 -0.006224281030969751 -0.0058661490930615613 0 -0.0062260846915583841 -0.0058626657763642485 0 -0.0062254404660735205 -0.0058606326329019055 0 -0.0062251158888970036 -0.0058670800930275156 0 -0.0062260846915583841 -0.0058626657763642485 0 -0.0062251158888970036 -0.0058670800930275156 0 -0.0062253788015077865 -0.005870889768257454 0 -0.0062251158888970036 -0.0058670800930275156 0 -0.006224281030969751 -0.0058661490930615613 0 -0.0062245021132774541 -0.0058731523364728084 0 -0.0062251158888970036 -0.0058670800930275156 0 -0.0062245021132774541 -0.0058731523364728084 0 -0.0062253788015077865 -0.005870889768257454 0 -0.006224281030969751 -0.0058661490930615613 0 -0.0062231209955565551 -0.0058726906964159829 0 -0.0062245021132774541 -0.0058731523364728084 0 -0.0062230649905639524 -0.0058656692899645337 0 -0.006224281030969751 -0.0058661490930615613 0 -0.0062231209955565551 -0.0058726906964159829 0 -0.0062233226207444939 -0.0058817996798868569 0 -0.0062231209955565551 -0.0058726906964159829 0 -0.0062245021132774541 -0.0058731523364728084 0 -0.0062233226207444939 -0.0058817996798868569 0 -0.0062245021132774541 -0.0058731523364728084 0 -0.0062243829857708622 -0.0058803443854333511 0 -0.0062243829857708622 -0.0058803443854333511 0 -0.0062253788015077865 -0.005870889768257454 0 -0.0062247198099992587 -0.0058785627849758841 0 -0.0062245021132774541 -0.0058731523364728084 0 -0.0062243829857708622 -0.0058803443854333511 0 -0.0062253788015077865 -0.005870889768257454 0 -0.0062221673841111004 -0.0058945150888935916 0 -0.0062234166081086232 -0.0058880468096602348 0 -0.0062234678917171158 -0.0058835167143802452 0 -0.0062234166081086232 -0.0058880468096602348 0 -0.0062234678917171158 -0.0058835167143802452 0 -0.0062247198099992587 -0.0058785627849758841 0 -0.006223335388657685 -0.0058860708661949415 0 -0.0062243829857708622 -0.0058803443854333511 0 -0.0062234166081086232 -0.0058880468096602348 0 -0.0062243829857708622 -0.0058803443854333511 0 -0.0062234166081086232 -0.0058880468096602348 0 -0.0062247198099992587 -0.0058785627849758841 0 -0.0062234678917171158 -0.0058835167143802452 0 -0.0062247198099992587 -0.0058785627849758841 0 -0.0062259326684770385 -0.0058665065289051511 0 -0.0062253788015077865 -0.005870889768257454 0 -0.0062247198099992587 -0.0058785627849758841 0 -0.0062259326684770385 -0.0058665065289051511 0 -0.0062260846915583841 -0.0058626657763642485 0 -0.0062253788015077865 -0.005870889768257454 0 -0.0062259326684770385 -0.0058665065289051511 0 -0.0062234678917171158 -0.0058835167143802452 0 -0.0062259326684770385 -0.0058665065289051511 0 -0.0062293108959445226 -0.0058435187054242518 0 -0.0062293108959445226 -0.0058435187054242518 0 -0.0062220407063343676 -0.0058343399296815297 0 -0.0062250241177510962 -0.0058462683277785829 0 -0.0062215280746097529 -0.0058436094162272649 0 -0.0062220407063343676 -0.0058343399296815297 0 -0.0062250241177510962 -0.0058462683277785829 0 -0.0062257344505197432 -0.0058539313184188908 0 -0.0062250241177510962 -0.0058462683277785829 0 -0.0062265010357132897 -0.0058512451975894844 0 -0.0062293108959445226 -0.0058435187054242518 0 -0.0062250241177510962 -0.0058462683277785829 0 -0.0062265010357132897 -0.0058512451975894844 0 -0.0062259326684770385 -0.0058665065289051511 0 -0.0062293108959445226 -0.0058435187054242518 0 -0.0062271399750319801 -0.0058546171808485838 0 -0.0062257344505197432 -0.0058539313184188908 0 -0.0062265010357132897 -0.0058512451975894844 0 -0.0062271399750319801 -0.0058546171808485838 0 -0.0062293108959445226 -0.0058435187054242518 0 -0.0062265010357132897 -0.0058512451975894844 0 -0.0062271399750319801 -0.0058546171808485838 0 -0.006200414158155327 -0.0059053830454703082 0 -0.0061794615462698243 -0.0058973646882928728 0 -0.0061945181423854936 -0.0058703206587750736 0 -0.006200414158155327 -0.0059053830454703082 0 -0.0062043214242661106 -0.0059093279175235726 0 -0.0061794615462698243 -0.0058973646882928728 0 -0.0062078590835635021 -0.0059148208871463298 0 -0.006200414158155327 -0.0059053830454703082 0 -0.0062066630934294095 -0.0059100944518466134 0 -0.0062078590835635021 -0.0059148208871463298 0 -0.0062066630934294095 -0.0059100944518466134 0 -0.0062116237749132658 -0.0059076240106243965 0 -0.0062066630934294095 -0.0059100944518466134 0 -0.0062116237749132658 -0.0059076240106243965 0 -0.006210239160527673 -0.0059077163000909975 0 -0.0062149174035553232 -0.0059008144954018783 0 -0.006214243997577292 -0.0059035975652952126 0 -0.0062116237749132658 -0.0059076240106243965 0 -0.006214243997577292 -0.0059035975652952126 0 -0.0062116237749132658 -0.0059076240106243965 0 -0.006210239160527673 -0.0059077163000909975 0 -0.0062135187134466797 -0.005905042437733204 0 -0.006210239160527673 -0.0059077163000909975 0 -0.0062110774742319208 -0.0059075428347562494 0 -0.0062147468068766247 -0.0059048267729012484 0 -0.0062135187134466797 -0.005905042437733204 0 -0.0062110774742319208 -0.0059075428347562494 0 -0.006214243997577292 -0.0059035975652952126 0 -0.0062135187134466797 -0.005905042437733204 0 -0.006210239160527673 -0.0059077163000909975 0 -0.006210239160527673 -0.0059077163000909975 0 -0.0062110774742319208 -0.0059075428347562494 0 -0.0062043214242661106 -0.0059093279175235726 0 -0.006200414158155327 -0.0059053830454703082 0 -0.0062066630934294095 -0.0059100944518466134 0 -0.0062043214242661106 -0.0059093279175235726 0 -0.0062066630934294095 -0.0059100944518466134 0 -0.006210239160527673 -0.0059077163000909975 0 -0.0062043214242661106 -0.0059093279175235726 0 -0.0087074706118820261 -0.0077620839534356867 0 -0.008778202421491901 -0.0075077826502447974 0 -0.0085754184098918423 -0.0076791368700641974 0 -0.0062043214242661106 -0.0059093279175235726 0 -0.0062150964720251523 -0.0059135421116921858 0 -0.0061794615462698243 -0.0058973646882928728 0 -0.0062043214242661106 -0.0059093279175235726 0 -0.0062155606286130914 -0.0059111817493845203 0 -0.0062150964720251523 -0.0059135421116921858 0 -0.0062110774742319208 -0.0059075428347562494 0 -0.0062043214242661106 -0.0059093279175235726 0 -0.0062155606286130914 -0.0059111817493845203 0 -0.0062110774742319208 -0.0059075428347562494 0 -0.0062155606286130914 -0.0059111817493845203 0 -0.0062157395842612068 -0.0059063784906582574 0 -0.0062173153344573821 -0.0059047447941428096 0 -0.0062155606286130914 -0.0059111817493845203 0 -0.0062183629631862936 -0.0059117856380552173 0 -0.0062147468068766247 -0.0059048267729012484 0 -0.0062110774742319208 -0.0059075428347562494 0 -0.0062157395842612068 -0.0059063784906582574 0 -0.0072983280828222055 -0.0072309162270021146 0 -0.0075449632809817214 -0.0074141037517442658 0 -0.0075449632809817214 -0.0074141037517442658 0 -0.0097305160951805716 -0.0087497064177633026 0 -0.008778202421491901 -0.0075077826502447974 0 -0.0087107458295826272 -0.0074651997064198354 0 -0.0085754184098918423 -0.0076791368700641974 0 -0.0075449632809817214 -0.0074141037517442658 0 -0.0074719186400897478 -0.0065537356581691804 0 -0.010578164866312911 -0.0082658104670698482 0 -0.0097305160951805716 -0.0087497064177633026 0 -0.011958283056067115 -0.0092523350017962441 0 -0.012013003872498462 -0.0094613775944738417 0 -0.01173220374587966 -0.009301324700379766 0 -0.011958283056067115 -0.0092523350017962441 0 -0.01173220374587966 -0.009301324700379766 0 -0.011939789484904331 -0.0090283986352614528 0 -0.0097305160951805716 -0.0087497064177633026 0 -0.010980407543986314 -0.0092004422994994908 0 -0.01218454781588843 -0.0092196308741276673 0 -0.011958283056067115 -0.0092523350017962441 0 -0.012013003872498462 -0.0094613775944738417 0 -0.0088851373345375639 -0.0086790719978727601 0 -0.0082503223043666283 -0.0090139277986334646 0 -0.0082522358192356777 -0.0095617523193010662 0 -0.0091282546087143607 -0.0085445230856775172 0 -0.0097305160951805716 -0.0087497064177633026 0 -0.0082503223043666283 -0.0090139277986334646 0 -0.0078391617152436342 -0.0093063742095221644 0 -0.0082522358192356777 -0.0095617523193010662 0 -0.0096786830168392735 -0.008224711667614442 0 -0.0094453084434559208 -0.008685477220334312 0 -0.0098553690919207949 -0.008594005186257166 0 -0.0094453084434559208 -0.008685477220334312 0 -0.0098553690919207949 -0.008594005186257166 0 -0.0098564135790194067 -0.0089197213416564638 0 -0.0098553690919207949 -0.008594005186257166 0 -0.0098564135790194067 -0.0089197213416564638 0 -0.010222878386071239 -0.0087770633923923043 0 -0.01173220374587966 -0.009301324700379766 0 -0.011693637760007829 -0.0089529240906282143 0 -0.011401281827341115 -0.0091551989716409325 0 -0.01173220374587966 -0.009301324700379766 0 -0.011693637760007829 -0.0089529240906282143 0 -0.011939789484904331 -0.0090283986352614528 0 -0.011693637760007829 -0.0089529240906282143 0 -0.011944422676830975 -0.0086784162284673227 0 -0.011939789484904331 -0.0090283986352614528 0 -0.011693637760007829 -0.0089529240906282143 0 -0.011944422676830975 -0.0086784162284673227 0 -0.011522254996183288 -0.0086687437842316202 0 -0.011944422676830975 -0.0086784162284673227 0 -0.012144258688837721 -0.0088462147037629505 0 -0.012223344884247577 -0.0085991824824284708 0 -0.011944422676830975 -0.0086784162284673227 0 -0.011939789484904331 -0.0090283986352614528 0 -0.012144258688837721 -0.0088462147037629505 0 -0.01218454781588843 -0.0092196308741276673 0 -0.011958283056067115 -0.0092523350017962441 0 -0.011939789484904331 -0.0090283986352614528 0 -0.01218454781588843 -0.0092196308741276673 0 -0.011939789484904331 -0.0090283986352614528 0 -0.012144258688837721 -0.0088462147037629505 0 -0.01218454781588843 -0.0092196308741276673 0 -0.012144258688837721 -0.0088462147037629505 0 -0.01235192826299231 -0.008961968296493995 0 -0.008778202421491901 -0.0075077826502447974 0 -0.0087107458295826272 -0.0074651997064198354 0 -0.0088423846196842137 -0.0072497280369607986 0 -0.0074719186400897478 -0.0065537356581691804 0 -0.008353926049362425 -0.0069903815416167891 0 -0.010578164866312911 -0.0082658104670698482 0 -0.008353926049362425 -0.0069903815416167891 0 -0.012144258688837721 -0.0088462147037629505 0 -0.01235192826299231 -0.008961968296493995 0 -0.012223344884247577 -0.0085991824824284708 0 -0.0061663452175916116 -0.0058317115380835229 0 -0.008353926049362425 -0.0069903815416167891 0 -0.008353926049362425 -0.0069903815416167891 0 -0.0094511929293443434 -0.0071259357209810057 0 -0.006175747408929926 -0.0057261170820750882 0 -0.006139384869346072 -0.0058457899260171463 0 -0.0061524248117854567 -0.0056129195203557204 0 -0.01235192826299231 -0.008961968296493995 0 -0.012491975472868396 -0.0085099857957342713 0 -0.012223344884247577 -0.0085991824824284708 0 -0.0062074718445253836 -0.0058028979072914655 0 -0.006175747408929926 -0.0057261170820750882 0 -0.0061537451424223963 -0.0058262945410886367 0 -0.0062074718445253836 -0.0058028979072914655 0 -0.0061537451424223963 -0.0058262945410886367 0 -0.0061945181423854936 -0.0058703206587750736 0 -0.0061794615462698243 -0.0058973646882928728 0 -0.0061537451424223963 -0.0058262945410886367 0 -0.0061945181423854936 -0.0058703206587750736 0 -0.010735555176389083 -0.0088670929511481238 0 -0.010763109288208929 -0.0089637799021072377 0 -0.010711597468378483 -0.0089846338089680251 0 -0.010735555176389083 -0.0088670929511481238 0 -0.01066827439262622 -0.0088720144039334797 0 -0.010659635059171552 -0.0087145078292770375 0 -0.01066827439262622 -0.0088720144039334797 0 -0.010763109288208929 -0.0089637799021072377 0 -0.01064288342337443 -0.0089422199001316077 0 -0.010735555176389083 -0.0088670929511481238 0 -0.01066827439262622 -0.0088720144039334797 0 -0.010763109288208929 -0.0089637799021072377 0 -0.010599394919849176 -0.0091304858589420154 0 -0.010711597468378483 -0.0089846338089680251 0 -0.010821201717773144 -0.008714973984626102 0 -0.0092267901862085038 -0.0088165710447090199 0 -0.008452481890474265 -0.008235557366912602 0 -0.010735555176389083 -0.0088670929511481238 0 -0.010711597468378483 -0.0089846338089680251 0 -0.010780163670788542 -0.0087942728721808229 0 -0.007423311323268603 -0.0079340877408053002 0 -0.0067327936398545512 -0.0073225638206877051 0 -0.0062290075474373324 -0.0078979832669821559 0 -0.010711597468378483 -0.0089846338089680251 0 -0.010780163670788542 -0.0087942728721808229 0 -0.010821201717773144 -0.008714973984626102 0 -0.010409763811054682 -0.0083633470534556307 0 -0.010780163670788542 -0.0087942728721808229 0 -0.010821201717773144 -0.008714973984626102 0 -0.010812127013274699 -0.0084539786338621945 0 -0.010780163670788542 -0.0087942728721808229 0 -0.010745955458977651 -0.0087199004034978853 0 -0.010812127013274699 -0.0084539786338621945 0 -0.010745955458977651 -0.0087199004034978853 0 -0.010659635059171552 -0.0087145078292770375 0 -0.010669077510139119 -0.0086983878890831319 0 -0.010704280824842613 -0.0086375902423858706 0 -0.010735555176389083 -0.0088670929511481238 0 -0.010745955458977651 -0.0087199004034978853 0 -0.010659635059171552 -0.0087145078292770375 0 -0.010735555176389083 -0.0088670929511481238 0 -0.010780163670788542 -0.0087942728721808229 0 -0.010745955458977651 -0.0087199004034978853 0 -0.010518881496101104 -0.0084492164908500037 0 -0.010812127013274699 -0.0084539786338621945 0 -0.010659635059171552 -0.0087145078292770375 0 -0.010518881496101104 -0.0084492164908500037 0 -0.010659635059171552 -0.0087145078292770375 0 -0.010524127463812717 -0.0087524550261978227 0 -0.010121603468886593 -0.0084189241129718727 0 -0.010518881496101104 -0.0084492164908500037 0 -0.010524127463812717 -0.0087524550261978227 0 -0.01066827439262622 -0.0088720144039334797 0 -0.010659635059171552 -0.0087145078292770375 0 -0.010524127463812717 -0.0087524550261978227 0 -0.010121603468886593 -0.0084189241129718727 0 -0.0098553690919207949 -0.008594005186257166 0 -0.010222878386071239 -0.0087770633923923043 0 -0.010121603468886593 -0.0084189241129718727 0 -0.010524127463812717 -0.0087524550261978227 0 -0.010222878386071239 -0.0087770633923923043 0 -0.0098564135790194067 -0.0089197213416564638 0 -0.010222878386071239 -0.0087770633923923043 0 -0.010368817244278154 -0.0090779873173771723 0 -0.010222878386071239 -0.0087770633923923043 0 -0.01064288342337443 -0.0089422199001316077 0 -0.010368817244278154 -0.0090779873173771723 0 -0.010980407543986314 -0.0092004422994994908 0 -0.010835593779132527 -0.0090657101038894052 0 -0.010524127463812717 -0.0087524550261978227 0 -0.010222878386071239 -0.0087770633923923043 0 -0.01064288342337443 -0.0089422199001316077 0 -0.01066827439262622 -0.0088720144039334797 0 -0.010524127463812717 -0.0087524550261978227 0 -0.01064288342337443 -0.0089422199001316077 0 -0.010835593779132527 -0.0090657101038894052 0 -0.010923323874595813 -0.0089859742797820559 0 -0.01064288342337443 -0.0089422199001316077 0 -0.010368817244278154 -0.0090779873173771723 0 -0.010953715118358522 -0.0089538856160913394 0 -0.010763109288208929 -0.0089637799021072377 0 -0.01064288342337443 -0.0089422199001316077 0 -0.010953715118358522 -0.0089538856160913394 0 -0.011693637760007829 -0.0089529240906282143 0 -0.011401281827341115 -0.0091551989716409325 0 -0.011522254996183288 -0.0086687437842316202 0 -0.011401281827341115 -0.0091551989716409325 0 -0.011522254996183288 -0.0086687437842316202 0 -0.010953715118358522 -0.0089538856160913394 0 -0.011522254996183288 -0.0086687437842316202 0 -0.010953715118358522 -0.0089538856160913394 0 -0.011206573961722548 -0.0084728537452892511 0 -0.010953715118358522 -0.0089538856160913394 0 -0.010726230638094934 -0.0089662924281928551 0 -0.010799146066326417 -0.0086243304574574759 0 -0.010953715118358522 -0.0089538856160913394 0 -0.010799146066326417 -0.0086243304574574759 0 -0.011206573961722548 -0.0084728537452892511 0 -0.010763109288208929 -0.0089637799021072377 0 -0.010953715118358522 -0.0089538856160913394 0 -0.010726230638094934 -0.0089662924281928551 0 -0.010599394919849176 -0.0091304858589420154 0 -0.010711597468378483 -0.0089846338089680251 0 -0.010726230638094934 -0.0089662924281928551 0 -0.010482536506059695 -0.0088666867467020842 0 -0.010599394919849176 -0.0091304858589420154 0 -0.010726230638094934 -0.0089662924281928551 0 -0.010763109288208929 -0.0089637799021072377 0 -0.010711597468378483 -0.0089846338089680251 0 -0.010726230638094934 -0.0089662924281928551 0 -0.010482536506059695 -0.0088666867467020842 0 -0.010726230638094934 -0.0089662924281928551 0 -0.010799146066326417 -0.0086243304574574759 0 -0.010799146066326417 -0.0086243304574574759 0 -0.011082266136914489 -0.0082281598252696014 0 -0.010659555785397793 -0.0082060298993508682 0 -0.011082266136914489 -0.0082281598252696014 0 -0.011088669223408402 -0.0080057901310773682 0 -0.010659555785397793 -0.0082060298993508682 0 -0.010799146066326417 -0.0086243304574574759 0 -0.011082266136914489 -0.0082281598252696014 0 -0.011206573961722548 -0.0084728537452892511 0 -0.011522254996183288 -0.0086687437842316202 0 -0.011206573961722548 -0.0084728537452892511 0 -0.011631462162551754 -0.0082925643191188881 0 -0.011206573961722548 -0.0084728537452892511 0 -0.011631462162551754 -0.0082925643191188881 0 -0.011389636699302343 -0.0081189735913984058 0 -0.011082266136914489 -0.0082281598252696014 0 -0.011206573961722548 -0.0084728537452892511 0 -0.011389636699302343 -0.0081189735913984058 0 -0.011631462162551754 -0.0082925643191188881 0 -0.011389636699302343 -0.0081189735913984058 0 -0.011764966693289632 -0.0080004410407206808 0 -0.011389636699302343 -0.0081189735913984058 0 -0.011546765067371496 -0.0078476781471223701 0 -0.011764966693289632 -0.0080004410407206808 0 -0.011546765067371496 -0.0078476781471223701 0 -0.011764966693289632 -0.0080004410407206808 0 -0.011811874705071432 -0.0076865645725487227 0 -0.011389636699302343 -0.0081189735913984058 0 -0.011546765067371496 -0.0078476781471223701 0 -0.011254827742833538 -0.0079305945091074064 0 -0.011254827742833538 -0.0079305945091074064 0 -0.011088669223408402 -0.0080057901310773682 0 -0.011418355464657221 -0.0079947883380452247 0 -0.011082266136914489 -0.0082281598252696014 0 -0.011254827742833538 -0.0079305945091074064 0 -0.011088669223408402 -0.0080057901310773682 0 -0.011082266136914489 -0.0082281598252696014 0 -0.011389636699302343 -0.0081189735913984058 0 -0.011254827742833538 -0.0079305945091074064 0 -0.012659594631535237 -0.0080513187305878749 0 -0.012373884033987566 -0.0083469355919553734 0 -0.012491975472868396 -0.0085099857957342713 0 -0.009420779767484613 -0.0066151563362960766 0 -0.0094511929293443434 -0.0071259357209810057 0 -0.0062497122632389846 -0.0057034849189055601 0 -0.006175747408929926 -0.0057261170820750882 0 -0.0061524248117854567 -0.0056129195203557204 0 -0.012373884033987566 -0.0083469355919553734 0 -0.012223344884247577 -0.0085991824824284708 0 -0.012095475149286992 -0.008408236973265178 0 -0.012373884033987566 -0.0083469355919553734 0 -0.012491975472868396 -0.0085099857957342713 0 -0.012223344884247577 -0.0085991824824284708 0 -0.012373884033987566 -0.0083469355919553734 0 -0.012095475149286992 -0.008408236973265178 0 -0.012165441566574828 -0.0081969783876305012 0 -0.011941619212446752 -0.0082221188364594664 0 -0.012095475149286992 -0.008408236973265178 0 -0.011849342811279888 -0.0084238538562893071 0 -0.011941619212446752 -0.0082221188364594664 0 -0.012095475149286992 -0.008408236973265178 0 -0.012165441566574828 -0.0081969783876305012 0 -0.011944422676830975 -0.0086784162284673227 0 -0.012223344884247577 -0.0085991824824284708 0 -0.012095475149286992 -0.008408236973265178 0 -0.011944422676830975 -0.0086784162284673227 0 -0.012095475149286992 -0.008408236973265178 0 -0.011849342811279888 -0.0084238538562893071 0 -0.011522254996183288 -0.0086687437842316202 0 -0.011631462162551754 -0.0082925643191188881 0 -0.011849342811279888 -0.0084238538562893071 0 -0.011944422676830975 -0.0086784162284673227 0 -0.011522254996183288 -0.0086687437842316202 0 -0.011849342811279888 -0.0084238538562893071 0 -0.011631462162551754 -0.0082925643191188881 0 -0.011941619212446752 -0.0082221188364594664 0 -0.011849342811279888 -0.0084238538562893071 0 -0.011631462162551754 -0.0082925643191188881 0 -0.011941619212446752 -0.0082221188364594664 0 -0.011764966693289632 -0.0080004410407206808 0 -0.011764966693289632 -0.0080004410407206808 0 -0.011977363891330224 -0.0078222901708335183 0 -0.011811874705071432 -0.0076865645725487227 0 -0.011977363891330224 -0.0078222901708335183 0 -0.012087153713438796 -0.0080016123144551234 0 -0.012312966649230418 -0.0076671329414070705 0 -0.011764966693289632 -0.0080004410407206808 0 -0.011977363891330224 -0.0078222901708335183 0 -0.012087153713438796 -0.0080016123144551234 0 -0.011941619212446752 -0.0082221188364594664 0 -0.011764966693289632 -0.0080004410407206808 0 -0.012087153713438796 -0.0080016123144551234 0 -0.011941619212446752 -0.0082221188364594664 0 -0.012087153713438796 -0.0080016123144551234 0 -0.012165441566574828 -0.0081969783876305012 0 -0.012376779171957614 -0.0083272279199513542 0 -0.012349432109732307 -0.0079850712579227785 0 -0.012373884033987566 -0.0083469355919553734 0 -0.012318029441592757 -0.0080078202728925303 0 -0.012165441566574828 -0.0081969783876305012 0 -0.012087153713438796 -0.0080016123144551234 0 -0.012318029441592757 -0.0080078202728925303 0 -0.012165441566574828 -0.0081969783876305012 0 -0.012087153713438796 -0.0080016123144551234 0 -0.012318029441592757 -0.0080078202728925303 0 -0.012312966649230418 -0.0076671329414070705 0 -0.012349432109732307 -0.0079850712579227785 0 -0.012338742497523284 -0.0076161871601314862 0 -0.012376513825345053 -0.0079450358010833225 0 -0.012560961646700123 -0.0077323574856375046 0 -0.012366666690858659 -0.0075842015215772289 0 -0.012659594631535237 -0.0080513187305878749 0 -0.012376513825345053 -0.0079450358010833225 0 -0.012560961646700123 -0.0077323574856375046 0 -0.012822091743504297 -0.0076366503591814138 0 -0.012659594631535237 -0.0080513187305878749 0 -0.012560961646700123 -0.0077323574856375046 0 -0.012659594631535237 -0.0080513187305878749 0 -0.012373884033987566 -0.0083469355919553734 0 -0.012376513825345053 -0.0079450358010833225 0 -0.012560961646700123 -0.0077323574856375046 0 -0.012635873195545341 -0.0074039810668869478 0 -0.012366666690858659 -0.0075842015215772289 0 -0.012822091743504297 -0.0076366503591814138 0 -0.012560961646700123 -0.0077323574856375046 0 -0.012635873195545341 -0.0074039810668869478 0 -0.012338742497523284 -0.0076161871601314862 0 -0.012316778551746775 -0.0072577187178595633 0 -0.012312966649230418 -0.0076671329414070705 0 -0.012068741306602694 -0.0076078730018518913 0 -0.012321846297201124 -0.0072363373450039263 0 -0.012635873195545341 -0.0074039810668869478 0 -0.012366666690858659 -0.0075842015215772289 0 -0.012321846297201124 -0.0072363373450039263 0 -0.012068741306602694 -0.0076078730018518913 0 -0.01191847663649071 -0.007427696006765603 0 -0.012321846297201124 -0.0072363373450039263 0 -0.011977363891330224 -0.0078222901708335183 0 -0.012312966649230418 -0.0076671329414070705 0 -0.012068741306602694 -0.0076078730018518913 0 -0.011977363891330224 -0.0078222901708335183 0 -0.012068741306602694 -0.0076078730018518913 0 -0.011811874705071432 -0.0076865645725487227 0 -0.012068741306602694 -0.0076078730018518913 0 -0.011811874705071432 -0.0076865645725487227 0 -0.01191847663649071 -0.007427696006765603 0 -0.011811874705071432 -0.0076865645725487227 0 -0.01191847663649071 -0.007427696006765603 0 -0.011643213157088082 -0.0075735048967992807 0 -0.01191847663649071 -0.007427696006765603 0 -0.012075235560890995 -0.0071544661746219401 0 -0.011778689263342624 -0.0072679255428821877 0 -0.011944837370936679 -0.0073748000106451201 0 -0.011981154464540787 -0.0071477247626783999 0 -0.012075235560890995 -0.0071544661746219401 0 -0.012003299798481974 -0.006958179824651794 0 -0.011778689263342624 -0.0072679255428821877 0 -0.012003299798481974 -0.006958179824651794 0 -0.011778689263342624 -0.0072679255428821877 0 -0.011767656097070442 -0.0069379698513242841 0 -0.012003299798481974 -0.006958179824651794 0 -0.01217109516251549 -0.006735000021978012 0 -0.011767656097070442 -0.0069379698513242841 0 -0.012075235560890995 -0.0071544661746219401 0 -0.012003299798481974 -0.006958179824651794 0 -0.012236926631015031 -0.006739501544002274 0 -0.011981154464540787 -0.0071477247626783999 0 -0.014272828378212797 -0.0068649257644095331 0 -0.012003299798481974 -0.006958179824651794 0 -0.012236926631015031 -0.006739501544002274 0 -0.01217109516251549 -0.006735000021978012 0 -0.014272828378212797 -0.0068649257644095331 0 -0.01378828806779878 -0.0068551884195205614 0 -0.011967910386026744 -0.0070797891323904141 0 -0.012033533156103612 -0.0067655041994459037 0 -0.012245993725328802 -0.0069544888540322399 0 -0.014272828378212797 -0.0068649257644095331 0 -0.01618172678333504 -0.0060495039425554689 0 -0.012033533156103612 -0.0067655041994459037 0 -0.012245993725328802 -0.0069544888540322399 0 -0.012529926145985993 -0.0067517623460942797 0 -0.011967910386026744 -0.0070797891323904141 0 -0.012245993725328802 -0.0069544888540322399 0 -0.012321846297201124 -0.0072363373450039263 0 -0.01191847663649071 -0.007427696006765603 0 -0.011967910386026744 -0.0070797891323904141 0 -0.012321846297201124 -0.0072363373450039263 0 -0.012245993725328802 -0.0069544888540322399 0 -0.012321846297201124 -0.0072363373450039263 0 -0.012529926145985993 -0.0067517623460942797 0 -0.012321846297201124 -0.0072363373450039263 0 -0.012529926145985993 -0.0067517623460942797 0 -0.012750373636292025 -0.0069708030902953175 0 -0.017803121834334565 -0.0058071895092583837 0 -0.01618172678333504 -0.0060495039425554689 0 -0.013027141965007401 -0.006720748918905498 0 -0.012529926145985993 -0.0067517623460942797 0 -0.012750373636292025 -0.0069708030902953175 0 -0.012635873195545341 -0.0074039810668869478 0 -0.012321846297201124 -0.0072363373450039263 0 -0.012750373636292025 -0.0069708030902953175 0 -0.013130602750328475 -0.0080512184570195357 0 -0.014874118245982528 -0.0075903567410810693 0 -0.013536125557224556 -0.0073036335986504056 0 -0.01221525987571989 -0.0078533978201025152 0 -0.013254489576541566 -0.0073959502082183645 0 -0.013130602750328475 -0.0080512184570195357 0 -0.012469970616351274 -0.0076153432186230044 0 -0.013536125557224556 -0.0073036335986504056 0 -0.01221525987571989 -0.0078533978201025152 0 -0.011554683195516965 -0.0079801811984727775 0 -0.013130602750328475 -0.0080512184570195357 0 -0.012469970616351274 -0.0076153432186230044 0 -0.011418355464657221 -0.0079947883380452247 0 -0.011254827742833538 -0.0079305945091074064 0 -0.011269571548105007 -0.0077420263692847295 0 -0.011418355464657221 -0.0079947883380452247 0 -0.011254827742833538 -0.0079305945091074064 0 -0.011269571548105007 -0.0077420263692847295 0 -0.01142008485777877 -0.0077142305604364194 0 -0.011546765067371496 -0.0078476781471223701 0 -0.011254827742833538 -0.0079305945091074064 0 -0.01142008485777877 -0.0077142305604364194 0 -0.011546765067371496 -0.0078476781471223701 0 -0.011811874705071432 -0.0076865645725487227 0 -0.011643213157088082 -0.0075735048967992807 0 -0.011546765067371496 -0.0078476781471223701 0 -0.01142008485777877 -0.0077142305604364194 0 -0.011643213157088082 -0.0075735048967992807 0 -0.01191847663649071 -0.007427696006765603 0 -0.011643213157088082 -0.0075735048967992807 0 -0.011778689263342624 -0.0072679255428821877 0 -0.011643213157088082 -0.0075735048967992807 0 -0.011444273999906105 -0.0073502112162254539 0 -0.011778689263342624 -0.0072679255428821877 0 -0.011269571548105007 -0.0077420263692847295 0 -0.01142008485777877 -0.0077142305604364194 0 -0.011444273999906105 -0.0073502112162254539 0 -0.01142008485777877 -0.0077142305604364194 0 -0.011643213157088082 -0.0075735048967992807 0 -0.011444273999906105 -0.0073502112162254539 0 -0.014874118245982528 -0.0075903567410810693 0 -0.015250190879436354 -0.0062823037460363511 0 -0.014312251923833489 -0.0069747501503874621 0 -0.011444273999906105 -0.0073502112162254539 0 -0.011778689263342624 -0.0072679255428821877 0 -0.011767656097070442 -0.0069379698513242841 0 -0.013254489576541566 -0.0073959502082183645 0 -0.013915290869091925 -0.0068526112395043467 0 -0.015848768211376336 -0.0054012042701982038 0 -0.016741441759049878 -0.0065383517670423354 0 -0.015250190879436354 -0.0062823037460363511 0 -0.014874118245982528 -0.0075903567410810693 0 -0.016741441759049878 -0.0065383517670423354 0 -0.015250190879436354 -0.0062823037460363511 0 -0.015250190879436354 -0.0062823037460363511 0 -0.01369234890451957 -0.0066615822760183671 0 -0.014312251923833489 -0.0069747501503874621 0 -0.013658661042186972 -0.0061467822975036935 0 -0.015250190879436354 -0.0062823037460363511 0 -0.01369234890451957 -0.0066615822760183671 0 -0.013658661042186972 -0.0061467822975036935 0 -0.01369234890451957 -0.0066615822760183671 0 -0.013096077403314848 -0.0063824169175419696 0 -0.01369234890451957 -0.0066615822760183671 0 -0.014312251923833489 -0.0069747501503874621 0 -0.013536125557224556 -0.0073036335986504056 0 -0.014874118245982528 -0.0075903567410810693 0 -0.014312251923833489 -0.0069747501503874621 0 -0.013536125557224556 -0.0073036335986504056 0 -0.01369234890451957 -0.0066615822760183671 0 -0.013536125557224556 -0.0073036335986504056 0 -0.012887380150514533 -0.006933930603934187 0 -0.012469970616351274 -0.0076153432186230044 0 -0.012887380150514533 -0.006933930603934187 0 -0.012058384717418099 -0.0071878413621276043 0 -0.012469970616351274 -0.0076153432186230044 0 -0.013536125557224556 -0.0073036335986504056 0 -0.012887380150514533 -0.006933930603934187 0 -0.012887380150514533 -0.006933930603934187 0 -0.013096077403314848 -0.0063824169175419696 0 -0.012531822101051512 -0.0065994863186284031 0 -0.01369234890451957 -0.0066615822760183671 0 -0.012887380150514533 -0.006933930603934187 0 -0.013096077403314848 -0.0063824169175419696 0 -0.012847142617532148 -0.0062267672899300229 0 -0.013096077403314848 -0.0063824169175419696 0 -0.012531822101051512 -0.0065994863186284031 0 -0.012531822101051512 -0.0065994863186284031 0 -0.012024427699944197 -0.0067374617867368477 0 -0.012058384717418099 -0.0071878413621276043 0 -0.012543676572362052 -0.0062329753053779573 0 -0.012268862745561488 -0.0064822930889580034 0 -0.012531822101051512 -0.0065994863186284031 0 -0.012847142617532148 -0.0062267672899300229 0 -0.012543676572362052 -0.0062329753053779573 0 -0.012531822101051512 -0.0065994863186284031 0 -0.012268862745561488 -0.0064822930889580034 0 -0.012531822101051512 -0.0065994863186284031 0 -0.012024427699944197 -0.0067374617867368477 0 -0.011897699430237068 -0.0064662164648300966 0 -0.011619855318936908 -0.0067282912686290539 0 -0.011464095068778778 -0.0064347871472969853 0 -0.011897699430237068 -0.0064662164648300966 0 -0.012024427699944197 -0.0067374617867368477 0 -0.011619855318936908 -0.0067282912686290539 0 -0.012267722130935584 -0.0062409685165247981 0 -0.012268862745561488 -0.0064822930889580034 0 -0.011897699430237068 -0.0064662164648300966 0 -0.012268862745561488 -0.0064822930889580034 0 -0.011897699430237068 -0.0064662164648300966 0 -0.012024427699944197 -0.0067374617867368477 0 -0.012024427699944197 -0.0067374617867368477 0 -0.011619855318936908 -0.0067282912686290539 0 -0.011651020460473787 -0.007114885574198121 0 -0.011651020460473787 -0.007114885574198121 0 -0.011496283625484204 -0.0075474985693239124 0 -0.011303207183704447 -0.0073056783442894619 0 -0.011651020460473787 -0.007114885574198121 0 -0.012058384717418099 -0.0071878413621276043 0 -0.011496283625484204 -0.0075474985693239124 0 -0.012024427699944197 -0.0067374617867368477 0 -0.011651020460473787 -0.007114885574198121 0 -0.012058384717418099 -0.0071878413621276043 0 -0.012887380150514533 -0.006933930603934187 0 -0.012531822101051512 -0.0065994863186284031 0 -0.012058384717418099 -0.0071878413621276043 0 -0.012058384717418099 -0.0071878413621276043 0 -0.011751279524111318 -0.0076975628351055297 0 -0.011496283625484204 -0.0075474985693239124 0 -0.012469970616351274 -0.0076153432186230044 0 -0.012058384717418099 -0.0071878413621276043 0 -0.011751279524111318 -0.0076975628351055297 0 -0.011751279524111318 -0.0076975628351055297 0 -0.011496283625484204 -0.0075474985693239124 0 -0.011258697136725416 -0.0078457258994823215 0 -0.011496283625484204 -0.0075474985693239124 0 -0.011258697136725416 -0.0078457258994823215 0 -0.011245156132921786 -0.0077194544960470617 0 -0.012469970616351274 -0.0076153432186230044 0 -0.011751279524111318 -0.0076975628351055297 0 -0.011418355464657221 -0.0079947883380452247 0 -0.011751279524111318 -0.0076975628351055297 0 -0.011258697136725416 -0.0078457258994823215 0 -0.011418355464657221 -0.0079947883380452247 0 -0.011209798750726495 -0.0076983047682819541 0 -0.011192495850502207 -0.0076792460773472872 0 -0.011175361716497991 -0.0077614630358979336 0 -0.011209798750726495 -0.0076983047682819541 0 -0.011245156132921786 -0.0077194544960470617 0 -0.011175361716497991 -0.0077614630358979336 0 -0.011258697136725416 -0.0078457258994823215 0 -0.011245156132921786 -0.0077194544960470617 0 -0.011175361716497991 -0.0077614630358979336 0 -0.011209798750726495 -0.0076983047682819541 0 -0.011245156132921786 -0.0077194544960470617 0 -0.011221713844663967 -0.0076458570473199672 0 -0.01127764695742561 -0.0077326422030568522 0 -0.01099459949278132 -0.0074507575445910742 0 -0.011245156132921786 -0.0077194544960470617 0 -0.011018872795320973 -0.0074509460961647176 0 -0.011303207183704447 -0.0073056783442894619 0 -0.011496283625484204 -0.0075474985693239124 0 -0.011245156132921786 -0.0077194544960470617 0 -0.011303207183704447 -0.0073056783442894619 0 -0.011221713844663967 -0.0076458570473199672 0 -0.011207218907800763 -0.0076129441556161068 0 -0.011192495850502207 -0.0076792460773472872 0 -0.011209798750726495 -0.0076983047682819541 0 -0.011221713844663967 -0.0076458570473199672 0 -0.011192495850502207 -0.0076792460773472872 0 -0.011055772979191084 -0.0072124388861534786 0 -0.011193087669617718 -0.0069411300701257023 0 -0.010677153285175123 -0.0071373730971531369 0 -0.011221713844663967 -0.0076458570473199672 0 -0.011207218907800763 -0.0076129441556161068 0 -0.011213298494079527 -0.0075985214832384167 0 -0.01099459949278132 -0.0074507575445910742 0 -0.01226891355428375 -0.0072326435136001177 0 -0.011018872795320973 -0.0074509460961647176 0 -0.011055772979191084 -0.0072124388861534786 0 -0.010677153285175123 -0.0071373730971531369 0 -0.011619855318936908 -0.0067282912686290539 0 -0.011651020460473787 -0.007114885574198121 0 -0.011193087669617718 -0.0069411300701257023 0 -0.011651020460473787 -0.007114885574198121 0 -0.011303207183704447 -0.0073056783442894619 0 -0.011193087669617718 -0.0069411300701257023 0 -0.011055772979191084 -0.0072124388861534786 0 -0.011303207183704447 -0.0073056783442894619 0 -0.011193087669617718 -0.0069411300701257023 0 -0.011018872795320973 -0.0074509460961647176 0 -0.011055772979191084 -0.0072124388861534786 0 -0.011303207183704447 -0.0073056783442894619 0 -0.011619855318936908 -0.0067282912686290539 0 -0.011193087669617718 -0.0069411300701257023 0 -0.011464095068778778 -0.0064347871472969853 0 -0.010918924191831231 -0.0063123629607152688 0 -0.011193087669617718 -0.0069411300701257023 0 -0.011464095068778778 -0.0064347871472969853 0 -0.010918924191831231 -0.0063123629607152688 0 -0.011193087669617718 -0.0069411300701257023 0 -0.010677153285175123 -0.0071373730971531369 0 -0.012303401497289281 -0.0064227467506189464 0 -0.01226891355428375 -0.0072326435136001177 0 -0.01259831316539029 -0.0072439099191236754 0 -0.01226891355428375 -0.0072326435136001177 0 -0.014636001757498582 -0.0064948146276423719 0 -0.0142508522175977 -0.0066917792053294766 0 -0.014404735364093363 -0.0072936782127638565 0 -0.0142508522175977 -0.0066917792053294766 0 -0.013833911393463133 -0.0067377005664464827 0 -0.014404735364093363 -0.0072936782127638565 0 -0.011185333366361313 -0.007548679271674903 0 -0.011182562095816464 -0.0075656093075129162 0 -0.011193523024422164 -0.0075392203856549109 0 -0.011182562095816464 -0.0075656093075129162 0 -0.011207218907800763 -0.0076129441556161068 0 -0.011214925512496254 -0.0075830852896192876 0 -0.011185333366361313 -0.007548679271674903 0 -0.011182562095816464 -0.0075656093075129162 0 -0.011214925512496254 -0.0075830852896192876 0 -0.011805381798119803 -0.0076587414604233715 0 -0.01226891355428375 -0.0072326435136001177 0 -0.011913546711135899 -0.0072287150435760153 0 -0.011416667523987499 -0.0074823221648142547 0 -0.011225234492540226 -0.0075799193710612859 0 -0.011297009024670856 -0.0075035185531566661 0 -0.011193523024422164 -0.0075392203856549109 0 -0.011225234492540226 -0.0075799193710612859 0 -0.011185333366361313 -0.007548679271674903 0 -0.011193523024422164 -0.0075392203856549109 0 -0.011182562095816464 -0.0075656093075129162 0 -0.011193523024422164 -0.0075392203856549109 0 -0.011148119547938363 -0.0075281132453660325 0 -0.011297009024670856 -0.0075035185531566661 0 -0.011193523024422164 -0.0075392203856549109 0 -0.011148119547938363 -0.0075281132453660325 0 -0.011297009024670856 -0.0075035185531566661 0 -0.011148119547938363 -0.0075281132453660325 0 -0.011020847194163907 -0.0075025114813340073 0 -0.010658566433872993 -0.0076172601621528222 0 -0.011020847194163907 -0.0075025114813340073 0 -0.011135601087708278 -0.0076880374571989324 0 -0.011148119547938363 -0.0075281132453660325 0 -0.011020847194163907 -0.0075025114813340073 0 -0.011135601087708278 -0.0076880374571989324 0 -0.011148119547938363 -0.0075281132453660325 0 -0.011135601087708278 -0.0076880374571989324 0 -0.011181633586262885 -0.0076292294841170585 0 -0.010658566433872993 -0.0076172601621528222 0 -0.0099075573360770056 -0.0078266965532458772 0 -0.010224720394782375 -0.0076515709127518965 0 -0.010623736549386477 -0.0076401194390702575 0 -0.01051474354507117 -0.007737512959017599 0 -0.011207218907800763 -0.0076129441556161068 0 -0.011181633586262885 -0.0076292294841170585 0 -0.011192495850502207 -0.0076792460773472872 0 -0.011182562095816464 -0.0075656093075129162 0 -0.011207218907800763 -0.0076129441556161068 0 -0.011181633586262885 -0.0076292294841170585 0 -0.011182562095816464 -0.0075656093075129162 0 -0.011148119547938363 -0.0075281132453660325 0 -0.011181633586262885 -0.0076292294841170585 0 -0.011135601087708278 -0.0076880374571989324 0 -0.011181633586262885 -0.0076292294841170585 0 -0.011175736511766276 -0.0076922985292467144 0 -0.01051474354507117 -0.007737512959017599 0 -0.010395830660304859 -0.0077117309443119619 0 -0.011175736511766276 -0.0076922985292467144 0 -0.011192495850502207 -0.0076792460773472872 0 -0.011175361716497991 -0.0077614630358979336 0 -0.011181633586262885 -0.0076292294841170585 0 -0.011175736511766276 -0.0076922985292467144 0 -0.011192495850502207 -0.0076792460773472872 0 -0.0095917750649346725 -0.0077337093569036517 0 -0.0097720309624777044 -0.0075558557982330216 0 -0.00957054060498631 -0.0077748820714624717 0 -0.0095917750649346725 -0.0077337093569036517 0 -0.0095590991818398242 -0.0077170286543534932 0 -0.00957054060498631 -0.0077748820714624717 0 -0.0095917750649346725 -0.0077337093569036517 0 -0.0098543774708220542 -0.0076466349233841047 0 -0.0095590991818398242 -0.0077170286543534932 0 -0.010395830660304859 -0.0077117309443119619 0 -0.010493237903877272 -0.0076743483274176591 0 -0.0099075573360770056 -0.0078266965532458772 0 -0.010224720394782375 -0.0076515709127518965 0 -0.0098543774708220542 -0.0076466349233841047 0 -0.010126656631046321 -0.0076270654942822069 0 -0.010224720394782375 -0.0076515709127518965 0 -0.0098543774708220542 -0.0076466349233841047 0 -0.0099075573360770056 -0.0078266965532458772 0 -0.0095917750649346725 -0.0077337093569036517 0 -0.0098543774708220542 -0.0076466349233841047 0 -0.010126656631046321 -0.0076270654942822069 0 -0.0098543774708220542 -0.0076466349233841047 0 -0.0099337541996522751 -0.0075795549456699326 0 -0.0098543774708220542 -0.0076466349233841047 0 -0.0099337541996522751 -0.0075795549456699326 0 -0.0097302952611903939 -0.0075600962580362413 0 -0.009925006379939318 -0.0075152372934312916 0 -0.0099337541996522751 -0.0075795549456699326 0 -0.0097302952611903939 -0.0075600962580362413 0 -0.0097302952611903939 -0.0075600962580362413 0 -0.0095590991818398242 -0.0077170286543534932 0 -0.0095101276479390047 -0.007504064970661666 0 -0.0098543774708220542 -0.0076466349233841047 0 -0.0097302952611903939 -0.0075600962580362413 0 -0.0095590991818398242 -0.0077170286543534932 0 -0.0095958421193911882 -0.0073549459291179066 0 -0.0097302952611903939 -0.0075600962580362413 0 -0.0095101276479390047 -0.007504064970661666 0 -0.0097512286032596096 -0.0074034273300250392 0 -0.0095958421193911882 -0.0073549459291179066 0 -0.0097302952611903939 -0.0075600962580362413 0 -0.0097512286032596096 -0.0074034273300250392 0 -0.009925006379939318 -0.0075152372934312916 0 -0.0097302952611903939 -0.0075600962580362413 0 -0.0095590991818398242 -0.0077170286543534932 0 -0.0094676756725368769 -0.0079878727036375597 0 -0.00957054060498631 -0.0077748820714624717 0 -0.0095590991818398242 -0.0077170286543534932 0 -0.0094177583720017697 -0.0076796472456937097 0 -0.0094676756725368769 -0.0079878727036375597 0 -0.0095590991818398242 -0.0077170286543534932 0 -0.0095101276479390047 -0.007504064970661666 0 -0.0094177583720017697 -0.0076796472456937097 0 -0.0093017403779328128 -0.0081326584387733051 0 -0.0094341665329878959 -0.0079967348507167177 0 -0.0089836398669030943 -0.0075006810657997454 0 -0.0094177583720017697 -0.0076796472456937097 0 -0.0094676756725368769 -0.0079878727036375597 0 -0.0094676756725368769 -0.0079878727036375597 0 -0.00957054060498631 -0.0077748820714624717 0 -0.010026889769067075 -0.0080030092201648778 0 -0.0094676756725368769 -0.0079878727036375597 0 -0.0099573689543798315 -0.0084349991753423677 0 -0.010026889769067075 -0.0080030092201648778 0 -0.0096020141291422428 -0.0087921602610630846 0 -0.0094676756725368769 -0.0079878727036375597 0 -0.0099573689543798315 -0.0084349991753423677 0 -0.0099573689543798315 -0.0084349991753423677 0 -0.010342568077911016 -0.0085729349387477054 0 -0.010659555785397793 -0.0082060298993508682 0 -0.0096840099731101796 -0.0089321407200715543 0 -0.0099573689543798315 -0.0084349991753423677 0 -0.010342568077911016 -0.0085729349387477054 0 -0.010799146066326417 -0.0086243304574574759 0 -0.010342568077911016 -0.0085729349387477054 0 -0.010659555785397793 -0.0082060298993508682 0 -0.0099573689543798315 -0.0084349991753423677 0 -0.010659555785397793 -0.0082060298993508682 0 -0.010026889769067075 -0.0080030092201648778 0 -0.010659555785397793 -0.0082060298993508682 0 -0.010860700453190278 -0.0077972374532683329 0 -0.010026889769067075 -0.0080030092201648778 0 -0.011088669223408402 -0.0080057901310773682 0 -0.010659555785397793 -0.0082060298993508682 0 -0.010860700453190278 -0.0077972374532683329 0 -0.011258697136725416 -0.0078457258994823215 0 -0.011418355464657221 -0.0079947883380452247 0 -0.010860700453190278 -0.0077972374532683329 0 -0.011088669223408402 -0.0080057901310773682 0 -0.011418355464657221 -0.0079947883380452247 0 -0.010860700453190278 -0.0077972374532683329 0 -0.011258697136725416 -0.0078457258994823215 0 -0.010860700453190278 -0.0077972374532683329 0 -0.011175361716497991 -0.0077614630358979336 0 -0.010845968798632113 -0.0077852544455825944 0 -0.010493237903877272 -0.0076743483274176591 0 -0.0097720309624777044 -0.0075558557982330216 0 -0.00957054060498631 -0.0077748820714624717 0 -0.010026889769067075 -0.0080030092201648778 0 -0.010860700453190278 -0.0077972374532683329 0 -0.0097720309624777044 -0.0075558557982330216 0 -0.010026889769067075 -0.0080030092201648778 0 
</DataArray>
</PointData>
<CellData Scalars="region_id,cross_section_updated," Vectors="" Tensors="stress,">
<DataArray type="Float64" Name="region_id" format="ascii">
5 5 5 5 5 5 5 6 5 5 5 5 5 5 5 5 5 5 5 5 6 5 5 5 6 5 5 5 5 5 5 5 5 5 5 5 5 5 5 5 5 5 5 5 5 5 5 5 5 5 5 5 5 5 5 5 5 5 6 5 5 6 5 5 5 5 5 5 5 5 6 5 5 5 5 6 5 5 5 6 5 5 5 5 5 5 5 5 5 5 5 5 5 5 6 5 6 5 5 5 5 5 5 5 5 5 5 5 5 6 5 5 5 5 6 6 5 5 5 5 5 5 5 5 5 5 5 5 5 5 5 5 5 6 5 5 5 6 5 5 5 5 5 5 6 5 5 6 5 5 5 5 6 5 5 5 5 5 6 5 6 5 5 5 5 5 5 5 5 5 5 5 5 5 5 5 5 5 5 5 5 5 6 5 5 5 5 5 5 5 5 5 5 5 5 5 5 5 5 5 5 5 5 5 5 5 5 5 5 5 6 5 5 5 5 6 5 5 5 5 5 5 6 5 6 5 5 5 5 5 5 5 5 5 5 5 5 5 5 5 5 5 5 5 5 5 5 5 5 5 5 5 5 5 5 5 5 5 5 5 5 5 5 5 5 5 5 5 5 5 5 5 5 6 5 6 5 5 5 5 5 5 5 5 6 5 5 5 5 5 5 5 5 5 5 5 5 5 5 5 5 5 5 5 5 5 5 5 5 5 5 5 5 5 5 5 5 5 5 5 6 5 5 6 5 5 5 5 5 5 5 6 5 5 5 5 5 5 5 5 5 6 6 5 5 5 6 5 5 5 5 5 5 5 5 5 5 5 5 5 5 5 5 5 5 5 5 5 5 5 5 5 5 6 5 6 5 5 5 5 5 6 5 5 5 5 6 5 5 5 5 5 5 5 6 5 6 5 5 5 5 6 5 5 6 5 5 5 5 5 5 5 6 6 5 5 6 5 5 5 6 5 5 5 5 6 5 5 5 5 6 5 6 5 6 5 6 5 5 5 5 6 5 6 5 5 5 5 6 6 5 5 6 5 5 5 5 5 5 5 6 5 5 5 5 6 5 5 5 5 6 5 5 5 5 5 5 5 5 5 6 5 6 5 5 5 5 5 5 5 5 5 5 5 5 5 5 5 5 5 5 6 5 5 5 6 5 5 5 5 5 5 6 5 5 5 5 5 5 6 5 5 5 6 5 5 6 5 5 5 5 5 5 5 5 5 5 5 6 5 5 5 5 5 5 5 5 5 5 5 5 5 6 6 5 5 5 5 6 5 5 5 5 5 5 5 5 5 5 5 5 5 5 5 5 5 5 5 5 5 5 5 5 5 5 5 5 5 5 5 5 5 5 5 5 6 5 5 5 5 6 5 5 5 5 5 5 5 5 5 5 5 5 5 5 5 5 5 5 5 5 5 5 5 5 5 5 5 5 5 5 5 5 5 5 5 5 5 5 5 5 5 5 5 5 5 5 5 5 5 5 5 5 5 5 5 5 5 5 5 5 5 5 5 5 5 5 5 5 5 5 5 5 5 6 5 5 5 5 6 5 6 5 5 5 5 5 5 5 5 5 5 5 5 5 5 5 5 5 5 5 5 5 5 5 5 5 5 5 5 5 5 5 5 5 5 5 5 5 5 6 5 5 5 5 6 5 5 5 5 5 5 5 5 5 5 5 5 6 5 6 6 5 5 5 5 5 5 6 5 6 5 5 5 5 5 5 5 5 5 5 6 5 5 5 5 5 5 5 6 5 5 5 5 5 5 5 5 5 5 5 5 5 5 6 5 5 5 5 6 5 5 5 6 5 5 5 5 5 5 5 5 5 6 5 5 5 5 5 5 5 5 5 5 5 5 5 5 5 5 5 5 5 5 5 5 5 6 5 5 5 5 5 5 5 5 5 5 5 5 5 5 5 5 5 5 5 5 5 5 5 5 6 5 5 5 5 5 5 5 5 5 6 5 5 6 5 5 5 5 5 5 5 5 5 6 5 5 6 5 5 5 5 5 5 6 5 5 5 5 5 5 5 5 6 6 5 5 5 5 5 5 5 5 5 5 6 5 5 5 5 5 6 5 5 5 5 5 5 5 6 5 5 5 5 5 5 6 5 5 6 6 5 6 6 5 5 6 5 5 6 6 5 5 5 6 5 5 5 5 5 6 5 5 5 5 5 6 5 5 5 6 6 5 5 5 5 5 5 5 5 5 6 5 5 6 5 5 5 5 5 5 5 5 5 5 5 5 5 6 6 5 5 5 5 6 6 5 5 6 6 5 5 5 5 5 5 5 5 5 5 5 5 6 5 5 6 5 5 5 6 5 5 6 5 5 5 5 5 5 6 6 6 5 5 5 5 5 5 5 6 5 5 5 5 5 5 5 5 5 5 5 5 5 5 5 5 5 5 5 5 5 5 5 5 5 5 5 5 5 5 5 5 5 5 6 5 5 5 5 6 5 5 6 6 5 5 5 6 6 5 5 5 5 5 5 5 5 5 5 6 5 5 5 5 5 5 5 6 5 5 5 5 5 5 5 6 5 5 5 6 5 6 5 5 6 5 5 5 6 6 5 5 5 5 5 5 5 5 5 5 5 5 5 5 5 5 5 5 5 5 5 5 5 5 5 5 5 5 6 5 5 5 5 6 5 5 5 5 5 5 5 5 5 5 6 5 5 5 5 5 5 5 5 5 5 5 5 5 5 6 5 5 5 5 5 5 5 5 5 6 5 5 5 5 6 5 5 5 6 5 5 5 6 5 5 5 5 5 5 5 5 5 5 5 5 5 5 5 5 5 5 5 5 5 5 5 5 6 5 5 5 5 6 5 5 5 5 5 6 5 5 5 5 5 5 6 5 5 5 6 5 5 5 6 5 6 6 5 5 5 5 5 5 5 5 5 5 5 5 5 5 5 5 5 5 5 6 5 5 5 6 5 5 5 5 5 5 5 5 5 5 5 5 5 6 6 5 5 5 5 5 5 6 5 6 6 5 5 5 6 5 5 6 6 5 5 5 5 5 6 5 5 5 5 5 5 5 6 5 5 5 5 5 6 5 5 5 5 5 5 6 5 5 5 6 5 5 5 5 5 6 6 5 5 5 5 5 6 5 6 5 5 5 5 6 5 5 5 5 5 5 5 5 5 5 5 5 5 5 5 5 5 5 5 5 5 5 5 5 5 5 5 5 5 5 5 5 6 5 6 6 5 5 5 5 5 5 5 5 6 6 5 5 5 5 6 6 5 5 6 5 5 6 5 5 6 5 5 5 6 5 5 5 6 5 5 5 5 5 6 6 5 5 5 5 5 5 5 5 5 5 6 5 6 5 5 5 5 5 6 5 5 5 6 5 6 5 5 5 5 5 5 6 5 6 5 5 5 6 6 6 6 6 5 5 5 5 5 6 5 5 5 5 5 5 5 5 5 5 6 5 5 5 5 5 6 6 5 5 5 5 6 5 5 5 5 5 5 5 5 5 5 6 5 6 5 5 5 5 5 5 5 5 5 6 6 5 6 5 5 5 5 5 5 5 5 5 6 5 5 5 6 5 5 5 5 5 5 5 6 5 5 5 5 5 5 5 5 5 5 5 5 5 5 5 5 5 5 5 6 5 5 5 5 5 5 5 5 5 6 5 5 5 5 5 5 5 5 6 5 5 5 6 5 5 5 5 5 5 5 5 5 5 5 5 5 5 5 5 5 5 5 5 5 5 5 6 5 5 5 5 5 5 5 5 5 5 5 5 6 5 5 6 6 5 6 5 5 6 5 6 5 5 5 6 5 6 6 5 5 5 6 5 5 5 5 6 5 6 5 5 6 5 5 5 5 5 5 5 5 5 5 5 5 6 6 5 5 5 5 5 5 5 5 5 5 5 5 5 6 5 5 5 5 6 5 5 5 5 5 5 5 5 5 5 5 5 5 5 5 6 5 5 5 6 5 5 5 5 5 5 5 5 5 5 5 5 5 5 5 5 5 5 5 5 5 5 5 5 6 5 5 5 5 5 5 5 6 5 5 5 5 5 5 5 5 5 5 6 5 5 5 5 5 5 5 5 5 5 5 6 5 5 5 5 5 5 5 5 5 5 5 5 5 6 5 5 5 5 5 5 5 5 5 5 5 5 5 5 5 5 5 5 5 5 5 5 5 5 5 5 5 5 5 5 5 5 5 5 5 5 5 6 5 5 5 6 5 5 5 5 5 5 6 5 5 5 5 5 5 5 5 5 5 5 5 5 5 5 5 5 5 6 5 5 6 5 5 5 5 5 5 5 5 5 5 5 5 5 6 5 5 6 5 5 5 5 5 5 5 5 5 5 5 5 5 5 5 5 5 5 5 5 5 5 5 5 5 6 6 5 5 5 5 5 5 5 5 5 5 5 5 5 5 5 5 5 5 5 5 5 5 5 5 5 5 5 5 5 6 5 6 5 5 5 6 5 6 5 5 5 5 5 5 5 5 5 5 5 5 5 5 5 5 5 5 5 5 5 5 5 5 5 5 5 5 5 5 5 5 5 5 5 5 5 5 5 6 5 5 5 5 5 5 5 5 5 5 5 5 5 5 5 5 5 5 5 5 5 5 5 5 5 6 5 5 5 5 5 5 6 5 6 6 5 5 6 5 5 5 5 5 5 5 5 5 6 5 5 5 5 5 5 5 5 5 5 5 5 5 5 5 5 5 5 5 5 6 5 5 5 5 5 5 5 5 6 5 5 5 5 6 5 5 6 5 5 5 6 5 5 5 5 5 5 6 5 5 6 5 5 5 5 5 5 5 5 6 5 5 5 5 5 5 5 5 5 5 5 5 5 5 5 5 5 5 5 5 5 5 5 5 5 5 6 5 5 5 5 5 5 5 5 5 5 5 5 5 5 5 5 5 5 5 5 5 5 5 6 5 5 5 5 5 5 5 5 5 5 6 5 5 6 5 5 5 5 5 5 5 5 5 5 5 5 5 5 5 5 5 5 5 5 5 5 5 5 5 5 5 5 5 5 5 6 5 5 5 5 5 5 6 5 6 5 5 6 5 5 5 5 5 5 5 5 5 5 5 5 5 5 5 5 5 5 6 5 6 6 5 5 5 5 5 6 5 5 5 5 5 5 5 6 5 5 6 5 5 5 5 5 5 5 6 5 5 5 5 5 5 5 5 6 5 5 5 6 6 5 5 5 6 5 5 6 5 6 5 5 5 5 6 6 5 5 5 5 5 5 5 5 6 5 6 6 5 5 5 5 5 5 5 5 5 5 5 6 5 5 5 5 5 5 5 5 6 5 5 5 6 5 5 5 5 6 6 5 5 6 5 5 5 6 5 5 5 5 6 5 6 5 6 6 5 5 6 5 5 5 5 5 6 5 5 5 5 5 6 5 6 5 5 5 5 5 5 6 5 6 5 5 5 5 5 5 5 6 5 5 5 5 5 6 5 5 5 6 6 6 5 6 5 5 5 6 6 5 6 5 5 5 5 5 5 5 5 5 5 5 5 5 5 6 5 5 5 6 6 5 5 5 5 5 5 5 5 6 5 5 5 6 5 5 6 5 5 5 6 6 5 5 5 5 5 5 6 5 5 5 5 6 5 5 5 6 5 5 5 5 6 5 5 5 5 5 5 5 5 5 5 5 6 5 5 6 5 5 6 5 6 5 5 5 5 5 5 5 5 5 6 5 5 5 5 5 5 5 5 5 5 6 5 5 5 5 5 5 5 5 5 5 5 5 6 5 5 5 5 5 5 5 5 5 5 5 5 5 5 5 5 5 5 5 5 5 5 5 5 5 5 5 5 5 5 6 5 5 6 5 6 5 5 5 5 5 5 6 5 5 5 5 5 6 5 5 6 5 5 5 6 5 5 5 5 5 5 5 5 5 5 5 5 5 5 5 5 6 5 5 5 6 5 6 6 5 5 5 5 6 5 5 5 5 5 6 5 5 5 5 5 5 5 5 5 5 5 6 5 5 5 5 5 5 5 5 5 5 5 6 5 5 5 5 6 5 5 5 5 5 5 5 5 5 5 5 5 5 5 5 5 5 5 5 5 5 5 6 5 5 5 5 5 5 5 5 5 5 5 5 5 5 5 5 5 5 6 5 5 5 6 5 5 5 5 5 5 5 5 5 5 5 5 5 5 6 5 6 5 6 5 5 5 5 5 5 5 6 5 5 5 6 5 5 5 5 5 5 5 5 5 5 5 5 5 5 5 5 5 6 5 5 5 6 5 5 6 6 5 5 5 5 6 5 5 5 5 5 5 5 5 5 5 5 5 6 5 5 5 5 5 5 5 5 5 5 6 5 6 5 5 5 6 5 6 5 5 5 6 5 5 6 5 5 5 5 6 5 5 5 5 6 5 5 5 6 6 5 6 5 6 5 5 6 5 5 5 5 5 5 5 5 5 5 6 6 5 5 5 5 5 6 5 6 5 5 6 5 5 5 6 5 6 6 5 6 5 5 6 6 5 5 6 5 5 6 5 5 5 5 5 5 5 5 6 5 5 5 5 5 6 5 5 5 5 5 5 5 5 6 6 5 5 5 6 6 5 6 5 5 5 6 5 6 5 5 5 5 6 5 6 6 5 5 5 5 5 5 5 5 6 5 5 5 5 5 5 5 5 5 6 5 5 5 5 5 5 5 5 6 5 6 5 5 5 5 6 5 5 5 5 5 5 6 5 5 5 5 5 6 5 6 5 5 5 5 5 5 5 5 5 5 6 5 5 5 5 5 5 6 5 5 5 5 5 5 5 5 5 5 5 6 5 5 5 5 5 6 6 5 5 6 5 5 5 6 5 6 5 5 5 5 5 5 5 5 5 5 5 6 6 5 5 5 5 6 5 5 5 5 6 5 5 6 5 5 5 5 5 5 5 5 5 5 5 5 5 5 5 5 6 5 5 5 5 5 6 5 5 6 5 5 5 6 5 5 5 6 5 5 5 5 5 5 5 5 5 5 5 5 5 6 5 5 5 5 6 5 5 5 5 5 5 5 5 5 6 5 5 5 6 5 5 5 5 5 6 5 5 5 5 5 5 5 5 5 5 5 5 5 5 5 5 5 5 5 5 5 5 5 5 6 5 5 5 5 5 5 5 6 5 5 5 5 5 6 5 5 5 5 5 5 5 5 5 6 5 5 6 5 5 5 5 5 5 5 5 5 5 5 6 5 5 5 5 5 5 5 5 5 6 5 5 5 5 5 5 5 6 5 5 5 5 5 5 5 5 5 5 5 5 5 5 6 5 5 5 5 5 5 5 5 5 5 6 5 5 5 5 5 5 5 5 5 5 5 5 5 5 5 5 5 5 5 5 5 5 5 6 5 5 5 5 5 5 5 5 5 5 5 5 5 5 5 5 6 5 6 5 5 5 5 6 5 5 5 5 5 5 5 5 5 5 5 5 5 5 5 5 5 5 5 5 5 5 5 5 5 5 5 5 5 5 5 5 5 6 5 5 5 5 5 5 5 5 5 5 6 5 5 5 5 5 5 5 5 5 6 5 5 5 5 5 6 5 5 5 5 6 5 5 5 5 5 5 5 5 5 6 5 5 5 5 5 5 5 5 6 5 5 5 5 5 5 5 5 5 5 5 5 5 5 5 5 5 5 5 6 5 5 6 5 5 6 5 5 5 5 5 5 5 6 5 5 5 6 5 5 5 5 5 5 5 5 5 5 6 5 5 5 5 5 6 5 6 5 5 5 5 5 5 5 6 5 6 5 5 5 5 5 5 5 5 5 5 5 5 5 6 5 5 5 5 5 5 6 5 5 6 5 5 6 5 5 5 5 5 5 5 5 5 5 5 5 5 6 5 5 5 5 5 5 5 5 5 5 6 5 6 5 5 5 5 5 5 5 5 5 5 5 5 5 6 5 6 5 5 6 5 5 5 5 5 5 6 6 5 5 5 6 5 5 5 5 5 5 5 6 5 5 5 5 5 5 5 5 5 5 5 5 5 5 5 5 5 5 5 5 5 5 5 5 5 6 5 5 5 6 5 5 5 5 5 5 5 5 5 5 5 5 5 5 5 5 5 6 5 5 5 5 5 5 5 5 5 6 5 5 5 5 5 5 5 5 5 5 5 5 6 5 5 5 5 5 5 5 5 5 5 5 6 5 5 5 5 5 5 5 5 5 5 5 5 5 5 5 6 5 5 5 5 5 5 5 6 5 5 5 5 5 5 5 5 5 5 5 5 5 5 5 5 5 5 5 5 6 5 5 5 5 5 5 6 5 5 5 5 5 5 5 5 5 5 5 5 6 5 5 5 5 5 5 5 6 5 6 6 5 5 5 5 5 5 5 5 5 5 5 5 5 5 5 5 6 5 5 5 5 5 5 5 5 5 5 6 5 5 6 5 5 5 5 5 5 5 5 5 5 5 5 5 5 5 5 5 5 6 5 5 5 5 5 5 5 5 5 5 5 5 5 5 5 5 5 5 5 5 5 5 5 6 5 5 5 5 5 5 6 5 5 6 5 5 5 5 5 5 6 5 6 6 5 6 5 5 5 5 6 6 5 6 6 5 5 6 6 6 5 5 6 5 5 5 5 5 5 5 5 5 5 5 5 5 5 6 5 5 5 6 5 5 5 6 6 5 6 5 5 5 5 5 5 6 5 5 6 5 5 5 5 6 6 5 5 5 5 5 5 5 5 5 5 5 5 5 5 5 5 5 5 5 5 5 5 6 5 5 6 5 5 5 5 5 5 5 6 5 5 5 5 6 5 5 5 5 5 6 5 6 5 5 5 5 5 6 5 5 6 5 6 5 5 5 5 5 5 6 5 6 5 5 5 5 5 5 5 5 5 5 5 5 5 6 5 6 5 5 5 5 5 5 5 5 5 5 5 5 5 5 6 6 5 5 5 5 5 5 5 6 5 5 5 5 6 5 5 5 6 5 6 5 5 5 5 5 5 6 5 6 5 6 5 6 5 6 6 6 5 5 6 5 5 5 5 5 5 6 5 5 5 6 5 5 5 6 5 5 5 5 5 5 6 5 5 6 5 5 5 5 5 6 5 6 5 5 6 5 5 5 5 5 5 5 5 5 5 5 5 5 5 5 5 6 5 5 5 5 5 5 5 5 5 5 5 5 5 5 5 5 5 5 5 5 5 5 5 5 5 5 5 5 5 5 5 5 5 5 5 5 5 5 5 6 5 5 5 5 5 5 5 5 6 6 6 6 6 5 6 5 5 5 6 5 5 5 5 6 5 6 5 5 6 5 6 5 6 5 5 5 6 5 5 5 5 6 5 5 5 6 5 5 5 5 5 5 5 5 5 6 5 5 5 5 5 6 5 5 5 5 5 6 5 5 5 5 5 5 5 5 5 5 5 5 5 5 5 5 6 5 5 5 5 5 5 5 6 6 5 5 6 5 5 5 6 6 5 5 6 5 5 6 5 5 5 5 5 5 5 5 5 5 5 5 5 5 6 6 6 5 5 5 6 5 6 5 5 5 5 5 5 6 5 5 5 6 5 5 5 6 6 5 5 6 5 5 6 5 5 6 6 5 5 6 5 5 5 5 6 6 5 6 5 6 5 5 5 5 5 5 5 5 5 5 5 5 5 5 5 5 5 5 5 5 5 5 5 5 6 5 5 5 5 5 5 5 5 5 5 5 5 5 5 5 5 5 5 5 5 5 6 5 5 5 5 5 5 5 5 6 5 5 5 5 5 5 5 5 5 5 5 5 6 5 5 5 6 5 5 5 5 6 5 5 5 6 5 5 5 5 5 5 5 5 5 5 5 5 6 5 5 5 5 5 5 5 5 5 5 6 5 5 5 5 5 5 5 5 5 5 5 6 5 5 5 6 5 5 6 5 5 5 5 5 5 5 5 5 5 5 5 5 5 6 5 6 5 5 5 5 5 5 5 5 5 5 5 5 5 5 5 5 5 5 5 5 5 6 5 5 6 5 5 5 5 5 5 5 5 5 5 5 5 5 5 5 5 5 5 5 5 5 5 6 5 5 5 5 5 5 5 5 5 5 5 6 5 5 5 5 5 5 6 5 5 6 5 5 5 6 5 6 5 5 5 5 5 6 6 5 6 5 6 5 5 6 6 5 6 5 5 5 5 5 5 5 6 5 5 6 5 5 6 6 5 5 5 5 5 6 5 5 6 6 5 5 5 5 5 5 6 5 5 5 5 5 6 5 5 5 5 5 6 5 5 6 5 5 5 5 6 5 5 5 5 5 5 5 5 5 5 5 5 5 5 5 5 5 5 6 5 5 6 5 5 5 5 5 5 5 5 5 5 5 6 5 5 5 5 5 5 5 6 5 6 5 5 5 5 6 5 5 5 5 5 5 5 5 5 5 5 5 5 6 5 5 5 5 5 5 6 5 5 5 5 5 5 5 5 5 5 5 5 5 5 5 5 5 5 5 5 5 5 6 5 5 5 5 5 5 6 5 5 5 5 5 5 6 5 5 5 5 6 5 5 5 6 5 5 6 5 5 5 5 6 5 5 5 5 5 6 5 6 5 5 5 6 6 6 5 5 5 5 5 5 5 5 5 5 5 5 5 5 5 5 5 5 5 5 5 5 5 5 5 5 5 5 5 5 5 5 5 5 5 5 5 5 5 5 5 5 5 5 5 5 5 5 5 5 5 5 5 5 5 5 5 5 5 5 5 5 5 5 5 5 5 5 5 5 5 5 5 5 6 5 5 5 5 5 5 5 5 5 5 5 5 5 5 5 5 5 5 5 5 6 5 5 5 5 5 5 5 5 5 6 5 5 6 5 5 5 5 5 5 5 6 5 5 5 5 5 5 5 5 5 6 5 5 5 5 5 5 5 5 5 5 5 5 5 6 5 5 5 6 5 5 5 5 5 5 5 5 5 5 6 5 5 5 5 5 5 5 5 5 5 5 6 5 5 5 5 6 5 5 5 5 5 6 5 5 5 6 5 5 5 5 5 5 5 5 5 5 5 5 5 5 5 5 5 5 5 5 5 6 5 5 5 6 5 5 6 5 5 5 6 5 5 5 5 5 5 5 5 5 5 6 5 6 5 5 6 5 5 5 6 5 5 5 6 6 5 5 6 5 5 5 5 5 5 5 5 5 5 5 5 5 5 5 5 5 5 5 5 6 6 5 5 5 5 5 5 5 5 5 5 5 5 5 5 5 6 5 5 5 5 5 6 5 5 5 5 5 6 5 5 5 5 5 5 5 6 5 5 5 6 5 5 5 5 5 5 5 6 5 5 5 5 5 5 5 5 5 5 5 5 5 5 5 5 5 5 5 5 5 5 5 5 5 5 5 5 6 5 5 6 6 5 5 5 5 5 5 5 5 6 5 5 5 5 5 5 5 5 5 5 5 5 5 6 5 5 6 5 5 5 5 5 5 5 5 5 5 5 5 5 5 5 5 5 5 5 5 5 5 6 5 5 5 5 5 5 6 5 5 5 5 5 5 5 5 5 5 5 5 5 5 5 5 5 5 5 5 5 5 5 5 5 5 5 5 5 5 6 5 5 6 5 5 5 5 5 5 5 6 5 5 5 5 5 5 6 5 6 5 5 5 5 5 5 5 5 6 5 5 5 6 5 5 5 5 6 5 5 5 5 5 5 6 6 6 5 5 5 5 5 5 6 5 5 5 5 5 5 5 5 5 5 5 5 5 5 5 5 5 5 5 5 5 5 5 5 5 5 5 5 5 5 5 5 5 5 5 5 5 5 5 5 5 5 5 5 5 5 5 5 5 5 5 5 5 5 5 5 5 5 5 5 5 5 5 5 5 5 5 5 5 5 5 5 5 5 5 5 5 5 5 5 5 5 5 5 5 5 5 5 5 5 5 5 5 5 5 5 5 5 5 5 5 5 5 5 5 5 5 5 5 5 5 5 5 5 5 5 5 5 5 5 5 5 5 5 5 5 6 5 5 5 6 5 5 6 6 5 5 5 5 5 5 5 6 5 5 5 5 6 5 6 5 5 5 5 5 5 5 6 5 5 5 6 5 5 5 5 6 5 5 6 5 6 5 6 5 6 5 5 5 5 5 5 5 5 5 5 5 5 5 5 5 5 5 5 5 5 5 5 5 5 6 6 5 5 6 5 5 6 5 5 5 5 5 5 5 6 6 5 5 5 5 5 5 5 5 5 5 5 5 5 5 5 6 5 6 5 5 5 5 5 5 5 6 6 5 5 5 5 5 5 5 5 5 5 5 6 5 6 5 5 5 6 6 5 5 6 5 5 5 5 5 5 5 5 5 5 5 5 5 5 5 5 5 5 5 5 5 5 6 5 5 6 5 5 5 5 5 5 5 6 5 5 5 6 5 5 5 5 5 6 5 6 5 5 5 5 5 5 5 5 5 5 6 5 6 5 5 5 5 5 5 5 6 5 5 6 5 5 5 5 5 5 5 6 5 6 5 5 6 5 6 5 5 5 5 6 5 6 5 5 5 5 5 5 6 5 6 5 6 5 5 6 5 5 5 5 5 6 5 6 5 5 5 5 6 5 6 5 5 5 5 6 5 5 5 5 5 5 5 5 5 5 5 5 5 5 5 5 5 5 5 5 5 5 6 5 5 5 5 5 5 5 5 5 5 6 5 6 5 5 5 6 5 5 5 5 5 5 5 5 5 5 6 5 6 6 5 5 5 6 5 5 6 5 5 5 5 6 6 6 5 5 5 6 5 5 5 5 5 5 5 5 5 5 5 5 5 5 5 5 6 5 5 5 5 5 5 5 6 5 5 5 5 5 5 5 5 5 5 5 5 5 6 5 5 5 5 5 6 5 5 5 5 6 5 5 5 5 5 5 5 5 5 5 5 5 5 5 5 5 5 5 5 5 5 5 5 5 5 5 5 5 5 5 5 5 5 5 5 5 5 5 5 5 5 5 5 5 5 5 5 5 5 5 5 5 5 5 5 5 5 5 5 6 5 6 6 5 5 6 5 6 5 5 5 5 5 5 6 5 5 5 5 5 5 5 5 5 5 5 5 5 5 5 5 5 5 5 5 5 6 5 5 5 5 5 5 6 5 5 5 5 5 5 5 5 5 5 5 6 5 5 5 5 5 5 5 5 5 5 5 5 5 5 5 5 5 5 5 5 5 5 5 5 5 5 5 5 5 5 5 5 5 5 6 6 5 6 5 6 5 5 5 5 5 5 5 5 6 5 5 6 5 5 6 5 5 5 5 5 5 5 5 5 5 5 5 5 6 5 6 5 5 5 6 5 6 6 6 5 5 5 6 6 5 5 5 5 5 5 5 6 5 5 5 5 6 6 5 6 5 6 5 5 5 5 5 6 6 6 5 5 5 6 5 6 6 5 6 6 5 5 5 5 5 6 5 5 6 5 5 6 6 5 5 5 5 5 6 5 5 5 5 5 6 5 5 5 5 6 5 5 5 5 6 5 5 5 5 5 6 5 5 5 6 5 5 5 5 6 5 5 6 5 6 5 6 5 6 5 5 5 5 5 5 6 5 5 5 5 5 5 5 5 6 5 5 5 6 6 5 5 5 5 5 6 5 5 5 5 5 5 6 5 5 5 5 5 5 5 5 5 5 5 5 5 5 5 5 5 5 5 5 6 5 5 5 5 5 5 5 5 5 5 5 5 5 5 5 5 5 5 5 5 5 6 5 5 5 6 5 5 5 6 5 5 5 5 5 5 5 5 6 5 5 5 5 5 5 6 5 6 5 5 6 5 5 5 6 5 5 5 6 5 5 5 5 5 6 5 5 5 6 5 5 5 5 5 5 5 5 5 5 5 5 6 5 5 5 5 6 5 5 5 5 5 5 5 5 5 5 5 6 5 5 6 5 5 5 6 5 6 5 5 5 5 5 5 5 6 5 5 5 5 5 5 5 5 5 5 5 5 5 5 5 5 5 5 5 5 5 6 5 5 5 5 6 5 5 5 6 5 5 5 5 5 5 6 5 5 5 6 5 5 5 5 5 5 5 5 5 5 5 5 6 5 5 6 6 5 5 5 6 5 5 6 5 5 5 5 6 5 5 5 5 5 6 6 5 5 5 6 5 5 5 5 5 6 5 5 5 5 5 5 5 5 5 5 5 5 5 5 5 5 5 5 5 5 5 5 5 5 5 5 5 5 5 5 5 6 5 5 5 5 5 5 5 5 5 5 5 6 5 5 5 5 5 5 5 6 5 5 5 5 5 5 6 5 5 5 5 6 5 5 5 6 5 5 5 6 5 5 5 6 5 6 5 5 5 6 6 5 6 6 5 6 5 6 5 5 5 6 5 5 5 5 5 5 5 5 5 5 6 6 5 5 5 5 5 5 6 5 6 5 5 5 6 6 5 5 5 5 5 5 6 6 6 5 5 5 5 5 5 5 5 5 5 5 5 5 5 5 5 5 5 5 5 5 6 5 5 5 5 5 5 6 6 5 5 5 5 5 5 5 5 5 5 5 5 5 5 5 5 5 5 5 6 6 5 5 5 5 6 6 5 6 6 5 5 6 5 5 6 6 6 5 5 5 5 5 5 5 5 5 6 5 5 5 5 6 5 5 6 5 5 5 5 5 6 5 5 5 6 5 5 5 5 5 5 5 5 5 5 5 5 5 6 5 5 5 5 6 5 5 5 6 5 5 5 5 5 5 5 5 5 5 5 5 6 5 6 5 5 6 5 6 5 5 5 5 5 6 5 5 5 5 5 5 5 5 5 5 5 5 5 5 5 5 5 5 5 5 5 5 5 5 5 5 5 6 5 5 5 6 5 5 5 5 5 5 5 5 6 5 5 6 5 5 5 6 5 5 5 5 5 5 5 5 5 5 5 5 5 5 5 5 5 5 5 5 5 6 5 5 6 6 5 6 5 5 6 5 5 6 5 5 5 5 5 5 5 6 5 5 5 5 5 5 5 5 5 5 6 6 5 5 5 5 5 5 5 5 5 5 5 5 5 5 5 5 5 5 5 5 5 5 5 5 5 6 5 5 5 5 5 5 5 5 5 5 6 5 5 5 5 5 5 5 5 5 5 5 5 5 5 6 6 5 5 5 5 5 5 5 5 5 5 5 5 5 5 5 5 5 5 5 5 5 5 6 6 5 5 6 6 5 5 5 5 5 5 5 5 5 5 5 6 5 5 5 5 5 5 5 5 5 6 5 5 5 5 5 5 6 5 6 5 5 5 5 6 5 6 6 5 6 6 5 5 5 5 5 5 5 5 5 5 5 5 5 5 5 5 5 6 5 5 6 5 6 5 5 5 5 5 6 5 6 5 6 5 5 6 5 6 5 5 5 5 5 5 5 5 5 6 5 5 5 5 5 5 5 5 5 5 5 5 5 5 5 5 5 5 5 5 5 6 5 5 5 5 5 5 5 5 6 5 5 5 5 5 5 5 5 6 5 5 5 5 5 5 5 5 5 5 5 6 5 5 5 5 5 6 5 5 5 5 5 5 5 6 6 5 5 5 5 5 5 5 5 5 6 5 5 5 5 5 5 5 5 5 5 6 5 5 5 5 5 5 5 5 5 5 5 6 5 5 5 5 6 5 6 6 5 5 5 5 5 5 6 5 5 5 5 6 5 5 5 5 5 5 5 5 5 6 5 6 5 5 5 5 5 5 6 5 5 6 6 5 5 6 5 6 5 6 5 5 5 5 5 6 5 5 6 5 5 5 5 5 5 6 5 5 5 6 5 6 5 5 6 5 5 5 5 5 6 5 5 5 5 5 5 5 5 5 5 5 6 6 5 5 5 5 5 5 6 5 5 5 5 5 5 5 5 5 5 5 5 5 5 5 6 5 5 6 5 5 5 5 5 5 5 5 5 5 5 5 5 5 5 5 5 5 5 5 5 5 5 5 5 5 5 5 5 5 5 5 5 5 5 5 5 5 5 5 5 5 6 5 5 5 5 5 5 5 5 5 5 5 5 5 5 5 5 5 5 5 5 5 5 5 5 6 5 5 5 5 6 5 5 5 6 5 5 5 5 5 5 5 5 5 5 5 5 5 5 5 5 5 5 5 5 5 5 5 5 5 5 5 5 5 5 5 5 5 5 5 6 5 5 5 5 5 5 5 5 6 5 5 5 5 6 5 5 5 5 5 5 5 5 5 5 5 5 5 5 5 5 5 5 5 5 5 6 5 5 5 5 6 5 5 5 5 5 5 5 5 5 5 5 5 5 5 5 6 5 6 5 5 5 5 5 5 5 5 6 5 5 5 5 5 6 5 5 5 5 5 5 5 5 5 5 5 5 5 6 5 5 6 5 5 5 6 5 5 5 5 5 5 5 6 5 5 5 5 5 5 5 5 5 5 5 5 5 5 5 5 5 5 5 5 5 5 5 5 5 5 6 5 5 5 6 5 5 5 5 5 5 5 5 5 5 5 5 5 5 5 5 5 5 5 5 5 5 5 5 5 5 5 5 5 5 5 5 5 6 5 5 5 5 5 5 5 5 5 5 5 5 5 6 5 5 5 5 5 5 5 5 5 5 6 5 5 5 5 6 5 5 5 5 5 6 5 5 5 5 5 5 5 5 5 5 5 5 5 5 5 5 5 6 5 5 5 5 5 5 5 5 5 5 5 5 5 5 5 5 5 5 5 6 5 5 5 5 5 5 5 5 6 5 5 5 5 5 6 5 5 5 5 5 5 6 5 5 5 5 5 5 5 5 5 5 5 5 5 5 5 6 6 5 5 5 5 6 5 5 5 5 6 5 5 5 5 5 5 5 5 5 5 6 5 5 6 5 6 6 5 5 5 5 6 6 5 5 5 5 5 5 5 6 5 5 5 5 6 5 5 6 5 6 6 5 5 5 6 5 5 5 6 5 5 5 5 5 5 5 5 5 5 5 5 5 6 5 6 6 5 5 5 6 5 6 5 5 6 6 5 5 5 6 6 5 5 5 5 5 5 6 5 6 5 5 5 6 5 6 5 5 5 6 5 6 5 5 5 6 5 5 6 5 5 5 6 5 5 6 5 5 5 5 5 5 5 6 6 5 5 5 5 6 5 5 5 5 5 6 5 6 5 5 5 6 6 5 5 5 5 5 5 5 5 5 6 5 5 5 5 5 6 5 5 5 5 6 5 5 5 6 5 5 5 5 6 5 5 5 5 6 5 5 5 5 5 5 5 5 5 5 5 5 5 5 5 5 5 5 5 5 6 5 5 6 5 5 6 5 6 5 5 6 6 5 5 5 5 5 5 5 5 5 6 5 5 5 5 5 5 5 5 5 5 5 5 5 5 5 5 5 5 5 5 6 5 5 5 5 5 5 5 5 5 5 5 5 5 5 5 5 6 5 5 5 5 5 5 5 5 5 6 5 5 5 5 5 5 5 5 5 5 5 5 5 5 5 5 5 6 5 5 6 5 6 5 5 5 5 5 5 5 5 5 6 5 5 5 5 5 5 5 5 6 5 5 5 5 5 5 5 5 5 5 5 5 5 5 5 5 5 5 6 5 6 5 5 5 5 6 5 5 5 5 6 5 5 5 5 5 5 5 5 5 5 5 5 5 5 5 5 6 5 5 6 6 5 5 5 5 5 5 5 6 6 5 5 5 5 6 5 5 5 5 5 5 5 5 5 5 6 5 5 5 5 5 5 5 5 6 5 5 5 5 5 5 5 5 5 6 5 5 6 5 5 6 5 5 5 5 5 5 6 5 6 5 5 5 5 6 5 5 5 6 5 5 5 5 5 6 5 5 5 5 5 5 5 5 5 6 5 5 6 5 5 5 5 5 5 5 5 5 5 5 5 5 5 5 5 5 5 5 5 6 5 5 5 5 5 5 5 5 5 5 5 6 5 5 5 5 5 5 5 5 5 6 5 5 5 5 5 5 5 5 5 5 5 5 5 5 5 5 5 5 6 5 5 5 6 6 5 5 5 5 6 6 5 5 6 5 5 5 5 5 5 6 5 5 5 5 5 5 5 5 5 5 5 5 5 5 5 5 5 5 5 5 6 5 5 5 5 5 5 5 5 5 5 6 5 6 5 5 5 5 5 5 6 5 5 5 5 5 6 5 5 5 6 5 5 5 5 6 5 5 5 6 5 5 5 5 5 5 5 5 5 5 5 5 6 5 5 5 5 5 5 6 6 5 5 5 5 5 5 5 6 5 6 5 5 6 5 5 5 5 5 5 5 5 5 5 5 5 5 5 5 5 5 5 5 6 5 5 5 5 5 5 6 5 5 5 5 5 5 5 5 5 5 5 6 5 5 5 5 6 5 5 5 6 5 5 5 5 6 5 5 6 6 5 5 5 5 5 6 5 5 5 5 5 6 6 6 5 5 5 5 5 6 6 5 6 6 5 6 5 5 5 5 5 5 5 5 5 5 5 6 5 5 5 5 6 5 5 5 6 5 6 5 6 6 5 5 5 6 5 6 6 6 5 5 5 6 5 6 5 6 5 5 5 6 5 5 5 5 5 5 5 5 5 5 5 5 5 5 5 5 5 5 5 5 5 5 5 5 5 5 5 5 6 5 5 5 5 5 5 6 5 5 5 5 5 5 5 5 5 5 5 5 5 5 5 5 5 5 5 5 5 5 5 5 5 5 5 5 5 5 5 5 5 5 5 5 5 5 5 5 5 5 5 5 5 5 5 5 5 5 6 5 5 5 5 5 5 5 5 5 5 5 5 5 5 5 5 5 5 5 5 5 5 5 5 6 6 5 5 5 5 5 5 5 5 5 5 5 5 5 5 5 5 5 5 5 5 5 5 5 6 5 5 5 5 5 5 5 5 5 5 5 5 5 5 5 5 6 6 5 5 5 5 5 6 6 6 5 5 5 6 6 5 5 5 5 5 5 5 5 5 5 5 5 5 5 5 5 6 5 6 5 5 6 5 5 5 5 5 5 5 5 5 5 5 5 5 5 5 5 5 5 5 5 5 5 5 5 5 5 5 5 5 5 5 5 5 5 5 6 5 5 5 5 5 5 5 5 5 5 5 5 5 5 5 6 5 5 5 5 5 5 5 5 5 5 5 5 5 5 6 5 5 5 5 5 5 5 5 5 5 5 5 5 5 5 5 5 5 5 5 5 5 5 5 5 5 5 5 5 5 5 6 5 5 5 5 5 5 6 5 5 5 5 5 5 5 5 6 5 6 5 5 5 5 5 5 5 5 6 5 5 5 5 5 5 5 5 5 5 5 5 5 5 5 5 5 5 5 5 5 5 5 5 5 5 5 5 5 5 6 5 5 5 5 5 5 5 5 5 5 5 5 5 6 6 5 5 6 6 5 5 5 5 5 6 5 5 5 5 5 5 6 5 5 5 5 5 6 5 6 5 6 5 5 6 5 5 5 5 5 5 5 6 5 6 5 5 6 5 5 5 5 6 5 5 5 6 5 5 5 5 5 6 5 6 5 5 6 5 5 5 6 5 6 5 5 5 5 5 5 5 6 5 5 6 6 5 6 6 5 5 5 6 5 6 6 6 5 5 5 5 5 6 5 5 5 5 5 5 6 5 5 5 6 5 6 5 5 5 5 5 5 5 5 5 5 5 5 5 5 5 5 5 6 5 5 6 5 5 5 5 5 5 5 5 5 6 5 5 5 5 5 5 5 5 6 5 5 5 6 5 6 5 5 6 5 5 5 5 6 5 5 5 5 5 5 5 6 5 6 5 5 5 5 5 5 5 6 5 5 5 6 5 6 5 5 6 6 5 5 5 5 5 6 5 5 5 5 5 5 5 5 5 5 5 5 5 5 5 5 5 5 6 6 5 5 5 5 5 5 6 5 5 6 6 5 5 6 5 6 5 5 6 5 5 5 6 5 5 6 5 5 5 5 6 5 5 5 5 5 5 6 5 5 5 5 6 6 5 6 6 5 5 5 5 5 5 5 5 5 5 5 5 5 5 5 5 5 5 5 5 5 5 5 5 5 5 5 5 5 5 6 5 5 6 5 5 5 5 5 5 5 5 5 5 6 5 5 5 5 5 5 5 5 6 5 5 5 5 5 5 5 6 5 5 5 6 5 5 5 6 5 6 5 5 5 5 5 5 6 5 6 5 5 5 6 5 5 5 5 5 5 5 5 5 5 5 5 5 5 5 5 5 5 6 6 6 5 6 5 5 5 5 5 5 6 5 6 5 5 5 5 6 5 5 6 6 5 5 5 5 5 6 5 6 5 5 5 6 5 5 6 6 5 5 5 5 6 5 5 6 5 5 5 6 5 5 5 6 5 6 5 5 5 5 5 5 5 5 6 5 5 5 5 5 5 5 5 6 5 5 5 5 6 5 6 5 5 6 5 5 6 5 5 5 5 6 5 5 5 5 5 5 5 5 5 5 5 5 5 5 5 5 5 5 5 5 5 5 6 5 5 5 5 5 5 5 5 5 5 5 5 5 5 5 5 5 5 5 5 5 5 5 5 5 5 5 5 5 5 5 5 6 5 6 6 5 5 5 5 5 5 5 6 5 5 5 5 5 5 6 5 5 5 6 5 5 5 5 5 5 5 5 5 5 5 6 5 5 6 5 5 5 5 6 5 5 6 5 5 5 5 5 5 5 6 5 5 5 5 5 5 5 5 5 5 5 6 5 5 5 5 5 5 5 5 5 5 5 5 5 6 5 5 5 6 5 5 5 5 5 5 5 5 5 5 5 5 5 5 5 5 5 5 5 5 5 5 5 5 5 5 5 5 5 5 5 5 5 5 5 6 5 5 5 5 5 6 5 5 6 5 5 5 6 6 5 5 5 5 5 5 6 5 5 5 5 5 5 5 5 5 5 5 5 5 5 5 5 5 5 5 5 5 5 5 5 6 5 5 5 5 5 5 6 5 5 6 5 5 5 5 5 5 6 5 6 5 5 5 6 5 5 6 5 5 5 5 6 5 5 5 6 5 5 6 6 5 5 6 5 5 6 6 5 6 5 5 5 6 6 6 5 5 5 6 5 5 5 6 5 5 5 5 6 5 5 5 5 5 5 5 5 5 5 5 5 5 5 6 5 6 5 5 5 5 5 6 5 5 5 5 5 5 5 6 6 5 5 5 5 5 5 5 6 5 6 6 6 5 5 5 5 5 5 5 6 5 5 6 5 6 5 6 5 5 6 5 5 5 5 5 5 5 5 5 5 5 5 5 5 5 6 5 5 5 5 5 5 5 5 5 5 5 6 5 5 5 5 6 5 5 5 5 5 5 5 5 5 5 6 5 5 6 5 5 6 5 5 5 5 6 5 5 5 6 6 5 5 5 5 5 5 6 5 5 5 5 5 5 5 5 5 5 5 5 5 5 5 6 5 5 5 6 5 5 5 5 5 5 5 6 5 5 5 5 6 6 5 5 5 5 5 5 5 5 5 5 5 5 5 5 6 5 5 5 6 5 5 5 5 5 6 5 6 5 5 5 5 5 5 5 5 6 6 5 6 6 5 5 5 5 5 6 6 6 5 6 5 6 5 5 6 5 5 5 5 5 5 5 5 5 5 5 5 5 5 5 5 5 5 5 5 6 5 5 5 5 5 5 5 5 5 5 5 5 5 5 6 5 5 5 5 5 5 5 5 5 5 5 5 5 5 5 5 6 5 5 5 5 6 5 5 5 5 5 5 5 6 5 6 5 5 6 5 5 5 5 6 5 6 5 5 6 5 5 5 5 5 5 5 5 5 5 5 5 5 5 6 5 5 5 5 5 5 5 5 5 5 5 5 5 6 5 5 5 6 5 6 5 5 6 5 5 5 6 5 5 5 5 5 5 5 5 5 5 5 5 5 5 5 5 6 5 5 5 5 6 5 5 6 5 5 5 5 5 5 5 6 5 5 5 5 5 5 5 5 5 5 5 5 5 5 5 5 5 5 5 5 5 5 6 5 5 5 6 5 5 5 5 5 5 5 5 5 5 5 5 5 5 5 5 6 5 5 5 5 5 5 5 5 5 5 5 5 5 6 5 5 5 5 5 5 5 5 5 5 5 6 5 5 5 5 5 5 5 6 5 5 5 5 6 6 5 5 5 5 5 5 5 5 5 5 5 5 5 5 5 5 5 5 5 5 5 5 5 6 5 5 5 5 5 5 5 6 5 6 5 5 5 6 5 5 5 5 5 6 5 5 5 6 5 5 5 6 5 5 5 5 5 5 5 5 5 6 5 5 5 5 5 5 5 5 5 5 5 5 5 5 5 5 6 5 5 5 5 6 5 5 5 6 5 6 6 5 5 5 5 5 5 5 5 5 5 5 5 5 5 5 5 5 5 5 5 5 5 5 5 5 6 5 5 5 6 5 6 5 6 5 5 6 5 5 5 6 5 5 5 5 5 5 5 6 5 5 6 6 6 5 5 6 5 5 5 5 6 6 5 6 5 5 5 5 5 6 5 5 5 5 5 6 5 5 5 6 5 5 5 5 5 5 5 5 5 5 6 5 5 5 5 6 6 5 5 5 5 6 5 6 5 6 5 5 5 5 5 5 5 5 5 5 5 5 5 5 5 5 6 5 5 5 5 5 5 5 5 6 5 5 5 6 5 5 5 5 5 6 5 5 6 5 5 5 5 5 6 5 5 6 5 5 6 6 6 5 6 5 5 5 6 5 5 5 5 5 5 5 5 5 5 5 5 6 5 6 5 5 5 5 5 5 5 5 5 5 5 5 5 5 5 5 5 6 5 5 5 5 5 5 6 5 5 6 5 5 5 5 5 5 5 5 5 6 6 5 5 5 5 5 5 6 5 5 6 5 5 5 5 5 5 5 5 5 5 5 5 5 5 5 5 6 5 6 5 5 5 5 5 5 5 5 5 5 6 5 5 5 5 5 6 5 5 5 5 5 5 5 5 5 5 5 5 5 5 5 5 6 5 5 5 5 5 5 5 5 5 6 5 5 5 5 5 5 5 6 5 6 5 5 5 5 5 6 5 6 5 5 6 5 5 5 5 5 5 5 5 5 5 5 6 5 5 5 5 6 5 5 5 5 5 5 5 5 5 5 5 5 6 5 5 6 5 5 5 5 5 5 5 5 5 5 6 5 6 5 5 5 5 5 6 5 5 5 5 5 5 5 5 5 5 6 6 5 5 5 5 5 6 5 5 5 6 5 5 5 5 5 5 6 5 5 5 5 5 5 5 5 6 5 5 5 5 5 5 5 5 5 5 5 5 5 5 5 6 5 5 5 5 5 6 5 5 5 5 6 5 5 5 6 5 5 6 5 5 5 5 5 5 5 5 5 5 5 5 5 5 5 5 5 5 5 5 5 5 5 6 5 5 5 5 5 5 5 6 5 5 5 5 5 5 5 5 5 5 5 5 5 5 5 5 5 5 5 5 5 5 5 5 5 5 5 5 5 5 5 5 5 5 5 5 5 6 5 5 5 5 5 5 5 5 6 5 5 5 5 5 5 5 5 5 5 5 5 5 5 6 5 5 6 5 6 6 6 5 5 5 5 6 5 5 5 5 5 5 5 5 5 5 5 5 5 5 5 5 5 5 5 5 5 5 5 5 5 5 5 5 5 5 5 5 5 5 5 5 5 5 5 5 5 5 5 6 5 5 6 5 5 5 5 5 6 5 5 5 5 6 6 5 6 5 5 5 6 5 5 5 5 5 5 5 5 5 5 5 5 5 5 5 5 5 5 5 5 5 5 5 5 5 5 5 5 5 5 6 5 5 5 5 5 5 6 5 5 5 6 5 5 5 5 5 5 5 5 5 5 5 5 5 6 5 5 5 5 5 5 5 5 5 5 5 5 5 5 5 5 5 5 5 5 5 5 5 5 5 6 6 5 5 5 6 5 6 5 5 5 6 5 5 5 6 6 5 5 6 5 5 5 5 5 5 5 5 5 5 5 6 5 5 5 5 5 5 5 5 6 5 5 5 5 5 5 5 5 5 5 5 5 5 6 6 5 5 5 5 5 5 5 6 5 5 5 5 6 5 5 5 5 5 5 5 5 5 5 5 6 5 6 6 6 5 5 5 6 5 5 5 5 6 5 5 5 5 5 5 5 5 5 5 5 5 5 5 5 5 5 5 5 5 5 5 5 5 5 5 5 5 6 5 5 5 5 5 5 6 5 6 6 5 5 5 5 5 5 5 6 5 5 5 5 5 5 5 5 5 5 5 5 5 5 5 5 5 5 5 5 5 5 5 5 5 5 5 5 5 5 5 5 5 5 5 5 5 5 5 5 5 5 5 5 5 5 5 5 5 5 5 5 5 5 5 5 5 5 5 5 5 5 5 5 5 5 5 5 5 5 5 5 5 5 5 5 5 5 5 5 5 5 5 5 5 5 5 5 5 5 5 5 5 5 5 5 5 5 5 5 5 5 5 5 5 5 5 5 5 5 5 5 5 5 5 5 5 5 5 5 5 5 6 6 5 6 6 5 5 6 5 5 6 5 5 5 5 5 5 5 5 5 5 5 5 5 5 6 6 5 6 6 5 5 5 5 5 5 5 5 5 5 6 5 5 5 5 5 5 6 5 5 5 5 5 5 5 5 5 5 6 5 5 6 5 5 5 5 5 5 5 5 5 5 5 5 5 5 5 5 5 5 5 5 5 5 5 5 5 5 6 5 5 5 5 5 5 5 5 5 5 5 5 5 5 5 5 5 6 5 5 5 6 5 5 5 5 5 5 6 5 5 5 5 5 5 5 5 6 5 5 5 5 6 5 6 5 6 5 5 5 5 5 6 5 5 5 6 5 6 5 5 5 5 5 5 5 5 5 5 5 5 6 5 5 5 5 5 5 5 5 5 5 5 5 5 5 5 5 5 5 5 5 5 5 5 5 5 5 5 5 5 5 5 5 5 5 5 5 6 5 5 5 5 5 5 6 5 5 5 5 5 5 5 5 6 6 5 5 5 5 5 6 6 5 5 5 5 5 5 5 5 5 6 5 5 5 5 6 5 5 5 5 5 6 5 5 5 5 5 5 5 5 5 5 5 5 5 5 6 5 5 5 5 5 5 5 5 5 5 5 5 5 6 5 5 
</DataArray>
<DataArray type="Float64" Name="stress" NumberOfComponents="9" format="ascii">
-2787.340047518599 139.4800042302557 0 139.4800042302557 26.516740505039252 0 0 0 0 -2507.1260760596633 97.400843642967374 0 97.400843642967374 -0.23784070268629784 0 0 0 0 -3108.0140354115319 258.30844600084163 0 258.30844600084163 146.18676040771334 0 0 0 0 -2183.3477532438956 399.99858441507627 0 399.99858441507627 -182.15431940177609 0 0 0 0 -1479.729118252646 45.822827305520761 0 45.822827305520761 0.061939834205077621 0 0 0 0 -2040.9258309902798 182.67771794616414 0 182.67771794616414 47.817087755789458 0 0 0 0 -1189.9627183710718 629.22512293049408 0 629.22512293049408 -238.3849548373733 0 0 0 0 -3.9928167968296577 3.6220765823238423 0 3.6220765823238423 -1.694797294431678 0 0 0 0 -3063.2777049446449 77.232989103740721 0 77.232989103740721 -82.058582199666404 0 0 0 0 66.920610265660798 591.53951797956688 0 591.53951797956688 -326.97810623005279 0 0 0 0 -633.14891479536891 -106.50861983801998 0 -106.50861983801998 259.6279030130928 0 0 0 0 -2351.3878569784065 375.82817012106426 0 375.82817012106426 -145.15031589488052 0 0 0 0 -2386.4854133024382 417.94332169374252 0 417.94332169374252 -177.68270292404827 0 0 0 0 -2248.437883890896 402.34278681330903 0 402.34278681330903 -176.69047023937173 0 0 0 0 -2295.1571142116445 361.92946795035482 0 361.92946795035482 -139.31126443252782 0 0 0 0 -1614.7448361518764 192.82439280983181 0 192.82439280983181 -245.31745611059483 0 0 0 0 -136.89920331044414 -52.786049184117417 0 -52.786049184117417 153.90795487280343 0 0 0 0 -1828.5252369517257 -61.580154253925215 0 -61.580154253925215 -69.388775664937384 0 0 0 0 -1452.3511641909427 -246.80485547521477 0 -246.80485547521477 -76.086192521527408 0 0 0 0 -1776.6464388318709 -62.823520737777756 0 -62.823520737777756 -148.27184186893234 0 0 0 0 -7.7215811271022829 9.7999624763288864 0 9.7999624763288864 -3.4964897146436487 0 0 0 0 12.468932914547622 34.904553404853118 0 34.904553404853118 -19.668406392403085 0 0 0 0 -1085.3805767361991 -208.07763320616283 0 -208.07763320616283 -165.96746379673516 0 0 0 0 -50.574168932507746 -4.9796427412366029 0 -4.9796427412366029 -33.435686298551445 0 0 0 0 -8.8093730776686812 12.765918094931379 0 12.765918094931379 -2.8054566396883591 0 0 0 0 -1136.0937415259832 -270.08316939254615 0 -270.08316939254615 -167.48752107903834 0 0 0 0 -1807.0181058252492 76.77581616993993 0 76.77581616993993 -79.888072780685008 0 0 0 0 -1328.0080078124993 3.3981368604089077 0 3.3981368604089077 -137.16441192712173 0 0 0 0 -1144.1267129704938 -187.29607599706952 0 -187.29607599706952 -161.07525046359666 0 0 0 0 -1422.3118660441687 -177.41312595425597 0 -177.41312595425597 -122.5427689928631 0 0 0 0 -1248.7151013053517 -226.61131220217359 0 -226.61131220217359 -72.341498027296211 0 0 0 0 -1091.6567621979339 -205.52042138134345 0 -205.52042138134345 -109.58076437590967 0 0 0 0 -916.27461677147949 -244.14832749457156 0 -244.14832749457156 -79.789692005921097 0 0 0 0 -1147.1711243149339 -271.17900368437279 0 -271.17900368437279 -57.557404144421412 0 0 0 0 -1083.7111801638384 -292.05549005021851 0 -292.05549005021851 -33.229794817501897 0 0 0 0 -975.56798732835159 -333.90276536790577 0 -333.90276536790577 -89.907247313770824 0 0 0 0 -1915.7000310070762 710.67377655728558 0 710.67377655728558 -269.43127217455071 0 0 0 0 -1606.0004459461925 110.89132920619016 0 110.89132920619016 -167.37978976551355 0 0 0 0 -1585.5407812913036 128.33117121302706 0 128.33117121302706 -174.29036226154983 0 0 0 0 -1014.2690361242276 -126.46882953436693 0 -126.46882953436693 -197.48975438363618 0 0 0 0 -1168.3184274397354 24.824082069606462 0 24.824082069606462 -295.81070164729402 0 0 0 0 -1866.6024088278791 721.2295918720398 0 721.2295918720398 -290.46093130364272 0 0 0 0 -3497.4008085453115 732.82121784893218 0 732.82121784893218 223.62628255426722 0 0 0 0 -1844.2356152280154 757.19758664807284 0 757.19758664807284 -277.30315842493496 0 0 0 0 -3115.2317535164402 1583.8601204926097 0 1583.8601204926097 -86.402400004427307 0 0 0 0 -1885.2609972319624 740.55574927983935 0 740.55574927983935 -263.60887329766774 0 0 0 0 -3300.1930749972307 467.58851975952149 0 467.58851975952149 -62.078662999813034 0 0 0 0 -2743.93555792794 830.02621011274482 0 830.02621011274482 -80.69384308558358 0 0 0 0 33.802207759188605 -22.695102839737913 0 -22.695102839737913 57.723580812014319 0 0 0 0 -168.80638764360629 66.48191629381796 0 66.48191629381796 309.71223898777293 0 0 0 0 -68.945633449751767 19.202488335805242 0 19.202488335805242 117.19566732483645 0 0 0 0 -140.0487667304551 0.17525469566552943 0 0.17525469566552943 114.88934241322522 0 0 0 0 -144.97173934727471 46.731117278150705 0 46.731117278150705 -1.8630138855307052 0 0 0 0 -337.28834539639138 -192.78968555418066 0 -192.78968555418066 16.511540921894607 0 0 0 0 -409.23529639549088 -75.459349344646611 0 -75.459349344646611 47.084746053576168 0 0 0 0 -352.1060145066549 44.716372968444034 0 44.716372968444034 -0.0047410114120532039 0 0 0 0 -182.89564778102795 -35.329493474769862 0 -35.329493474769862 -54.023532168878802 0 0 0 0 -113.45670946676546 32.87581470794143 0 32.87581470794143 -5.5428075116493005 0 0 0 0 -0.35788886409847009 0.20117566760788463 0 0.20117566760788463 1.0844014723185149 0 0 0 0 -4.4664100076406612 28.053890836286538 0 28.053890836286538 -35.217109812773089 0 0 0 0 -190.46579058352017 77.755657168848629 0 77.755657168848629 -21.682880655185528 0 0 0 0 -0.33169859563514592 0.082024973575187232 0 0.082024973575187232 0.26324315857037478 0 0 0 0 -64.241385433037067 -37.506779731308811 0 -37.506779731308811 -16.288725442359507 0 0 0 0 -42.295959644310642 -48.213752322677898 0 -48.213752322677898 -42.385354850795324 0 0 0 0 -62.518674332473893 53.812887312732244 0 53.812887312732244 1.9344266032285873 0 0 0 0 -55.364814626271254 -58.762907885476409 0 -58.762907885476409 120.65883962165421 0 0 0 0 -94.491363025779719 59.216338751268722 0 59.216338751268722 219.95153462216737 0 0 0 0 -119.15888325416745 63.900755854539 0 63.900755854539 219.66000422973937 0 0 0 0 -100.24564046779415 67.320936711390573 0 67.320936711390573 296.55653550374342 0 0 0 0 -186.64627508091507 209.40752910371739 0 209.40752910371739 497.89492541228572 0 0 0 0 -0.19247145615921113 0.17224614565535035 0 0.17224614565535035 0.8203874409754488 0 0 0 0 -58.468220695904165 -65.798720801507457 0 -65.798720801507457 314.99691672273298 0 0 0 0 7.0136808982060757 192.17719073976519 0 192.17719073976519 314.97090595889841 0 0 0 0 -93.648526225646492 111.45075308359446 0 111.45075308359446 416.44908795591317 0 0 0 0 -205.29001125275681 0.45658780376678265 0 0.45658780376678265 -0.25920097109634638 0 0 0 0 -5.8005518250869272 1.8148018327072748 0 1.8148018327072748 2.8409725298657809 0 0 0 0 -13.943633462113212 -47.725758705318867 0 -47.725758705318867 331.36483787455501 0 0 0 0 58.81540325799142 162.94767225001112 0 162.94767225001112 178.09355117480106 0 0 0 0 -193.49508087409777 131.38725561047119 0 131.38725561047119 404.17033695082949 0 0 0 0 -14.031275867141119 8.5504248900384141 0 8.5504248900384141 -3.07730407025841 0 0 0 0 -385.34568585368106 -114.82027544089993 0 -114.82027544089993 -74.275995341061957 0 0 0 0 128.97583143139491 349.97701101080452 0 349.97701101080452 72.889536182278789 0 0 0 0 -273.43966870018357 495.76110764193783 0 495.76110764193783 58.142314079011783 0 0 0 0 -229.39409481891198 16.450375978331763 0 16.450375978331763 48.646268949148322 0 0 0 0 79.114779246388935 -12.364087935617292 0 -12.364087935617292 -24.360930094287028 0 0 0 0 107.31228534691036 226.03372756889274 0 226.03372756889274 162.10510628419462 0 0 0 0 -534.0917707169574 62.366933744418333 0 62.366933744418333 14.264424763049069 0 0 0 0 -6.3503032012740732 50.765781077189907 0 50.765781077189907 -59.437101637357088 0 0 0 0 -1128.4117578415389 351.59100098249058 0 351.59100098249058 210.584111621239 0 0 0 0 -1124.0280374477734 75.678875290078636 0 75.678875290078636 -258.15023191572851 0 0 0 0 -1138.9205496906138 70.731901721104478 0 70.731901721104478 -243.29243639040629 0 0 0 0 -814.01393270165136 200.57125817287343 0 200.57125817287343 -236.34749506744677 0 0 0 0 -1916.4763784981624 -124.11936814595236 0 -124.11936814595236 362.22915706366018 0 0 0 0 -1638.9546186303778 -771.02384014049005 0 -771.02384014049005 -170.50246059775858 0 0 0 0 -6.7720370427567218 2.9235930800248298 0 2.9235930800248298 -1.038699984638249 0 0 0 0 -1717.5893272005414 -87.202446656007169 0 -87.202446656007169 263.76056674120747 0 0 0 0 -1.7438641083794195 -2.1837553151715099 0 -2.1837553151715099 3.5135029466553793 0 0 0 0 -1906.3423359807784 145.85064571934959 0 145.85064571934959 167.3735229197066 0 0 0 0 -1191.2936293608418 23.353534428240167 0 23.353534428240167 70.580919043719177 0 0 0 0 -1195.3901282328006 -12.086682324664423 0 -12.086682324664423 -114.92231951110466 0 0 0 0 -1478.4136043504986 71.228169484648674 0 71.228169484648674 91.927453037915029 0 0 0 0 -683.78501425780996 -37.513130114988144 0 -37.513130114988144 -117.11530651605563 0 0 0 0 -1209.2769365903296 45.842941927795948 0 45.842941927795948 110.77686009536228 0 0 0 0 -1389.9055042619293 -150.25874017229023 0 -150.25874017229023 -53.179714236449513 0 0 0 0 -1216.7713820350327 72.538342091226923 0 72.538342091226923 18.692407278959081 0 0 0 0 -1684.6372579594463 43.621992489815796 0 43.621992489815796 154.68667393427222 0 0 0 0 -1794.2834854948014 -195.71079255760969 0 -195.71079255760969 66.000556562510042 0 0 0 0 -150.12242939950374 32.014445978377694 0 32.014445978377694 32.104056503535276 0 0 0 0 -1478.5893301369235 16.822559215134607 0 16.822559215134607 -294.98121251047678 0 0 0 0 -1.8458971516231752 -7.2261542407769923 0 -7.2261542407769923 6.3170847307048543 0 0 0 0 -1951.8475345644474 33.944748803906705 0 33.944748803906705 187.8819506110068 0 0 0 0 -1668.833958907504 127.72786941584889 0 127.72786941584889 -62.212841762581263 0 0 0 0 -137.45576837608678 6.8798618982428366 0 6.8798618982428366 9.8404934111320017 0 0 0 0 -1660.978331466642 -129.87436415080128 0 -129.87436415080128 32.448240723573463 0 0 0 0 -5.6649859450401934 -12.156176394881356 0 -12.156176394881356 2.4440815615513163 0 0 0 0 -12.63117433582886 13.563102453055393 0 13.563102453055393 0.035272657732008383 0 0 0 0 -1539.039218770602 -104.04947796965183 0 -104.04947796965183 -79.473614090191177 0 0 0 0 -1653.1307571677316 -131.70568710736751 0 -131.70568710736751 10.223774843608112 0 0 0 0 -842.28676079529396 135.9651439066094 0 135.9651439066094 -111.33388470625744 0 0 0 0 -1595.2083742590839 -24.691805436846195 0 -24.691805436846195 85.171872922509351 0 0 0 0 -1738.2717999469023 -68.443080541857057 0 -68.443080541857057 74.544375070252784 0 0 0 0 -1431.3831120901013 -51.253176089159055 0 -51.253176089159055 82.14849513044885 0 0 0 0 -1448.8095270179911 -7.3197917995012176 0 -7.3197917995012176 -20.567803670062233 0 0 0 0 -1207.8402223715893 233.6027375575608 0 233.6027375575608 15.241079627341662 0 0 0 0 -1197.9046874673513 -65.253300044559126 0 -65.253300044559126 96.874641010664391 0 0 0 0 -1469.492578743695 -43.246425642079714 0 -43.246425642079714 68.282044536181047 0 0 0 0 -1300.9277706403227 77.697048436762771 0 77.697048436762771 -20.207881057495229 0 0 0 0 -1455.7412601448304 65.640581579335731 0 65.640581579335731 38.239873654672806 0 0 0 0 -1350.5376125737384 -69.304812596392594 0 -69.304812596392594 65.125680147144976 0 0 0 0 -981.58450487154187 -39.633820668418366 0 -39.633820668418366 10.061573246940043 0 0 0 0 -1172.0744060494762 85.102412072048082 0 85.102412072048082 53.265285315849098 0 0 0 0 -719.44162146437156 -78.038917132424956 0 -78.038917132424956 -36.097086500498875 0 0 0 0 64.394411509696511 -80.715403984984505 0 -80.715403984984505 3.3394035310152503 0 0 0 0 -9.7840475752642249 -15.23742969979719 0 -15.23742969979719 -8.9536831656818787 0 0 0 0 -450.19707892622682 -101.44042940442739 0 -101.44042940442739 313.47275123539532 0 0 0 0 -926.74265429328079 136.77904252151109 0 136.77904252151109 223.61465108192181 0 0 0 0 -640.74137370726385 111.57170475034286 0 111.57170475034286 -38.909798329014833 0 0 0 0 3.9536466997299158 -4.1373721807025206 0 -4.1373721807025206 -3.9993085894920193 0 0 0 0 -42.47633920100634 -60.387684517494336 0 -60.387684517494336 72.525508357230592 0 0 0 0 -38.888985616591526 -4.2116565511823865 0 -4.2116565511823865 -22.908877342940741 0 0 0 0 2.2758640054453281 -43.766478648236671 0 -43.766478648236671 59.263901819531384 0 0 0 0 -47.742029215107323 -50.828641746648373 0 -50.828641746648373 68.222600921763842 0 0 0 0 -63.413360971433576 -86.673242103654502 0 -86.673242103654502 32.331453875645366 0 0 0 0 -23.907131326981471 -1.6406935488829077 0 -1.6406935488829077 -0.88502405591168554 0 0 0 0 -24.410140403717776 -4.5077185789822138 0 -4.5077185789822138 -1.1256547845018605 0 0 0 0 -271.406007949372 -108.55708520617192 0 -108.55708520617192 -152.01924579576792 0 0 0 0 -610.15326704418112 253.76122300723512 0 253.76122300723512 -4.1318094436079491 0 0 0 0 -9.5122324613957261 -1.8052992923652766 0 -1.8052992923652766 -4.9721574436911942 0 0 0 0 -620.53740715356253 -13.479681679320919 0 -13.479681679320919 96.246980556840981 0 0 0 0 -754.20938706977176 -244.72028253030965 0 -244.72028253030965 -24.985932006879807 0 0 0 0 -491.89054163146648 102.02213009248956 0 102.02213009248956 65.723487964184415 0 0 0 0 -5.0431663907074835 -42.351911717260236 0 -42.351911717260236 1.2859007982055459 0 0 0 0 -24.177124573976243 4.1013261220234227 0 4.1013261220234227 1.6846116742880521 0 0 0 0 122.86216270345903 138.68994099974657 0 138.68994099974657 16.896859893583098 0 0 0 0 -60.533622910836129 49.713217734323052 0 49.713217734323052 134.63311617967631 0 0 0 0 -9.6133879497647285 131.26062357988818 0 131.26062357988818 143.10347221542634 0 0 0 0 -98.880983197406749 28.629100470160438 0 28.629100470160438 192.10786875466823 0 0 0 0 -53.952900039850647 60.779734342753216 0 60.779734342753216 147.45651564202251 0 0 0 0 -44.255198858122185 -8.4011575529875415 0 -8.4011575529875415 1.2408652682131591 0 0 0 0 -23.448473734169966 -51.605726657992776 0 -51.605726657992776 40.953037678820294 0 0 0 0 -8.660460296503885 -5.3247398791468186 0 -5.3247398791468186 2.0796913477100896 0 0 0 0 -34.795848536465201 -37.679150857341256 0 -37.679150857341256 78.349209608966703 0 0 0 0 -11.380838321099873 -0.16602328115209275 0 -0.16602328115209275 -91.966827659919545 0 0 0 0 -45.340242074884372 7.8421598265935017 0 7.8421598265935017 233.03812976152039 0 0 0 0 -100.62195250928926 -55.795210419627665 0 -55.795210419627665 76.165834834663144 0 0 0 0 -161.79625448025763 139.52784705375075 0 139.52784705375075 -171.84759866727359 0 0 0 0 -127.74405869730981 -5.1521029439875292 0 -5.1521029439875292 -75.44969133191762 0 0 0 0 -265.6458228611009 214.40594530381344 0 214.40594530381344 -95.029447875857841 0 0 0 0 -375.93159345111053 127.24691305679232 0 127.24691305679232 76.126454332838307 0 0 0 0 1.1500679230512105 111.18987705272575 0 111.18987705272575 -120.93412432916239 0 0 0 0 32.695821905814228 -116.05768186582122 0 -116.05768186582122 44.028791387536558 0 0 0 0 -355.4679530854919 94.348650464479533 0 94.348650464479533 -97.26340019213086 0 0 0 0 -740.76140961927013 153.84349762999682 0 153.84349762999682 -48.138819487276578 0 0 0 0 -320.453774534486 112.46046041999671 0 112.46046041999671 -283.94493226879149 0 0 0 0 -1464.2173497444237 152.02478313027495 0 152.02478313027495 -156.21272747447097 0 0 0 0 -688.96699198349597 308.81245388581124 0 308.81245388581124 -174.57351119028954 0 0 0 0 -668.1094789862982 301.47864412829 0 301.47864412829 -19.711385791457587 0 0 0 0 -819.67477228429198 191.46014022044903 0 191.46014022044903 -68.947000096196916 0 0 0 0 -628.6819845832506 159.09902457241435 0 159.09902457241435 -21.103096160024471 0 0 0 0 -449.89107407563642 269.93498639378402 0 269.93498639378402 -71.864665462206972 0 0 0 0 -36.95993148846901 -87.044209780913036 0 -87.044209780913036 -28.229548590779203 0 0 0 0 -82.243971474221325 -99.532295347726404 0 -99.532295347726404 396.58002594598531 0 0 0 0 -32.449758084570306 -5.5941494883813121 0 -5.5941494883813121 0.37232380225317074 0 0 0 0 -559.9588575494563 315.73754769241577 0 315.73754769241577 1.3689288085374756 0 0 0 0 -399.29963378286629 273.9001591762817 0 273.9001591762817 -16.095270130137465 0 0 0 0 -559.06799856742145 357.50046084691496 0 357.50046084691496 -79.452388696919115 0 0 0 0 -848.08205097362952 585.22958353666968 0 585.22958353666968 -398.46144092051463 0 0 0 0 -620.15784646711472 127.16076149687729 0 127.16076149687729 -594.49040503537753 0 0 0 0 -545.27286474831635 312.79774455004963 0 312.79774455004963 -227.05963710219743 0 0 0 0 -614.58418148074998 314.37807868871005 0 314.37807868871005 -92.779896668292167 0 0 0 0 -549.66671495967603 424.48461589088106 0 424.48461589088106 -192.81365547679479 0 0 0 0 -398.10535399660876 304.27772077069085 0 304.27772077069085 -109.92215994908065 0 0 0 0 -300.94752883058391 231.52526329460079 0 231.52526329460079 -298.25997798231674 0 0 0 0 -323.91402677855694 167.27534360813962 0 167.27534360813962 -74.137860059994637 0 0 0 0 -215.35738793219207 168.47416457138957 0 168.47416457138957 -149.79961715196987 0 0 0 0 -430.41162201695261 273.21034609968683 0 273.21034609968683 -111.28958776361742 0 0 0 0 -533.80518355657114 324.46323603635756 0 324.46323603635756 -106.25287134705798 0 0 0 0 -626.84089652041439 179.02907720748954 0 179.02907720748954 -88.630917544701106 0 0 0 0 -433.01398867317766 257.1781319874782 0 257.1781319874782 -103.89079374941321 0 0 0 0 -697.56924934350536 23.143918495571143 0 23.143918495571143 -139.42961203051414 0 0 0 0 -649.36252829761361 -175.62165179037044 0 -175.62165179037044 -176.48800521998874 0 0 0 0 -391.2046781534591 94.844620838741548 0 94.844620838741548 -58.885708311235703 0 0 0 0 -151.18277801724253 -527.50393237667117 0 -527.50393237667117 -154.27571538316897 0 0 0 0 -527.63941127646103 203.20659959992065 0 203.20659959992065 -91.826276860533198 0 0 0 0 -269.14457736641634 141.36658275200921 0 141.36658275200921 -78.426660524316503 0 0 0 0 -349.03082014499523 30.016827963865808 0 30.016827963865808 -227.35790281220261 0 0 0 0 -188.70921326079406 160.48090812992496 0 160.48090812992496 -100.15342827830682 0 0 0 0 -98.572082737424353 -33.54000755956281 0 -33.54000755956281 -8.5876607456279999 0 0 0 0 -269.65574315248523 134.22189406843438 0 134.22189406843438 18.049358779519935 0 0 0 0 164.51774415223917 -145.70968069385435 0 -145.70968069385435 -8.7611381225246987 0 0 0 0 -7.9792945372608131 -12.299677363729558 0 -12.299677363729558 -6.7848120254532862 0 0 0 0 -183.26587198839002 -105.74398077949792 0 -105.74398077949792 41.256551258908985 0 0 0 0 26.547901199533953 79.692048304504851 0 79.692048304504851 154.48101996547575 0 0 0 0 -2469.7573359549206 -285.64363366856037 0 -285.64363366856037 -23.548510491064008 0 0 0 0 -2826.5962442456657 279.4636860064245 0 279.4636860064245 8.5035827540751256 0 0 0 0 -4.3102130284099331 -4.891481224656701 0 -4.891481224656701 -2.5833409995617878 0 0 0 0 439.49836165069428 -374.25698335668108 0 -374.25698335668108 -242.27601089379459 0 0 0 0 -1494.3368706085021 107.37676417122157 0 107.37676417122157 5.4793245586864003 0 0 0 0 -1495.7594547825938 119.77804943583669 0 119.77804943583669 -56.394778320446676 0 0 0 0 -1969.0983836676751 256.67251419699835 0 256.67251419699835 -6.5588041010322229 0 0 0 0 -1677.5997961006869 -149.91179806038059 0 -149.91179806038059 14.859255776202644 0 0 0 0 -1919.5050926023878 -264.49731550163182 0 -264.49731550163182 -31.463305190440678 0 0 0 0 -7.4996797910642545 -1.5284654159560773 0 -1.5284654159560773 0.00084736056150624961 0 0 0 0 -1094.5995954232103 -210.22283799861611 0 -210.22283799861611 -11.908187462067417 0 0 0 0 -6.7742085469449904 -0.19690138810094027 0 -0.19690138810094027 0.20850930066137785 0 0 0 0 -2274.7355429695017 -80.200463508022949 0 -80.200463508022949 -111.30143771065877 0 0 0 0 -245.49463932315393 -154.01967947668587 0 -154.01967947668587 -119.50331047569489 0 0 0 0 -982.14074685690503 -211.61937154863551 0 -211.61937154863551 32.716009385093457 0 0 0 0 -827.37074960829341 196.21552839443711 0 196.21552839443711 -61.66683564485902 0 0 0 0 -1226.1029896277905 -84.272649232098047 0 -84.272649232098047 -67.056675079677916 0 0 0 0 -1329.8557498462396 151.00872012259674 0 151.00872012259674 -174.1345443064879 0 0 0 0 -1778.9776994044914 -342.41921905455564 0 -342.41921905455564 -382.3029307843999 0 0 0 0 -1659.2550684490416 217.10323938747979 0 217.10323938747979 -43.334896602226195 0 0 0 0 -1457.1927051953389 -279.0999765716258 0 -279.0999765716258 -72.308247882009255 0 0 0 0 -1345.1472243209864 62.179954762302714 0 62.179954762302714 -297.22438186167329 0 0 0 0 -1277.3798066187301 60.512330042576195 0 60.512330042576195 -50.359145950198354 0 0 0 0 -1490.2156349775032 84.960631581279131 0 84.960631581279131 -46.372352126361875 0 0 0 0 -1141.7077856539399 31.600826141572725 0 31.600826141572725 -137.03426342800731 0 0 0 0 -1167.5227456294015 74.038385507393059 0 74.038385507393059 -194.25864036649091 0 0 0 0 -978.2817778315366 -184.31090267768286 0 -184.31090267768286 -126.18945320468379 0 0 0 0 -1158.6990606576328 -4.7883002669741472 0 -4.7883002669741472 -143.05919044450638 0 0 0 0 -973.15585712816392 -165.06437949322572 0 -165.06437949322572 -116.00484414964376 0 0 0 0 -936.69647263686056 -106.02178714932961 0 -106.02178714932961 -21.57613838188206 0 0 0 0 -912.1996858176426 -385.87090281440169 0 -385.87090281440169 -163.85249201589545 0 0 0 0 -1032.0744179914582 -23.964236407199792 0 -23.964236407199792 -387.74838684655151 0 0 0 0 -1097.7714371513466 -429.65090745963698 0 -429.65090745963698 432.7578198889978 0 0 0 0 -1349.1227097603187 -185.06918134437956 0 -185.06918134437956 238.44198802482779 0 0 0 0 -1293.0486285557781 -27.528077486671009 0 -27.528077486671009 145.5465093908083 0 0 0 0 -1109.5308812246512 -299.26217016599526 0 -299.26217016599526 246.43116036066476 0 0 0 0 -1169.9837165360659 -178.96344767480264 0 -178.96344767480264 26.174887212640897 0 0 0 0 -1062.103135492318 45.135941951939856 0 45.135941951939856 83.864792063385721 0 0 0 0 -1038.7386331786838 -56.508056800307713 0 -56.508056800307713 137.14772557172728 0 0 0 0 -1159.2552949142992 51.28051770539787 0 51.28051770539787 182.62254727418895 0 0 0 0 -1156.9434883518843 56.236542140710753 0 56.236542140710753 87.245750360890611 0 0 0 0 -936.52312267309753 212.88402920575095 0 212.88402920575095 26.523172153722044 0 0 0 0 -866.06767342432977 72.647584542491813 0 72.647584542491813 -20.348182339575033 0 0 0 0 -854.19541724614101 31.448388757383782 0 31.448388757383782 -26.928447991373105 0 0 0 0 -804.20844259584555 30.653214709494023 0 30.653214709494023 -29.387202781436713 0 0 0 0 -821.69718146214291 72.653967552165454 0 72.653967552165454 -23.676068188641693 0 0 0 0 -933.02959071284567 -93.88580685958766 0 -93.88580685958766 -97.321252032773373 0 0 0 0 -766.33957109658513 4.2208420499933936 0 4.2208420499933936 -109.90218377434439 0 0 0 0 -585.60292694452801 157.68666845601706 0 157.68666845601706 -91.750501724182868 0 0 0 0 -698.21330985533132 -18.023366443400391 0 -18.023366443400391 -162.50802882054472 0 0 0 0 -582.61068856416387 206.29917377254878 0 206.29917377254878 -72.806768249525248 0 0 0 0 -612.91183710713085 172.79343012936215 0 172.79343012936215 -63.558069514848285 0 0 0 0 -677.24421073269332 104.66686789589448 0 104.66686789589448 -114.23252054277009 0 0 0 0 -662.422265250294 178.06893285706701 0 178.06893285706701 -35.304452251808925 0 0 0 0 -718.68969083010597 186.79422944237535 0 186.79422944237535 -30.950896607169852 0 0 0 0 -899.60470385690132 152.32056556155612 0 152.32056556155612 17.663354560172138 0 0 0 0 -563.87105208264256 200.45686571922192 0 200.45686571922192 -54.749450424590123 0 0 0 0 -686.00465116197665 128.73763756671462 0 128.73763756671462 -27.616472889392753 0 0 0 0 -430.38631030448596 -8.8826557564945006 0 -8.8826557564945006 22.690335918829987 0 0 0 0 -290.82382766507362 69.60225525348892 0 69.60225525348892 -54.320306919122686 0 0 0 0 1.4127573652122436 0.27892148197577171 0 0.27892148197577171 4.3432377137358564 0 0 0 0 233.85015818002285 243.48993355293129 0 243.48993355293129 75.482463423876652 0 0 0 0 -1.4392226376040895 1.374258812844289 0 1.374258812844289 1.702120405156176 0 0 0 0 -788.15333032129274 85.00034217769371 0 85.00034217769371 1.8401061766269891 0 0 0 0 -643.73219239477112 198.68952581227461 0 198.68952581227461 3.5709832741295031 0 0 0 0 -571.42985023047459 289.81271011619828 0 289.81271011619828 38.562326959543498 0 0 0 0 -451.44756008390323 234.58690490516494 0 234.58690490516494 149.48768143045254 0 0 0 0 -3501.0077829381753 852.45824441706088 0 852.45824441706088 261.8791644744108 0 0 0 0 -1178.6820337892641 991.09472347769736 0 991.09472347769736 849.79164143555715 0 0 0 0 -2021.3480459737548 -242.27401138446197 0 -242.27401138446197 570.62891987386024 0 0 0 0 -3463.085004384815 1135.4419144096787 0 1135.4419144096787 -737.6819986927951 0 0 0 0 -13.788005575589466 10.522657908554393 0 10.522657908554393 -7.5174312724276549 0 0 0 0 -4512.2179057410249 90.028828709428296 0 90.028828709428296 948.8439108993706 0 0 0 0 466.09003656223649 1402.5449601239757 0 1402.5449601239757 -928.91840696991653 0 0 0 0 43.867058774596444 -250.72992129613633 0 -250.72992129613633 565.02870089232829 0 0 0 0 -968.93520536522442 339.96298514508715 0 339.96298514508715 -295.16385504611731 0 0 0 0 -1023.3225204630726 1969.6365838298113 0 1969.6365838298113 -956.51960559420672 0 0 0 0 -900.51877763180528 497.04954528313249 0 497.04954528313249 -573.98610133754983 0 0 0 0 -1202.9215971178346 63.850759931133837 0 63.850759931133837 -154.82539494934872 0 0 0 0 -792.80467250420133 -316.43544928598413 0 -316.43544928598413 -31.280863412194776 0 0 0 0 -821.5014709095849 36.755759765832636 0 36.755759765832636 -199.00130198554473 0 0 0 0 -763.04963665624382 -299.23266626787404 0 -299.23266626787404 144.17793184426773 0 0 0 0 -728.90531896924949 -20.940122716550832 0 -20.940122716550832 429.27745069385855 0 0 0 0 -419.13794184679864 423.47137727108884 0 423.47137727108884 -292.51083798086233 0 0 0 0 -434.26116030776757 -263.15151013976174 0 -263.15151013976174 32.089534378440021 0 0 0 0 -1015.5210633587849 -240.23950494875203 0 -240.23950494875203 -19.44411056168002 0 0 0 0 -1008.6787299672105 -286.12926890651937 0 -286.12926890651937 -42.813968088742513 0 0 0 0 -1059.4416863301012 -286.74508009719716 0 -286.74508009719716 -9.3090309043382149 0 0 0 0 -1058.9081504321366 -260.11450503813558 0 -260.11450503813558 27.408861425342366 0 0 0 0 -1032.7287875000475 -297.32004739812214 0 -297.32004739812214 -51.537398459228712 0 0 0 0 -1092.346428087083 -122.90904376266144 0 -122.90904376266144 -143.62685410318159 0 0 0 0 -1038.0830821223062 -242.34757833553158 0 -242.34757833553158 157.97987612561383 0 0 0 0 -1017.4738164268638 -265.0661358206753 0 -265.0661358206753 27.056566585179098 0 0 0 0 -1144.0154231742199 -219.57279681980481 0 -219.57279681980481 155.34131851710981 0 0 0 0 -1077.1678701422934 -256.57461052991425 0 -256.57461052991425 38.068303174306948 0 0 0 0 -1054.662683735427 -289.07003542585346 0 -289.07003542585346 78.74208158955571 0 0 0 0 -1196.5902241312142 -68.361229819674463 0 -68.361229819674463 -62.782877175738577 0 0 0 0 -1075.4503333347093 -238.4007899228161 0 -238.4007899228161 25.058066368634627 0 0 0 0 -1248.2658253063419 -47.368917828252506 0 -47.368917828252506 54.873253884306905 0 0 0 0 -1227.8490241817926 -17.467127339529725 0 -17.467127339529725 91.776206549080825 0 0 0 0 -1010.1335730494975 -283.64820962171643 0 -283.64820962171643 144.25341755296904 0 0 0 0 -816.68242223068228 -31.070708341281261 0 -31.070708341281261 325.51302618985756 0 0 0 0 -1458.1835132760316 -91.190775181964909 0 -91.190775181964909 283.34019858908437 0 0 0 0 -726.3430115071169 -241.56344798977352 0 -241.56344798977352 42.66711777322962 0 0 0 0 -1306.1529682341134 210.31357276848669 0 210.31357276848669 -171.83335011430563 0 0 0 0 -1466.2273128748202 225.51872184907961 0 225.51872184907961 -25.305854765314621 0 0 0 0 30.709892295199097 25.008966518413217 0 25.008966518413217 230.12032911357801 0 0 0 0 -28.72561348089755 23.084733364841654 0 23.084733364841654 -14.433981226201816 0 0 0 0 47.948808757806546 760.87117839204234 0 760.87117839204234 762.6060256274277 0 0 0 0 -569.51720240546274 -189.99337334926304 0 -189.99337334926304 320.54586603523148 0 0 0 0 -24.388271564884803 20.226516506530047 0 20.226516506530047 -13.59268666895521 0 0 0 0 -407.74399815079232 217.49182238066373 0 217.49182238066373 304.0096313755277 0 0 0 0 372.58597097375787 1058.3918556434458 0 1058.3918556434458 331.68164102387414 0 0 0 0 594.9740399634029 232.56769494302898 0 232.56769494302898 -418.75711189111712 0 0 0 0 751.18820606660847 594.59829267871214 0 594.59829267871214 -721.13763636298677 0 0 0 0 332.03786727474653 216.63395776139987 0 216.63395776139987 -210.05199113920708 0 0 0 0 -1130.3718020333363 163.04676763221045 0 163.04676763221045 -168.22270035108068 0 0 0 0 -1475.3672676265196 642.25836827639068 0 642.25836827639068 -812.58320119851442 0 0 0 0 -9.0769090351375894 7.7325661568569757 0 7.7325661568569757 -6.9329228129738496 0 0 0 0 -2112.6410478480393 -261.66494074176057 0 -261.66494074176057 55.000715576513642 0 0 0 0 -1081.7609845730331 917.14553791607659 0 917.14553791607659 -102.79996073732923 0 0 0 0 -852.39770425004826 -424.18175964142938 0 -424.18175964142938 -606.22692471968014 0 0 0 0 -1035.8661647852932 -242.63477036613369 0 -242.63477036613369 157.50210437154237 0 0 0 0 99.573682162284967 884.84520289267584 0 884.84520289267584 706.10546993953039 0 0 0 0 -562.34008474893199 -164.73453975777329 0 -164.73453975777329 692.24445492204359 0 0 0 0 -427.50188097616774 -43.096686436821983 0 -43.096686436821983 168.62681745920457 0 0 0 0 345.24465323759068 676.08055365456926 0 676.08055365456926 148.28222904617314 0 0 0 0 114.87192756881268 242.19615426453038 0 242.19615426453038 277.88773625367548 0 0 0 0 -50.795713698584734 30.677989341652221 0 30.677989341652221 -15.271712067453663 0 0 0 0 -43.84627902561158 26.602581114679445 0 26.602581114679445 -13.966991962666278 0 0 0 0 -3499.8222179580825 1162.0318031239044 0 1162.0318031239044 378.85555852737878 0 0 0 0 -548.66075498869759 610.70393823568952 0 610.70393823568952 660.19262146028927 0 0 0 0 -641.50158433373872 160.52520676472739 0 160.52520676472739 77.543619421199196 0 0 0 0 -18.44431704312899 11.28103893430243 0 11.28103893430243 -7.0930233407804559 0 0 0 0 -3592.2558080583185 -152.01800128508995 0 -152.01800128508995 851.27864753238327 0 0 0 0 387.49270948862249 127.34540715693066 0 127.34540715693066 -1065.147992078897 0 0 0 0 -2001.4016094592535 1932.1413674965188 0 1932.1413674965188 -750.02922236870916 0 0 0 0 -296.68896190479791 1291.1142877897682 0 1291.1142877897682 -1804.6976084668647 0 0 0 0 101.04267369021181 478.17869760269281 0 478.17869760269281 -160.38649833828731 0 0 0 0 -1458.0595706440508 858.93827771126394 0 858.93827771126394 -169.06440288286518 0 0 0 0 -3697.6024069340419 172.40069440277222 0 172.40069440277222 -473.13917831413522 0 0 0 0 -3348.6005965608711 1010.0430831507272 0 1010.0430831507272 339.6987228262156 0 0 0 0 -3052.1548494352028 1259.6956041793151 0 1259.6956041793151 -669.4194874817772 0 0 0 0 -2500.442129171975 1555.2360452219978 0 1555.2360452219978 -397.12717022830543 0 0 0 0 -2633.2671834188641 749.07825574525384 0 749.07825574525384 174.28709718910685 0 0 0 0 -496.2323630845658 331.99517256072477 0 331.99517256072477 -80.040182729292113 0 0 0 0 -496.06161352962226 320.10498534719358 0 320.10498534719358 -475.41524858602679 0 0 0 0 -1743.6283844428763 84.560893566736738 0 84.560893566736738 125.8181569826543 0 0 0 0 -848.58088170184783 69.125390834888321 0 69.125390834888321 -391.77250567039152 0 0 0 0 -1120.46178199735 881.10803392142191 0 881.10803392142191 -830.93002865539643 0 0 0 0 -176.53374188388989 -10.25502558851565 0 -10.25502558851565 -411.54958516137503 0 0 0 0 -432.15365702222698 366.30925731272129 0 366.30925731272129 -750.86038869690196 0 0 0 0 -27.201378909187042 -52.084900797522288 0 -52.084900797522288 -403.82948154766854 0 0 0 0 -105.33268553313974 -19.313714535924646 0 -19.313714535924646 -718.75991945898818 0 0 0 0 -318.10589994231668 87.251416682132287 0 87.251416682132287 -622.92722810373562 0 0 0 0 -224.16503134637242 500.70142575926309 0 500.70142575926309 -1230.2483183465215 0 0 0 0 -285.14390626193199 -16.19281996949519 0 -16.19281996949519 146.87935243355614 0 0 0 0 -515.41611200466286 269.4027209755659 0 269.4027209755659 -770.38894197641457 0 0 0 0 163.38420810849493 173.11896493250674 0 173.11896493250674 -788.82781505230741 0 0 0 0 130.097035312956 -29.021889860270676 0 -29.021889860270676 -773.50612687184275 0 0 0 0 -11.320604484784738 2.3987653397765456 0 2.3987653397765456 3.8305218668506917 0 0 0 0 -14.191275061108172 84.712262718417833 0 84.712262718417833 -600.29059496101536 0 0 0 0 -0.41922863168025515 7.5318101530945611 0 7.5318101530945611 -3.8572685772035338 0 0 0 0 -130.70606327643327 -27.902692801570993 0 -27.902692801570993 -445.57232316673844 0 0 0 0 -3497.1692258180046 2398.5222353300642 0 2398.5222353300642 -1337.7491874637415 0 0 0 0 -2323.5953461196696 1380.3623040101088 0 1380.3623040101088 -459.70949939215222 0 0 0 0 -1070.5556793326177 776.71825651436052 0 776.71825651436052 -740.7037880143946 0 0 0 0 -1500.8070776766253 1758.4486746187345 0 1758.4486746187345 -1592.8022345568272 0 0 0 0 -60.893288779744381 12.091254062358319 0 12.091254062358319 -1.210893049200864 0 0 0 0 -227.17288274467865 650.54341257947999 0 650.54341257947999 -1678.5255523377987 0 0 0 0 -385.49200804338034 325.34908629131405 0 325.34908629131405 -806.27413852736117 0 0 0 0 -620.14171279135189 362.18574818234288 0 362.18574818234288 -720.47910566860537 0 0 0 0 -1282.8248106598912 2215.0065203012805 0 2215.0065203012805 -3920.5236054775573 0 0 0 0 -24.281974462231872 2.6413645638063286 0 2.6413645638063286 -3.2301955166234011 0 0 0 0 -853.97775828918384 -1364.9666587724068 0 -1364.9666587724068 -1438.534572574953 0 0 0 0 -3495.7385846951147 -1180.3195664205946 0 -1180.3195664205946 123.42654631545187 0 0 0 0 -1437.9896185514881 -578.34612223385636 0 -578.34612223385636 275.22512952845273 0 0 0 0 -2484.174893561034 -534.93161409684581 0 -534.93161409684581 425.2281851855746 0 0 0 0 -1550.036192554091 -366.50900519513772 0 -366.50900519513772 14.348040941907925 0 0 0 0 -253.32392250853445 -283.68910178137264 0 -283.68910178137264 -331.46972597492515 0 0 0 0 -374.67041226453875 133.55422349721744 0 133.55422349721744 -55.803457222222846 0 0 0 0 -37.255088544517648 37.210793219149551 0 37.210793219149551 -21.419131961012862 0 0 0 0 69.869429534457595 98.232654085909616 0 98.232654085909616 -142.45162332813277 0 0 0 0 10.5499194960273 7.4277929927121562 0 7.4277929927121562 -8.134603646002649 0 0 0 0 -377.18317475849472 284.04455832568874 0 284.04455832568874 153.30368849285793 0 0 0 0 -61.861857414027327 82.213343258501482 0 82.213343258501482 7.5364085938500693 0 0 0 0 7.4796290674876218 65.198736328749419 0 65.198736328749419 -94.583215060914881 0 0 0 0 -44.442104940164427 40.292862493574489 0 40.292862493574489 9.1326142574735059 0 0 0 0 -23.617255931675594 15.92287039104118 0 15.92287039104118 -3.1235306002444645 0 0 0 0 -33.235714822265436 37.90552440964575 0 37.90552440964575 -4.0271918737771557 0 0 0 0 132.93029517943069 73.15691014211319 0 73.15691014211319 -136.51216385822062 0 0 0 0 -37.934539556620734 31.801945259537728 0 31.801945259537728 -13.710853194470351 0 0 0 0 -48.602124042983633 104.64019942039522 0 104.64019942039522 12.808029976885337 0 0 0 0 -436.52559629960524 151.44031737517489 0 151.44031737517489 -186.31799618301432 0 0 0 0 -97.815302304530633 -151.81230202793427 0 -151.81230202793427 -96.37287326150323 0 0 0 0 -222.91424523463138 -144.60493569809123 0 -144.60493569809123 -160.79180934582652 0 0 0 0 -211.22026287447125 -82.249719029221723 0 -82.249719029221723 91.860322864603972 0 0 0 0 -67.310383995765733 -70.588610674484244 0 -70.588610674484244 52.417738791192733 0 0 0 0 -146.06545903138613 -51.727321134284011 0 -51.727321134284011 63.529806887290306 0 0 0 0 -22.486420514384307 -11.746875370912448 0 -11.746875370912448 -0.93982636807402908 0 0 0 0 -64.68881155820047 13.194136068834428 0 13.194136068834428 33.580798530582442 0 0 0 0 -142.56108591374868 -49.546976661715405 0 -49.546976661715405 144.81508172400981 0 0 0 0 -38.501115643283811 -5.2016549060734292 0 -5.2016549060734292 19.550843352817765 0 0 0 0 -10.011401246650895 -9.5254934056625267 0 -9.5254934056625267 48.065417021546068 0 0 0 0 -221.37027244909768 -102.93485312878403 0 -102.93485312878403 78.952318498056115 0 0 0 0 -1821.5291930180538 48.166895536967246 0 48.166895536967246 131.2451053413518 0 0 0 0 -542.41438680646388 -864.05864434019247 0 -864.05864434019247 -712.16888084984339 0 0 0 0 -7.4301786469518447 -5.1018499169529505 0 -5.1018499169529505 -4.06494573497943 0 0 0 0 -3495.0682374385246 213.42319882766316 0 213.42319882766316 477.24305974827695 0 0 0 0 -169.88750207302292 773.12286722959868 0 773.12286722959868 -904.89700369935906 0 0 0 0 -1860.2697547809476 186.0489897146916 0 186.0489897146916 -345.36649274555816 0 0 0 0 -1078.954003734445 445.51486254318093 0 445.51486254318093 -135.56438989838506 0 0 0 0 -75.433825100101458 28.251029209841246 0 28.251029209841246 -4.3274205203941083 0 0 0 0 -273.92303719752817 63.827363440762838 0 63.827363440762838 151.04330572032541 0 0 0 0 -38.101837131835055 2.444409440677191 0 2.444409440677191 14.049023203111119 0 0 0 0 -285.57019234020117 91.520126292496116 0 91.520126292496116 89.249632469891367 0 0 0 0 -322.67012959112253 -88.352558240255348 0 -88.352558240255348 -8.6868961816689989 0 0 0 0 -2.2287617565977933 -47.615846630709825 0 -47.615846630709825 68.801310426396739 0 0 0 0 -800.45226724617532 -248.58180693961003 0 -248.58180693961003 90.712281454694676 0 0 0 0 -23.915580344453623 -3.0508926519698534 0 -3.0508926519698534 19.543760197943712 0 0 0 0 -1073.9004205527999 -442.72959576864059 0 -442.72959576864059 -68.634076723721591 0 0 0 0 -15.953247679722807 -10.776667675526946 0 -10.776667675526946 18.127500937855082 0 0 0 0 -188.60690074367449 86.638995624738527 0 86.638995624738527 -22.485752999024044 0 0 0 0 -35.981255493089677 16.210063659848082 0 16.210063659848082 -3.3918271114811986 0 0 0 0 56.640737954017823 139.33196234522711 0 139.33196234522711 95.119234759262326 0 0 0 0 13.037283573947207 207.2558971971057 0 207.2558971971057 145.02637651323494 0 0 0 0 -55.206322403321792 28.450069717084716 0 28.450069717084716 31.517434195613532 0 0 0 0 -116.82923392076191 136.70961237538904 0 136.70961237538904 254.59960004214918 0 0 0 0 -48.807866163043371 23.340456945180755 0 23.340456945180755 -11.122568070922679 0 0 0 0 -52.389004471247972 50.532148509746094 0 50.532148509746094 26.964528201814574 0 0 0 0 -61.928116631311823 31.760368181834412 0 31.760368181834412 -6.0593582631561365 0 0 0 0 -167.595651489793 32.478479988504091 0 32.478479988504091 154.73249597546783 0 0 0 0 -61.878964444644225 67.95258341823137 0 67.95258341823137 30.882045345698771 0 0 0 0 -18.897824054351076 28.907316060627863 0 28.907316060627863 -6.1593357933777497 0 0 0 0 -80.66393744283414 81.617636384440175 0 81.617636384440175 53.19431509560809 0 0 0 0 -63.102467205897909 30.271720188665075 0 30.271720188665075 -10.478544002993377 0 0 0 0 2.6718400777753573 17.137708795270136 0 17.137708795270136 1.6028287283313531 0 0 0 0 -3.3557336950689205 107.50585092607025 0 107.50585092607025 -2.3936652201905417 0 0 0 0 -79.669364804954967 8.6014826087603069 0 8.6014826087603069 207.62407260473265 0 0 0 0 -20.822587313500833 37.051886193230338 0 37.051886193230338 -7.016619391647648 0 0 0 0 -69.481747605648707 50.396940373790585 0 50.396940373790585 -28.918358364235701 0 0 0 0 -20.738548019427981 87.808533607701065 0 87.808533607701065 -13.753638873455202 0 0 0 0 18.719973717474204 292.20285424790018 0 292.20285424790018 -57.643853130510706 0 0 0 0 -325.51932708009554 133.95727497995222 0 133.95727497995222 -78.9237566847778 0 0 0 0 -6.2179454278593767 43.085085388126117 0 43.085085388126117 -122.55738427493816 0 0 0 0 -513.13182174392568 -54.070503936583009 0 -54.070503936583009 1020.2100788750604 0 0 0 0 -506.02704815239122 -118.7922650257799 0 -118.7922650257799 -166.03775109701564 0 0 0 0 3.5056609185261323 2.0240399322258043 0 2.0240399322258043 2.8885573557640196 0 0 0 0 1.5953301753525011 96.642899417176181 0 96.642899417176181 -152.2120054992065 0 0 0 0 -210.26978930633049 87.873103963587027 0 87.873103963587027 -97.25395073040454 0 0 0 0 -176.56635085606104 8.1001513462401817 0 8.1001513462401817 85.498461922959905 0 0 0 0 -513.83193170045706 84.56618000886192 0 84.56618000886192 88.210337523447379 0 0 0 0 -7.422427186060542 -45.873777437477813 0 -45.873777437477813 86.904844658156009 0 0 0 0 -161.67669349250014 72.216129117725927 0 72.216129117725927 3.4394981043697044 0 0 0 0 -645.61715467166505 -4.1695455535032124 0 -4.1695455535032124 750.86821263384627 0 0 0 0 -1825.8274962883734 569.48952072771681 0 569.48952072771681 -351.1456882818411 0 0 0 0 -1518.2824218237365 -9.972803132422996 0 -9.972803132422996 176.15637651265297 0 0 0 0 2.5524014545273417 -10.254655433804734 0 -10.254655433804734 4.9336946301197058 0 0 0 0 -666.92287446249975 -290.05110612692715 0 -290.05110612692715 -871.35657160224218 0 0 0 0 -554.40201320237247 618.20612329428764 0 618.20612329428764 -106.2116621199948 0 0 0 0 -184.4840213842399 359.43282109393658 0 359.43282109393658 -187.24428532329148 0 0 0 0 -1039.7884622751444 12.23228094066144 0 12.23228094066144 -636.95870083724003 0 0 0 0 -208.71263769780489 504.04771207722206 0 504.04771207722206 -1018.4300824452866 0 0 0 0 13.513829885298037 119.05791329982594 0 119.05791329982594 -1690.0247487742147 0 0 0 0 -1194.4610356553458 904.80682711141617 0 904.80682711141617 -1125.2260592579478 0 0 0 0 236.43849383673978 49.194710891054442 0 49.194710891054442 -1771.8894614600677 0 0 0 0 -589.02927947330227 875.64016821393 0 875.64016821393 -1055.0875573757776 0 0 0 0 -17.706454194509941 13.759500660465051 0 13.759500660465051 -6.5701825382007328 0 0 0 0 84.637900865076517 116.97576831542801 0 116.97576831542801 -426.92307260717553 0 0 0 0 -0.1247716639927603 1.1918562218537652 0 1.1918562218537652 -0.16112344368049175 0 0 0 0 60.937006883657887 145.04024256566026 0 145.04024256566026 -310.39131222198216 0 0 0 0 67.764270666713855 422.84732555636833 0 422.84732555636833 -853.95016070215115 0 0 0 0 9.1531088449337403 -101.16041648352916 0 -101.16041648352916 -540.28843295114211 0 0 0 0 219.13337232902268 14.866965530244215 0 14.866965530244215 -874.77832499178749 0 0 0 0 218.6708547322487 -8.6000005304972547 0 -8.6000005304972547 -669.90522551487174 0 0 0 0 67.570162915399123 -19.896205981531693 0 -19.896205981531693 -638.87275459161629 0 0 0 0 95.112116152635281 -55.402696213099816 0 -55.402696213099816 -25.882421602478161 0 0 0 0 -60.335019758906128 117.19123626349426 0 117.19123626349426 -504.43195589604147 0 0 0 0 88.333435335123795 84.055195268363974 0 84.055195268363974 -498.99389861672381 0 0 0 0 260.81636834085293 73.2497423842986 0 73.2497423842986 -502.14061456792524 0 0 0 0 68.473660739669867 474.75349832858308 0 474.75349832858308 761.19101575478987 0 0 0 0 303.60957258227063 309.05075952826729 0 309.05075952826729 -89.658911312993425 0 0 0 0 -8.0075754658610094 8.0715022480008578 0 8.0715022480008578 125.65598496376714 0 0 0 0 293.98316809759854 20.207293169800323 0 20.207293169800323 -241.59418674895187 0 0 0 0 187.7294054302547 322.77056434673375 0 322.77056434673375 -130.04968663446652 0 0 0 0 -606.08904382862534 -254.64892481088523 0 -254.64892481088523 -250.21346714176934 0 0 0 0 74.556613414300955 -143.0257521567126 0 -143.0257521567126 134.36558586589695 0 0 0 0 -541.93548419783474 438.21428138021929 0 438.21428138021929 1125.1366495360426 0 0 0 0 -43.519478971672783 25.878698941386631 0 25.878698941386631 -12.851608442685452 0 0 0 0 -368.88786881426495 571.40785277806265 0 571.40785277806265 774.03629305129107 0 0 0 0 -254.97435499852872 -124.76043757664098 0 -124.76043757664098 266.86472378428971 0 0 0 0 227.08969422373775 748.20384237368762 0 748.20384237368762 -1388.4738174120166 0 0 0 0 -16.947565330584354 10.910622038692857 0 10.910622038692857 -7.2875908267752267 0 0 0 0 -1915.4616363777077 763.30956003372717 0 763.30956003372717 -455.29019251188311 0 0 0 0 -1846.452435879226 -499.66659218030964 0 -499.66659218030964 383.86232355443417 0 0 0 0 -1277.1606597238424 125.81019332842516 0 125.81019332842516 176.03794197296634 0 0 0 0 -1252.7956510634294 337.82971393925925 0 337.82971393925925 -20.835317826546088 0 0 0 0 -742.79726781237696 167.95160106133426 0 167.95160106133426 -423.86033784414803 0 0 0 0 -917.75887387287366 -66.029659613551758 0 -66.029659613551758 -1047.4854882220357 0 0 0 0 -117.74472618070919 43.083882507951678 0 43.083882507951678 17.403447248448824 0 0 0 0 -916.31841732167231 -103.55938330598285 0 -103.55938330598285 -72.429924744821619 0 0 0 0 -1237.1804483469386 -209.77675254361748 0 -209.77675254361748 -156.1062927277253 0 0 0 0 -812.56927593374712 -215.16102348159075 0 -215.16102348159075 -488.64303083499681 0 0 0 0 -1291.5426269948912 41.493033533512062 0 41.493033533512062 14.201834162133309 0 0 0 0 -960.87609338256152 182.33627749146308 0 182.33627749146308 -276.20454418481313 0 0 0 0 -810.82939947054183 -40.929443522149995 0 -40.929443522149995 55.494937202429355 0 0 0 0 -110.67795316995243 43.973046297732793 0 43.973046297732793 24.997061982288002 0 0 0 0 -619.12601443439053 147.46355798252989 0 147.46355798252989 120.44686328835132 0 0 0 0 -764.10280644903833 1074.4379516441622 0 1074.4379516441622 -1105.1310646041065 0 0 0 0 -107.11720673294622 338.48440338486853 0 338.48440338486853 -344.34225101613242 0 0 0 0 -119.05190004599999 46.929470053796614 0 46.929470053796614 18.037255773354303 0 0 0 0 -2156.9154456358956 -646.83969594011569 0 -646.83969594011569 307.32756571602386 0 0 0 0 -214.53286970126646 -31.024032293750679 0 -31.024032293750679 155.39900325941107 0 0 0 0 -113.53586368746605 45.007383770387733 0 45.007383770387733 13.746427993806176 0 0 0 0 -88.572814103579731 28.29993197178419 0 28.29993197178419 26.30042183292062 0 0 0 0 -195.77764535535243 -57.624687879014346 0 -57.624687879014346 12.992537181520674 0 0 0 0 -362.74344521385501 123.83091790190929 0 123.83091790190929 -28.949473265167398 0 0 0 0 -159.71717191289645 -45.123267622676394 0 -45.123267622676394 0.99439056927826641 0 0 0 0 -503.73354561343876 165.10627486769704 0 165.10627486769704 107.66772164514714 0 0 0 0 -458.66436889967008 54.966164977918652 0 54.966164977918652 -20.759352205939535 0 0 0 0 -629.94669465411789 256.78882529818588 0 256.78882529818588 -122.09917374521319 0 0 0 0 -677.8500762741387 -0.387099401766136 0 -0.387099401766136 -5.2260484891430679 0 0 0 0 -674.89793603900762 -29.208761642528771 0 -29.208761642528771 -291.71573776583682 0 0 0 0 -675.49908504644009 -23.942420606258111 0 -23.942420606258111 -323.50744302088424 0 0 0 0 -513.35588541378092 -177.26024755614162 0 -177.26024755614162 -185.86932808176834 0 0 0 0 -117.36921536629512 41.927544359893503 0 41.927544359893503 17.837388632592294 0 0 0 0 -284.53434116348217 296.74004775156618 0 296.74004775156618 -259.96822857611551 0 0 0 0 -62.165328414354008 162.80457325182761 0 162.80457325182761 -480.10094531745199 0 0 0 0 -65.665073723636624 73.188895407691405 0 73.188895407691405 -218.68540421404032 0 0 0 0 -38.430422647338673 -1.6452292908372783 0 -1.6452292908372783 -131.07731763736592 0 0 0 0 -27.904165322877816 59.637183366392492 0 59.637183366392492 -258.48448460725194 0 0 0 0 -83.435147113996209 155.45266068503042 0 155.45266068503042 -274.88162558225849 0 0 0 0 -206.4252581302062 187.14795794955899 0 187.14795794955899 -134.5458119155337 0 0 0 0 -73.518932150826004 106.78864544823045 0 106.78864544823045 -165.73392347897607 0 0 0 0 -154.53242590921582 104.27688877462424 0 104.27688877462424 -103.44427788726261 0 0 0 0 -166.96146957881865 149.61941959716569 0 149.61941959716569 -110.34789967790493 0 0 0 0 -95.749635461979778 127.69091271471916 0 127.69091271471916 -184.67400195388927 0 0 0 0 -125.04451631392294 143.50261849053641 0 143.50261849053641 -180.10447105955973 0 0 0 0 -29.429604775392363 -25.438860674106763 0 -25.438860674106763 9.0656088972755242 0 0 0 0 -4.4509238234048638 -0.33369599746369261 0 -0.33369599746369261 -10.024198213538909 0 0 0 0 -20.535762538355158 -24.062517403317784 0 -24.062517403317784 -27.281096051352293 0 0 0 0 -83.974259880866157 -25.473072604514527 0 -25.473072604514527 9.2915786398716591 0 0 0 0 -67.965737107973837 -95.255949670839072 0 -95.255949670839072 -124.35809300758956 0 0 0 0 -38.157304187196132 -51.742665531397506 0 -51.742665531397506 -316.90029142578442 0 0 0 0 -762.20740602597289 -41.481112936442969 0 -41.481112936442969 -61.835636931846238 0 0 0 0 0.064853579171028741 0.55633455153474642 0 0.55633455153474642 -3.7046805821590638 0 0 0 0 -476.49493368274489 -184.10328398731781 0 -184.10328398731781 -49.257427335011016 0 0 0 0 -339.89970699317928 -53.905920958674415 0 -53.905920958674415 -69.204518863753037 0 0 0 0 -657.06466581070708 -22.11403051182424 0 -22.11403051182424 -10.877925617819187 0 0 0 0 -663.77630408238838 -45.666811083076936 0 -45.666811083076936 -92.238498466089368 0 0 0 0 -740.85928353647614 -2.9624539205760811 0 -2.9624539205760811 -82.377433600580844 0 0 0 0 -683.58248446378275 31.399220469485954 0 31.399220469485954 -283.8107757450789 0 0 0 0 -762.86627356764802 -68.77594823229083 0 -68.77594823229083 -279.19740691528841 0 0 0 0 -907.76020598305331 -24.923745616762062 0 -24.923745616762062 -51.546296120075567 0 0 0 0 -774.49891348140591 39.045925226793088 0 39.045925226793088 -19.535487903442117 0 0 0 0 -905.21340447630791 -28.497458627995002 0 -28.497458627995002 -50.157964379548957 0 0 0 0 -787.94404488249347 6.090362895074577 0 6.090362895074577 10.243345721901278 0 0 0 0 -885.39834190769761 41.990884264778288 0 41.990884264778288 26.204218096328987 0 0 0 0 -755.00300936668827 22.364547665377813 0 22.364547665377813 22.245902210677741 0 0 0 0 -745.61015579829746 55.168104781386774 0 55.168104781386774 10.878941809289245 0 0 0 0 -721.67623142543744 61.395998958757104 0 61.395998958757104 -24.86204752942831 0 0 0 0 -729.46066206013165 34.958418800600157 0 34.958418800600157 16.3590092160739 0 0 0 0 -630.73357375480555 7.1406913281607558 0 7.1406913281607558 -2.2707961636042455 0 0 0 0 -635.06706422859861 -5.1547191905901855 0 -5.1547191905901855 12.175302768862821 0 0 0 0 -504.0856564826172 -10.429048837547271 0 -10.429048837547271 -22.308896680598991 0 0 0 0 -517.44124215812917 -38.272117635644463 0 -38.272117635644463 -8.8791307194278488 0 0 0 0 -649.96286364527623 -5.064918890440822 0 -5.064918890440822 -12.550631648910894 0 0 0 0 -655.58260483338017 -14.063078403444706 0 -14.063078403444706 17.516608896385151 0 0 0 0 -520.49048382570618 -86.644284747566417 0 -86.644284747566417 -15.827459883908659 0 0 0 0 -373.99530767960096 -110.83495691079042 0 -110.83495691079042 -23.129811192899069 0 0 0 0 -477.73640906337096 -36.580145104224357 0 -36.580145104224357 -3.8168283083396091 0 0 0 0 -389.77020811234979 -63.6739527617965 0 -63.6739527617965 -12.674599414352997 0 0 0 0 -270.28961852105567 -64.55870150197552 0 -64.55870150197552 -49.13312357079667 0 0 0 0 -300.40368404274341 -146.12700069085258 0 -146.12700069085258 -8.7976817918352026 0 0 0 0 -402.44033885719546 -78.924513776872118 0 -78.924513776872118 -19.748753364561708 0 0 0 0 -519.69693209219622 -42.599837519364428 0 -42.599837519364428 -1.665895108893892 0 0 0 0 -382.4795311356138 -42.02296262793061 0 -42.02296262793061 -33.001155457697678 0 0 0 0 -505.84112688466848 -24.14583905883137 0 -24.14583905883137 -12.640701009348049 0 0 0 0 -253.8950044617668 -25.382995875532288 0 -25.382995875532288 -62.834975751131424 0 0 0 0 -361.49591482396499 -38.509095761654862 0 -38.509095761654862 -47.781754080450355 0 0 0 0 -383.54612135143907 -53.066730645831399 0 -53.066730645831399 -39.15931204926892 0 0 0 0 -139.86450399556088 4.7786521265561532 0 4.7786521265561532 -101.76710048103996 0 0 0 0 0.37010227426686271 -13.388187106294069 0 -13.388187106294069 -36.565987039176505 0 0 0 0 -252.65780578378474 18.732045053350106 0 18.732045053350106 -63.861076925957605 0 0 0 0 -73.519478368329146 -60.238352563344506 0 -60.238352563344506 -80.136163238140398 0 0 0 0 -212.20197846207157 -137.91639565877358 0 -137.91639565877358 -61.065316611922754 0 0 0 0 -256.99575167155126 -58.826215287481318 0 -58.826215287481318 -1.3213507749592281 0 0 0 0 5.2155105683818022 3.2541171956324462 0 3.2541171956324462 -6.8306142600200417 0 0 0 0 -957.04388739946808 148.31699571852641 0 148.31699571852641 155.74081494545317 0 0 0 0 -976.00445514864805 97.522076757014929 0 97.522076757014929 92.588205926676892 0 0 0 0 -866.54989755084534 188.54701083627151 0 188.54701083627151 100.65852562858345 0 0 0 0 -702.88682491702639 110.64623092238253 0 110.64623092238253 164.79176446209976 0 0 0 0 -749.21560363973549 50.013038160283941 0 50.013038160283941 152.56833547351562 0 0 0 0 -622.42761196194624 -26.037344642283642 0 -26.037344642283642 169.75819591742567 0 0 0 0 -722.8810006368567 175.04855742469772 0 175.04855742469772 45.912274793789038 0 0 0 0 -1082.7067777312841 129.53197603261287 0 129.53197603261287 37.413160373805113 0 0 0 0 -965.27817361832422 96.416888998657669 0 96.416888998657669 33.200443141357027 0 0 0 0 -920.18474961432366 -58.05580779828415 0 -58.05580779828415 -100.33847051402608 0 0 0 0 -1059.1136850128532 -45.732465925237193 0 -45.732465925237193 -15.13422620199708 0 0 0 0 -985.67405358272663 65.567160410187171 0 65.567160410187171 45.896062808797069 0 0 0 0 -895.57398077788093 33.912440365560542 0 33.912440365560542 19.03891935498541 0 0 0 0 -975.15008818907518 133.27306280962148 0 133.27306280962148 85.414368312769511 0 0 0 0 -966.9756521448362 143.41891437504319 0 143.41891437504319 61.742583746749006 0 0 0 0 -961.06810096908157 168.65670190957644 0 168.65670190957644 118.35561668367518 0 0 0 0 -903.93110537731991 172.394897145914 0 172.394897145914 28.28930820244932 0 0 0 0 -908.24734731400531 152.40013649947105 0 152.40013649947105 54.031229675727445 0 0 0 0 -917.78003517204706 118.76564703304507 0 118.76564703304507 32.918791072122985 0 0 0 0 -872.86574571204983 91.377830673718563 0 91.377830673718563 45.584058701770118 0 0 0 0 -815.82019381409191 101.76521477437018 0 101.76521477437018 11.603668814451339 0 0 0 0 -834.04990992363309 76.628222674807148 0 76.628222674807148 18.877249778288387 0 0 0 0 -905.81118650037752 194.68258147023425 0 194.68258147023425 -24.234007914063113 0 0 0 0 -827.61634759890876 179.46798435240362 0 179.46798435240362 -228.08269012211895 0 0 0 0 -853.15183131898812 157.59769475791154 0 157.59769475791154 -55.132594187074574 0 0 0 0 -815.3111719028966 120.85065100690554 0 120.85065100690554 -41.250091998682365 0 0 0 0 -936.16663038867409 229.95295063770573 0 229.95295063770573 -122.6613679570346 0 0 0 0 -934.21081456037064 246.04421085370996 0 246.04421085370996 -57.131299527730334 0 0 0 0 -927.5381786979051 149.76311837386038 0 149.76311837386038 112.96943044490035 0 0 0 0 -973.56076362414751 223.57715772215124 0 223.57715772215124 84.796368962348424 0 0 0 0 -927.10634563629719 147.52742243138982 0 147.52742243138982 104.77312211810204 0 0 0 0 -810.39552305619873 -26.546515275922502 0 -26.546515275922502 145.31396701843732 0 0 0 0 -919.6866890251622 155.46365024362422 0 155.46365024362422 113.18184535612363 0 0 0 0 -822.03002334218218 25.311164128849157 0 25.311164128849157 91.9882349419604 0 0 0 0 -1050.6314892752125 2.2328523062624299 0 2.2328523062624299 154.50409282075452 0 0 0 0 -1481.7331585383799 216.88719325354941 0 216.88719325354941 48.307762479651501 0 0 0 0 -1121.4208219510838 286.53372579966344 0 286.53372579966344 30.637452209353796 0 0 0 0 -1149.9217903889621 441.95836955053846 0 441.95836955053846 -322.82256350568605 0 0 0 0 -1049.5218154493332 -25.129625979681578 0 -25.129625979681578 -182.28127663052692 0 0 0 0 -1172.9476334155152 426.91410640519814 0 426.91410640519814 150.27311617810847 0 0 0 0 -736.98334375698323 177.87500338301334 0 177.87500338301334 -52.051352082311496 0 0 0 0 -809.93329495557555 45.279692220986931 0 45.279692220986931 -179.45313556502697 0 0 0 0 -830.44338581254124 141.13136604114061 0 141.13136604114061 -511.24095952421612 0 0 0 0 -773.04080425060238 77.434320441900127 0 77.434320441900127 -136.78867547602385 0 0 0 0 -772.76801287161652 14.167497243350226 0 14.167497243350226 -67.193401065279431 0 0 0 0 -758.52364721241611 36.898774539457008 0 36.898774539457008 -5.3188151555350487 0 0 0 0 -782.59650938187042 66.612684969878046 0 66.612684969878046 -30.519555444327125 0 0 0 0 -748.83416233147727 10.887312849985392 0 10.887312849985392 -71.462539371900675 0 0 0 0 -745.68084627315693 25.955812700111665 0 25.955812700111665 -8.0178892170188192 0 0 0 0 -777.43915176706651 14.56029367156043 0 14.56029367156043 -54.775736097455592 0 0 0 0 -782.08374049451959 -47.821690603600473 0 -47.821690603600473 -77.255839797790486 0 0 0 0 -766.68426184436066 -8.9927440923888753 0 -8.9927440923888753 10.709618089353171 0 0 0 0 -724.51511495988234 -44.72306754589863 0 -44.72306754589863 -153.98413947289873 0 0 0 0 -789.27868497966847 63.808977478665838 0 63.808977478665838 -163.97001833958348 0 0 0 0 -749.17239180325123 -87.421093420086549 0 -87.421093420086549 -33.885291676409906 0 0 0 0 -675.95272246206878 -170.73555960642216 0 -170.73555960642216 -32.926881970096929 0 0 0 0 -780.0851537891067 -30.530431743388363 0 -30.530431743388363 -3.1751389234009366 0 0 0 0 -832.08958832783605 -48.954366882852099 0 -48.954366882852099 37.996997268613086 0 0 0 0 -829.70501806143147 -120.06385645475802 0 -120.06385645475802 -46.736227429020801 0 0 0 0 -924.43398472003901 -71.823540778865663 0 -71.823540778865663 37.507545256581125 0 0 0 0 -1021.7014570685897 -49.927348251080105 0 -49.927348251080105 44.802967235676988 0 0 0 0 -956.42054206831563 -239.74080153162311 0 -239.74080153162311 -18.299604765512413 0 0 0 0 -628.18835117328126 -327.44880116042009 0 -327.44880116042009 -13.945918304533961 0 0 0 0 -652.47244841947759 -199.61744236332515 0 -199.61744236332515 -92.369517851862838 0 0 0 0 -234.74031282121723 -244.94934876342353 0 -244.94934876342353 -167.32258532373908 0 0 0 0 -680.26653641838493 -195.71577270143121 0 -195.71577270143121 -89.200141265758134 0 0 0 0 -109.03009333428054 61.334369707988685 0 61.334369707988685 -197.81349019590266 0 0 0 0 -578.69900119280646 149.66318572842738 0 149.66318572842738 -203.95051645831245 0 0 0 0 -365.52326459014694 449.55618040394489 0 449.55618040394489 -330.08077301636627 0 0 0 0 -594.27896811683058 192.27784671725306 0 192.27784671725306 -119.54482975683368 0 0 0 0 -658.87525950033523 452.77857711010057 0 452.77857711010057 -123.71155267793984 0 0 0 0 -450.48494068820946 -10.159376338711809 0 -10.159376338711809 -126.123644091198 0 0 0 0 -793.46873869000774 -8.305169795765778 0 -8.305169795765778 -126.00641691434612 0 0 0 0 1.8175213579646794 -2.0375626554962452 0 -2.0375626554962452 -4.5035766302553242 0 0 0 0 -271.09575764467445 -110.93382947887039 0 -110.93382947887039 -96.641840664280608 0 0 0 0 33.253597011487727 -10.496094160289204 0 -10.496094160289204 35.298311000574358 0 0 0 0 -283.85390391053807 41.262935401183768 0 41.262935401183768 -33.377158470846553 0 0 0 0 -30.781504535283602 -56.930904052765072 0 -56.930904052765072 -45.411734933610205 0 0 0 0 -2.4044591389003784 -4.3989412548654556 0 -4.3989412548654556 -5.0464809082377613 0 0 0 0 -343.27075403429626 -38.680291842139013 0 -38.680291842139013 22.829336071956277 0 0 0 0 1.8887518234850518 -24.367984363933402 0 -24.367984363933402 -38.216508779524638 0 0 0 0 -375.18014187313565 -5.2820081162738006 0 -5.2820081162738006 -50.643959673310746 0 0 0 0 -475.77681871707318 2.1154022344398982 0 2.1154022344398982 -26.432365536249563 0 0 0 0 -357.1801238623666 -12.957516691579031 0 -12.957516691579031 -60.152894823298993 0 0 0 0 -446.94415213132743 15.301990923640005 0 15.301990923640005 -61.661468677164521 0 0 0 0 -351.64127364000888 -6.5072590857903378 0 -6.5072590857903378 -91.455972866468073 0 0 0 0 -279.00094351981534 -51.545601173440446 0 -51.545601173440446 -72.477099674612418 0 0 0 0 -264.78454488611897 -92.266004258815428 0 -92.266004258815428 -250.38555071360861 0 0 0 0 -314.42090453153651 29.1365482403653 0 29.1365482403653 -114.93309800178486 0 0 0 0 -598.48898508483398 71.975182460938413 0 71.975182460938413 -30.353149704134012 0 0 0 0 -451.67908801954763 46.775271327059272 0 46.775271327059272 -47.203730285076745 0 0 0 0 -476.27548429109265 12.896972810120616 0 12.896972810120616 -37.842391053034589 0 0 0 0 -610.61605725424306 11.018215693154161 0 11.018215693154161 -2.7880955037908279 0 0 0 0 -590.69361527184083 33.424566526728086 0 33.424566526728086 -19.895625805975214 0 0 0 0 -590.42847191311739 29.938769150394933 0 29.938769150394933 -30.070857020271433 0 0 0 0 -695.95699945554952 34.374680908068513 0 34.374680908068513 1.4102129842776776 0 0 0 0 -609.35218298463587 24.003169566375618 0 24.003169566375618 -18.695302252018337 0 0 0 0 -696.47365082839679 41.790723792015342 0 41.790723792015342 -39.555375048326823 0 0 0 0 -706.50871672877838 9.3637122958925829 0 9.3637122958925829 -33.898124702721361 0 0 0 0 -705.41634317659191 42.588995719109334 0 42.588995719109334 -1.1370853759872261 0 0 0 0 -594.73740912739595 49.023431042686298 0 49.023431042686298 -16.555383091058957 0 0 0 0 -753.8283450761628 71.884385415380393 0 71.884385415380393 36.156841065183471 0 0 0 0 -747.87902919675253 52.427819756705503 0 52.427819756705503 26.186969156546184 0 0 0 0 -936.98408343080519 113.1469189334444 0 113.1469189334444 54.75140825255221 0 0 0 0 -1086.6210584037908 -22.787013348360233 0 -22.787013348360233 85.957385450932634 0 0 0 0 -1194.3703386789857 314.1376715251597 0 314.1376715251597 -120.87029299310893 0 0 0 0 -759.88698809242487 121.13235613284064 0 121.13235613284064 -38.097709494555147 0 0 0 0 -485.08631051799966 298.90023938457739 0 298.90023938457739 -112.66331909748487 0 0 0 0 -160.73065202284488 185.66585503065221 0 185.66585503065221 -153.66551392369934 0 0 0 0 -758.11954835132929 109.95023048485336 0 109.95023048485336 8.4321964868705663 0 0 0 0 -553.70011904977582 114.33136434154744 0 114.33136434154744 -5.6220772515935096 0 0 0 0 -603.49942190875299 180.37038211907566 0 180.37038211907566 -6.4180821038694376 0 0 0 0 -393.22638061534235 144.84843801922125 0 144.84843801922125 -43.376157529016382 0 0 0 0 -87.511332313653838 -31.542213725861757 0 -31.542213725861757 -53.08569472513409 0 0 0 0 -193.50820693462447 168.22430754204697 0 168.22430754204697 -65.832449720557634 0 0 0 0 -344.18062830621056 57.266879793406588 0 57.266879793406588 -131.73637036852506 0 0 0 0 -100.72856047792084 15.982878211012576 0 15.982878211012576 -420.39983274807309 0 0 0 0 -55.862351810545078 -47.378138345681691 0 -47.378138345681691 -29.510328069187153 0 0 0 0 -192.25720393851952 -89.95731047659433 0 -89.95731047659433 298.75407774498854 0 0 0 0 -59.369410173514076 -43.770116788301067 0 -43.770116788301067 -28.982132833361224 0 0 0 0 -58.540370863214775 -34.514821106924501 0 -34.514821106924501 -27.270261381862156 0 0 0 0 -54.577142130630818 -42.978302163748594 0 -42.978302163748594 -42.991161202068724 0 0 0 0 -67.226928013067663 -39.293647758185216 0 -39.293647758185216 -33.709039562884755 0 0 0 0 -68.171690107075847 -35.936329782285384 0 -35.936329782285384 -44.488340907249949 0 0 0 0 -58.643849504909646 -48.695415892296502 0 -48.695415892296502 -38.141968596548793 0 0 0 0 103.34279298312572 -418.01441319149467 0 -418.01441319149467 -459.32677529995271 0 0 0 0 -85.225438670182484 -48.014757958530026 0 -48.014757958530026 -33.531674585967721 0 0 0 0 -66.6722725464424 -37.818251059844442 0 -37.818251059844442 -34.714862686400011 0 0 0 0 37.397961559065152 475.91152905728086 0 475.91152905728086 -78.176953137543933 0 0 0 0 -64.397597244420467 -23.253537664169471 0 -23.253537664169471 -24.459190725100257 0 0 0 0 -62.00358941162267 -32.499998121035333 0 -32.499998121035333 -22.219062742789902 0 0 0 0 -65.198369806859773 -26.515280022793831 0 -26.515280022793831 -33.416847107329886 0 0 0 0 -58.993427469798917 -36.968940131702766 0 -36.968940131702766 -40.522615477375439 0 0 0 0 -55.597800291630847 -32.736896200211049 0 -32.736896200211049 -32.35019169647876 0 0 0 0 -55.476814106761594 -33.898597960569191 0 -33.898597960569191 -21.197728308059595 0 0 0 0 -13.462981629505521 61.735195188408397 0 61.735195188408397 54.096406234664755 0 0 0 0 -50.944063227467268 -30.026077508884555 0 -30.026077508884555 -24.824044792410405 0 0 0 0 -12.504554333232026 -5.6154400583063193 0 -5.6154400583063193 -2.7353427092790419 0 0 0 0 -83.873404913363629 -57.817741840523126 0 -57.817741840523126 -102.63862242884096 0 0 0 0 -51.396479649432607 -36.106218496315137 0 -36.106218496315137 -22.056677667579638 0 0 0 0 -17.082757483782345 -9.1367167357006167 0 -9.1367167357006167 -4.6903526059092151 0 0 0 0 -1401.8830106027162 636.19380428452314 0 636.19380428452314 -118.32123469323946 0 0 0 0 -762.26272654198692 463.35702499183088 0 463.35702499183088 -126.40422320189191 0 0 0 0 -1485.3889523769603 102.64026766973133 0 102.64026766973133 157.44557900128154 0 0 0 0 -73.587817538531453 2.335053494319709 0 2.335053494319709 279.46608059456958 0 0 0 0 -695.48313991237592 1376.1450759357647 0 1376.1450759357647 -1936.6266423936113 0 0 0 0 -207.66941161467548 -241.28391328851308 0 -241.28391328851308 -466.35390552364385 0 0 0 0 -37.414660738546047 -26.163595652059001 0 -26.163595652059001 -17.045176095116702 0 0 0 0 -123.83701070561801 231.20919922475605 0 231.20919922475605 59.783271985755164 0 0 0 0 -19.299210070347492 -9.7450617789262779 0 -9.7450617789262779 -4.9724592213723415 0 0 0 0 10.662979408323736 198.36366233494437 0 198.36366233494437 -170.04124657992088 0 0 0 0 -490.54889687831655 -334.0605768953252 0 -334.0605768953252 -239.70683358590213 0 0 0 0 -161.72569234704235 -625.29324994260526 0 -625.29324994260526 -763.61000948068431 0 0 0 0 -1503.8514008610437 -1233.6327900058377 0 -1233.6327900058377 -746.49106931474489 0 0 0 0 -357.59576222250689 -637.94656744585473 0 -637.94656744585473 -658.39273269946716 0 0 0 0 -1371.1288234924577 -493.16666507453192 0 -493.16666507453192 33.445697853425401 0 0 0 0 -1651.046290847029 -504.64080899797591 0 -504.64080899797591 33.950741619699329 0 0 0 0 -851.41620543432873 -222.39646434200222 0 -222.39646434200222 53.692679832253816 0 0 0 0 -114.19504620368025 -190.18466837471578 0 -190.18466837471578 -300.81650360360345 0 0 0 0 -828.76618491279442 -328.76417804945959 0 -328.76417804945959 0.18252957848835649 0 0 0 0 1.405304627308638 -0.14231167076358275 0 -0.14231167076358275 -3.583057619272477 0 0 0 0 -26.579433110529862 -17.048066069327547 0 -17.048066069327547 -17.167906149098599 0 0 0 0 -61.212766134975027 -30.390262739796071 0 -30.390262739796071 -9.0379263826598617 0 0 0 0 -70.519002444973012 -44.478599967742412 0 -44.478599967742412 -24.18253180744432 0 0 0 0 -73.142167780249792 -18.79798000695726 0 -18.79798000695726 -0.35914943791613041 0 0 0 0 -76.112537774261 -13.764129144211438 0 -13.764129144211438 -7.448156259519692 0 0 0 0 -68.149928186356192 -24.33840204546118 0 -24.33840204546118 -11.531301154658649 0 0 0 0 -3.9996401651769702 70.155134205866773 0 70.155134205866773 78.962940499469795 0 0 0 0 -21.141154490625453 7.5232570974653115 0 7.5232570974653115 -1.3206126746515849 0 0 0 0 127.36349395844263 40.594363734344711 0 40.594363734344711 -166.12462295485489 0 0 0 0 255.84797609399175 42.472773739229069 0 42.472773739229069 -276.7057915106011 0 0 0 0 -369.22865781639121 3.1084524371940461 0 3.1084524371940461 -70.217547478686356 0 0 0 0 -233.63788658120757 173.29430139525755 0 173.29430139525755 416.04158604771987 0 0 0 0 160.96870729339571 103.15345200167133 0 103.15345200167133 -96.612068854248037 0 0 0 0 -611.82351981002284 -211.03882475262583 0 -211.03882475262583 -47.712434213418533 0 0 0 0 -26.645543793134493 -353.82965531608477 0 -353.82965531608477 -43.763221100933151 0 0 0 0 -1494.517141997494 61.308847448270399 0 61.308847448270399 108.18292646276649 0 0 0 0 -1342.9486806659261 -434.02331412694241 0 -434.02331412694241 7.0623254692050921 0 0 0 0 -625.21789276336074 -531.49756294649535 0 -531.49756294649535 -256.5603206081272 0 0 0 0 -503.87241158004326 -183.57947715190821 0 -183.57947715190821 -215.52626435144001 0 0 0 0 -4358.8915567016375 719.09595837561972 0 719.09595837561972 46.475371098405049 0 0 0 0 -1917.200768614086 -2030.7481578464478 0 -2030.7481578464478 -734.2105729946262 0 0 0 0 271.21400548011297 -1372.3967490387995 0 -1372.3967490387995 -1101.1587165109688 0 0 0 0 -12.906668745089448 -4.7100309816235395 0 -4.7100309816235395 -3.29779498607826 0 0 0 0 -1379.8338055617132 -677.24981595605186 0 -677.24981595605186 -402.88811688563737 0 0 0 0 391.79060164297698 113.32964341962588 0 113.32964341962588 -543.6407965986964 0 0 0 0 -3321.2432604958231 2968.7344362224721 0 2968.7344362224721 601.53199899365768 0 0 0 0 -6734.2067458585152 785.80250321962649 0 785.80250321962649 -91.916238688011163 0 0 0 0 -23.391270878033168 4.6682600534441541 0 4.6682600534441541 -2.6317212380724926 0 0 0 0 -381.61034798565379 203.11583876969715 0 203.11583876969715 408.04515969070457 0 0 0 0 -510.71965739635925 -336.18816812335012 0 -336.18816812335012 223.52414838110127 0 0 0 0 5.5220081457373453 17.580320963893541 0 17.580320963893541 -9.9942993302460081 0 0 0 0 -10.555196696587942 -6.9391227538313629 0 -6.9391227538313629 -9.2137067041498533 0 0 0 0 -2400.2871147643264 -1137.8837550713681 0 -1137.8837550713681 -3647.4063496775761 0 0 0 0 -2167.0065563611279 -291.89646336495389 0 -291.89646336495389 -664.2299085834311 0 0 0 0 -2501.1932699064564 -1162.8079617908434 0 -1162.8079617908434 -33.336644942120984 0 0 0 0 -2953.8231032751755 405.03436755897928 0 405.03436755897928 326.43394649788934 0 0 0 0 -1969.6412890343236 148.401920911464 0 148.401920911464 221.45979983432426 0 0 0 0 -1353.9948562202808 307.70895147554074 0 307.70895147554074 205.24261825481972 0 0 0 0 121.94862714672581 310.63910763683361 0 310.63910763683361 -192.78579903581203 0 0 0 0 -1057.342315449765 1203.8361759406489 0 1203.8361759406489 -46.063775153768347 0 0 0 0 26.198302229917317 -44.440694399276481 0 -44.440694399276481 -15.905774790732494 0 0 0 0 -8.3782604047789278 -8.8793710239688366 0 -8.8793710239688366 -9.7672247691408813 0 0 0 0 6.0067508801903386 25.364679595320865 0 25.364679595320865 -67.430617908692284 0 0 0 0 -174.87442158520571 -111.46689433407747 0 -111.46689433407747 -100.71539906110347 0 0 0 0 26.021492088379091 -40.126855830548266 0 -40.126855830548266 -120.52894912738975 0 0 0 0 -246.24902244478744 -11.379037564447145 0 -11.379037564447145 67.506236550488211 0 0 0 0 -296.816376398383 -194.00410555245912 0 -194.00410555245912 -94.914148941018354 0 0 0 0 -220.48553222479313 -110.62323121458758 0 -110.62323121458758 -95.668843212296451 0 0 0 0 -309.96750793400861 -179.13160368145316 0 -179.13160368145316 -144.476823964093 0 0 0 0 -352.50848457388611 129.03856888293541 0 129.03856888293541 -473.33351693572445 0 0 0 0 -504.51417756650335 87.44580094709967 0 87.44580094709967 -335.3177595176636 0 0 0 0 -443.70842394714782 86.248260985523274 0 86.248260985523274 -495.75940607920353 0 0 0 0 -855.04813799868134 456.37354356505904 0 456.37354356505904 -453.54558997358606 0 0 0 0 -216.29433392264036 -71.126451508370479 0 -71.126451508370479 -102.4171994766818 0 0 0 0 -313.64330048313059 -187.49357161138153 0 -187.49357161138153 -174.98319288356595 0 0 0 0 -206.37797794944527 -221.64476769948129 0 -221.64476769948129 -58.877338456388316 0 0 0 0 -865.78988535518511 64.655255764875051 0 64.655255764875051 190.1433435744533 0 0 0 0 -720.9466364134787 106.50644053844633 0 106.50644053844633 -187.23057691775301 0 0 0 0 -611.41926205367417 243.96299338268446 0 243.96299338268446 -273.40099548121384 0 0 0 0 -986.35834119546053 477.49730530097486 0 477.49730530097486 -150.83474154335204 0 0 0 0 -1385.5120137528429 763.64978059688065 0 763.64978059688065 -336.57166751622321 0 0 0 0 -1369.019535058437 638.44171277449436 0 638.44171277449436 -266.67968071771429 0 0 0 0 -671.35549662955964 793.1167817647713 0 793.1167817647713 -957.74220677582412 0 0 0 0 -1314.4935200969999 165.47629962468088 0 165.47629962468088 -331.80168314627326 0 0 0 0 -446.59820436130394 631.13415680962203 0 631.13415680962203 -620.76673640210083 0 0 0 0 -8.6905321651433525 4.547155495076562 0 4.547155495076562 -1.5006556532716533 0 0 0 0 -883.54961101981462 174.42030768735003 0 174.42030768735003 -233.12901917664811 0 0 0 0 -494.78259819876803 488.43528625408408 0 488.43528625408408 -634.75308171811184 0 0 0 0 -1280.675362599246 363.15716161091211 0 363.15716161091211 -306.12172497386155 0 0 0 0 -793.98240845943656 466.82878961402014 0 466.82878961402014 -421.03258258421624 0 0 0 0 -934.88776418762427 418.96298486987769 0 418.96298486987769 -412.4074485070297 0 0 0 0 -953.18726959294918 643.02948491916254 0 643.02948491916254 -614.09416245336934 0 0 0 0 -1701.2251070173616 -311.44969915547506 0 -311.44969915547506 -432.19462245985483 0 0 0 0 -691.16451497609614 -243.74093675264493 0 -243.74093675264493 -456.06693569350637 0 0 0 0 -3537.7368525884867 134.13562015538525 0 134.13562015538525 -129.91891598644418 0 0 0 0 -729.97877153972513 611.26582069681911 0 611.26582069681911 -897.09038268278573 0 0 0 0 -1494.3086080104549 764.97755039057097 0 764.97755039057097 -505.90959764292143 0 0 0 0 -585.69594698429501 410.86074016097916 0 410.86074016097916 -897.52449533978529 0 0 0 0 -652.69464101990889 168.88507628528544 0 168.88507628528544 -364.62918751985467 0 0 0 0 -121.69926603191379 -189.79793908794363 0 -189.79793908794363 -125.78028001653047 0 0 0 0 -55.531352258667539 289.9394310540215 0 289.9394310540215 -459.81298087269897 0 0 0 0 -740.43731644336367 290.60758538501773 0 290.60758538501773 -388.33368855787012 0 0 0 0 -393.60284424560996 607.02068429735118 0 607.02068429735118 -107.98218958836651 0 0 0 0 -1093.7683906761395 1106.8463555629055 0 1106.8463555629055 -564.58373913865057 0 0 0 0 -820.8390999061703 266.24428371657109 0 266.24428371657109 -374.59036141670413 0 0 0 0 -332.18487089778682 644.2255912346418 0 644.2255912346418 -377.80947465337954 0 0 0 0 649.70765657384254 1302.1963193670272 0 1302.1963193670272 -1082.5718657711357 0 0 0 0 593.08463285876041 2159.0104251231451 0 2159.0104251231451 90.291490883319284 0 0 0 0 -322.31038904997695 563.1366600691731 0 563.1366600691731 -570.19925524716245 0 0 0 0 -1266.2634565708922 -21.242922380571372 0 -21.242922380571372 662.98424401390116 0 0 0 0 -6.9692940075042529 6.5993080641214164 0 6.5993080641214164 -2.8524344674375728 0 0 0 0 -3500.1634190220962 719.05462343564341 0 719.05462343564341 276.75796466735375 0 0 0 0 -3109.5193158210395 812.04196469092017 0 812.04196469092017 104.40278454925081 0 0 0 0 -2173.0694364644464 925.85424345816068 0 925.85424345816068 115.51834139594351 0 0 0 0 -2670.1720269759962 93.099423531664968 0 93.099423531664968 730.25535902383797 0 0 0 0 -3499.1147422309218 229.72811424174674 0 229.72811424174674 1164.1076077363791 0 0 0 0 -2097.2874567972594 -398.72299682632604 0 -398.72299682632604 532.33703797681255 0 0 0 0 -2388.7677344559224 57.340225805245893 0 57.340225805245893 1038.1975553046821 0 0 0 0 -720.64410787701945 900.40618454725757 0 900.40618454725757 842.59359688490815 0 0 0 0 -1457.0077195547419 -452.87030585246737 0 -452.87030585246737 -205.65465092426689 0 0 0 0 -19.524682757653871 15.550264635977355 0 15.550264635977355 0.66029390551830947 0 0 0 0 -497.11410479032202 -346.60423654530598 0 -346.60423654530598 -345.8164763506453 0 0 0 0 -695.18731788715195 -56.080528407023792 0 -56.080528407023792 1.1546915989561057 0 0 0 0 -23.142543654697192 15.332633102788904 0 15.332633102788904 6.077073010094054 0 0 0 0 -1063.3524325800199 -573.31889573146304 0 -573.31889573146304 -159.27292213040005 0 0 0 0 -3499.7531075865772 -498.58656939044135 0 -498.58656939044135 850.87584486297942 0 0 0 0 -2281.4170115067154 -596.92133886032366 0 -596.92133886032366 252.14449887186251 0 0 0 0 -1969.8546518656512 -157.03080225947573 0 -157.03080225947573 513.68598480889693 0 0 0 0 -3207.1680200537485 -1111.9905003483873 0 -1111.9905003483873 15.196507876457524 0 0 0 0 -2840.9376262302212 -1414.3598415423876 0 -1414.3598415423876 -605.12560843489905 0 0 0 0 -3498.9207343171474 -1325.731459553851 0 -1325.731459553851 -27.628649509099155 0 0 0 0 -2734.2011352080408 -942.54908136298172 0 -942.54908136298172 -226.39882000695914 0 0 0 0 -938.73585753108762 -336.73865129253051 0 -336.73865129253051 437.51521919611844 0 0 0 0 -21.041048354780351 12.635055122679702 0 12.635055122679702 4.9972878522125175 0 0 0 0 -1286.8078321849498 -592.03817547258086 0 -592.03817547258086 302.16818057748145 0 0 0 0 -3499.4915625101557 -1788.6119683302836 0 -1788.6119683302836 -778.78147572183741 0 0 0 0 -11.14661851360016 4.7936324279358189 0 4.7936324279358189 0.97778971067800979 0 0 0 0 -540.02840948688936 -282.0284765510815 0 -282.0284765510815 51.565528433822635 0 0 0 0 -337.78447924810007 31.513394015317971 0 31.513394015317971 194.46702105976067 0 0 0 0 -595.75152007092038 -194.40339625615448 0 -194.40339625615448 -39.93915504860675 0 0 0 0 -942.46162504928293 -458.01467989284646 0 -458.01467989284646 30.497802741626231 0 0 0 0 -153.10398883700873 -273.12020448721051 0 -273.12020448721051 -75.277370160411238 0 0 0 0 -143.41906119251507 -30.757752120576896 0 -30.757752120576896 -4.0803323817272599 0 0 0 0 0.26787603314214792 -4.908454327201536 0 -4.908454327201536 30.464164689887834 0 0 0 0 -359.47519487056707 -100.63880591181874 0 -100.63880591181874 88.156039880228491 0 0 0 0 36.995111857147094 118.8881631594345 0 118.8881631594345 -22.914626254493896 0 0 0 0 -232.9983668837267 -89.877771137846139 0 -89.877771137846139 -45.364415271958705 0 0 0 0 -179.38947399448989 53.225718144742132 0 53.225718144742132 35.403831090359745 0 0 0 0 -229.91760962427361 60.489772965775046 0 60.489772965775046 149.25061400786626 0 0 0 0 141.5459460046477 302.14305948646324 0 302.14305948646324 29.864327672898071 0 0 0 0 366.46759229263989 138.60340988398821 0 138.60340988398821 23.932214061507239 0 0 0 0 -719.54448703673188 524.82074476757998 0 524.82074476757998 -381.29441068762799 0 0 0 0 -5.6504203483956816 -0.72601808889120889 0 -0.72601808889120889 3.3273764954189815 0 0 0 0 -4.7918598241498387 2.5951098630299221 0 2.5951098630299221 -0.52502191162406575 0 0 0 0 -436.13776238291757 355.63007178398448 0 355.63007178398448 99.640296914970349 0 0 0 0 -831.34778956280934 432.44611332817431 0 432.44611332817431 -75.00415284776409 0 0 0 0 -513.67969726344927 -34.055370091513396 0 -34.055370091513396 -51.176764195797659 0 0 0 0 -500.4739832478117 589.12084682555451 0 589.12084682555451 -6.5751809615403545 0 0 0 0 -388.50497213741983 258.01899252144176 0 258.01899252144176 -6.3326178508464182 0 0 0 0 -500.35431834802512 469.60611328456662 0 469.60611328456662 -165.2281123135881 0 0 0 0 -505.54203301979078 416.49182672003371 0 416.49182672003371 -195.42909527599932 0 0 0 0 -906.19250806003402 692.07463485402513 0 692.07463485402513 -297.81324568402943 0 0 0 0 -1186.956481913659 -6.7701874272052009 0 -6.7701874272052009 -38.913882465048118 0 0 0 0 274.82532602130777 467.33533687146291 0 467.33533687146291 -263.11923776930422 0 0 0 0 -0.81281568078399147 -0.37031746346789873 0 -0.37031746346789873 3.476353400087282 0 0 0 0 -1568.6226512888825 190.45090237728664 0 190.45090237728664 -81.554089808690605 0 0 0 0 -590.50854908573001 -265.20698710499954 0 -265.20698710499954 59.833441744642187 0 0 0 0 -330.77103209519919 -250.01583912878323 0 -250.01583912878323 -74.535621967322982 0 0 0 0 5.4624737701751656 260.33546684690316 0 260.33546684690316 192.02937151317064 0 0 0 0 -559.35793100362935 -34.563653868542588 0 -34.563653868542588 -20.291172906198426 0 0 0 0 -2.0890413530136591 -0.87812602262628303 0 -0.87812602262628303 15.41715421486315 0 0 0 0 158.29251951184642 -491.04410662331111 0 -491.04410662331111 -139.45878991615609 0 0 0 0 -638.28711655750249 129.24856349413312 0 129.24856349413312 237.68447203240066 0 0 0 0 28.072311643567446 -8.058241141079634 0 -8.058241141079634 -332.92705925687187 0 0 0 0 -1165.9126446541084 496.50512374211712 0 496.50512374211712 57.132081919904522 0 0 0 0 -596.87618453380605 88.963688370695309 0 88.963688370695309 -266.25368788705964 0 0 0 0 -1523.6600545902029 797.13681390173042 0 797.13681390173042 -487.10455676056745 0 0 0 0 -1406.3519139714763 896.8271113066512 0 896.8271113066512 -446.67336758963211 0 0 0 0 1.4799895396791092 1.1144694815545417 0 1.1144694815545417 -8.1604704183433014 0 0 0 0 -1269.4752066700548 -121.16155214893479 0 -121.16155214893479 -47.982328836897068 0 0 0 0 -379.78591706297902 -293.33554302790799 0 -293.33554302790799 -636.12555370125483 0 0 0 0 181.83792713299954 -133.038404217672 0 -133.038404217672 84.232424560988875 0 0 0 0 76.693542899407475 173.82543095659275 0 173.82543095659275 -295.70793713073363 0 0 0 0 572.56607148963485 -58.777042043692802 0 -58.777042043692802 -117.28089129825821 0 0 0 0 -55.694592423250185 -5.4850608989649459 0 -5.4850608989649459 -1.8080366617432446 0 0 0 0 -39.360235708170499 -21.323591131970222 0 -21.323591131970222 -5.9532363603749516 0 0 0 0 -275.01598691508207 -18.866096620267854 0 -18.866096620267854 -15.85133716065684 0 0 0 0 -49.321444798672019 -120.21269438093259 0 -120.21269438093259 -10.747212177908295 0 0 0 0 -81.530853384922722 -48.646785338274327 0 -48.646785338274327 -12.678328684613074 0 0 0 0 -56.563841371212611 -2.7726193457101562 0 -2.7726193457101562 1.6775341842289251 0 0 0 0 -14.65044341126486 -33.726043342468756 0 -33.726043342468756 -20.634351318312838 0 0 0 0 -95.818779010758533 -13.72990149137685 0 -13.72990149137685 -9.0955635374239918 0 0 0 0 -53.728204540213127 -15.714678906416559 0 -15.714678906416559 -7.8386508713887721 0 0 0 0 -118.70894724727259 -34.295779076121107 0 -34.295779076121107 -4.7396168644045247 0 0 0 0 -67.884987688221372 -21.940967801650459 0 -21.940967801650459 -32.139620387930336 0 0 0 0 -3.8988913155127989 -7.9413061803981435 0 -7.9413061803981435 -9.1141120318016817 0 0 0 0 -13.626864270918304 -37.853792412242001 0 -37.853792412242001 -22.924458757109278 0 0 0 0 -170.49069872051041 -5.4261877101125719 0 -5.4261877101125719 17.786867302844257 0 0 0 0 -11.944910580756998 -0.26644103784155959 0 -0.26644103784155959 -0.0090489959170554357 0 0 0 0 -18.002678437736733 -0.39770056392729458 0 -0.39770056392729458 -5.0861350819138451 0 0 0 0 -143.39364272006242 -13.805022765443937 0 -13.805022765443937 15.246044136432829 0 0 0 0 150.96510762248545 -442.09248773963009 0 -442.09248773963009 195.79590769153583 0 0 0 0 -119.76667876502688 -26.218899753046571 0 -26.218899753046571 -27.551932850488811 0 0 0 0 -68.276207047016115 -36.860393039569296 0 -36.860393039569296 1.3509271332510338 0 0 0 0 -103.22923762119353 1.7925056620060786 0 1.7925056620060786 -28.012245539317519 0 0 0 0 -119.44231834875609 -18.505912184733461 0 -18.505912184733461 6.6167013872254756 0 0 0 0 -57.908171241433593 -22.814646114808056 0 -22.814646114808056 -2.6771283367370415 0 0 0 0 -98.928283572675355 5.0111731840743232 0 5.0111731840743232 -16.752907504800532 0 0 0 0 -53.423826341626409 9.832439333829825 0 9.832439333829825 -66.340811403621046 0 0 0 0 1.8964043147559762 0.46811237040662235 0 0.46811237040662235 -1.6189210369109048 0 0 0 0 -201.4907289005132 -21.948291778111525 0 -21.948291778111525 14.414954069223313 0 0 0 0 -108.293145634947 -40.19735212591786 0 -40.19735212591786 -38.809893588735576 0 0 0 0 -56.888265103581944 0.58150539856524119 0 0.58150539856524119 -31.095063807804763 0 0 0 0 -98.153347474949214 -42.747716872349997 0 -42.747716872349997 24.254634781147615 0 0 0 0 -192.77601937120562 -413.10393714208567 0 -413.10393714208567 338.53208161574298 0 0 0 0 -67.246169828550677 -29.440745241059233 0 -29.440745241059233 9.4777838620486392 0 0 0 0 -242.52227922399254 102.44764844048859 0 102.44764844048859 109.84476408782757 0 0 0 0 -311.36554291194329 293.73062427628554 0 293.73062427628554 -107.07239088266761 0 0 0 0 -57.677785181796935 -4.8175736700259222 0 -4.8175736700259222 29.875810237612313 0 0 0 0 -73.635040368437757 -13.62669682420119 0 -13.62669682420119 20.070805412087658 0 0 0 0 -20.643767837541859 -9.7276134155043721 0 -9.7276134155043721 3.5087281801766803 0 0 0 0 -579.36391417759705 -221.69464074859661 0 -221.69464074859661 -38.485598729835601 0 0 0 0 -638.39205780765769 80.193988894915492 0 80.193988894915492 36.261735808509911 0 0 0 0 -650.54572799794323 588.69453880119363 0 588.69453880119363 -160.74144088332832 0 0 0 0 -334.27512173649154 488.02650631472534 0 488.02650631472534 -581.14980665842813 0 0 0 0 -417.92171561983196 536.58664940584094 0 536.58664940584094 -470.73139648959295 0 0 0 0 -136.9296575131948 52.827091344333894 0 52.827091344333894 -621.62895852544261 0 0 0 0 281.96359043051052 62.810175384050126 0 62.810175384050126 -313.83530166841228 0 0 0 0 -112.71299571651616 218.4466055575258 0 218.4466055575258 97.855589940532809 0 0 0 0 173.39903136866724 -209.4074078442618 0 -209.4074078442618 3.9958591723479913 0 0 0 0 -0.27442195881500453 1.370701739290622 0 1.370701739290622 5.4455505318038959 0 0 0 0 230.24479225473806 -111.47005790747971 0 -111.47005790747971 17.58449571521669 0 0 0 0 70.796056250177571 -129.95599698488695 0 -129.95599698488695 50.87386578949554 0 0 0 0 3.37073349447639 6.3958693568948757 0 6.3958693568948757 14.201413003565939 0 0 0 0 -202.25183572048672 28.704718259502442 0 28.704718259502442 165.75287403647417 0 0 0 0 29.897863399337439 61.581992748762787 0 61.581992748762787 -7.4148838441233238 0 0 0 0 -547.65313000807964 978.29252428014661 0 978.29252428014661 -615.00151867856403 0 0 0 0 -357.78596108296722 468.20532160449329 0 468.20532160449329 -141.85154808167317 0 0 0 0 -105.57817863206856 76.721846522566921 0 76.721846522566921 -136.44749947642413 0 0 0 0 -228.88983606038391 128.42778818410079 0 128.42778818410079 44.265162540472375 0 0 0 0 -52.062823427394555 245.27227847972881 0 245.27227847972881 -364.37698579026983 0 0 0 0 -63.021041867488748 3.0301256830280181 0 3.0301256830280181 38.782649134827807 0 0 0 0 239.06902118406992 348.01450922920958 0 348.01450922920958 -508.33930198149847 0 0 0 0 67.661722593248896 -14.512378294715745 0 -14.512378294715745 -40.025670581249869 0 0 0 0 38.57232284530437 153.42122053045205 0 153.42122053045205 145.90174384273905 0 0 0 0 -118.32591986240459 75.8912015038768 0 75.8912015038768 175.93560589906338 0 0 0 0 -87.396890963580518 25.621048349486955 0 25.621048349486955 33.605940068591735 0 0 0 0 -7.5732733073454721 7.6803615833726209 0 7.6803615833726209 -9.3666102187739284 0 0 0 0 -19.565440007411432 17.908888053756705 0 17.908888053756705 -11.655748925025463 0 0 0 0 -29.009697807525754 31.43843920252948 0 31.43843920252948 111.10001382275732 0 0 0 0 -92.90508277103163 15.603892814038772 0 15.603892814038772 114.15193407359402 0 0 0 0 -38.426022671277565 50.67115071194894 0 50.67115071194894 77.632625185076904 0 0 0 0 -5.0035737165515712 30.081832738371077 0 30.081832738371077 43.495902007474797 0 0 0 0 -0.52881370402244343 26.081402582173013 0 26.081402582173013 -11.400259881920284 0 0 0 0 4.2422203535215424 17.570182564110148 0 17.570182564110148 20.050186278319885 0 0 0 0 -6.145411516293791 14.688276231824034 0 14.688276231824034 83.636047424719436 0 0 0 0 0.033461528444149735 25.117697465946549 0 25.117697465946549 6.2695454826316563 0 0 0 0 -19.613545825127407 24.252106076372964 0 24.252106076372964 -5.3283812590312323 0 0 0 0 -21.695838242316452 37.980965164338258 0 37.980965164338258 -2.3027365730131066 0 0 0 0 -22.566833319102443 -21.969690369036471 0 -21.969690369036471 -17.67464803245457 0 0 0 0 45.698673925478943 58.165366054876358 0 58.165366054876358 -30.07315133681368 0 0 0 0 -214.54876358613274 -103.15717441189554 0 -103.15717441189554 -72.185442818350566 0 0 0 0 -151.57660493223011 45.558185015075651 0 45.558185015075651 -10.147252465918427 0 0 0 0 -61.102263327871697 134.93882942188611 0 134.93882942188611 24.306146753211124 0 0 0 0 146.1304288584397 -80.224708877219655 0 -80.224708877219655 -32.151357971815742 0 0 0 0 50.391883910981051 61.632804415545252 0 61.632804415545252 -29.426257151166055 0 0 0 0 72.454814583454208 21.426810835081596 0 21.426810835081596 5.1673335769337427 0 0 0 0 54.650798469669098 70.005112550994454 0 70.005112550994454 21.646116412066931 0 0 0 0 -124.46105132725825 141.21969330535103 0 141.21969330535103 -22.386886243650224 0 0 0 0 29.167964226649929 56.613875791813371 0 56.613875791813371 -17.759982432769903 0 0 0 0 57.851991504780017 19.979298829608524 0 19.979298829608524 52.286220042307832 0 0 0 0 -1.7371769251033911 1.6567477424961083 0 1.6567477424961083 -2.3382303785508611 0 0 0 0 37.876669084936111 -31.53073784150547 0 -31.53073784150547 -153.01814539195766 0 0 0 0 -196.55179912950734 95.393174949505919 0 95.393174949505919 77.979194678423028 0 0 0 0 -0.42346204137110988 9.8382886394557971 0 9.8382886394557971 -1.9388733833365848 0 0 0 0 -23.838753568127231 12.784913728622996 0 12.784913728622996 -10.772322860571876 0 0 0 0 -61.639909664634615 169.98061174836403 0 169.98061174836403 108.38154670369113 0 0 0 0 117.19583081543169 100.47770056993068 0 100.47770056993068 -82.443871005953042 0 0 0 0 -41.307597060435882 21.605820616517718 0 21.605820616517718 -4.1360837651456421 0 0 0 0 -70.785714843306778 231.14143894087101 0 231.14143894087101 -138.65737933493091 0 0 0 0 -103.23673157074882 -57.359235727526539 0 -57.359235727526539 53.335109451283643 0 0 0 0 -8.4256001929412179 -5.0956632799265105 0 -5.0956632799265105 2.3461774862143301 0 0 0 0 -118.15107989397984 104.30139884879827 0 104.30139884879827 106.15482389437057 0 0 0 0 -20.683703047259769 1.4409181900391559 0 1.4409181900391559 -12.754655537236431 0 0 0 0 -22.378349089167386 9.1795194779792837 0 9.1795194779792837 -47.217683066253812 0 0 0 0 49.000106431167296 17.098381050191165 0 17.098381050191165 -22.024590967152108 0 0 0 0 -23.562533097734558 26.523618873917258 0 26.523618873917258 -1.3278089776831621 0 0 0 0 29.281512391974502 50.40760274251079 0 50.40760274251079 6.2197420516713464 0 0 0 0 -21.062356933691774 17.938480989435913 0 17.938480989435913 -5.5703318569955655 0 0 0 0 -17.789755681206003 24.617799768324343 0 24.617799768324343 -6.9540522545997874 0 0 0 0 -37.792401179987927 25.390641978211402 0 25.390641978211402 -9.5707604986372488 0 0 0 0 -74.960909780420479 21.96471944480254 0 21.96471944480254 8.6324841936657322 0 0 0 0 -76.177705988804519 42.723917041719687 0 42.723917041719687 9.252008094073858 0 0 0 0 -12.78038150161774 28.547189291864925 0 28.547189291864925 -2.9926691113323614 0 0 0 0 -80.34339041543717 11.709276238389066 0 11.709276238389066 45.761651904169412 0 0 0 0 273.11612398328361 -106.25200877423958 0 -106.25200877423958 -189.78632691555322 0 0 0 0 -70.568261094354966 12.367069382226873 0 12.367069382226873 28.801408631450613 0 0 0 0 -71.739811510881736 8.7188519203486976 0 8.7188519203486976 35.84501009050291 0 0 0 0 -33.510439344609509 -20.744242166262978 0 -20.744242166262978 -1.0564320533675229 0 0 0 0 -87.341937095297908 28.451225971632084 0 28.451225971632084 22.46547847421607 0 0 0 0 -68.635300322712283 19.944515066526947 0 19.944515066526947 45.130266706044495 0 0 0 0 279.51202815377474 582.770550811063 0 582.770550811063 -454.56131460311371 0 0 0 0 -536.95265843027573 178.19296627621861 0 178.19296627621861 -8.2550570679959492 0 0 0 0 -551.72083110062886 232.00256868061933 0 232.00256868061933 -84.44519107486849 0 0 0 0 -46.402293055867631 212.87539963906056 0 212.87539963906056 -89.817693410985157 0 0 0 0 -590.5518058456164 374.50291206437032 0 374.50291206437032 -294.90750426594605 0 0 0 0 -635.02727360891913 264.93979579969437 0 264.93979579969437 -66.860891222033388 0 0 0 0 -690.37427531575668 316.55885649246375 0 316.55885649246375 -40.723221172053854 0 0 0 0 -491.46125998946627 179.17633033469065 0 179.17633033469065 -111.81954639367177 0 0 0 0 -815.88001516639179 361.01795866615794 0 361.01795866615794 -24.369082153025374 0 0 0 0 -1039.0650206927348 422.41364584448274 0 422.41364584448274 -4.9794230275601876 0 0 0 0 -990.08201109847141 383.46076533356609 0 383.46076533356609 56.431417606992909 0 0 0 0 -767.31968798554863 258.55190561618838 0 258.55190561618838 30.775189664564095 0 0 0 0 -884.71258364012101 343.29972319484659 0 343.29972319484659 55.244549959039887 0 0 0 0 -765.97306261177437 220.67961537216252 0 220.67961537216252 94.756662696905551 0 0 0 0 -970.04462188901016 347.73466969309084 0 347.73466969309084 72.078770905115562 0 0 0 0 -885.27279517915395 339.2738857700715 0 339.2738857700715 33.558233308584022 0 0 0 0 -499.6593515271561 180.67432815463326 0 180.67432815463326 -17.626753073825967 0 0 0 0 -516.49817687637551 146.86730477040146 0 146.86730477040146 51.738053532451886 0 0 0 0 -773.47928928586589 312.01700573345988 0 312.01700573345988 30.333299648964385 0 0 0 0 -625.21415117062134 56.205408285331941 0 56.205408285331941 109.03842677617104 0 0 0 0 -137.99126571254965 51.946348712445797 0 51.946348712445797 -24.668824839245644 0 0 0 0 -389.52531342731436 70.526679072030674 0 70.526679072030674 22.744577525943896 0 0 0 0 13.220367384561541 76.799146351979289 0 76.799146351979289 -175.32582507365078 0 0 0 0 -1263.4198495602668 -20.904385026366072 0 -20.904385026366072 128.296609627414 0 0 0 0 -885.84372856314258 252.27690139169499 0 252.27690139169499 16.508027845786273 0 0 0 0 -1168.3402475669682 539.10939565262379 0 539.10939565262379 -15.497714351845389 0 0 0 0 -1073.4563572872376 382.94137553034307 0 382.94137553034307 63.447300917916436 0 0 0 0 -1101.3919284282838 411.9824758201903 0 411.9824758201903 198.79283298720475 0 0 0 0 -2277.1027789487362 500.03036165174126 0 500.03036165174126 195.01494212704347 0 0 0 0 -969.48337740819079 952.48952294358332 0 952.48952294358332 -842.31692905922318 0 0 0 0 -823.74618965716127 850.96519127287684 0 850.96519127287684 -105.38279581238021 0 0 0 0 34.799765624140491 10.706551450126426 0 10.706551450126426 -272.06395962234819 0 0 0 0 -10.260540585369146 4.7122670112401011 0 4.7122670112401011 -2.6572628791875843 0 0 0 0 -325.93728034757441 -317.11210817845495 0 -317.11210817845495 -109.021349982213 0 0 0 0 -1596.8521672562201 -512.88865157947293 0 -512.88865157947293 -133.64796805279911 0 0 0 0 -161.14005262787362 -44.932693946353538 0 -44.932693946353538 8.423281262988894 0 0 0 0 -100.84209947487216 -19.372513164656993 0 -19.372513164656993 -18.516757723600676 0 0 0 0 -25.762166641620965 -0.33892249769877125 0 -0.33892249769877125 -5.5734773383366729 0 0 0 0 -93.637440524498743 12.596255966373974 0 12.596255966373974 -8.6597500173302251 0 0 0 0 -278.03701442487181 -22.444396807793964 0 -22.444396807793964 30.84064056477655 0 0 0 0 -9.8939669363136016 -2.0848284014583278 0 -2.0848284014583278 -4.2416061240576681 0 0 0 0 -7.5691518655606771 -0.42134083293801083 0 -0.42134083293801083 1.2978713937470658 0 0 0 0 53.152928006258662 -69.108836080495166 0 -69.108836080495166 140.26493381906766 0 0 0 0 472.05389631801518 484.29271543621871 0 484.29271543621871 -317.07140566634007 0 0 0 0 -248.9781661541856 -86.16986592239482 0 -86.16986592239482 -159.9444002393866 0 0 0 0 0.28092513250936335 3.0843126665017557 0 3.0843126665017557 -3.4880075461421853 0 0 0 0 -1.1421039489335136 1.1799756547982758 0 1.1799756547982758 -1.8024384285214126 0 0 0 0 6.4660197350112867 31.1615178140637 0 31.1615178140637 -327.79188742176484 0 0 0 0 -834.18383905139308 431.98247635152075 0 431.98247635152075 -205.35247876053836 0 0 0 0 -226.71745031233149 114.4541120442118 0 114.4541120442118 -43.998063671369891 0 0 0 0 -203.19837236197964 -19.172386302963787 0 -19.172386302963787 11.147719520191458 0 0 0 0 -217.16078794556506 -35.742323279840093 0 -35.742323279840093 -0.62455237082394888 0 0 0 0 -188.1743629294906 -80.508130373835229 0 -80.508130373835229 -69.023447768868209 0 0 0 0 -322.52516174436278 -89.906371477966786 0 -89.906371477966786 -53.866485274875231 0 0 0 0 -241.42409009921539 -19.791860180175718 0 -19.791860180175718 -6.6451472361768538 0 0 0 0 -191.7691046095315 -42.732808041442695 0 -42.732808041442695 -73.187487582732501 0 0 0 0 -1160.9485536940374 307.68852165882618 0 307.68852165882618 76.715764961098103 0 0 0 0 -1.3464904697936113 1.7022907103685601 0 1.7022907103685601 -1.3340499129629606 0 0 0 0 -995.19150269139573 371.95374987026662 0 371.95374987026662 61.248797715161345 0 0 0 0 -1034.7246698738127 277.00583136593559 0 277.00583136593559 0.89404676084996026 0 0 0 0 -1092.1086023306707 377.68201353740824 0 377.68201353740824 31.589138792678568 0 0 0 0 -1004.2577335217825 320.97183034955697 0 320.97183034955697 22.816092465211113 0 0 0 0 -1033.0810377587259 314.28286674776609 0 314.28286674776609 -58.223469143260445 0 0 0 0 -229.37915280716879 -103.46689905591484 0 -103.46689905591484 -165.60624965638635 0 0 0 0 -163.87873793869221 -32.860259758814209 0 -32.860259758814209 -198.67202674970213 0 0 0 0 -21.876271517364106 17.13146064204253 0 17.13146064204253 -10.586943118612318 0 0 0 0 -56.114045748003264 258.75773385262164 0 258.75773385262164 363.50633535664929 0 0 0 0 -163.38723924599708 -24.727551651476006 0 -24.727551651476006 -108.05339506019845 0 0 0 0 -72.482647826460379 -58.277306275298542 0 -58.277306275298542 -95.072405077260555 0 0 0 0 -143.27167056759481 -79.696499561912333 0 -79.696499561912333 -98.013241720145743 0 0 0 0 -172.29314149541733 -54.24563269031205 0 -54.24563269031205 -29.924975719477516 0 0 0 0 -183.17277477103562 11.992082686831964 0 11.992082686831964 102.03736552664384 0 0 0 0 -73.930042540971726 -53.141648418153409 0 -53.141648418153409 -40.916459429667157 0 0 0 0 -50.655176141723778 7.2087604857279972 0 7.2087604857279972 -12.082103270708835 0 0 0 0 -177.28234594575406 -98.059655075592673 0 -98.059655075592673 -61.12607437074621 0 0 0 0 -187.21385025936979 -159.53677225734282 0 -159.53677225734282 89.689019392961882 0 0 0 0 -78.027401001689213 -51.880808168428302 0 -51.880808168428302 -17.928125744747376 0 0 0 0 -15.256454803686324 -27.512458745743512 0 -27.512458745743512 -2.1692059201193388 0 0 0 0 -244.03751833300521 -136.80200941528665 0 -136.80200941528665 21.001589274990693 0 0 0 0 -54.050950369301916 -43.358853443676431 0 -43.358853443676431 -20.745341961985584 0 0 0 0 -75.51135608939876 -45.835975427217818 0 -45.835975427217818 -7.8066924265143598 0 0 0 0 -93.372664101176497 -52.895712619942088 0 -52.895712619942088 -14.462798129738076 0 0 0 0 -21.177397865566725 -6.1079198461494748 0 -6.1079198461494748 2.4923153914170868 0 0 0 0 -71.846472956385696 -57.759248922140614 0 -57.759248922140614 -13.583377474765257 0 0 0 0 -173.44948914145607 -127.33138909188938 0 -127.33138909188938 -91.962449055574325 0 0 0 0 -148.85977271381125 -53.316557856492182 0 -53.316557856492182 -30.863397061674732 0 0 0 0 -87.391372681013351 -46.163854142643551 0 -46.163854142643551 -19.573722909639393 0 0 0 0 -42.132944118960552 5.1611944279149924 0 5.1611944279149924 -8.0980576167640734 0 0 0 0 -115.92005173240614 -15.536929049465471 0 -15.536929049465471 2.6968648575420957 0 0 0 0 -135.29279904993746 1.2163480397657622 0 1.2163480397657622 12.76617029054978 0 0 0 0 -257.42495969184529 -30.269191613218936 0 -30.269191613218936 -48.978211937348533 0 0 0 0 -32.991229754683445 -61.187425956333755 0 -61.187425956333755 -43.622372749072383 0 0 0 0 -46.42262419065446 -113.57984306956314 0 -113.57984306956314 -88.231354423031007 0 0 0 0 351.59819775238429 -124.56362352990982 0 -124.56362352990982 -278.09609758601073 0 0 0 0 -17.501992730409256 -114.0827774401987 0 -114.0827774401987 -117.7387914085034 0 0 0 0 -25.706862639577594 -132.00412337589296 0 -132.00412337589296 -115.81356074397308 0 0 0 0 -7.8307748415190872 20.623265695358896 0 20.623265695358896 -6.465107139907559 0 0 0 0 -51.084736381366383 -15.061445261708286 0 -15.061445261708286 2.0183884503385343 0 0 0 0 1.7484018462637323 10.164686902070571 0 10.164686902070571 -16.596058765029738 0 0 0 0 -49.168499650841113 18.927981157930844 0 18.927981157930844 -11.920519920517108 0 0 0 0 -44.787570125186903 12.601952407847421 0 12.601952407847421 -4.7478683844310581 0 0 0 0 -56.71619158251815 7.672197543593029 0 7.672197543593029 -6.0564393255917821 0 0 0 0 -45.190432461715318 33.048802638236793 0 33.048802638236793 -10.032049824407295 0 0 0 0 -6.2739856745756697 16.59155793082391 0 16.59155793082391 -12.859886510811521 0 0 0 0 -137.70392482921307 -8.1426344900391996 0 -8.1426344900391996 16.670911782282928 0 0 0 0 -106.77678303226276 12.563250929172682 0 12.563250929172682 16.275701044207381 0 0 0 0 -87.91167642698565 -13.297892568783936 0 -13.297892568783936 11.028823222250139 0 0 0 0 -160.53927814497001 -5.6065232961736911 0 -5.6065232961736911 29.276341934203629 0 0 0 0 -147.5549478906687 17.067879244015785 0 17.067879244015785 17.64383357475981 0 0 0 0 -153.95614635246602 -15.369585797806394 0 -15.369585797806394 43.15422735827633 0 0 0 0 -137.54829693533611 -24.426627606747388 0 -24.426627606747388 21.025414781996005 0 0 0 0 -137.18676468007106 -15.04712618594931 0 -15.04712618594931 1.9103592245592154 0 0 0 0 -138.98718607457704 -9.9273402327780786 0 -9.9273402327780786 30.126338845831924 0 0 0 0 -123.7674376486757 -49.767582853639396 0 -49.767582853639396 35.24839723481773 0 0 0 0 -125.1874895607034 -79.348057531507038 0 -79.348057531507038 40.967015625874637 0 0 0 0 -94.480878576645921 -99.643105222365023 0 -99.643105222365023 15.564412018207804 0 0 0 0 -83.923377425081526 -47.168828595582539 0 -47.168828595582539 -10.10218141670299 0 0 0 0 -115.0694157008511 -62.122471432801831 0 -62.122471432801831 -35.320272025315717 0 0 0 0 -104.77232192147403 -38.661223454590072 0 -38.661223454590072 12.708333836952079 0 0 0 0 -38.79549526503979 -79.029554162276327 0 -79.029554162276327 -45.465655050275245 0 0 0 0 -135.03957293679423 4.1839639143401541 0 4.1839639143401541 -3.7350171410307667 0 0 0 0 -89.297849768976306 -40.532262776908716 0 -40.532262776908716 -12.565967285874514 0 0 0 0 -77.817095808819431 -30.115173822359793 0 -30.115173822359793 -25.77238807183096 0 0 0 0 -47.113169303625909 -16.56239801945776 0 -16.56239801945776 -28.340440851081439 0 0 0 0 -44.667098864072614 -17.232867606935542 0 -17.232867606935542 -11.275431917235892 0 0 0 0 -74.949677050446553 -9.8761963936809707 0 -9.8761963936809707 1.7135722040857218 0 0 0 0 -49.245793013531511 -4.679392186271798 0 -4.679392186271798 1.060739673471744 0 0 0 0 -34.154062748242723 -50.562780345200736 0 -50.562780345200736 34.452052381734575 0 0 0 0 -60.946511657566589 -43.117991839564183 0 -43.117991839564183 -33.661329462229332 0 0 0 0 -40.183586842098066 -69.401376000864445 0 -69.401376000864445 -3.4798307964338164 0 0 0 0 15.541931747127819 -22.341911605138193 0 -22.341911605138193 2.8792424050943737 0 0 0 0 -62.183835438823735 -63.218425456072964 0 -63.218425456072964 34.652004911383301 0 0 0 0 -19.219163541959489 -6.4492356916087203 0 -6.4492356916087203 14.030148383217 0 0 0 0 -219.68358223553514 -3.3274063713556643 0 -3.3274063713556643 -41.33506975835553 0 0 0 0 -132.0635352184363 -122.49915054934854 0 -122.49915054934854 -13.801356643817599 0 0 0 0 -4.2019351875060238 -74.759527267598514 0 -74.759527267598514 -48.711278018035955 0 0 0 0 -91.882094600811342 -64.171024903073089 0 -64.171024903073089 -2.6007843007546398 0 0 0 0 -136.38513005692585 -71.78835622002498 0 -71.78835622002498 0.67358760456750133 0 0 0 0 -52.712488230111376 63.125170705669461 0 63.125170705669461 81.825375700116638 0 0 0 0 -426.89009902213365 -40.319315719884798 0 -40.319315719884798 311.39157892370349 0 0 0 0 -69.020749107854499 -109.1650978849184 0 -109.1650978849184 -23.923038682471088 0 0 0 0 -88.793140101031895 -101.19502600812166 0 -101.19502600812166 -27.014119508610747 0 0 0 0 -116.38939745035896 -215.38880687009123 0 -215.38880687009123 -155.13679550004599 0 0 0 0 -97.518194366581156 -174.36307839262372 0 -174.36307839262372 -68.941808174935431 0 0 0 0 -12.298884938150877 -127.1088363395138 0 -127.1088363395138 -143.63792243940111 0 0 0 0 -27.027161813318344 -148.3421284688834 0 -148.3421284688834 -145.15908882881922 0 0 0 0 -5.7306725838134298 12.633913500802009 0 12.633913500802009 -0.44485543768860225 0 0 0 0 -9.7615917214474166 3.2994841173357017 0 3.2994841173357017 0.34303468066217135 0 0 0 0 -62.669730718225765 -113.24799750080638 0 -113.24799750080638 -220.90276192565034 0 0 0 0 6.1841719199728686 -148.87699719635748 0 -148.87699719635748 -229.38395878427855 0 0 0 0 -52.145582000921422 -166.55752934924749 0 -166.55752934924749 -182.62409664864754 0 0 0 0 -55.426218693501141 -145.36748270857333 0 -145.36748270857333 -260.74888201249996 0 0 0 0 -62.765155926350417 -111.11483533164392 0 -111.11483533164392 -229.70763270207044 0 0 0 0 282.44426456844303 -251.60974933985744 0 -251.60974933985744 -730.77885873056948 0 0 0 0 -1440.1685000564903 -834.58223715530767 0 -834.58223715530767 321.84087799682311 0 0 0 0 -606.45669741126767 247.8124135273556 0 247.8124135273556 -67.741471392742824 0 0 0 0 -63.463606679222721 -94.292241247389029 0 -94.292241247389029 -626.13249787911991 0 0 0 0 -1.3891789515524096 -4.5068936285164014 0 -4.5068936285164014 -3.8889322164099518 0 0 0 0 -849.21630221366649 2.2673301114782589 0 2.2673301114782589 77.845592374571424 0 0 0 0 -426.5015913152165 36.257270284604601 0 36.257270284604601 23.083977065165527 0 0 0 0 -356.8610448223626 -1351.953565563912 0 -1351.953565563912 -1718.8902892867336 0 0 0 0 -113.0788725120965 -80.253164113751154 0 -80.253164113751154 -38.748886728763352 0 0 0 0 -9.7379226678416089 9.2127131700248412 0 9.2127131700248412 0.6364660635499888 0 0 0 0 -71.352811247532372 -26.481600552692953 0 -26.481600552692953 -48.618883258431197 0 0 0 0 -116.55257692119631 -59.205509641151366 0 -59.205509641151366 -45.789086385819246 0 0 0 0 -84.568854756071232 -52.279176606805777 0 -52.279176606805777 -59.510868240638047 0 0 0 0 -11.084550794273156 12.908428879206255 0 12.908428879206255 -7.8525417520359575 0 0 0 0 -69.422206627609739 -34.433904280600245 0 -34.433904280600245 -36.633118561896481 0 0 0 0 -76.309480821113539 -26.821780829352065 0 -26.821780829352065 -44.915323550753897 0 0 0 0 -67.391306492094373 -17.418995509382967 0 -17.418995509382967 -32.986984889546875 0 0 0 0 -18.684933569631653 3.416657506826887 0 3.416657506826887 -12.501183999446368 0 0 0 0 -87.930963133578189 -56.568916993728635 0 -56.568916993728635 -41.743807547524284 0 0 0 0 46.233980055319989 14.877107351964696 0 14.877107351964696 -63.277693879274011 0 0 0 0 -79.90595818266047 -46.636801722897644 0 -46.636801722897644 -51.831239451423244 0 0 0 0 -79.579564610226953 -44.556818359551471 0 -44.556818359551471 -43.19839051317058 0 0 0 0 -80.177762906136195 -47.928709466566943 0 -47.928709466566943 -38.629191715443085 0 0 0 0 -93.800592283139849 -34.123175521413486 0 -34.123175521413486 -47.400833597230303 0 0 0 0 169.90988079595991 140.10421571077222 0 140.10421571077222 -157.0919886764168 0 0 0 0 -216.78475924055965 -42.886257876858508 0 -42.886257876858508 152.70601222285677 0 0 0 0 38.604169203363199 30.302123037010006 0 30.302123037010006 -73.229291887906584 0 0 0 0 -157.44241589424928 -83.329635672348559 0 -83.329635672348559 126.34484490137038 0 0 0 0 -58.984352618506819 4.7221706815362268 0 4.7221706815362268 -36.733242476279884 0 0 0 0 -385.44892192045882 101.66743076393414 0 101.66743076393414 24.033552868233528 0 0 0 0 -352.75841975025105 -162.48809174389135 0 -162.48809174389135 24.189655853630939 0 0 0 0 -193.08100866817404 -24.580418881234436 0 -24.580418881234436 101.2250220610531 0 0 0 0 -303.02067309107952 -12.978894672849492 0 -12.978894672849492 138.34387645551215 0 0 0 0 -219.30130613762049 -31.995808931973897 0 -31.995808931973897 128.33623501109469 0 0 0 0 -551.75698742916575 -112.23266958866407 0 -112.23266958866407 125.99370072952297 0 0 0 0 -319.41813439545513 -86.183538653582218 0 -86.183538653582218 122.31811917123218 0 0 0 0 -496.10320498626243 92.095737679595914 0 92.095737679595914 119.40415942321124 0 0 0 0 -83.500744526099879 94.291640215808002 0 94.291640215808002 -215.26185283971427 0 0 0 0 -396.70669151480251 4.9870370717435435 0 4.9870370717435435 173.20169620660454 0 0 0 0 -144.33185924643476 94.903642187899095 0 94.903642187899095 109.50388468887104 0 0 0 0 -216.44183920968499 -94.651862050678574 0 -94.651862050678574 119.5712839618318 0 0 0 0 -297.94815469812238 0.32562954972581792 0 0.32562954972581792 168.21925425646623 0 0 0 0 -7.2762341997672735 -4.2445791041217618 0 -4.2445791041217618 -2.5908689118684478 0 0 0 0 19.811072743515979 -22.921923967501243 0 -22.921923967501243 1.1047693949677182 0 0 0 0 -48.6544228955363 -135.07243000342578 0 -135.07243000342578 111.2006165932271 0 0 0 0 -7.6895320438488852 8.5194679850301327 0 8.5194679850301327 58.121649919881747 0 0 0 0 -171.99405055181705 135.9211083097689 0 135.9211083097689 223.79812494487851 0 0 0 0 -2.4636660474880472 -1.3036324542276958 0 -1.3036324542276958 1.0647741024640673 0 0 0 0 -125.9243417591606 -43.602962692265919 0 -43.602962692265919 165.52410960896123 0 0 0 0 -120.79119133427594 -59.605429696372084 0 -59.605429696372084 62.401776495112244 0 0 0 0 3.8757497007272832 -21.146522268215222 0 -21.146522268215222 -225.22445764381155 0 0 0 0 -17.321224669425646 54.747749209177073 0 54.747749209177073 -60.67135610497462 0 0 0 0 -28.129288961394195 88.044243365256534 0 88.044243365256534 -116.25034653456669 0 0 0 0 -1.1037511218998528 -1.7939901278574553 0 -1.7939901278574553 -5.17994984107807 0 0 0 0 -552.25439224272122 -125.47621699442834 0 -125.47621699442834 33.460403132346073 0 0 0 0 -333.646076694562 16.265683934863091 0 16.265683934863091 -12.361430095452306 0 0 0 0 -95.585780563986191 101.22223676489557 0 101.22223676489557 -279.15681893965484 0 0 0 0 -238.18959564174656 -220.55961891606694 0 -220.55961891606694 -250.50304079206217 0 0 0 0 143.66970901364402 42.162435752505189 0 42.162435752505189 -106.18621723414799 0 0 0 0 61.726847055349936 -134.39369065546907 0 -134.39369065546907 -40.878989788991021 0 0 0 0 4.005478892023234 1.0637502472087128 0 1.0637502472087128 -5.1591254045097088 0 0 0 0 -29.794382162221154 -4.456475366898303 0 -4.456475366898303 -63.679016819811295 0 0 0 0 -29.71714113197595 -90.401606373643972 0 -90.401606373643972 -103.50945479317397 0 0 0 0 -283.21410711150202 -182.93714455798067 0 -182.93714455798067 -37.034267675415322 0 0 0 0 1.2994467847011606 -17.159434290628482 0 -17.159434290628482 -35.506227254227525 0 0 0 0 -26.722177484938584 -29.354436289213936 0 -29.354436289213936 -50.913827080373267 0 0 0 0 -19.417212928659865 -26.548783278394922 0 -26.548783278394922 -38.125472303937329 0 0 0 0 15.742276197390311 -20.19305926384277 0 -20.19305926384277 -87.228371279194107 0 0 0 0 -2.6627132084535674 -26.57907216094155 0 -26.57907216094155 -34.989643445185322 0 0 0 0 -25.051551215088693 -28.348327958937716 0 -28.348327958937716 -34.559216869978172 0 0 0 0 -12.269131424212503 -20.87666516403009 0 -20.87666516403009 -35.797903025686203 0 0 0 0 -1.2942900323187132 -4.9847547740407308 0 -4.9847547740407308 -3.7344356318276155 0 0 0 0 -26.655596133095969 -40.70616159756355 0 -40.70616159756355 -2.6874472865238204 0 0 0 0 -415.05818191110984 75.577569107610429 0 75.577569107610429 8.1221775974699995 0 0 0 0 -381.24723507354429 -201.29612926179743 0 -201.29612926179743 -64.316929802080267 0 0 0 0 -9.0209581139492911 -67.619105070490832 0 -67.619105070490832 -118.03837331203613 0 0 0 0 -18.281036621105159 -159.18011247171125 0 -159.18011247171125 -262.25903037889748 0 0 0 0 -59.421377928490983 -92.334030756004722 0 -92.334030756004722 -73.839056541074569 0 0 0 0 -126.46063153945374 -76.214105064544981 0 -76.214105064544981 -7.8570129079162143 0 0 0 0 -128.26198116257729 -99.702584676782863 0 -99.702584676782863 -6.9411065088206669 0 0 0 0 -35.675745931446727 -95.967716344357996 0 -95.967716344357996 -14.167999527686334 0 0 0 0 -196.76701031613993 -96.80002862427682 0 -96.80002862427682 20.663793762749265 0 0 0 0 -161.36484744016707 20.013817758092955 0 20.013817758092955 12.594467227845598 0 0 0 0 -237.21934568215329 3.0097903901466907 0 3.0097903901466907 39.97028355349903 0 0 0 0 -57.449421339257242 55.795367462714239 0 55.795367462714239 -38.976990970339102 0 0 0 0 -86.527350305092114 22.860794726215317 0 22.860794726215317 6.666598813913879 0 0 0 0 -165.22069897774418 34.511472375450467 0 34.511472375450467 8.5319191083326587 0 0 0 0 14.86332842903721 22.409326945867178 0 22.409326945867178 -38.473528313112183 0 0 0 0 -65.045322024434427 29.585080454407034 0 29.585080454407034 -8.6553062322855112 0 0 0 0 -83.361529495588911 13.811673749733018 0 13.811673749733018 -1.2143117869145499 0 0 0 0 152.13452983461684 -141.6053464544857 0 -141.6053464544857 -4.2836391024502518 0 0 0 0 -5.4411754245349897 -4.8201065558711811 0 -4.8201065558711811 -3.5039758009654847 0 0 0 0 -4.6877919709004345 -52.78729692435536 0 -52.78729692435536 -28.362663330963187 0 0 0 0 -103.4913122431135 98.954716776947862 0 98.954716776947862 -177.3434632529661 0 0 0 0 123.93340130540673 -223.88676152769153 0 -223.88676152769153 -94.946488657446025 0 0 0 0 -2.6280042281219664 -2.1629984878316222 0 -2.1629984878316222 -1.5996351295422571 0 0 0 0 20.104867538982944 105.09381778875559 0 105.09381778875559 -75.085116151534748 0 0 0 0 -10.749871033017371 -13.150001182242249 0 -13.150001182242249 76.000975758233835 0 0 0 0 -55.441367661293043 6.7526515899262449 0 6.7526515899262449 -111.85682548510522 0 0 0 0 -405.15765777714842 -204.65748645788062 0 -204.65748645788062 -89.611252334951132 0 0 0 0 17.884146970744041 -44.120182661730723 0 -44.120182661730723 -305.34517516450796 0 0 0 0 -528.28477014442615 -190.04459987599876 0 -190.04459987599876 -39.817056796286238 0 0 0 0 29.141952273384959 116.82093001932117 0 116.82093001932117 -86.265556278791337 0 0 0 0 -86.062896382878534 7.2748846642698481 0 7.2748846642698481 17.968454291167291 0 0 0 0 -122.65070177612142 107.74689664868856 0 107.74689664868856 -239.01906967569812 0 0 0 0 -9.6321725953093846 -222.27822694783754 0 -222.27822694783754 -338.43591398325862 0 0 0 0 -630.32225041967467 -110.05617855798937 0 -110.05617855798937 62.286872066848446 0 0 0 0 -617.13980069560785 -41.505194017345275 0 -41.505194017345275 96.023603528930835 0 0 0 0 32.788751720647269 -11.127885551177314 0 -11.127885551177314 -175.08183525107142 0 0 0 0 -0.94360749217712225 -1.3758043562632949 0 -1.3758043562632949 -1.786035312572551 0 0 0 0 5.7422136288276278 -4.331271301991265 0 -4.331271301991265 -10.29348231485374 0 0 0 0 10.290321979788132 9.3901209461446342 0 9.3901209461446342 11.969156072022088 0 0 0 0 -41.697148753555666 32.969053107386571 0 32.969053107386571 1.4156709464859887 0 0 0 0 -43.31332668014511 -15.509640348716857 0 -15.509640348716857 -15.261686848543832 0 0 0 0 -38.080739173544316 2.050411521404385 0 2.050411521404385 -22.841476278028495 0 0 0 0 -39.15240832989366 7.9782299262769811 0 7.9782299262769811 -29.61970277558612 0 0 0 0 -12.737017832831498 -193.94274875286533 0 -193.94274875286533 -143.50711396966653 0 0 0 0 1.5902827858131374 -1.3673713838421264 0 -1.3673713838421264 -6.5101569433088073 0 0 0 0 284.02377343433909 194.43421500367549 0 194.43421500367549 97.023896683735074 0 0 0 0 -0.13200352954663686 -1.3285768168345058 0 -1.3285768168345058 -1.3777590851337962 0 0 0 0 -4.0695390096799642 -10.482620913786533 0 -10.482620913786533 -18.357007955535764 0 0 0 0 4.1048903930459346 -25.406159848615061 0 -25.406159848615061 -39.090360667571076 0 0 0 0 42.846089758506423 85.782893277142648 0 85.782893277142648 -47.771368694688135 0 0 0 0 -3.0906691742129624 103.914696543643 0 103.914696543643 -11.761827337391878 0 0 0 0 -23.667291179750833 -10.323518660657484 0 -10.323518660657484 -16.190538929655865 0 0 0 0 -79.158286705021965 29.848344261095008 0 29.848344261095008 -10.791474290235783 0 0 0 0 -89.538305251605379 -4.5471651667862716 0 -4.5471651667862716 42.101093993402174 0 0 0 0 -16.78324311805769 4.1152916754376534 0 4.1152916754376534 -0.4875934428368538 0 0 0 0 -52.291296630814458 -15.285454160665452 0 -15.285454160665452 -15.821035193538783 0 0 0 0 -76.048929857497569 45.189768432099299 0 45.189768432099299 8.2084679491786119 0 0 0 0 -91.463897719691886 84.450341588593346 0 84.450341588593346 -84.79217759192943 0 0 0 0 -91.914564055499795 96.080734597765513 0 96.080734597765513 25.306940400659187 0 0 0 0 -73.451758530296502 -144.18684074310477 0 -144.18684074310477 -39.172145801488398 0 0 0 0 -357.31376914009161 136.16060630827178 0 136.16060630827178 -86.013412608483122 0 0 0 0 0.57113373870532769 -1.8497429290351555 0 -1.8497429290351555 -2.2332014652770766 0 0 0 0 -23.928727143065771 127.65842717003034 0 127.65842717003034 -32.904944279105621 0 0 0 0 -145.24730670529971 -76.089403138027592 0 -76.089403138027592 -88.156617166941032 0 0 0 0 -408.01136155492941 -164.83565955679444 0 -164.83565955679444 -112.36924623712366 0 0 0 0 -121.70841848002965 -31.638753076554622 0 -31.638753076554622 -5.1111720066910493 0 0 0 0 -72.099791174208804 1.4130453103516629 0 1.4130453103516629 19.100789761139367 0 0 0 0 -282.53756245246404 36.978380431291043 0 36.978380431291043 13.289037386435666 0 0 0 0 -153.45531633474275 6.2812116710406372 0 6.2812116710406372 84.530005775053723 0 0 0 0 -86.522607325371894 10.13064007146594 0 10.13064007146594 10.584921998286639 0 0 0 0 -102.43089518180568 -41.21246696444814 0 -41.21246696444814 -5.0986965241587585 0 0 0 0 -92.038243539107498 -12.647988161881813 0 -12.647988161881813 -22.669735489733284 0 0 0 0 -101.73948432270845 3.907810669625178 0 3.907810669625178 -10.422991814554734 0 0 0 0 -102.38209717642167 -15.460172563913147 0 -15.460172563913147 -21.738557436906376 0 0 0 0 -104.27506738578813 -12.06804756134261 0 -12.06804756134261 -25.408357711627787 0 0 0 0 -93.360655609101755 6.7551750430176796 0 6.7551750430176796 4.5735407188862673 0 0 0 0 -117.71457335878586 -22.690504250210097 0 -22.690504250210097 -35.597871753479012 0 0 0 0 -110.76435814305569 -9.9652725065636361 0 -9.9652725065636361 -32.763200077426518 0 0 0 0 -110.24410136882443 -20.566379509315439 0 -20.566379509315439 -35.363664270006666 0 0 0 0 -131.82563303396455 -7.275485811949693 0 -7.275485811949693 -29.155050855335503 0 0 0 0 -26.288028436454624 -25.136461574656551 0 -25.136461574656551 -37.949467783071213 0 0 0 0 5.168534386995816 -61.845671996002011 0 -61.845671996002011 -76.857253298083378 0 0 0 0 -10.469639722411792 -29.074627112348608 0 -29.074627112348608 -38.008172995660466 0 0 0 0 -138.23588708672651 -56.104608130871839 0 -56.104608130871839 -44.825533920397902 0 0 0 0 -99.287599802421028 -5.5602003777999016 0 -5.5602003777999016 -23.276321616050154 0 0 0 0 -225.94246916240809 -5.2641601485656793 0 -5.2641601485656793 -7.0112710475202675 0 0 0 0 1.3846298181321792 -3.6750248618792156 0 -3.6750248618792156 -15.727512017989238 0 0 0 0 -216.0928685625513 -7.684601988572922 0 -7.684601988572922 -60.542141099076616 0 0 0 0 -72.822321902910517 -79.158124120252069 0 -79.158124120252069 -75.296546748034416 0 0 0 0 7.9880608656276308 -21.182202146026611 0 -21.182202146026611 -40.79964340948618 0 0 0 0 -87.738298493506591 -39.147454115900473 0 -39.147454115900473 -12.440886074937225 0 0 0 0 -103.55228255355723 -44.068667788560333 0 -44.068667788560333 -12.330820797638808 0 0 0 0 -17.991867641724966 -6.6735140891826958 0 -6.6735140891826958 -25.464771347620427 0 0 0 0 -83.342710944803585 5.9956077787578295 0 5.9956077787578295 6.5746229572385424 0 0 0 0 -110.58175663428301 -5.6142857375023141 0 -5.6142857375023141 -33.309060692593221 0 0 0 0 -118.18354436036316 -20.818605421250595 0 -20.818605421250595 -30.040204177770875 0 0 0 0 -144.37895489714174 -9.2232509517867243 0 -9.2232509517867243 -13.818086355349806 0 0 0 0 -110.50406312408268 -7.54701778775609 0 -7.54701778775609 -24.812325920767762 0 0 0 0 -61.593830848272773 -54.486575072991855 0 -54.486575072991855 -27.960712644261889 0 0 0 0 -25.778916568032805 -29.413947562007323 0 -29.413947562007323 -29.44450934730455 0 0 0 0 -92.9080862088922 -28.184737525729588 0 -28.184737525729588 -22.966906283135458 0 0 0 0 -23.161501341840193 -27.3977153880884 0 -27.3977153880884 -33.412346505737474 0 0 0 0 21.857880210329313 -1.4816324010789685 0 -1.4816324010789685 -145.02947400506673 0 0 0 0 -37.482887514852337 -27.251497842212757 0 -27.251497842212757 -30.011890823327803 0 0 0 0 -26.404937194583908 -17.753023161993042 0 -17.753023161993042 -34.548899324619924 0 0 0 0 -24.469998722634045 -25.055609793020722 0 -25.055609793020722 -38.02991907120736 0 0 0 0 -16.413155675436553 -31.180306075222155 0 -31.180306075222155 -32.918117746923478 0 0 0 0 -111.51946865700302 131.69032083209459 0 131.69032083209459 -174.20727692086075 0 0 0 0 -47.303247555799317 44.707739929595846 0 44.707739929595846 -297.36603628045123 0 0 0 0 -188.40169321899884 169.67543205543188 0 169.67543205543188 -185.89790422690749 0 0 0 0 -189.11105980788125 184.65408717605169 0 184.65408717605169 -250.63070776059612 0 0 0 0 -144.35085562759195 100.79659294052908 0 100.79659294052908 -134.25907179194473 0 0 0 0 -203.50583004243344 53.075938444121675 0 53.075938444121675 -148.29607372535975 0 0 0 0 -117.74901374901674 65.961584448503345 0 65.961584448503345 -131.45315862871212 0 0 0 0 -113.26137467712397 71.500511656922754 0 71.500511656922754 -152.90702043328201 0 0 0 0 -157.53075743475347 69.396802057024615 0 69.396802057024615 -132.21073032241839 0 0 0 0 -111.28746363126265 80.241881214752539 0 80.241881214752539 -135.6863790164789 0 0 0 0 -97.634762348556251 41.173286738320712 0 41.173286738320712 -123.64707399452891 0 0 0 0 -65.293887903520954 46.941319904843112 0 46.941319904843112 -128.15339230529207 0 0 0 0 -95.561422357801348 56.971053871729964 0 56.971053871729964 -121.67564356482035 0 0 0 0 -96.047675836598501 65.91739133381634 0 65.91739133381634 -106.36835839269042 0 0 0 0 -111.52896716507166 101.83236780785137 0 101.83236780785137 -142.57102962968202 0 0 0 0 -146.39636308225454 131.23527381282884 0 131.23527381282884 -162.77397984197887 0 0 0 0 -110.23641640448477 101.97793978041591 0 101.97793978041591 -142.89464573394434 0 0 0 0 -51.870323986469884 46.625959345554293 0 46.625959345554293 -178.86110383655523 0 0 0 0 -92.81339951492555 95.69059827289675 0 95.69059827289675 -157.07263376028277 0 0 0 0 -28.281437045254279 7.3743060097349371 0 7.3743060097349371 -121.05177204862412 0 0 0 0 3.9266446518522571 -68.236393045188379 0 -68.236393045188379 -89.323958855740784 0 0 0 0 -91.200374363135779 69.809753825644293 0 69.809753825644293 -131.2991987847854 0 0 0 0 -78.423379203712102 76.299612380520557 0 76.299612380520557 -132.75707364971458 0 0 0 0 -72.33048121444881 -15.059590783570457 0 -15.059590783570457 -25.106915701042453 0 0 0 0 -47.04720137649565 -24.154733266743278 0 -24.154733266743278 -65.511965256686381 0 0 0 0 -62.594457353923644 27.840068527842959 0 27.840068527842959 -95.988712938320532 0 0 0 0 -72.76217487922986 30.108598207720206 0 30.108598207720206 -87.907584722983302 0 0 0 0 -6.8035594613065768 5.0900061964939596 0 5.0900061964939596 -93.799603735897108 0 0 0 0 -73.478716298729523 9.162604413379654 0 9.162604413379654 -55.410400454988121 0 0 0 0 -38.82008842608775 22.986230650945799 0 22.986230650945799 -86.729227376832569 0 0 0 0 -32.095466800041322 -11.671149588391927 0 -11.671149588391927 -23.543912422861467 0 0 0 0 -28.011142652016133 41.018442542761477 0 41.018442542761477 -62.317257450471516 0 0 0 0 -31.426735636820865 -32.935571494809473 0 -32.935571494809473 -55.20244555008523 0 0 0 0 -59.651481436012546 30.563587200616894 0 30.563587200616894 -28.323451684693282 0 0 0 0 -28.002639539518242 -19.839985429927722 0 -19.839985429927722 -27.960212386374952 0 0 0 0 -21.936589897711102 -0.54342420093166766 0 -0.54342420093166766 -13.752612685353437 0 0 0 0 -37.048060079316201 -7.4435948615118832 0 -7.4435948615118832 -8.8840292953818789 0 0 0 0 -79.448477042704326 0.23950219999937872 0 0.23950219999937872 -28.791435037678184 0 0 0 0 -94.205604026392393 53.52417027357933 0 53.52417027357933 -119.56413029173564 0 0 0 0 -43.684366888526711 -2.6792875651008217 0 -2.6792875651008217 -89.484889529394422 0 0 0 0 -89.688968073256547 44.414152438621386 0 44.414152438621386 -104.8205933421159 0 0 0 0 -75.662517910619499 40.911826068590017 0 40.911826068590017 -83.351074020703891 0 0 0 0 -75.538090361398645 39.220310592325404 0 39.220310592325404 -116.65892106646788 0 0 0 0 -70.553031503746752 47.455742293401272 0 47.455742293401272 -160.53545773332007 0 0 0 0 -3.3483415424961862 4.5767967930474498 0 4.5767967930474498 -7.1182674102826802 0 0 0 0 -32.772079822388363 -3.3797499100351018 0 -3.3797499100351018 -53.959645334225357 0 0 0 0 -183.48795062760473 64.335034739628099 0 64.335034739628099 -17.860429457814007 0 0 0 0 -155.0433103926789 -20.304694479755142 0 -20.304694479755142 -14.940448404685412 0 0 0 0 -140.64333349608933 30.670093201566942 0 30.670093201566942 -43.192356771531195 0 0 0 0 -118.46678812695609 -1.5032540834408792 0 -1.5032540834408792 -24.814486659029853 0 0 0 0 -77.270847182910217 9.7343529654736685 0 9.7343529654736685 -5.3837679372385665 0 0 0 0 -22.129606009452758 -9.1000868478098624 0 -9.1000868478098624 -18.815998748511529 0 0 0 0 -98.981851062984788 -17.614291870103898 0 -17.614291870103898 -22.572428935220614 0 0 0 0 -122.23122326990779 -5.5977518684736083 0 -5.5977518684736083 -14.545481422946068 0 0 0 0 -22.220989023992395 -3.2868190939602755 0 -3.2868190939602755 -30.489103142331832 0 0 0 0 -59.566274226330279 7.2502784114835777 0 7.2502784114835777 -52.919305134988008 0 0 0 0 -136.69599454483068 -4.3921858347647174 0 -4.3921858347647174 -22.628076200984196 0 0 0 0 -27.552052297175955 4.1491937338679747 0 4.1491937338679747 -0.80737134715695902 0 0 0 0 -147.9167334415506 15.879302717061535 0 15.879302717061535 8.1286268824178478 0 0 0 0 -163.55039014376234 33.333774444893436 0 33.333774444893436 -1.1956429904985271 0 0 0 0 -26.728623290978462 13.942962680127522 0 13.942962680127522 -6.4224638082482866 0 0 0 0 -437.43762036145199 6.1706382263691921 0 6.1706382263691921 9.7876691978381132 0 0 0 0 134.14103400228487 137.11709318915018 0 137.11709318915018 -125.7071577691604 0 0 0 0 -157.9754250721453 39.775437414476869 0 39.775437414476869 -24.706875597402814 0 0 0 0 -99.622690926258542 10.724870932749592 0 10.724870932749592 -6.3367570590587849 0 0 0 0 -166.08092585374834 -65.986595140893769 0 -65.986595140893769 -69.702696573544017 0 0 0 0 -91.439291557231627 34.064274391507297 0 34.064274391507297 -9.0488452308477463 0 0 0 0 -104.52768042177195 64.323199420297897 0 64.323199420297897 -114.53012768555709 0 0 0 0 -104.59313358859154 33.008929752511435 0 33.008929752511435 16.788158630093232 0 0 0 0 -84.357981274333724 52.930687673981083 0 52.930687673981083 -133.54779508742649 0 0 0 0 -100.0781377551175 31.584868695824753 0 31.584868695824753 6.6079335648666984 0 0 0 0 -135.9592111452439 37.304204165775445 0 37.304204165775445 13.573972653559849 0 0 0 0 -106.8634483404021 28.732690763634537 0 28.732690763634537 38.615282775936976 0 0 0 0 -81.687814359916956 48.206985378810941 0 48.206985378810941 11.347871536803041 0 0 0 0 -19.717772731240743 5.6027875357287371 0 5.6027875357287371 14.776608941747497 0 0 0 0 -34.364735614404019 30.571336901363459 0 30.571336901363459 18.396660051639387 0 0 0 0 -100.16375706834151 -11.768080768083735 0 -11.768080768083735 -16.020156019222668 0 0 0 0 -94.161615981138311 -10.186943053461164 0 -10.186943053461164 -19.301388126467828 0 0 0 0 -108.35972357269566 -13.168733746651412 0 -13.168733746651412 -18.180343303133213 0 0 0 0 -102.4054889779145 -16.273830218621924 0 -16.273830218621924 -23.33237853249102 0 0 0 0 -103.3666989198573 -16.205370916133688 0 -16.205370916133688 -21.542301910339347 0 0 0 0 -107.50001692998921 -12.229713682782858 0 -12.229713682782858 -21.441983615260597 0 0 0 0 -103.9539486020949 -8.9734132113126179 0 -8.9734132113126179 -23.871797087005234 0 0 0 0 -99.208082250421285 -12.685200353359505 0 -12.685200353359505 -24.696975871700488 0 0 0 0 -110.14991073723195 -9.2523747715796105 0 -9.2523747715796105 -17.712446291686319 0 0 0 0 -110.45285466231871 -11.314076169983196 0 -11.314076169983196 -30.179386407398169 0 0 0 0 -100.61202428034429 -6.3382722387980639 0 -6.3382722387980639 -2.6056262107138153 0 0 0 0 -137.77232896740315 32.345355425670505 0 32.345355425670505 31.405741974889338 0 0 0 0 -95.773486205198054 -6.2867467018040148 0 -6.2867467018040148 1.0419615483517379 0 0 0 0 -134.31663104375184 -17.587425968289381 0 -17.587425968289381 105.32794975860054 0 0 0 0 -104.87405365710583 -4.0060854407153101 0 -4.0060854407153101 25.724200391137856 0 0 0 0 -91.426597996545752 -3.4848521662619305 0 -3.4848521662619305 -15.878765676459807 0 0 0 0 -99.867842074825603 -12.914841906851279 0 -12.914841906851279 -18.100093225993533 0 0 0 0 -93.260473930957232 -6.6084962349938223 0 -6.6084962349938223 -6.8901668749213059 0 0 0 0 -90.277035725357081 -5.2744390760944615 0 -5.2744390760944615 0.87102683733299102 0 0 0 0 -115.6162225157168 -21.485020809984462 0 -21.485020809984462 102.90942776713916 0 0 0 0 -79.353956235914666 -5.5611519154716689 0 -5.5611519154716689 -7.0455897912879664 0 0 0 0 -127.14984192588599 -27.266735223643082 0 -27.266735223643082 56.581404320895672 0 0 0 0 -82.92581545936028 -6.3930091837147707 0 -6.3930091837147707 -0.19233119764488249 0 0 0 0 -109.92788877591374 -74.165851568285689 0 -74.165851568285689 26.022419563156063 0 0 0 0 -29.386232315080122 -20.577291962169795 0 -20.577291962169795 -0.72920686900846121 0 0 0 0 21.541336082154885 2.6725624375249026 0 2.6725624375249026 33.059807307352912 0 0 0 0 -70.488108330275281 -0.64337688725186126 0 -0.64337688725186126 -7.2306741281636278 0 0 0 0 -77.907363812504627 -5.8846057789805855 0 -5.8846057789805855 -10.238609085707139 0 0 0 0 -87.992095762485405 -1.2868226207122007 0 -1.2868226207122007 -9.1197413058794154 0 0 0 0 -78.554654232961184 -3.8759396025220667 0 -3.8759396025220667 -14.834983948835315 0 0 0 0 -99.542128495406359 -14.225113418472574 0 -14.225113418472574 10.078929464613793 0 0 0 0 -12.091701469890729 -1.5637506254826405 0 -1.5637506254826405 4.121214364273591 0 0 0 0 -53.701410953763116 10.983236778049104 0 10.983236778049104 -1.1583934529694488 0 0 0 0 -59.38269027022838 -5.0401178824974107 0 -5.0401178824974107 3.5358398325815834 0 0 0 0 -63.513539810825023 -18.435436696759552 0 -18.435436696759552 -14.643604735038934 0 0 0 0 -38.544519630871946 -14.000490304920277 0 -14.000490304920277 0.48108227554234873 0 0 0 0 -48.792502685246291 -7.5605240210970805 0 -7.5605240210970805 -4.7875670083280966 0 0 0 0 -43.342802288031955 -11.332026128962042 0 -11.332026128962042 -5.3531499665537972 0 0 0 0 -37.558265917614449 -13.860521188924491 0 -13.860521188924491 -6.7455720633442722 0 0 0 0 -54.654038206870169 -12.785772834266041 0 -12.785772834266041 -2.3636479078874855 0 0 0 0 -13.26986692581022 -2.9697950604404753 0 -2.9697950604404753 -3.7062645486077379 0 0 0 0 -20.516546680306575 -22.710860731612783 0 -22.710860731612783 -4.8811527284406111 0 0 0 0 -149.56693563022418 -60.281484703994465 0 -60.281484703994465 -1.1242716038493654 0 0 0 0 -50.687118980629748 -34.316949986634199 0 -34.316949986634199 42.635063618752611 0 0 0 0 -159.58567486083484 -141.53084163255789 0 -141.53084163255789 -50.396520569555378 0 0 0 0 -135.27133961456821 9.6736126634076527 0 9.6736126634076527 37.076329217402417 0 0 0 0 -220.50255133671453 103.93955224152796 0 103.93955224152796 9.5972512218607449 0 0 0 0 1.6407425501022033 0.10984930145301064 0 0.10984930145301064 -2.5381446555789715 0 0 0 0 -245.76100315421354 -172.00499321912866 0 -172.00499321912866 0.14675468028235628 0 0 0 0 -11.64769135210372 106.43020356653869 0 106.43020356653869 9.5248380746406838 0 0 0 0 -336.40741997749137 237.10390594583919 0 237.10390594583919 -48.74127358394253 0 0 0 0 -104.05166915128575 -37.49312175593866 0 -37.49312175593866 54.178436730186149 0 0 0 0 -173.66247632015438 115.34025094591789 0 115.34025094591789 -64.718634674648456 0 0 0 0 -202.59928798294277 12.919604125495425 0 12.919604125495425 33.560503353512786 0 0 0 0 -168.44465794434655 75.828215334220204 0 75.828215334220204 -140.99932145816456 0 0 0 0 -186.89154183842038 54.547283082573813 0 54.547283082573813 -29.632845546662793 0 0 0 0 -234.70576009914657 82.269878191665157 0 82.269878191665157 -23.302380059491043 0 0 0 0 -94.077965482099302 -1.6809705024434605 0 -1.6809705024434605 -14.843734587759172 0 0 0 0 -16.417013660630772 -24.995609904679256 0 -24.995609904679256 -10.097089524912221 0 0 0 0 -1.9998526447780023 -126.4586769270154 0 -126.4586769270154 -94.18125597316066 0 0 0 0 -90.490941894298885 -5.0002950129096462 0 -5.0002950129096462 -19.173805644962385 0 0 0 0 -101.99974894051957 -0.80011605278087927 0 -0.80011605278087927 -19.315614356661627 0 0 0 0 -118.25704427759047 -6.8700281153810465 0 -6.8700281153810465 -21.490801931682427 0 0 0 0 59.885633107598551 -10.978682411071077 0 -10.978682411071077 -54.137221745624629 0 0 0 0 -4.434169022537759 -2.7154459373243753 0 -2.7154459373243753 -4.7969107378262379 0 0 0 0 -26.130847593264434 -24.357640137007976 0 -24.357640137007976 -13.250675701026463 0 0 0 0 -58.259469827520661 24.641010169536457 0 24.641010169536457 -25.741773747628031 0 0 0 0 -48.004512174251431 60.424251140109845 0 60.424251140109845 -58.483023336916631 0 0 0 0 -154.6094385170727 44.895116281297419 0 44.895116281297419 -10.187953437949545 0 0 0 0 -27.912824470484338 66.543149506909685 0 66.543149506909685 -56.138376904958022 0 0 0 0 -3.9986694488007686 -0.69887197652244026 0 -0.69887197652244026 1.5505099645430036 0 0 0 0 -303.60385423972184 -28.70930776523528 0 -28.70930776523528 -31.433504469037871 0 0 0 0 -262.44337836463092 87.507523950235736 0 87.507523950235736 -61.566838855063907 0 0 0 0 -187.20765095117167 11.646010834839444 0 11.646010834839444 -17.628753759401661 0 0 0 0 -200.17604281593231 -30.134764646274562 0 -30.134764646274562 -149.70222837182496 0 0 0 0 -219.33860043566892 -33.403305909442906 0 -33.403305909442906 3.8735347126475972 0 0 0 0 -199.47929419024513 -2.6652983008534648 0 -2.6652983008534648 -26.047625506014811 0 0 0 0 -169.92353283736156 -26.810572335113648 0 -26.810572335113648 -7.0634187905270664 0 0 0 0 -104.58464180282317 -10.289801872288081 0 -10.289801872288081 -5.9059413816230517 0 0 0 0 -197.89966758125956 -22.877252234671687 0 -22.877252234671687 10.814937477800413 0 0 0 0 -183.34984558865108 -33.039295872856201 0 -33.039295872856201 3.6982274846122891 0 0 0 0 -100.08881801798971 7.0399761641710796 0 7.0399761641710796 8.867792619160241 0 0 0 0 -190.88175307044548 -30.475172552090839 0 -30.475172552090839 3.6384626533745177 0 0 0 0 -77.161444078909568 16.513794663440748 0 16.513794663440748 1.9148558373548639 0 0 0 0 -137.5107273130925 26.065564692978569 0 26.065564692978569 44.763534713516492 0 0 0 0 -83.906512581448624 95.242602539741711 0 95.242602539741711 -4.5311439771030564 0 0 0 0 -175.65190275918758 -80.429376911265535 0 -80.429376911265535 17.819631240978197 0 0 0 0 -57.657693361794372 -38.628745039442947 0 -38.628745039442947 -9.418927129869644 0 0 0 0 -65.644888032715244 -60.299853342625283 0 -60.299853342625283 -84.090129300761873 0 0 0 0 -45.842380310532462 -20.635474052691279 0 -20.635474052691279 -5.2007686526849284 0 0 0 0 -41.253929521200916 5.2792446729808944 0 5.2792446729808944 -23.941236605614904 0 0 0 0 -59.212642565136775 42.023856240306486 0 42.023856240306486 3.8287465975108717 0 0 0 0 -100.86431832754897 -15.949056422177819 0 -15.949056422177819 54.9723903758495 0 0 0 0 -70.861503361158753 7.8044454911496146 0 7.8044454911496146 3.8610165621582304 0 0 0 0 -69.783779086457116 -23.165878871998473 0 -23.165878871998473 0.27055556305532136 0 0 0 0 -42.685833564086352 -10.938008655637532 0 -10.938008655637532 15.070971458291751 0 0 0 0 -47.363965632356901 1.3567835178968366 0 1.3567835178968366 5.9107153397003174 0 0 0 0 -54.47161666287866 17.78031337113589 0 17.78031337113589 -5.5231764675136219 0 0 0 0 -348.14969403825944 193.50981615479077 0 193.50981615479077 -102.53500780099995 0 0 0 0 -299.96821122272604 163.42250897661359 0 163.42250897661359 -255.85406341176531 0 0 0 0 -90.261632921041382 215.38415233671412 0 215.38415233671412 -322.27709578008944 0 0 0 0 -100.35612662018571 206.22477315048866 0 206.22477315048866 -317.76058100568298 0 0 0 0 -537.7716312045518 321.45394012800443 0 321.45394012800443 -120.298171659133 0 0 0 0 -147.18610782459859 390.34429443608974 0 390.34429443608974 -398.61636866671506 0 0 0 0 -739.68492281140698 450.94382631675126 0 450.94382631675126 -183.09406685272552 0 0 0 0 -194.9980553145524 -14.139549916690157 0 -14.139549916690157 -22.501708444360702 0 0 0 0 -123.91130118391347 -45.292951499410343 0 -45.292951499410343 15.961217556434089 0 0 0 0 -195.0579145621108 -63.292667201746518 0 -63.292667201746518 12.647653166537566 0 0 0 0 -193.46817765098967 -51.567903996378845 0 -51.567903996378845 -15.371220961385688 0 0 0 0 -195.15553149813576 -68.361748384912516 0 -68.361748384912516 41.619451049306008 0 0 0 0 -114.95242412504319 -49.572482342767259 0 -49.572482342767259 15.461742985781978 0 0 0 0 -205.25918120035203 -41.169395998450454 0 -41.169395998450454 41.223493070883706 0 0 0 0 -202.1388625095824 -39.201725567024823 0 -39.201725567024823 37.186201217202324 0 0 0 0 -201.7849103542685 -32.80203062235023 0 -32.80203062235023 -27.484512393271871 0 0 0 0 -204.7703784581463 -29.814295072030291 0 -29.814295072030291 14.630196914058899 0 0 0 0 -198.96685901590536 36.250110792672785 0 36.250110792672785 -57.223085824913142 0 0 0 0 -206.49400443907507 35.941579075597929 0 35.941579075597929 38.089141724280438 0 0 0 0 -254.62470476044837 -11.030685309341152 0 -11.030685309341152 180.60503755022637 0 0 0 0 -114.28879249024871 -48.884280720765204 0 -48.884280720765204 14.930630441360663 0 0 0 0 -124.53018249638626 -144.55997956650799 0 -144.55997956650799 162.17546093542023 0 0 0 0 -217.88506812176456 153.86729501116361 0 153.86729501116361 -254.86357850428476 0 0 0 0 3.580438512017281 -402.94372530356679 0 -402.94372530356679 271.25462723381406 0 0 0 0 -534.06514333438099 -170.41355895136144 0 -170.41355895136144 255.2358668683537 0 0 0 0 -209.84768571919449 40.772961234454101 0 40.772961234454101 85.26979363699229 0 0 0 0 -354.98161595869169 41.379382157820146 0 41.379382157820146 87.975873002188109 0 0 0 0 -273.16043545872162 139.52442099621635 0 139.52442099621635 -53.32832195157971 0 0 0 0 -396.59976694649959 -133.46691559214833 0 -133.46691559214833 -106.51763615206301 0 0 0 0 -253.58001216558478 53.761408589954499 0 53.761408589954499 -194.75116107217491 0 0 0 0 -177.8826538088033 66.421410222570785 0 66.421410222570785 -37.798696574898713 0 0 0 0 -124.26297016763419 60.24156851151929 0 60.24156851151929 -40.182383890810343 0 0 0 0 -251.1225666997052 99.490945881841071 0 99.490945881841071 17.400883631358795 0 0 0 0 -213.81697173391694 47.618098251121523 0 47.618098251121523 19.78616078795676 0 0 0 0 -225.97379044411355 106.64970641422815 0 106.64970641422815 -108.31972653842877 0 0 0 0 -227.73019042646047 110.15130794606557 0 110.15130794606557 -66.044734843592323 0 0 0 0 -205.68051829247997 111.54727250540645 0 111.54727250540645 -106.30224536015157 0 0 0 0 -195.96569108738913 95.081700807199468 0 95.081700807199468 -58.993476668903895 0 0 0 0 -254.99020428869699 56.146954566341719 0 56.146954566341719 -47.200549793476966 0 0 0 0 60.034686057573708 21.601033278089744 0 21.601033278089744 -118.70338305111454 0 0 0 0 1.6510615634078505 -1.7381432575129594 0 -1.7381432575129594 0.21411351835691406 0 0 0 0 -190.60673003868214 120.89383509019058 0 120.89383509019058 -62.128374941608854 0 0 0 0 -206.32860916032223 106.84810121564715 0 106.84810121564715 -69.878167944061261 0 0 0 0 -203.59199927456939 30.47761128403863 0 30.47761128403863 15.582587566970687 0 0 0 0 -176.56603761887527 -10.367593336743539 0 -10.367593336743539 9.1713580935370373 0 0 0 0 -290.72978748759488 80.685800864656812 0 80.685800864656812 -87.150452130465283 0 0 0 0 -179.36500804268144 133.7944408089952 0 133.7944408089952 -151.13809570471585 0 0 0 0 -125.3760987543501 58.656044040898905 0 58.656044040898905 -103.2377480969464 0 0 0 0 -115.37649169609358 25.539169285336357 0 25.539169285336357 113.56495718619658 0 0 0 0 -16.99474014480802 -30.756486106971693 0 -30.756486106971693 -52.795021876245301 0 0 0 0 -26.915849541068212 -4.0103878131149742 0 -4.0103878131149742 2.2168467691661293 0 0 0 0 -90.047447606481001 -11.498811136819825 0 -11.498811136819825 16.564562821229174 0 0 0 0 -97.813457005984674 -24.940412524896487 0 -24.940412524896487 18.484260506276541 0 0 0 0 -100.79256280023765 -21.205788194948695 0 -21.205788194948695 42.454141096550075 0 0 0 0 -87.268523747174186 -13.11920784052063 0 -13.11920784052063 -7.1709878193632903 0 0 0 0 -322.03136244107009 -174.81881185249881 0 -174.81881185249881 -406.36859793065832 0 0 0 0 -734.35542257787893 -263.73438882710388 0 -263.73438882710388 -117.54889555879572 0 0 0 0 -579.26329098795395 292.78337534654497 0 292.78337534654497 -59.12034165035675 0 0 0 0 -1159.5453784707206 -415.0855806325319 0 -415.0855806325319 -150.46209004052594 0 0 0 0 -1.0314334222108812 3.3815803486840466 0 3.3815803486840466 -4.5268551256663523 0 0 0 0 -86.139101393120654 256.63852684809052 0 256.63852684809052 -179.65216159720239 0 0 0 0 -367.09568689097068 217.83978607716745 0 217.83978607716745 -180.24993525899345 0 0 0 0 -789.08417393016862 -97.011447442184817 0 -97.011447442184817 768.45189614334686 0 0 0 0 -101.87299015496382 -3.0640944556982532 0 -3.0640944556982532 3.1930753665610085 0 0 0 0 -666.1999975069848 -72.412472177316317 0 -72.412472177316317 346.43368236805964 0 0 0 0 -159.2850400603711 21.782786933699981 0 21.782786933699981 -22.457778504792714 0 0 0 0 -111.42707351526769 -48.692017471543295 0 -48.692017471543295 -56.683970598365704 0 0 0 0 -113.78233236283268 0.1517830122804753 0 0.1517830122804753 -79.061007547659756 0 0 0 0 -178.68331213570491 92.489810692342417 0 92.489810692342417 32.961645722380126 0 0 0 0 -275.8399938934599 -45.828919780598881 0 -45.828919780598881 -30.586636512168297 0 0 0 0 -248.02491272272891 -71.127154525688638 0 -71.127154525688638 -74.446181788809554 0 0 0 0 -214.23165454700938 -2.5952644885105656 0 -2.5952644885105656 -42.880232211749899 0 0 0 0 -1663.0760487675143 958.29214498131387 0 958.29214498131387 210.13820997439234 0 0 0 0 -790.01533481094521 -133.89268703379912 0 -133.89268703379912 70.682911095816962 0 0 0 0 -448.17778864741558 -296.90239322544403 0 -296.90239322544403 -120.53714137110751 0 0 0 0 -494.56604605156463 -57.240831451410486 0 -57.240831451410486 57.333695270302542 0 0 0 0 -480.94486372364918 -47.97484724374408 0 -47.97484724374408 46.253579203393201 0 0 0 0 -460.12272203050088 -143.35851865136738 0 -143.35851865136738 -34.181176245356937 0 0 0 0 -324.3009222419787 -52.912680357321278 0 -52.912680357321278 9.7677970490722146 0 0 0 0 -327.7709171273309 -43.200774145970513 0 -43.200774145970513 -6.3480851065778552 0 0 0 0 -424.22336979664396 -59.768439885546741 0 -59.768439885546741 25.900481815764124 0 0 0 0 -345.5599151642673 -12.509273627359107 0 -12.509273627359107 45.904741668225142 0 0 0 0 -408.37727202092356 -5.7171985556378786 0 -5.7171985556378786 45.636650193617015 0 0 0 0 -408.29490789042029 -13.88792004352581 0 -13.88792004352581 76.971810103994812 0 0 0 0 -412.41693869109804 -23.537075515304423 0 -23.537075515304423 67.239015691058739 0 0 0 0 -436.08877518952067 -24.143231580449537 0 -24.143231580449537 73.826915850627302 0 0 0 0 -280.85939705579221 81.326196687064567 0 81.326196687064567 -27.679522100167063 0 0 0 0 -0.34804532147271061 -0.60733995243772654 0 -0.60733995243772654 0.22754832719408213 0 0 0 0 -272.32793124198361 32.450276385322923 0 32.450276385322923 3.5050230789552188 0 0 0 0 -288.27375542608206 27.369002762618493 0 27.369002762618493 3.0257889210570283 0 0 0 0 -296.75173334113788 -28.215489927579711 0 -28.215489927579711 -1.9576226510507695 0 0 0 0 -153.58526262208761 60.642235178708233 0 60.642235178708233 -26.864149155218911 0 0 0 0 -172.07125607582566 31.057149621003646 0 31.057149621003646 12.476725442033967 0 0 0 0 -229.0002788595084 4.3020368651441458 0 4.3020368651441458 -5.3469031178110527 0 0 0 0 -208.4508734177798 62.257398692331662 0 62.257398692331662 10.564076229843522 0 0 0 0 -218.52965763647808 -16.634936878250755 0 -16.634936878250755 11.094103501654899 0 0 0 0 -240.77834367073956 35.89603014425802 0 35.89603014425802 42.338481556682382 0 0 0 0 -247.44086466694716 11.59661720100712 0 11.59661720100712 2.8948164955818356 0 0 0 0 -232.56090020289412 43.961888974173235 0 43.961888974173235 27.631256008819491 0 0 0 0 -524.81916616298986 -234.6633316862733 0 -234.6633316862733 139.72186726093059 0 0 0 0 -103.78047568516166 2.7471496384873948 0 2.7471496384873948 1.7528330685078486 0 0 0 0 -244.59109826461645 53.154050126137008 0 53.154050126137008 113.40022472022247 0 0 0 0 -58.605298817521543 8.9861720019212044 0 8.9861720019212044 8.5713700817136669 0 0 0 0 -59.056861815811629 9.4382136724937791 0 9.4382136724937791 0.029112525448753868 0 0 0 0 -63.617755802019019 13.630649205556139 0 13.630649205556139 0.99519715984039614 0 0 0 0 -69.151413839033921 5.2391303856011291 0 5.2391303856011291 4.3249653634577498 0 0 0 0 -47.631152435256496 3.6538416504997571 0 3.6538416504997571 5.3168580307766966 0 0 0 0 -72.062934458750533 8.1888353110725802 0 8.1888353110725802 1.3469121236194042 0 0 0 0 -64.887722981555271 9.1544164532142531 0 9.1544164532142531 -9.9346624401841837 0 0 0 0 -22.784840849183524 -14.997052821449387 0 -14.997052821449387 1.8604406268440528 0 0 0 0 -61.448486512941599 -7.1204937161678572 0 -7.1204937161678572 -3.2287007494742284 0 0 0 0 -26.529291629981515 -7.3947995245318054 0 -7.3947995245318054 -1.9330817326292014 0 0 0 0 -63.603729338326957 4.8083249537139636 0 4.8083249537139636 -1.9801367657928495 0 0 0 0 -52.615430929326976 -3.7544926178011337 0 -3.7544926178011337 -4.4466361789632174 0 0 0 0 -34.327136004852946 -3.5309032120126176 0 -3.5309032120126176 -0.83765231213146762 0 0 0 0 -48.497476522530036 -0.47543107366972492 0 -0.47543107366972492 -0.58143339966545859 0 0 0 0 -85.511942643031944 -12.601782547970288 0 -12.601782547970288 -2.3843778075643058 0 0 0 0 -6.2972239329294553 -4.3768197451640845 0 -4.3768197451640845 0.77459722557518873 0 0 0 0 -14.743861288416667 -2.0910239192026268 0 -2.0910239192026268 -0.14349639608219178 0 0 0 0 -64.541774200843065 35.876133666625719 0 35.876133666625719 -2.9902548188629225 0 0 0 0 -140.27484059012204 -14.014221501704924 0 -14.014221501704924 16.068675499697747 0 0 0 0 -103.24677166090987 48.698329411897703 0 48.698329411897703 2.5183804954531297 0 0 0 0 -49.188839076674952 21.52978280889478 0 21.52978280889478 -2.9253847525476466 0 0 0 0 -121.16485633105924 -41.974488919106747 0 -41.974488919106747 -10.260385879645582 0 0 0 0 -52.448066574077529 -42.775188115187802 0 -42.775188115187802 -10.55727240689248 0 0 0 0 -34.596144325216187 18.105988362229265 0 18.105988362229265 2.4823939670714026 0 0 0 0 -120.75520090454665 -82.253854911416965 0 -82.253854911416965 -10.048554569662429 0 0 0 0 -9.116230104488892 3.87142653407453 0 3.87142653407453 -10.050737446882382 0 0 0 0 -126.72349228180246 -21.569166469509582 0 -21.569166469509582 -48.711273648360475 0 0 0 0 7.17363608414027 2.705471770391199 0 2.705471770391199 -6.3568848642557363 0 0 0 0 -35.508044427871937 21.678450053832421 0 21.678450053832421 -39.708122443416869 0 0 0 0 -15.286927651613951 -5.3199475702494965 0 -5.3199475702494965 -5.0854028806209044 0 0 0 0 -1.563125304030109 3.9498286819861619 0 3.9498286819861619 -7.315933808006033 0 0 0 0 8.7534188930585515 16.862966055337438 0 16.862966055337438 -20.357456926953091 0 0 0 0 -95.957929495169083 -68.865725416392934 0 -68.865725416392934 -58.506923753825959 0 0 0 0 -139.20861966358643 -78.430027778376598 0 -78.430027778376598 -53.135371605785167 0 0 0 0 2.2251168689981569 -5.3787906696616119 0 -5.3787906696616119 -12.957742821776264 0 0 0 0 -16.111903191325837 -2.3316464029285271 0 -2.3316464029285271 -7.0085638294008277 0 0 0 0 -53.603451315953862 -22.526760679395011 0 -22.526760679395011 -28.422373038624755 0 0 0 0 -17.842645928365528 3.9602369663264199 0 3.9602369663264199 -11.386713807931301 0 0 0 0 -14.093240665606572 5.8409571550701003 0 5.8409571550701003 -5.869766215060281 0 0 0 0 -42.898370035691187 -5.1620229251011551 0 -5.1620229251011551 -4.6942368832858392 0 0 0 0 -2.6238998419212294 -5.6718096129634432 0 -5.6718096129634432 -2.7291709862302014 0 0 0 0 -4.8726399032311747 -9.150751799767022 0 -9.150751799767022 -5.5661656418328675 0 0 0 0 4.2493664167523093 0.098748163744630801 0 0.098748163744630801 -4.7890821213513846 0 0 0 0 -3.2556688983963795 -1.5410115834033036 0 -1.5410115834033036 -1.0805169009937394 0 0 0 0 -6.2763241295924956 -0.037040578183777484 0 -0.037040578183777484 0.85295624866670039 0 0 0 0 -86.07228091210709 44.955530872530289 0 44.955530872530289 -18.649913084056607 0 0 0 0 -36.825387342769318 10.539538424853788 0 10.539538424853788 -7.9653538096645207 0 0 0 0 -102.83417522029777 20.950195085686573 0 20.950195085686573 -14.647389665722585 0 0 0 0 -38.992023973973119 23.312369419381412 0 23.312369419381412 -37.051432833471154 0 0 0 0 -69.104528731932078 10.744976659203758 0 10.744976659203758 -2.0031049427525431 0 0 0 0 -39.631863237620564 17.308585165143995 0 17.308585165143995 0.643758691546509 0 0 0 0 -43.185368989448762 17.877861467651201 0 17.877861467651201 0.56409577259546495 0 0 0 0 -35.98435723700095 11.769274016513009 0 11.769274016513009 -2.2302084558976958 0 0 0 0 -40.536338498233818 20.36015214975555 0 20.36015214975555 -1.2157177518865865 0 0 0 0 -38.131285349270911 19.403099494265916 0 19.403099494265916 -0.9370290960237071 0 0 0 0 -25.1823837969132 1.5625592455726292 0 1.5625592455726292 -5.6813359699235662 0 0 0 0 -73.342034504197727 -8.6163600307801289 0 -8.6163600307801289 -7.7573019051696974 0 0 0 0 -20.69556736175582 16.415764992152845 0 16.415764992152845 -10.064092485562014 0 0 0 0 -1.0151971684051091 -0.09436649456182522 0 -0.09436649456182522 0.12409765693817043 0 0 0 0 -12.206458513115649 37.453609432080611 0 37.453609432080611 -31.985587039490383 0 0 0 0 -55.930113781469117 32.09998991304542 0 32.09998991304542 -12.615423344985402 0 0 0 0 -25.289478784281528 -18.928940628278724 0 -18.928940628278724 -38.406375696969917 0 0 0 0 -52.577143094269559 46.234845794850571 0 46.234845794850571 -36.743479780295061 0 0 0 0 -2.1875835215824964 -0.89854065754563806 0 -0.89854065754563806 -0.35288179773981909 0 0 0 0 -21.182840844314796 0.20405245880092693 0 0.20405245880092693 2.7014885815997332 0 0 0 0 -7.7484850871842355 -4.8084211893524298 0 -4.8084211893524298 -8.2214681041300537 0 0 0 0 -8.3589770239341306 30.153699956366836 0 30.153699956366836 -46.613147604758524 0 0 0 0 -52.040653981021023 48.853791504106084 0 48.853791504106084 -9.9599976872268599 0 0 0 0 -12.124065828449602 19.905238830663166 0 19.905238830663166 -29.754222978000143 0 0 0 0 -27.104110764383222 7.881138974442365 0 7.881138974442365 39.957697327228288 0 0 0 0 -23.181013301145867 30.446414179945748 0 30.446414179945748 39.836626909596816 0 0 0 0 -14.366505899859476 2.1830202002577153 0 2.1830202002577153 58.727390336234748 0 0 0 0 -44.257946073434141 14.56897545109382 0 14.56897545109382 127.00178361581584 0 0 0 0 -34.483633566997014 38.856350487815916 0 38.856350487815916 64.504515910605505 0 0 0 0 -102.3626286736453 51.098458430208609 0 51.098458430208609 229.97162639623025 0 0 0 0 -27.64408880622068 -51.505261400728841 0 -51.505261400728841 27.271390468728441 0 0 0 0 -32.420380794395896 42.149267646226292 0 42.149267646226292 153.57922121548381 0 0 0 0 -52.244957524511847 7.0920733955063042 0 7.0920733955063042 182.37505823266429 0 0 0 0 35.341717352595879 165.167795734724 0 165.167795734724 273.11651879901024 0 0 0 0 -13.090389653746854 4.0114364448804309 0 4.0114364448804309 -0.460654335049 0 0 0 0 0.4193702414559084 8.2173975497330503 0 8.2173975497330503 9.1737950273533215 0 0 0 0 -62.305771777958398 380.2331446025504 0 380.2331446025504 103.86066307885358 0 0 0 0 -559.8145547133463 231.75460958278381 0 231.75460958278381 121.73791117959627 0 0 0 0 -5.4682802687773346 1.7292616562016576 0 1.7292616562016576 -0.38933943293946705 0 0 0 0 -754.21232598563074 -322.91306100838528 0 -322.91306100838528 -27.18414489236784 0 0 0 0 -854.7411304935813 128.30582749143514 0 128.30582749143514 68.707204591933305 0 0 0 0 -338.95352294086479 8.8736236434563125 0 8.8736236434563125 -165.7914842104833 0 0 0 0 -581.13974021127797 -117.46825282006341 0 -117.46825282006341 87.860819885791443 0 0 0 0 -476.23137421703723 28.310063121372878 0 28.310063121372878 139.85943497755852 0 0 0 0 -677.87051939613593 -6.9115240597249112 0 -6.9115240597249112 135.14292985951397 0 0 0 0 -437.40898197765637 -94.657824978110739 0 -94.657824978110739 79.79233901317366 0 0 0 0 -492.44513729846221 -63.307133470366807 0 -63.307133470366807 69.540479971259629 0 0 0 0 -409.91295552926385 -23.92359077625548 0 -23.92359077625548 88.293344007111955 0 0 0 0 -362.59428804277195 25.906633049641187 0 25.906633049641187 66.976798860235249 0 0 0 0 -346.79388754144929 58.135162221294081 0 58.135162221294081 11.745710077996591 0 0 0 0 -197.06465002507321 68.063054707873334 0 68.063054707873334 13.720908537309015 0 0 0 0 -176.18944183859276 96.653856114409109 0 96.653856114409109 15.416662562138299 0 0 0 0 -293.19695659653371 -49.760134470015828 0 -49.760134470015828 79.371636842398402 0 0 0 0 -179.10385242824123 34.120244398119212 0 34.120244398119212 122.27041222690764 0 0 0 0 -82.438636939979915 39.797286704224007 0 39.797286704224007 113.74839068761912 0 0 0 0 -78.319517944420113 20.55928955094771 0 20.55928955094771 60.737923415530531 0 0 0 0 -27.910486812696035 23.447867425125651 0 23.447867425125651 28.667721522947886 0 0 0 0 34.585328531578853 90.937422623542034 0 90.937422623542034 51.185450301303717 0 0 0 0 -138.54082324067713 32.8837019392804 0 32.8837019392804 93.667228702415287 0 0 0 0 -141.97603960488595 11.452534378212277 0 11.452534378212277 38.604633593354265 0 0 0 0 -177.52544881196809 0.94694286498724978 0 0.94694286498724978 86.156261404501493 0 0 0 0 -175.81110946346598 16.762503832872881 0 16.762503832872881 51.983621761476115 0 0 0 0 -174.75097048176394 28.049814991941957 0 28.049814991941957 -2.8915153480975277 0 0 0 0 1.0260795083182757 -0.086760214135892966 0 -0.086760214135892966 0.012654092725270516 0 0 0 0 -204.92351745181077 19.780622181939407 0 19.780622181939407 43.480120048790923 0 0 0 0 -135.30039189213858 -20.732134856457151 0 -20.732134856457151 20.479240973176729 0 0 0 0 -174.28897088293161 2.3828167725921503 0 2.3828167725921503 31.642679655987422 0 0 0 0 -157.77527587076474 -41.475534730767663 0 -41.475534730767663 18.071871723467666 0 0 0 0 -200.6316597356963 -42.552117565757385 0 -42.552117565757385 53.633156323362527 0 0 0 0 -162.6397011493973 -46.111035749939333 0 -46.111035749939333 18.204125748721253 0 0 0 0 -94.817063960072119 -57.184728672237725 0 -57.184728672237725 -20.777177803175391 0 0 0 0 -0.61335388570215343 0.50638125646520393 0 0.50638125646520393 -0.55367555231230448 0 0 0 0 -63.876876308699138 -6.8925705152998944 0 -6.8925705152998944 -50.526489235052622 0 0 0 0 -130.99269507724966 -47.448304795959757 0 -47.448304795959757 -77.687905179110089 0 0 0 0 -196.15199913817924 -19.898504899275395 0 -19.898504899275395 -38.096650086352383 0 0 0 0 -167.32936034121667 7.9822966759020346 0 7.9822966759020346 -59.252172864544718 0 0 0 0 -127.43536748695624 -8.8619024938499251 0 -8.8619024938499251 -56.96634991544488 0 0 0 0 -161.8408232487709 -10.097555957630902 0 -10.097555957630902 5.6678858472432694 0 0 0 0 -181.21127800997056 6.5931226724699172 0 6.5931226724699172 -3.7662338537211326 0 0 0 0 -181.40318302930064 9.7498809179946306 0 9.7498809179946306 -42.455607432170837 0 0 0 0 -117.47308541123493 -39.670912302745307 0 -39.670912302745307 -15.124403556957077 0 0 0 0 -79.996919620178232 29.823398876247211 0 29.823398876247211 1.6139052572461878 0 0 0 0 -0.49276996285774999 0.37874828918896242 0 0.37874828918896242 -0.14948226705703149 0 0 0 0 -129.63250649510883 45.396228466076764 0 45.396228466076764 7.8859661118912925 0 0 0 0 -142.09410429729905 59.462955539589757 0 59.462955539589757 -7.3682622614669526 0 0 0 0 -163.94238371685424 21.377760672918498 0 21.377760672918498 29.623780428287319 0 0 0 0 -113.5969972877574 -2.3522629250193177 0 -2.3522629250193177 -12.959016960413464 0 0 0 0 -205.50928834608203 10.696094676540952 0 10.696094676540952 -3.5799242354873968 0 0 0 0 -175.40119717521156 26.09417222299885 0 26.09417222299885 -15.230033092017038 0 0 0 0 -137.77353418646817 7.4677470379326678 0 7.4677470379326678 -26.638043063047007 0 0 0 0 -112.27501192012278 24.050168109503375 0 24.050168109503375 39.828941625132757 0 0 0 0 -116.87134474185586 -11.531530587917132 0 -11.531530587917132 -0.47006800191275033 0 0 0 0 -90.265024132602775 -42.993545653776295 0 -42.993545653776295 16.83344399379439 0 0 0 0 -170.96923748048721 -48.863150959518634 0 -48.863150959518634 -24.978463329692659 0 0 0 0 -0.88191319573579108 1.5285647221993628 0 1.5285647221993628 -4.6742442739690055 0 0 0 0 -116.95335905304819 -59.759878278412316 0 -59.759878278412316 -51.708284356319837 0 0 0 0 -196.40427609151811 -82.12258136662922 0 -82.12258136662922 -56.019501888866216 0 0 0 0 -191.08481751724139 -75.18753694972176 0 -75.18753694972176 -49.717776722076451 0 0 0 0 -209.03054635712761 -6.9113007549990471 0 -6.9113007549990471 -29.182732868569019 0 0 0 0 -195.01141700681183 -12.401475035062504 0 -12.401475035062504 -36.877993808866449 0 0 0 0 -262.60531955870101 -18.969181903303252 0 -18.969181903303252 -36.089957461960921 0 0 0 0 -246.71212321848725 -24.866924786469099 0 -24.866924786469099 -50.827147274031631 0 0 0 0 -222.68480547906074 15.138698932308216 0 15.138698932308216 -82.529312052687601 0 0 0 0 -239.94388498109765 -20.670727280126812 0 -20.670727280126812 -69.468665829531801 0 0 0 0 -243.86086892156163 -5.7931617793947225 0 -5.7931617793947225 -124.07210904244403 0 0 0 0 -335.71258088826653 17.881679712638515 0 17.881679712638515 -70.135614530674502 0 0 0 0 15.947500977468735 80.152508101217279 0 80.152508101217279 -124.82077046779705 0 0 0 0 -362.49828122246799 -152.9183920867041 0 -152.9183920867041 -74.456438764624181 0 0 0 0 -1.0909597332278054 0.071930338421694273 0 0.071930338421694273 -1.3202718001473954 0 0 0 0 -491.42698353616288 -160.19607040991468 0 -160.19607040991468 -51.87817015270366 0 0 0 0 -186.3593657866877 -80.726789220902447 0 -80.726789220902447 -63.819048670860866 0 0 0 0 -194.64979423253681 -102.39512561597803 0 -102.39512561597803 -67.340353104370479 0 0 0 0 -262.90358993776198 -98.66396147754007 0 -98.66396147754007 -56.775845680915154 0 0 0 0 -52.666156017396133 48.272361799687587 0 48.272361799687587 -77.865425745041648 0 0 0 0 22.528041594021488 0.42766534866314032 0 0.42766534866314032 -116.60656287856546 0 0 0 0 -174.10296008305158 170.36806124284044 0 170.36806124284044 -131.89736990861638 0 0 0 0 -105.84498870273819 51.972991486294632 0 51.972991486294632 -61.128069408258852 0 0 0 0 -457.81649120610382 75.518916059376977 0 75.518916059376977 -142.4304073532885 0 0 0 0 -188.1529018405854 -35.560538781197465 0 -35.560538781197465 -179.73397901044189 0 0 0 0 -185.37874999862561 -78.940506520057895 0 -78.940506520057895 -84.87262031526916 0 0 0 0 -342.91883439201774 -24.872993062198816 0 -24.872993062198816 -19.278315298880443 0 0 0 0 -146.03435980599897 -0.27899306821336722 0 -0.27899306821336722 -30.13672468871323 0 0 0 0 -174.84235639954568 -11.147942661833667 0 -11.147942661833667 33.356305948836962 0 0 0 0 -183.11273987440654 24.620702747916994 0 24.620702747916994 20.272393242015823 0 0 0 0 -90.849919453004986 10.966951870270805 0 10.966951870270805 60.555634101847318 0 0 0 0 -92.709417367470451 24.62386452407145 0 24.62386452407145 15.641119925438829 0 0 0 0 -89.695565702320891 19.193862278814777 0 19.193862278814777 120.28847023471917 0 0 0 0 -45.629215866138111 -8.3573716025186968 0 -8.3573716025186968 68.464662105066964 0 0 0 0 -99.104167638375657 0.77688232442869776 0 0.77688232442869776 84.764917560974254 0 0 0 0 -105.24457695338788 -9.9808409661470705 0 -9.9808409661470705 135.49982041710336 0 0 0 0 -134.85431333965971 -33.279904789704233 0 -33.279904789704233 44.738889366170952 0 0 0 0 -115.263479714602 4.5124679330110666 0 4.5124679330110666 84.014798144688484 0 0 0 0 -76.251688991651463 -32.15260654237477 0 -32.15260654237477 2.1349943219006491 0 0 0 0 -136.8801132603221 -39.27746266886038 0 -39.27746266886038 66.565750577539802 0 0 0 0 -107.52898147766246 -18.835044800480318 0 -18.835044800480318 121.25979732463566 0 0 0 0 -86.657472655599122 -0.67963592460000655 0 -0.67963592460000655 87.910630137052522 0 0 0 0 -81.12755878975986 -38.159753756388824 0 -38.159753756388824 55.610099293287021 0 0 0 0 -103.36613719564775 -20.249403149478439 0 -20.249403149478439 130.11665404282576 0 0 0 0 -79.451973895033007 -14.767764744034594 0 -14.767764744034594 46.193813173886156 0 0 0 0 -83.217435049809865 -51.73467244539961 0 -51.73467244539961 -34.822185844150226 0 0 0 0 -126.53427283841302 -64.575802931899943 0 -64.575802931899943 -7.4029001891467487 0 0 0 0 -120.36991232200671 -69.490652763078742 0 -69.490652763078742 -34.379212390689645 0 0 0 0 -108.90227925028739 -29.048692362332986 0 -29.048692362332986 -76.516269096109681 0 0 0 0 -120.2222825844874 -75.256236952546715 0 -75.256236952546715 -48.921739360256652 0 0 0 0 -142.93711535511829 -40.463625960759146 0 -40.463625960759146 -50.455815753620527 0 0 0 0 -166.29526757267013 1.4259864716275388 0 1.4259864716275388 -134.16989366977668 0 0 0 0 -0.44459883099158048 0.22518936296904712 0 0.22518936296904712 -0.53316871640637586 0 0 0 0 -76.376629636048165 -59.339000749046818 0 -59.339000749046818 -49.962694522262154 0 0 0 0 -132.72950599651813 -78.982844072855642 0 -78.982844072855642 -53.748894743231631 0 0 0 0 -216.38934933699784 -101.87070602504696 0 -101.87070602504696 -3.9290738656210351 0 0 0 0 -0.32115277382004592 0.072094311235446185 0 0.072094311235446185 -0.15137806771736884 0 0 0 0 -118.37318950281042 -49.486657154886302 0 -49.486657154886302 -33.079277086265847 0 0 0 0 -139.77640672621783 -75.917099383082132 0 -75.917099383082132 -21.514874608839364 0 0 0 0 -73.533103678855696 -72.905727177793722 0 -72.905727177793722 -38.622686091182459 0 0 0 0 -76.427295631230663 -83.86241436115337 0 -83.86241436115337 -28.92930340550356 0 0 0 0 -2.4798128882466699 -3.3363412336709644 0 -3.3363412336709644 0.62338243405702087 0 0 0 0 -110.09252260386711 -10.58941194080694 0 -10.58941194080694 200.51844615833761 0 0 0 0 -11.617979260682432 -2.8241502205358273 0 -2.8241502205358273 -0.36751872773852945 0 0 0 0 -24.112343156084535 -43.627862437788053 0 -43.627862437788053 -33.633885531301985 0 0 0 0 -310.79379410825641 -527.7584119265025 0 -527.7584119265025 73.278420690437542 0 0 0 0 -1286.7708949394437 37.68062194295635 0 37.68062194295635 128.18849543552915 0 0 0 0 -676.94018586683524 109.07783579450916 0 109.07783579450916 53.03403720575443 0 0 0 0 -424.89387867624464 -38.941610669452757 0 -38.941610669452757 32.592857517083303 0 0 0 0 -218.28498280667554 -229.68290528430771 0 -229.68290528430771 -115.96831791663271 0 0 0 0 -430.3350618870536 -52.080578244995422 0 -52.080578244995422 21.247052589803388 0 0 0 0 -214.44557637283333 -68.156044307296099 0 -68.156044307296099 16.825100923875198 0 0 0 0 -234.32441790059966 81.775418171046795 0 81.775418171046795 43.08143131696761 0 0 0 0 -859.00907532003475 573.94584205922115 0 573.94584205922115 -294.67041523771172 0 0 0 0 -1830.8001857351192 991.74088279537045 0 991.74088279537045 -435.78030211950454 0 0 0 0 -1150.2513540336658 467.43016121949313 0 467.43016121949313 -32.037234456282931 0 0 0 0 -648.88547005133751 349.99162666743138 0 349.99162666743138 -57.46614948678166 0 0 0 0 -1069.6067893841682 472.54286777957464 0 472.54286777957464 -61.558967134525901 0 0 0 0 -1401.9234531535312 967.22903487245867 0 967.22903487245867 -448.97678731413771 0 0 0 0 -623.43957569990744 261.36675061446294 0 261.36675061446294 11.496580376614702 0 0 0 0 -832.98276936860202 607.75380746838141 0 607.75380746838141 -228.49669816133655 0 0 0 0 -635.06308406621974 263.02258214008236 0 263.02258214008236 112.25834444722659 0 0 0 0 -28.351377010129113 -9.1834945615126742 0 -9.1834945615126742 -1.2011698532855624 0 0 0 0 -7.7972033131372882 -171.6085161571923 0 -171.6085161571923 281.49433769086227 0 0 0 0 -35.043931736365266 -21.330064929037007 0 -21.330064929037007 173.22130925994679 0 0 0 0 -36.294844496913754 -13.925010607901115 0 -13.925010607901115 -3.42564606706323 0 0 0 0 -206.92798355719148 -144.44894302433025 0 -144.44894302433025 160.03764575327318 0 0 0 0 -209.04133110104158 171.66691248404425 0 171.66691248404425 -191.00904406125073 0 0 0 0 -696.55193783585855 -62.872108781828658 0 -62.872108781828658 -118.42029226785388 0 0 0 0 -538.66982883732999 259.79051570038195 0 259.79051570038195 -281.30017220634784 0 0 0 0 -446.76631125734275 38.211759359902857 0 38.211759359902857 -145.28662372769679 0 0 0 0 -351.00919475119736 138.09890714492133 0 138.09890714492133 -89.900028127861731 0 0 0 0 -64.67620213876944 60.642079523249826 0 60.642079523249826 -207.40080906470908 0 0 0 0 -85.459471718670102 1.247070469501832 0 1.247070469501832 -12.06959797275265 0 0 0 0 11.36408327225945 57.614361497058269 0 57.614361497058269 20.692441168963114 0 0 0 0 -4.6509657956776209 -27.960125379445408 0 -27.960125379445408 -41.22154949396554 0 0 0 0 23.336848412640393 -7.6211154453273764 0 -7.6211154453273764 -28.663687054671868 0 0 0 0 174.62553266767645 -138.19635790365288 0 -138.19635790365288 48.505761590371549 0 0 0 0 -24.807919548911741 -62.488545160941555 0 -62.488545160941555 301.76445214392874 0 0 0 0 -41.67023680424785 -15.483890998632688 0 -15.483890998632688 -3.6188416504279211 0 0 0 0 86.37572225171607 -150.3917743516198 0 -150.3917743516198 127.55698156077392 0 0 0 0 -56.759532215059153 -15.591288927542791 0 -15.591288927542791 90.900067966492088 0 0 0 0 -6.8010114060891738 -7.8314411872428309 0 -7.8314411872428309 1.723432116266455 0 0 0 0 25.976085247399169 -205.59252536129793 0 -205.59252536129793 78.341920328192174 0 0 0 0 -2.529393377553788 10.182073194996747 0 10.182073194996747 -134.74854773691172 0 0 0 0 -46.717784857391962 -93.497261544416688 0 -93.497261544416688 211.90094918064051 0 0 0 0 -18.768294518304174 -66.246582944032639 0 -66.246582944032639 134.88067825717008 0 0 0 0 -39.234893202141393 -46.190746772298098 0 -46.190746772298098 125.60818620781532 0 0 0 0 -95.260180601981119 -24.772079668013475 0 -24.772079668013475 159.49885547195481 0 0 0 0 -94.38359981708345 -6.0380082515366666 0 -6.0380082515366666 132.76931077981396 0 0 0 0 -84.844664423613722 -5.3188543429814104 0 -5.3188543429814104 125.24763093297997 0 0 0 0 -53.661819083536102 -25.478729075285173 0 -25.478729075285173 94.50307071237512 0 0 0 0 -66.300691853801254 -21.433848760161254 0 -21.433848760161254 127.7858035587069 0 0 0 0 -77.267583810142241 -1.6702297689771513 0 -1.6702297689771513 92.911356983042765 0 0 0 0 -77.011131484963698 10.52117534115655 0 10.52117534115655 122.60424261417029 0 0 0 0 -89.209037016000366 19.991584736664208 0 19.991584736664208 135.84668511473046 0 0 0 0 -99.790910912488471 9.7434391216047516 0 9.7434391216047516 127.036313260322 0 0 0 0 -70.804735014608013 50.545977881392446 0 50.545977881392446 194.93717947626283 0 0 0 0 -80.952983123061131 20.437350826312922 0 20.437350826312922 122.69244372771755 0 0 0 0 -53.015466403303435 -4.772610116855958 0 -4.772610116855958 135.50208102325905 0 0 0 0 -46.191241235093912 34.261256800517458 0 34.261256800517458 92.131082588939989 0 0 0 0 -80.689120387818548 17.388077421905905 0 17.388077421905905 120.33955805970345 0 0 0 0 -41.458202396552224 26.939459018390835 0 26.939459018390835 80.74031032903622 0 0 0 0 -72.624038709873275 -26.632049678764695 0 -26.632049678764695 0.69692154639034243 0 0 0 0 -41.96967198423954 10.965823677575585 0 10.965823677575585 10.227758593466945 0 0 0 0 -56.809076621037093 -15.387873894136192 0 -15.387873894136192 92.373149266898253 0 0 0 0 -52.632836456774385 -9.1013951899553831 0 -9.1013951899553831 42.948443602508632 0 0 0 0 -60.236686853313586 18.873963039833086 0 18.873963039833086 24.260111606599111 0 0 0 0 -43.642221526428841 1.8367983046175453 0 1.8367983046175453 4.5513655491990512 0 0 0 0 -8.3933626242366017 5.7709293365974617 0 5.7709293365974617 5.5153953160152493 0 0 0 0 -44.669747641164577 -52.240473474270544 0 -52.240473474270544 126.33327079717867 0 0 0 0 -41.963854182933574 -52.448232271244713 0 -52.448232271244713 18.741492602594178 0 0 0 0 -22.391809558466775 -81.450554382492669 0 -81.450554382492669 143.84169973684163 0 0 0 0 -28.68461834473419 -43.993005167011745 0 -43.993005167011745 -17.948425878547447 0 0 0 0 53.690995546552585 -107.43951170933687 0 -107.43951170933687 12.703196981139456 0 0 0 0 -54.047578533907654 -69.122912649496911 0 -69.122912649496911 29.635230968128816 0 0 0 0 -102.35478298969974 -60.130831274953962 0 -60.130831274953962 5.9642736640745682 0 0 0 0 -58.774623304678244 -53.576979893498013 0 -53.576979893498013 -16.26065604096172 0 0 0 0 -83.299343113831128 -72.577775557779461 0 -72.577775557779461 7.121604390627283 0 0 0 0 -54.957419175378163 -35.815606204114204 0 -35.815606204114204 -28.240377344719775 0 0 0 0 -69.792277944769012 -39.907978133404981 0 -39.907978133404981 46.169291321004835 0 0 0 0 -42.056267978870892 -54.314132587984361 0 -54.314132587984361 -40.258925273764056 0 0 0 0 -44.498816129140323 -33.883510673472941 0 -33.883510673472941 -66.730795303425595 0 0 0 0 -44.465758666570764 -35.085958984379481 0 -35.085958984379481 -25.873146500301836 0 0 0 0 -69.732023531963932 -42.103322015128128 0 -42.103322015128128 -23.935218067957152 0 0 0 0 -58.029967303737067 -58.697257436641301 0 -58.697257436641301 -13.001556185573975 0 0 0 0 -14.623118758230703 -67.571828760620718 0 -67.571828760620718 -32.888137225891583 0 0 0 0 -2.9852899330144282 -48.26304281350739 0 -48.26304281350739 -61.461994570426569 0 0 0 0 -59.119577883509919 0.61308386754420052 0 0.61308386754420052 -89.566673985352026 0 0 0 0 -54.179602858726867 2.8007173576678781 0 2.8007173576678781 -95.389449720024373 0 0 0 0 -36.561810395942302 -32.870328598062272 0 -32.870328598062272 -75.931576966838733 0 0 0 0 -50.275709915993502 -38.663822370297403 0 -38.663822370297403 -49.606075340495309 0 0 0 0 -85.019121588207781 -20.02236947392236 0 -20.02236947392236 -44.117980987544826 0 0 0 0 -76.365896767296363 5.2749723098807877 0 5.2749723098807877 -88.008121005860843 0 0 0 0 -85.931522704262079 44.812406632297758 0 44.812406632297758 -122.60622652946216 0 0 0 0 -87.333528478629887 2.4550433286505893 0 2.4550433286505893 -70.696553736597011 0 0 0 0 -120.85511426129597 62.535241998757634 0 62.535241998757634 -116.84781676911643 0 0 0 0 -136.20298893330619 22.062893331518296 0 22.062893331518296 -47.9177180503127 0 0 0 0 -56.987211277912138 -20.30016417601712 0 -20.30016417601712 -7.8171857957477187 0 0 0 0 3.9176595113522268 -13.935210861083903 0 -13.935210861083903 -10.815854311834682 0 0 0 0 -29.636685739664244 -29.909420595375934 0 -29.909420595375934 -54.106919881923005 0 0 0 0 1.7349729625542523 -3.9995337144430216 0 -3.9995337144430216 -3.763073168281442 0 0 0 0 -50.303541638000752 -57.638012735491301 0 -57.638012735491301 -22.558840684327265 0 0 0 0 -50.389633343802416 -26.196830153363354 0 -26.196830153363354 20.523848114961677 0 0 0 0 -156.73208804243041 52.938905971036327 0 52.938905971036327 -42.313251494571546 0 0 0 0 -4.6210934083228778 -2.0327255067949466 0 -2.0327255067949466 -0.99071460039994041 0 0 0 0 -14.33932939395163 9.9390324997341537 0 9.9390324997341537 -42.787441443146342 0 0 0 0 -28.84900864915079 -10.38473409533027 0 -10.38473409533027 -2.0385463006782754 0 0 0 0 -135.68958556914004 17.91516695838088 0 17.91516695838088 -7.7209590702302791 0 0 0 0 -68.428279551138985 50.397311608508048 0 50.397311608508048 -67.612162346910196 0 0 0 0 -152.43520600363991 32.614013835280623 0 32.614013835280623 -0.034707726568845632 0 0 0 0 -186.62633693579119 96.180039962882589 0 96.180039962882589 -77.302686371139004 0 0 0 0 -193.55611333913112 77.303401478485043 0 77.303401478485043 -48.438233688053401 0 0 0 0 -142.01022870847373 57.516727384119619 0 57.516727384119619 -66.262727521066324 0 0 0 0 -141.04476662351954 50.118032131436415 0 50.118032131436415 -69.545926142569527 0 0 0 0 -178.28406134771285 100.44215104546242 0 100.44215104546242 -90.704322282799495 0 0 0 0 -161.28443860539119 53.97399165785005 0 53.97399165785005 -57.483849695079698 0 0 0 0 -226.49722790288797 136.39629385740497 0 136.39629385740497 -96.316815698339326 0 0 0 0 -223.37733811273938 85.432284525730751 0 85.432284525730751 -61.210812275232897 0 0 0 0 -277.86024977310444 90.668761431874856 0 90.668761431874856 -0.01848268281524712 0 0 0 0 -387.32620077473257 181.806398472647 0 181.806398472647 -44.481409073461379 0 0 0 0 -429.47339773065323 113.23654192681671 0 113.23654192681671 -0.17809009115754704 0 0 0 0 -339.3595937799746 198.19194490139313 0 198.19194490139313 -87.546534290328168 0 0 0 0 -129.90273346088361 138.35345178619792 0 138.35345178619792 -198.12989452926706 0 0 0 0 -342.63196989057906 183.25064105766029 0 183.25064105766029 -101.73573026305857 0 0 0 0 -132.50558249064488 45.407576267856754 0 45.407576267856754 -97.340340640156384 0 0 0 0 -170.14685313449445 109.19316900454945 0 109.19316900454945 -115.08748545041931 0 0 0 0 -65.833061559009366 53.430136608084894 0 53.430136608084894 -150.30214947483597 0 0 0 0 -86.647962516202824 38.385778805493111 0 38.385778805493111 -90.148808194360427 0 0 0 0 -6.4879548601347778 16.463038264026803 0 16.463038264026803 -113.02174088690651 0 0 0 0 4.4965267560437496 77.850362666122351 0 77.850362666122351 -153.78915459334769 0 0 0 0 -131.45629226188612 107.93366742899559 0 107.93366742899559 -105.64281281364109 0 0 0 0 -273.29969601319317 211.04974307258803 0 211.04974307258803 -152.85055659443429 0 0 0 0 -156.3330717105855 69.030698715519677 0 69.030698715519677 -154.52953085018794 0 0 0 0 -266.93027767517924 173.25439739165176 0 173.25439739165176 -417.81217863697003 0 0 0 0 -848.15967140925932 -63.638834158155987 0 -63.638834158155987 -589.81516979531102 0 0 0 0 -936.67064804378606 603.67687275243884 0 603.67687275243884 -405.07913721712316 0 0 0 0 -669.26220057690443 236.87064347825691 0 236.87064347825691 -17.278778777098921 0 0 0 0 -572.8909186295059 354.88267734137355 0 354.88267734137355 -165.0415346585481 0 0 0 0 -602.3099821798678 203.8954933150909 0 203.8954933150909 -3.6663385947828453 0 0 0 0 -768.05764881925279 120.69721033039933 0 120.69721033039933 0.29244266322449003 0 0 0 0 -614.559411492035 251.74750242604637 0 251.74750242604637 -17.384624140907249 0 0 0 0 -707.51825496202218 7.3375740735322097 0 7.3375740735322097 111.81705721359174 0 0 0 0 -656.43899277469609 8.2711983908434945 0 8.2711983908434945 99.964924979684866 0 0 0 0 -582.37829825317021 66.245792707679044 0 66.245792707679044 -0.032876324761076769 0 0 0 0 -667.58088593799039 -47.008564198620576 0 -47.008564198620576 83.594855864276468 0 0 0 0 -1520.841770775005 5.9192283547572515 0 5.9192283547572515 340.49842187310173 0 0 0 0 -13.20174158369332 -1.4605206414771033 0 -1.4605206414771033 0.28885503118099121 0 0 0 0 -530.99189715062676 -538.08334541419231 0 -538.08334541419231 317.2302329298891 0 0 0 0 -477.83704650023719 43.001674531153867 0 43.001674531153867 -35.767068558460323 0 0 0 0 -96.924755029962398 -46.639094271949489 0 -46.639094271949489 -253.18787807118781 0 0 0 0 -164.07220742198115 125.08730832492893 0 125.08730832492893 -239.98838280931841 0 0 0 0 -1023.03212556371 374.48623338350603 0 374.48623338350603 -268.92826800358716 0 0 0 0 -357.35585605054803 -36.764978825143316 0 -36.764978825143316 -575.66245227496552 0 0 0 0 -178.81525210512336 -299.46707620579718 0 -299.46707620579718 -258.92689316481346 0 0 0 0 -956.97068754608335 -413.32430526281541 0 -413.32430526281541 -74.140584114424428 0 0 0 0 -674.64669159808727 -202.07218384292864 0 -202.07218384292864 40.877984135697716 0 0 0 0 -367.12188887667435 -117.71295529310873 0 -117.71295529310873 -0.67520728803901875 0 0 0 0 -736.55974681927364 75.855731951030066 0 75.855731951030066 93.605418004278818 0 0 0 0 -475.38751129954471 44.145248022110309 0 44.145248022110309 -78.467008788479689 0 0 0 0 -607.04452863541519 -4.358979929384077 0 -4.358979929384077 132.11716354018836 0 0 0 0 -379.41449042926251 -38.928717549621979 0 -38.928717549621979 85.312124477777161 0 0 0 0 -511.24660504850181 -107.12759111836601 0 -107.12759111836601 110.8866788892592 0 0 0 0 -617.95286558636144 -11.863944168091052 0 -11.863944168091052 133.8463391121295 0 0 0 0 -508.14717065950572 -31.36451557292186 0 -31.36451557292186 127.59640750863718 0 0 0 0 -145.27188696010853 -88.231230828938806 0 -88.231230828938806 33.993705950912045 0 0 0 0 -556.30552213102055 -77.49996646576551 0 -77.49996646576551 84.840152611068788 0 0 0 0 -190.41432286641793 6.1452040625831614 0 6.1452040625831614 -38.505171284088192 0 0 0 0 -207.97970122430343 42.028691036107318 0 42.028691036107318 -1.6528597390774848 0 0 0 0 -207.93015956163617 59.025657040408248 0 59.025657040408248 153.69250883207906 0 0 0 0 -7.5986542285827454 123.76028687729763 0 123.76028687729763 82.411218923341721 0 0 0 0 20.406874176274869 -2.3531769235994489 0 -2.3531769235994489 -2.9486946308181814 0 0 0 0 -31.401431826569024 87.88935937045585 0 87.88935937045585 234.49382261402525 0 0 0 0 -14.962947456744814 5.1004667720386863 0 5.1004667720386863 -0.63995561812123292 0 0 0 0 32.820514725418434 19.957783369703179 0 19.957783369703179 -16.240092089196423 0 0 0 0 14.821570921776583 118.66685796906586 0 118.66685796906586 221.90192939817689 0 0 0 0 -52.070926141066593 -14.880839119040843 0 -14.880839119040843 189.74914168709529 0 0 0 0 37.696814337890828 47.92697108174707 0 47.92697108174707 129.79175512604991 0 0 0 0 -43.146522019867916 47.378317330163384 0 47.378317330163384 189.40365168149447 0 0 0 0 37.872579072879489 46.931989143359033 0 46.931989143359033 -8.3837481260870845 0 0 0 0 -17.177308265374563 2.5028190661293763 0 2.5028190661293763 -2.3599271152545898 0 0 0 0 -31.946345223870594 -39.737214170610969 0 -39.737214170610969 135.29995878129489 0 0 0 0 -9.6717481329742299 -2.5536383961410252 0 -2.5536383961410252 0.27572517302956712 0 0 0 0 -43.477384458739493 2.0874034408547146 0 2.0874034408547146 5.0166364373117869 0 0 0 0 -25.154452172442689 46.409940089488146 0 46.409940089488146 95.827942038293259 0 0 0 0 14.71852457823843 -1.2123449604091547 0 -1.2123449604091547 -30.158924042230865 0 0 0 0 0.42264568699403071 -14.079105109633701 0 -14.079105109633701 -12.291071188488099 0 0 0 0 -98.584221323748352 -11.3903221432046 0 -11.3903221432046 1.8680630212010669 0 0 0 0 0.94533406519622076 -36.011404803199412 0 -36.011404803199412 -21.111782913695606 0 0 0 0 34.345728502667043 13.259671853396412 0 13.259671853396412 -20.679263579876306 0 0 0 0 65.960205660026986 -10.189367197349839 0 -10.189367197349839 -38.03287266719326 0 0 0 0 71.113354785979027 -0.94510606628500682 0 -0.94510606628500682 -71.550071208513145 0 0 0 0 52.122332286104211 26.853428919349426 0 26.853428919349426 -44.441556085209868 0 0 0 0 57.584936900719185 -4.3665576345883892 0 -4.3665576345883892 -23.702209920123096 0 0 0 0 100.00121768578538 -68.232591198120645 0 -68.232591198120645 -27.843507292145375 0 0 0 0 -69.392185831224197 -34.522365158881939 0 -34.522365158881939 -17.667640121299883 0 0 0 0 8.087582823818849 -13.26719093738248 0 -13.26719093738248 -11.301827149118928 0 0 0 0 54.101923815502232 -44.848608024640612 0 -44.848608024640612 -28.507599864131407 0 0 0 0 -80.748958967044018 -58.874727685597236 0 -58.874727685597236 -11.611131987388944 0 0 0 0 -83.744216950886766 7.5077106726903367 0 7.5077106726903367 -103.98681650977289 0 0 0 0 2.581393975429819 46.383153966446571 0 46.383153966446571 -121.97773003233578 0 0 0 0 -4.5851785442500841 54.658095254116688 0 54.658095254116688 -33.724979093251022 0 0 0 0 53.502641291735927 25.911402449140951 0 25.911402449140951 -95.687674538142801 0 0 0 0 34.415040534775471 -3.4552886037158714 0 -3.4552886037158714 -80.056112122971172 0 0 0 0 51.377135498580174 11.820353586066403 0 11.820353586066403 -69.633014080160592 0 0 0 0 60.338508840664872 -56.737224427549108 0 -56.737224427549108 -82.151337816367629 0 0 0 0 22.159277440659935 -61.626147157690411 0 -61.626147157690411 -138.51228173954308 0 0 0 0 17.857821751880692 34.21030213348331 0 34.21030213348331 -160.94614916218916 0 0 0 0 -58.359343954492942 12.851308571663708 0 12.851308571663708 -162.93622739110515 0 0 0 0 23.669849552105006 -114.41962138710392 0 -114.41962138710392 -155.7833245277393 0 0 0 0 36.386760490866436 -33.069419337235558 0 -33.069419337235558 -82.146664426833013 0 0 0 0 53.495078536434448 -94.327293702079942 0 -94.327293702079942 -82.325181158998205 0 0 0 0 8.9119280179584166 -78.147128486262773 0 -78.147128486262773 11.659991988560336 0 0 0 0 49.049492872345581 -94.293599338942954 0 -94.293599338942954 10.904945885272809 0 0 0 0 4.844678290115553 -99.479620984579014 0 -99.479620984579014 14.10165225360015 0 0 0 0 43.419282161354204 -135.49319732368235 0 -135.49319732368235 14.126897245561882 0 0 0 0 -110.61182075017132 -45.552891915873033 0 -45.552891915873033 -1.7599353335194792 0 0 0 0 0.78997495757938907 -0.42592760785709061 0 -0.42592760785709061 0.35073391357446937 0 0 0 0 -57.417897576553514 -21.471714738453102 0 -21.471714738453102 -10.793518940258764 0 0 0 0 -98.222854934429051 -24.846715597311459 0 -24.846715597311459 -8.7830804994400751 0 0 0 0 62.162681264482671 -79.580350986793974 0 -79.580350986793974 -43.562799529787981 0 0 0 0 163.40880971245861 -28.802905643428574 0 -28.802905643428574 -46.952780369862921 0 0 0 0 74.983618228550768 -33.130073027330809 0 -33.130073027330809 1.0519752581426474 0 0 0 0 67.465695742721437 -34.5669829789083 0 -34.5669829789083 -27.060812061622528 0 0 0 0 -59.920226269052364 -22.053035410115854 0 -22.053035410115854 -6.8062713679287299 0 0 0 0 15.164843657359597 -40.792619639868917 0 -40.792619639868917 10.872570721860143 0 0 0 0 -7.2186259230803671 -3.1427725995523019 0 -3.1427725995523019 0.66983204952197006 0 0 0 0 -59.42733165161917 -20.888448975890469 0 -20.888448975890469 -4.1042128399708417 0 0 0 0 -86.80099152965704 14.467645162462293 0 14.467645162462293 -24.666628358770783 0 0 0 0 -38.589149350620573 -4.8770467108586608 0 -4.8770467108586608 3.7672446588624258 0 0 0 0 18.532130729785422 -57.433958261414546 0 -57.433958261414546 31.8951327923387 0 0 0 0 -30.606306817685265 -7.0375125423805329 0 -7.0375125423805329 -1.3417495339445242 0 0 0 0 -29.045439316832926 -6.0520269946056944 0 -6.0520269946056944 -0.1921157280617628 0 0 0 0 -36.516021304501919 -9.0327213481730038 0 -9.0327213481730038 -0.0064321045205307497 0 0 0 0 -5.3622759474475146 -1.2050713950734746 0 -1.2050713950734746 -0.37987919255732783 0 0 0 0 -43.463870725965535 -8.7212231080171279 0 -8.7212231080171279 4.150669605059881 0 0 0 0 4.3577981373528019 -48.13064794402294 0 -48.13064794402294 174.67394510803524 0 0 0 0 0.69041035654663574 -121.37875159773887 0 -121.37875159773887 179.08851731082382 0 0 0 0 -28.949334254686732 -6.1807732374612598 0 -6.1807732374612598 -1.0933029725800032 0 0 0 0 -29.172503105684882 -8.3273977541434689 0 -8.3273977541434689 3.010420707918156 0 0 0 0 -26.901642176730093 -7.3324735997350112 0 -7.3324735997350112 0.015969488518284079 0 0 0 0 -27.361126861047524 -8.422013385094683 0 -8.422013385094683 -2.4596762268638432 0 0 0 0 -30.0236542650091 -8.9333658729650303 0 -8.9333658729650303 -0.061965012653025196 0 0 0 0 -190.69291877785872 -143.71321814066553 0 -143.71321814066553 525.20136187594551 0 0 0 0 26.642713366585667 29.673440567122967 0 29.673440567122967 16.011887480009801 0 0 0 0 -21.198244398875147 -1.9015094039274132 0 -1.9015094039274132 0.52742002470251292 0 0 0 0 -222.37235152027279 124.19190259884942 0 124.19190259884942 329.27450305079128 0 0 0 0 81.754971391288564 -101.83157858780714 0 -101.83157858780714 119.11460812011092 0 0 0 0 -26.445375940188171 -4.7100058216876022 0 -4.7100058216876022 -0.32662617359968427 0 0 0 0 -81.574161796932458 -200.69409515960774 0 -200.69409515960774 419.23279070877129 0 0 0 0 -4.1270314173452789 -169.49781049995522 0 -169.49781049995522 -46.045424934337461 0 0 0 0 -202.25023899940425 4.6202456533521854 0 4.6202456533521854 109.26113024076668 0 0 0 0 -200.54246656182659 -61.303438596703131 0 -61.303438596703131 -67.690574009061038 0 0 0 0 -94.56053759084898 -105.54986811580261 0 -105.54986811580261 -258.2389691024523 0 0 0 0 -333.31595702804771 59.871873394771683 0 59.871873394771683 -235.23098328126252 0 0 0 0 -453.92234091399587 18.535884092821107 0 18.535884092821107 -75.65947840891522 0 0 0 0 -102.85570575713064 -61.16861201439815 0 -61.16861201439815 -74.694934227880935 0 0 0 0 -10.606280515493779 -1.9002172820567225 0 -1.9002172820567225 -0.93690823702061454 0 0 0 0 -597.62688208860345 583.63064952066634 0 583.63064952066634 -434.23614160979469 0 0 0 0 -687.07333822227156 411.3925787746216 0 411.3925787746216 74.432314759609653 0 0 0 0 -683.1725929735403 388.73425114069505 0 388.73425114069505 9.110162627286627 0 0 0 0 -1175.5571651365899 573.62031701941635 0 573.62031701941635 -59.996642367064851 0 0 0 0 -1378.9583602515413 170.35490009117291 0 170.35490009117291 120.30624999133033 0 0 0 0 -820.5196221806691 -273.7892761587766 0 -273.7892761587766 -295.83336912352274 0 0 0 0 -841.08745909240679 116.05348203516405 0 116.05348203516405 92.112371426576374 0 0 0 0 -644.33678679219156 158.66624625421389 0 158.66624625421389 140.99563118115861 0 0 0 0 -622.60521049372619 171.37680156791816 0 171.37680156791816 104.20892657187812 0 0 0 0 -748.57450582247111 419.0676113476909 0 419.0676113476909 224.94930216574903 0 0 0 0 -1046.3552214636438 438.72741505115232 0 438.72741505115232 170.0820833669477 0 0 0 0 -767.52419031559839 371.24221435461686 0 371.24221435461686 186.05101522710697 0 0 0 0 -766.72729894364602 442.2948786663203 0 442.2948786663203 163.53298996599369 0 0 0 0 -932.1481990290049 427.10350569634898 0 427.10350569634898 234.49344022254911 0 0 0 0 -788.19257639779971 361.22783162348645 0 361.22783162348645 264.41583083296609 0 0 0 0 -844.12119900685502 462.68224820426695 0 462.68224820426695 205.04392949029761 0 0 0 0 -508.59945697928197 441.69464113094193 0 441.69464113094193 138.83228494932132 0 0 0 0 -922.54708382865647 636.53732689454819 0 636.53732689454819 50.389997311789671 0 0 0 0 -1120.3033079889719 500.68462979699007 0 500.68462979699007 144.37116568975631 0 0 0 0 -943.79234882860692 394.34129571562681 0 394.34129571562681 207.22364596837087 0 0 0 0 -158.54013478948036 75.500818364082534 0 75.500818364082534 130.02683938697268 0 0 0 0 -538.38445372288697 262.87507055667953 0 262.87507055667953 113.89488657655602 0 0 0 0 87.006263865507208 -20.150235253898785 0 -20.150235253898785 49.652661277610697 0 0 0 0 113.76022843987448 7.6328842219261936 0 7.6328842219261936 0.35984828856321183 0 0 0 0 -837.13965619797818 -4.9877103111103338 0 -4.9877103111103338 208.94206517372768 0 0 0 0 -865.44354518719774 810.79137490434346 0 810.79137490434346 -417.25266749503623 0 0 0 0 -9.0737912083509968 0.62597548482601439 0 0.62597548482601439 0.30465567253199954 0 0 0 0 -1652.2605074292514 535.32893450043252 0 535.32893450043252 185.45916437963126 0 0 0 0 -219.28990410872211 407.3011731925763 0 407.3011731925763 -184.36215295094951 0 0 0 0 -1536.8356773542473 384.36021719844501 0 384.36021719844501 -0.43046075259929417 0 0 0 0 -673.95569976438128 -232.03179308019114 0 -232.03179308019114 -221.72894762092716 0 0 0 0 -1600.6041584789091 -199.66217500457759 0 -199.66217500457759 43.723215134967688 0 0 0 0 -840.25601366205956 -176.05479642997949 0 -176.05479642997949 5.3119323068312951 0 0 0 0 -696.9792670813622 -16.053074554613659 0 -16.053074554613659 56.516592167179624 0 0 0 0 -259.81290772899229 -72.249897464428315 0 -72.249897464428315 -29.947088177421165 0 0 0 0 -248.87793219627929 -68.219378390091805 0 -68.219378390091805 -205.64305335469348 0 0 0 0 -278.16290209726139 -82.395317510064899 0 -82.395317510064899 -23.145096735315747 0 0 0 0 -265.63042403698637 -41.659040133045039 0 -41.659040133045039 104.86272723265938 0 0 0 0 -94.74602195663465 -274.92588943219431 0 -274.92588943219431 48.045425673726641 0 0 0 0 -420.84757845598506 -123.27705675796074 0 -123.27705675796074 9.3608874639990063 0 0 0 0 -460.77545807318529 76.850118816575787 0 76.850118816575787 175.98409626532714 0 0 0 0 -546.81881321087712 19.423970023990933 0 19.423970023990933 218.48242930912033 0 0 0 0 -614.37014003383229 214.90211726366033 0 214.90211726366033 244.80358589891239 0 0 0 0 -639.59116167994216 188.97760583300305 0 188.97760583300305 243.75631513574945 0 0 0 0 -618.43576843268238 207.85021273531424 0 207.85021273531424 232.71222944117926 0 0 0 0 -875.84436979173915 158.14297646676278 0 158.14297646676278 245.16244483396099 0 0 0 0 -807.83834568571183 175.73101932789979 0 175.73101932789979 202.93960025192041 0 0 0 0 -1267.1970049118972 40.806465932032651 0 40.806465932032651 185.05414169895107 0 0 0 0 -800.00704168118227 -76.74595058303899 0 -76.74595058303899 137.4780896425018 0 0 0 0 534.78590518631972 -79.791276158041995 0 -79.791276158041995 -102.53356829635686 0 0 0 0 1.2248570844644036 -0.99162045434775337 0 -0.99162045434775337 1.4241203604688182 0 0 0 0 193.74667883655638 -269.00527255606517 0 -269.00527255606517 -0.10877165213365958 0 0 0 0 -136.38750141867786 -190.9700932887244 0 -190.9700932887244 16.306075658265513 0 0 0 0 28.54261081313598 -313.56438386682714 0 -313.56438386682714 9.5260019637697226 0 0 0 0 198.88350291280949 -222.75323741455105 0 -222.75323741455105 11.649667046854802 0 0 0 0 -59.680605793953873 -173.45039501000429 0 -173.45039501000429 -81.342391413502412 0 0 0 0 9.0816273103555432 -190.9314424831399 0 -190.9314424831399 115.74490856212606 0 0 0 0 8.2371048896748107 -231.42420430450989 0 -231.42420430450989 70.033609752479265 0 0 0 0 92.506248293037061 -90.987910576095828 0 -90.987910576095828 51.184035262004159 0 0 0 0 174.24677320169576 -85.16356654903359 0 -85.16356654903359 1.6489812730603717 0 0 0 0 37.086633405919201 -79.992428783300639 0 -79.992428783300639 56.053361557419521 0 0 0 0 -26.726917159275558 -6.5339200081613811 0 -6.5339200081613811 1.783276191658596 0 0 0 0 -23.190551112333196 -6.5538804778695976 0 -6.5538804778695976 9.4273299115673126 0 0 0 0 -28.19974825468671 -83.883112585907156 0 -83.883112585907156 173.59989244013127 0 0 0 0 -20.752665834801462 -0.95843854935390738 0 -0.95843854935390738 2.9499834434631862 0 0 0 0 16.097707476135838 -133.31676875087481 0 -133.31676875087481 216.19169352897734 0 0 0 0 -19.641893711144803 0.74176704685339701 0 0.74176704685339701 30.213235965726767 0 0 0 0 -17.317654097096238 -0.76772368643430866 0 -0.76772368643430866 17.54719834761795 0 0 0 0 -15.176164942968171 -4.5954546213374101 0 -4.5954546213374101 20.399491245573074 0 0 0 0 -16.686159241235146 -12.485130089569243 0 -12.485130089569243 14.825786651133882 0 0 0 0 -22.667989299443434 -9.4397137291658737 0 -9.4397137291658737 15.32666781680723 0 0 0 0 -11.387848273996497 0.15895715353360629 0 0.15895715353360629 18.597946545013485 0 0 0 0 -448.86434382933658 169.37137952592002 0 169.37137952592002 224.00037749678381 0 0 0 0 -304.21123086288571 52.037842980680125 0 52.037842980680125 281.88144370885493 0 0 0 0 -333.84468061529333 29.083182753795882 0 29.083182753795882 329.25907969891523 0 0 0 0 -287.18692878849106 0.27215039030306798 0 0.27215039030306798 263.47275160849131 0 0 0 0 -174.82790425416897 -70.433069024678389 0 -70.433069024678389 292.95580019367662 0 0 0 0 -216.16540085870656 57.528889449210055 0 57.528889449210055 194.22605229211877 0 0 0 0 -376.8872116227285 183.80249379502675 0 183.80249379502675 109.6825955146187 0 0 0 0 -430.92326328234049 307.41165793367782 0 307.41165793367782 113.84566108988042 0 0 0 0 -363.70734063565033 199.60522549660254 0 199.60522549660254 127.23576443009142 0 0 0 0 -587.72818269018899 288.65407085588777 0 288.65407085588777 243.20760382163007 0 0 0 0 -562.49001568334643 304.15162416594649 0 304.15162416594649 158.84179220198416 0 0 0 0 -439.43054631230189 185.77584857919828 0 185.77584857919828 248.33615275198736 0 0 0 0 -798.54778282382176 352.64964133231115 0 352.64964133231115 258.34582370463522 0 0 0 0 -640.51198758425016 238.28635394041135 0 238.28635394041135 273.9665426454867 0 0 0 0 -601.72758367878851 308.17062805122487 0 308.17062805122487 229.49139126763612 0 0 0 0 -632.21514274831861 202.22954748819325 0 202.22954748819325 267.55503383379619 0 0 0 0 -313.99052286989172 54.517680989340988 0 54.517680989340988 186.82421527310635 0 0 0 0 -487.3440615691361 171.95386818283441 0 171.95386818283441 235.19071092306149 0 0 0 0 -494.77925089823839 172.63424967419542 0 172.63424967419542 297.61753107499226 0 0 0 0 -297.79581847891677 106.32779315269022 0 106.32779315269022 337.0759207164183 0 0 0 0 -131.94148104955093 -159.19890990732665 0 -159.19890990732665 140.57556734685159 0 0 0 0 -136.71443428832572 -20.602612483345183 0 -20.602612483345183 265.64980388615641 0 0 0 0 196.80545209819684 28.283472877899612 0 28.283472877899612 239.35697077217174 0 0 0 0 74.946777596982429 -305.80746219721709 0 -305.80746219721709 269.5199553305697 0 0 0 0 -7.2297414009290577 -0.76012281501192547 0 -0.76012281501192547 1.722752528643797 0 0 0 0 380.02605859717005 -254.89154189163537 0 -254.89154189163537 294.74615218135159 0 0 0 0 -72.459929151897086 4.6867402201878576 0 4.6867402201878576 487.23588759145173 0 0 0 0 -31.851041316869669 -239.63968136221411 0 -239.63968136221411 507.5429106469764 0 0 0 0 -181.40355329541489 -9.3618647019357013 0 -9.3618647019357013 520.47613032365552 0 0 0 0 -148.79689184803283 -168.81719423881896 0 -168.81719423881896 357.50344700179699 0 0 0 0 -184.75017529021716 -55.001880819550934 0 -55.001880819550934 341.95557364395609 0 0 0 0 -25.804159637708494 -6.0625401943354831 0 -6.0625401943354831 1.8525260824670005 0 0 0 0 63.565516486938577 -162.41670833847274 0 -162.41670833847274 273.39236138619572 0 0 0 0 -1.5211899114480616 0.42140085564264496 0 0.42140085564264496 3.1041217499536229 0 0 0 0 3.7609843032987555 -4.637848500950895 0 -4.637848500950895 37.509869432106825 0 0 0 0 -42.573876674345229 -201.6885292067218 0 -201.6885292067218 272.0784368162067 0 0 0 0 -14.749346264152791 1.1315307988811583 0 1.1315307988811583 17.443460640662565 0 0 0 0 -250.11631572223268 91.288822352846182 0 91.288822352846182 196.60829542310421 0 0 0 0 106.71193283045432 -230.37430082686024 0 -230.37430082686024 113.9937973771921 0 0 0 0 -211.72851337300381 -54.929902730979848 0 -54.929902730979848 187.44188530140309 0 0 0 0 -141.98482632066589 -89.078225614623989 0 -89.078225614623989 203.07472751846626 0 0 0 0 -30.204888536478393 236.30720954363005 0 236.30720954363005 -249.60832310026944 0 0 0 0 -218.71815484401304 155.63413396984652 0 155.63413396984652 -3.6089683469799638 0 0 0 0 -22.279193449474405 59.456701529894417 0 59.456701529894417 37.199625942774674 0 0 0 0 208.48262515850365 12.935497937094624 0 12.935497937094624 -148.65241161298127 0 0 0 0 -243.06332964659669 410.20576735553823 0 410.20576735553823 -199.0449055256322 0 0 0 0 270.9969885040191 135.16402130171628 0 135.16402130171628 -195.76203949224873 0 0 0 0 -27.214967897118186 -26.553250259137258 0 -26.553250259137258 -206.06984556466341 0 0 0 0 -317.22851131271455 -217.12021888862591 0 -217.12021888862591 -158.49039690601978 0 0 0 0 -148.15179864648962 -42.921223551432604 0 -42.921223551432604 -41.818451217651273 0 0 0 0 -91.591677205564338 -69.199824862387686 0 -69.199824862387686 -68.297780297497638 0 0 0 0 -89.210076340168598 -57.320158217373091 0 -57.320158217373091 -29.302746077570191 0 0 0 0 -54.47969452549296 -77.198472999524029 0 -77.198472999524029 -72.790641791932558 0 0 0 0 23.171820417213894 -22.368484643245893 0 -22.368484643245893 -62.632779577882047 0 0 0 0 -67.330934631314449 54.499117749775337 0 54.499117749775337 29.010637371241046 0 0 0 0 -1.4914299196631617 -2.6086414944080616 0 -2.6086414944080616 5.718258809339348 0 0 0 0 -15.425651213052333 -7.854746095103792 0 -7.854746095103792 11.880151041563408 0 0 0 0 -14.342479963327719 -4.737139739615202 0 -4.737139739615202 6.4209380567573024 0 0 0 0 -10.088166961544005 -10.154183428830631 0 -10.154183428830631 8.1064525540825212 0 0 0 0 -3.7545756208019156 -17.453030913442149 0 -17.453030913442149 23.424414988300668 0 0 0 0 0.53291986911790445 -19.714302476229705 0 -19.714302476229705 9.8087567098991713 0 0 0 0 4.9750445541867521 -18.372285668880977 0 -18.372285668880977 6.7741239519579608 0 0 0 0 -9.3397087679950346 -6.1217432066276842 0 -6.1217432066276842 7.6067819038999005 0 0 0 0 -102.15636894050112 -141.66838324152741 0 -141.66838324152741 48.861837268290401 0 0 0 0 0.38670091803984974 -1.2451499684823375 0 -1.2451499684823375 4.4461840037025127 0 0 0 0 7.5800331118225586 -19.699616690020889 0 -19.699616690020889 7.2789485294624683 0 0 0 0 43.704773535428103 -19.915908753789154 0 -19.915908753789154 8.336710191868633 0 0 0 0 4.2610142618286773 -21.5666969571339 0 -21.5666969571339 10.637496644043495 0 0 0 0 80.671530586638255 -68.744203678967324 0 -68.744203678967324 -6.3520417558627287 0 0 0 0 121.08802630541322 -24.007252657182335 0 -24.007252657182335 -20.312839789025702 0 0 0 0 -9.9099927840579767 -65.680387870026038 0 -65.680387870026038 17.822603074456765 0 0 0 0 -171.27910391582554 30.30407411683791 0 30.30407411683791 130.99485810464284 0 0 0 0 -0.086188928755021266 -0.18513017721835467 0 -0.18513017721835467 1.9940981040152863 0 0 0 0 -106.2754278588327 95.61444230597715 0 95.61444230597715 87.161533331010105 0 0 0 0 -4.9242059231910389 56.690237254255635 0 56.690237254255635 54.640293055612347 0 0 0 0 0.18494594330625347 -0.11987565641348397 0 -0.11987565641348397 2.4259164165327007 0 0 0 0 -43.217143945032149 -72.262629612188675 0 -72.262629612188675 -13.71690255897056 0 0 0 0 -510.37741739295507 -11.822105725459522 0 -11.822105725459522 82.971825776255173 0 0 0 0 -277.45188764510021 -99.847453509765387 0 -99.847453509765387 170.88748638477955 0 0 0 0 -316.68111089234299 -25.099755714559706 0 -25.099755714559706 75.547333496572264 0 0 0 0 -348.90068743700976 -106.8943828146048 0 -106.8943828146048 26.338112218633341 0 0 0 0 6.8210484686132986 -62.647003135527257 0 -62.647003135527257 -50.353035502309012 0 0 0 0 -125.93133901213878 42.310167637910354 0 42.310167637910354 104.57784288374842 0 0 0 0 -4.9204434721132095 0.4793105052276303 0 0.4793105052276303 16.36013910323706 0 0 0 0 -185.17758251107443 45.418868209502762 0 45.418868209502762 16.039767699049662 0 0 0 0 -206.92298950605618 42.028661454747635 0 42.028661454747635 40.546881871337973 0 0 0 0 -236.94119275038247 41.455657521346438 0 41.455657521346438 178.99296075230177 0 0 0 0 -210.24185530602699 59.945207970098636 0 59.945207970098636 48.779560365776433 0 0 0 0 -205.40735669255082 40.630588840502242 0 40.630588840502242 39.250531995161055 0 0 0 0 -171.74861583055463 -117.59929738063965 0 -117.59929738063965 200.51163990527152 0 0 0 0 -214.63423266983591 -41.958881789601037 0 -41.958881789601037 67.720173330821126 0 0 0 0 -256.62881666047178 -30.909880201465967 0 -30.909880201465967 64.05929416991421 0 0 0 0 -0.19078613193180871 1.4478711655670224 0 1.4478711655670224 10.886740738080746 0 0 0 0 -213.39053289678122 -45.439929462765576 0 -45.439929462765576 43.319913085348162 0 0 0 0 -93.990612423032871 -12.653312533363987 0 -12.653312533363987 56.370998983931713 0 0 0 0 -8.5865761477471096 -0.20811001843048871 0 -0.20811001843048871 -9.1111257930097054 0 0 0 0 -5.5516163836056052 -3.3214695720235738 0 -3.3214695720235738 22.624042959042857 0 0 0 0 -20.900916465582412 -10.971506078807451 0 -10.971506078807451 9.3744582476685299 0 0 0 0 -32.48299069753557 -26.041886570727129 0 -26.041886570727129 3.1853857904723597 0 0 0 0 -22.601169344170557 -31.200239985367034 0 -31.200239985367034 28.722425999253119 0 0 0 0 -10.658405991940526 -23.872146421179195 0 -23.872146421179195 26.606220866523813 0 0 0 0 -4.3759555435362643 -11.712585341082132 0 -11.712585341082132 22.00635636227361 0 0 0 0 -46.567882138137065 -24.104466469066892 0 -24.104466469066892 29.110630223553699 0 0 0 0 -17.972564391275228 -20.633664580612162 0 -20.633664580612162 21.725622608736558 0 0 0 0 -11.470620242015457 -11.944560443682875 0 -11.944560443682875 7.9706991631625108 0 0 0 0 -4.0657213889062405 -13.356233093945093 0 -13.356233093945093 18.870570738169135 0 0 0 0 3.1366815393463128 -14.979909583015996 0 -14.979909583015996 18.488903428505964 0 0 0 0 1.681272188492585 -19.48868411393687 0 -19.48868411393687 15.353307705410771 0 0 0 0 1.6411235682753613 -24.203573840839198 0 -24.203573840839198 16.964085335838718 0 0 0 0 -31.038700247401721 -11.631693734934096 0 -11.631693734934096 24.815444386948336 0 0 0 0 -18.460157376001007 -30.220390614940698 0 -30.220390614940698 19.236455233881316 0 0 0 0 -1.3210998448700479 -13.652530745807155 0 -13.652530745807155 11.274540490539518 0 0 0 0 0.13069646851380057 1.2698615554757282 0 1.2698615554757282 0.25216818897643378 0 0 0 0 51.657104328900459 -33.817673171579372 0 -33.817673171579372 -1.6571079167997596 0 0 0 0 20.405236353806686 -22.333963372892867 0 -22.333963372892867 12.907298799832461 0 0 0 0 -20.721131099146078 -15.880517825002187 0 -15.880517825002187 24.109570511091079 0 0 0 0 -85.617202879104298 -40.994624899618884 0 -40.994624899618884 -5.7263823010107444 0 0 0 0 -11.903499808715424 -28.335875816363114 0 -28.335875816363114 -23.532713031236653 0 0 0 0 -83.742922446428565 -19.232725240437503 0 -19.232725240437503 -24.645130201045049 0 0 0 0 36.611645573255373 99.216515635263931 0 99.216515635263931 77.09693323447209 0 0 0 0 -72.902113667179947 -39.572704418669673 0 -39.572704418669673 -18.07904398716164 0 0 0 0 -1.6527819087588682 -3.0249564860566522 0 -3.0249564860566522 4.363500433408495 0 0 0 0 21.6747624213167 -16.486613141221824 0 -16.486613141221824 31.795041719795336 0 0 0 0 -5.4454599825705827 -5.3196972224642991 0 -5.3196972224642991 24.175570713896931 0 0 0 0 -6.9870352023480962 -9.4873668857212294 0 -9.4873668857212294 -2.853498048940061 0 0 0 0 -84.444765952066518 -93.149264326407319 0 -93.149264326407319 65.784039506208501 0 0 0 0 -173.70815258719085 66.804733409353503 0 66.804733409353503 -24.002992741686455 0 0 0 0 -199.51060977491579 73.462207173289471 0 73.462207173289471 -23.48373950236055 0 0 0 0 -237.36652666382361 47.941612712779715 0 47.941612712779715 20.590130678716378 0 0 0 0 -254.48049716396781 107.34793822075972 0 107.34793822075972 2.3805120212327893 0 0 0 0 -240.49011966885882 166.3719985348007 0 166.3719985348007 -149.3657049135636 0 0 0 0 -168.48992413814995 88.835349881861475 0 88.835349881861475 -66.340491457885946 0 0 0 0 -422.39148347219452 110.55110463856454 0 110.55110463856454 6.2700567201591184 0 0 0 0 66.349514937209278 -56.354878162861326 0 -56.354878162861326 -128.26579719992515 0 0 0 0 -534.03120332781691 306.29489753674261 0 306.29489753674261 -143.48205218293126 0 0 0 0 28.718792812374886 -99.222038555912263 0 -99.222038555912263 -156.12527905852312 0 0 0 0 -1.0645415074026232 -2.4334712936168188 0 -2.4334712936168188 -4.8344430187552199 0 0 0 0 -104.20007501830696 -228.21473656173339 0 -228.21473656173339 -124.0309100552513 0 0 0 0 -322.2369091460132 -291.63756134520429 0 -291.63756134520429 172.70344938311143 0 0 0 0 -51.887895359017421 -92.263368063648386 0 -92.263368063648386 39.614470252405226 0 0 0 0 -72.149413387371169 -51.729130197282757 0 -51.729130197282757 -5.8080356186383142 0 0 0 0 -53.709955043283571 -66.658462766574473 0 -66.658462766574473 3.303185908604064 0 0 0 0 -159.6805043856948 -86.045476238466108 0 -86.045476238466108 59.36511496189155 0 0 0 0 -42.446667048920062 -64.889652389263119 0 -64.889652389263119 2.2891907134826397 0 0 0 0 -128.9570601227133 99.240994217957052 0 99.240994217957052 5.3204639893168633 0 0 0 0 -4.3751267672163863 4.6879956158499354 0 4.6879956158499354 1.8510540577110808 0 0 0 0 -301.34421458137513 -206.60206847478094 0 -206.60206847478094 356.53610741240982 0 0 0 0 -3.5148290824290598 -26.552062867271161 0 -26.552062867271161 8.9436396050796247 0 0 0 0 -36.547307021683082 -15.284700996198694 0 -15.284700996198694 15.433245191563088 0 0 0 0 1.7735993410359612 -12.801611510259818 0 -12.801611510259818 18.163992810664524 0 0 0 0 2.6746426804020302 -54.912438985125391 0 -54.912438985125391 13.087567771572594 0 0 0 0 -28.097510269304621 -47.215168636439216 0 -47.215168636439216 8.5906096134449683 0 0 0 0 -33.507838628909667 -42.988102097314538 0 -42.988102097314538 13.8483199589582 0 0 0 0 -40.754362486826722 -27.678813680574592 0 -27.678813680574592 19.585110530229599 0 0 0 0 -50.031855456588403 -12.808651408321786 0 -12.808651408321786 0.38468456258600159 0 0 0 0 -9.3796770792017554 -8.8484017693350268 0 -8.8484017693350268 14.139282938663065 0 0 0 0 -27.892654341776506 -43.235739231076892 0 -43.235739231076892 32.697006498552156 0 0 0 0 -27.52077212428776 47.304416758338746 0 47.304416758338746 50.138361127389771 0 0 0 0 -9.6740140077784531 -3.2222930459624308 0 -3.2222930459624308 5.2120534684314546 0 0 0 0 -107.64402746270935 -17.674965826903929 0 -17.674965826903929 78.392220725136895 0 0 0 0 -40.436749030268402 -21.09436880692023 0 -21.09436880692023 -14.200995844651672 0 0 0 0 185.2539105975884 488.66756473110974 0 488.66756473110974 -0.71049323068026782 0 0 0 0 -0.56728642957733655 0.41737354111879199 0 0.41737354111879199 0.63993294297775938 0 0 0 0 -163.38275182887446 -140.03344411187092 0 -140.03344411187092 -83.702624041831683 0 0 0 0 31.560665175806207 115.10411690862784 0 115.10411690862784 -0.65031469623711369 0 0 0 0 -186.33265164871409 -17.450389812747918 0 -17.450389812747918 38.795561199963743 0 0 0 0 -131.46747048255929 63.677093366107783 0 63.677093366107783 19.806643160099384 0 0 0 0 -3.8060718541562437 4.6355943762916283 0 4.6355943762916283 2.48070335014223 0 0 0 0 -189.11232768619084 -170.1616330318368 0 -170.1616330318368 131.63359894887026 0 0 0 0 -68.835467348326659 8.9547743662134707 0 8.9547743662134707 10.153836294659662 0 0 0 0 -68.240596349656698 -69.833187471051971 0 -69.833187471051971 27.85181485672598 0 0 0 0 -66.274951898926986 -11.389975260329734 0 -11.389975260329734 0.32476189203696193 0 0 0 0 -8.5850718377322437 -7.2681161735462751 0 -7.2681161735462751 4.2766877557489602 0 0 0 0 -103.60415421357175 -37.310979016662657 0 -37.310979016662657 92.97228880532225 0 0 0 0 -112.69317403923196 -480.41519491141219 0 -480.41519491141219 -361.42171161950591 0 0 0 0 -5.8980043639622863 0.19576528534730642 0 0.19576528534730642 0.13580797678895573 0 0 0 0 -202.63489750504959 231.6327713912849 0 231.6327713912849 455.44258410814996 0 0 0 0 -588.89586897435947 -346.80815535086754 0 -346.80815535086754 376.53023136458705 0 0 0 0 -9.0170479669468477 1.8306816330130413 0 1.8306816330130413 0.0080962422599405778 0 0 0 0 103.9490255801793 3.4442065267365223 0 3.4442065267365223 -191.323377119778 0 0 0 0 2.9640459002694115 -115.417164675197 0 -115.417164675197 -165.85593822789042 0 0 0 0 -12.415642416159642 2.1631513954012576 0 2.1631513954012576 0.036169840579563829 0 0 0 0 -12.42168148298515 1.3618018831351573 0 1.3618018831351573 1.918166023142881 0 0 0 0 -7.7819370906508993 5.8104576965508432 0 5.8104576965508432 0.67166996725937622 0 0 0 0 -6.6406249314895831 2.8753520722523263 0 2.8753520722523263 11.309655126596681 0 0 0 0 -10.50593592205405 4.4234195304142201 0 4.4234195304142201 4.6102030936119691 0 0 0 0 -9.8169982765684836 8.1290713711814249 0 8.1290713711814249 6.09799009811708 0 0 0 0 -11.623759422396233 2.0457666287201555 0 2.0457666287201555 -0.47800033992320612 0 0 0 0 -123.25618608866353 -33.502249880817999 0 -33.502249880817999 -58.527428749484443 0 0 0 0 -10.874453245651182 0.21473372108050626 0 0.21473372108050626 1.0417010444847876 0 0 0 0 -94.308049878993188 -63.936769810342867 0 -63.936769810342867 17.48539284605522 0 0 0 0 -36.901546934968792 -54.668738759001826 0 -54.668738759001826 -62.510101575335284 0 0 0 0 -77.931130518234568 -37.66272961139839 0 -37.66272961139839 51.095969159774086 0 0 0 0 -14.249441428401042 -12.598870536163759 0 -12.598870536163759 0.79610569359374495 0 0 0 0 -7.1886008473738912 -20.510288762281903 0 -20.510288762281903 -1.4450152570348109 0 0 0 0 -21.513199609704316 3.3507976713408425 0 3.3507976713408425 12.067219760054741 0 0 0 0 -13.649475573600057 -2.1235091296207287 0 -2.1235091296207287 2.4515545562296719 0 0 0 0 -22.891548908257391 6.5116148726046958 0 6.5116148726046958 -8.7648624955581909 0 0 0 0 -21.422693095101749 -3.2803636259895939 0 -3.2803636259895939 -1.4619184204047073 0 0 0 0 -3.1725226268172264 1.4320012764426222 0 1.4320012764426222 3.7615488924480491 0 0 0 0 -35.560774000710808 1.6850489817836056 0 1.6850489817836056 18.323666543592577 0 0 0 0 -8.0021119825833011 6.8250220504066492 0 6.8250220504066492 -0.0023862046664602449 0 0 0 0 -6.8327250170405023 9.828521544302836 0 9.828521544302836 2.1436438884391942 0 0 0 0 -30.779911884048488 4.3430217467852952 0 4.3430217467852952 3.5483113897462388 0 0 0 0 -54.474728466782835 7.3803224205124538 0 7.3803224205124538 0.011113926156719019 0 0 0 0 -30.709311849428559 3.5924131032468081 0 3.5924131032468081 -3.4566493442147745 0 0 0 0 -4.6646992761150443 -0.97172068614551677 0 -0.97172068614551677 1.7106868227424525 0 0 0 0 -85.268200021455414 -5.2644827760858259 0 -5.2644827760858259 11.309275464619134 0 0 0 0 -59.310680334165227 19.748043256252132 0 19.748043256252132 4.5866664922200986 0 0 0 0 -19.088636821164982 16.525065150414573 0 16.525065150414573 2.2683462862575414 0 0 0 0 -45.367686271623825 3.0480062140966631 0 3.0480062140966631 16.957322962914098 0 0 0 0 -4.6873768630903214 13.302502987821267 0 13.302502987821267 2.9806836020510259 0 0 0 0 -2.7325598167649332 3.0803305748668492 0 3.0803305748668492 -0.50142544679251266 0 0 0 0 -20.295399619732052 -4.2437689481413434 0 -4.2437689481413434 19.066409233091342 0 0 0 0 -16.098376653841115 42.248915650253231 0 42.248915650253231 -33.228872766664388 0 0 0 0 -18.321669215831207 7.8193712930356014 0 7.8193712930356014 17.636316060370973 0 0 0 0 -34.959119625198923 8.0069018920749144 0 8.0069018920749144 0.70765806905876572 0 0 0 0 -32.65293161801182 4.1491560032264942 0 4.1491560032264942 2.0677502321424983 0 0 0 0 -27.333994239332867 10.568315155099299 0 10.568315155099299 -2.362119345654607 0 0 0 0 -151.57255294757488 -44.983124127753399 0 -44.983124127753399 146.09360500525622 0 0 0 0 -25.978598720118555 10.299177409421844 0 10.299177409421844 -1.9628585244730079 0 0 0 0 -14.290119714467437 161.1540419880514 0 161.1540419880514 -99.494589192100648 0 0 0 0 -25.719495013268897 3.7615432831466933 0 3.7615432831466933 14.336016275937709 0 0 0 0 -64.908938711887458 13.011578661131196 0 13.011578661131196 20.88338523391123 0 0 0 0 -5.0442740837538054 -2.5760628100378682 0 -2.5760628100378682 2.7349877943109755 0 0 0 0 -26.301048761422635 1.0709204010629776 0 1.0709204010629776 1.0420187719477709 0 0 0 0 -41.92680963021121 -69.731846196806146 0 -69.731846196806146 -27.662028241544704 0 0 0 0 -27.761510561670093 5.682908881113768 0 5.682908881113768 -1.3932227384591052 0 0 0 0 -13.733937149285339 -6.0571489671623056 0 -6.0571489671623056 5.8534410914958812 0 0 0 0 -24.166053256689338 4.4883485260700127 0 4.4883485260700127 -10.862716589703268 0 0 0 0 -31.197312620384764 25.839396044451064 0 25.839396044451064 -74.917088280253665 0 0 0 0 -118.960246883129 62.334004919097424 0 62.334004919097424 -10.361664377808665 0 0 0 0 -78.651244107139064 -62.751900911555822 0 -62.751900911555822 -6.6184516669909499 0 0 0 0 -168.41614892549114 -0.6050532340573227 0 -0.6050532340573227 25.937843967252775 0 0 0 0 -59.26255807641428 -6.5757912747812952 0 -6.5757912747812952 21.832694445295601 0 0 0 0 -81.198932595456426 2.6535771506730725 0 2.6535771506730725 27.84792571474145 0 0 0 0 -61.073309754399816 10.784578652090204 0 10.784578652090204 30.475320111565452 0 0 0 0 -67.71607933568157 -23.770488488211186 0 -23.770488488211186 8.2494920311064561 0 0 0 0 -58.599757355201291 -8.3852759907285872 0 -8.3852759907285872 12.481088131474735 0 0 0 0 -45.496314694833927 45.606145142822527 0 45.606145142822527 31.312652728820467 0 0 0 0 -42.089732176245889 34.863085669233897 0 34.863085669233897 -1.2784405339193654 0 0 0 0 65.483478666224983 207.75037572110205 0 207.75037572110205 125.85621266343969 0 0 0 0 -41.268558702941732 13.471836030356123 0 13.471836030356123 1.3524171758090411 0 0 0 0 -65.989462363009807 -108.11584135681596 0 -108.11584135681596 -263.8809583448874 0 0 0 0 -148.60710368844593 276.10854910161925 0 276.10854910161925 200.92835190999904 0 0 0 0 -24.302140203864838 24.85873135606505 0 24.85873135606505 19.570180558048378 0 0 0 0 -38.87911504642102 6.8261672110146918 0 6.8261672110146918 6.4154640041718052 0 0 0 0 -37.100925986250729 1.7315807989764522 0 1.7315807989764522 4.4958455246408704 0 0 0 0 -16.780116473364615 9.8687987828745918 0 9.8687987828745918 -12.5741193513295 0 0 0 0 -18.776021108031273 6.7833089516193468 0 6.7833089516193468 -16.510940541326818 0 0 0 0 106.6939926520281 166.18995099407402 0 166.18995099407402 0.92851431334020162 0 0 0 0 290.58081843255786 155.88352866874402 0 155.88352866874402 -64.256709401296121 0 0 0 0 168.60765522834845 65.586582045870045 0 65.586582045870045 -126.59461705933518 0 0 0 0 334.09405430224979 406.44549075591976 0 406.44549075591976 -131.77451857375127 0 0 0 0 965.29447528529226 402.63885628286801 0 402.63885628286801 -397.64517557973249 0 0 0 0 939.00259292752617 -255.75255718565515 0 -255.75255718565515 -6.5693626833071903 0 0 0 0 4.2493665171409702 2.255514619535461 0 2.255514619535461 0.18093349794652966 0 0 0 0 -32.073847981118888 11.733177584799714 0 11.733177584799714 -0.010042868572377831 0 0 0 0 -67.219877788273152 21.281045224558749 0 21.281045224558749 3.1774893543462119 0 0 0 0 -100.51795448671328 -3.5469138664678557 0 -3.5469138664678557 19.700952551704617 0 0 0 0 -11.223275615861041 2.4601134650346808 0 2.4601134650346808 2.4159554045098601 0 0 0 0 -33.339523765869671 20.670844385093247 0 20.670844385093247 2.9100412216519214 0 0 0 0 165.49228644730829 68.112560808840271 0 68.112560808840271 -16.817494552395601 0 0 0 0 -4.7224581062574487 11.233570622239 0 11.233570622239 3.8085493684288174 0 0 0 0 48.799262140120845 45.430140808204669 0 45.430140808204669 -21.223620274690575 0 0 0 0 -48.621682631695876 -3.3922534079275266 0 -3.3922534079275266 6.8163684516184517 0 0 0 0 -112.75134467508178 -93.64609859716802 0 -93.64609859716802 8.2512777326282958 0 0 0 0 -61.349999046321557 -11.510572308718253 0 -11.510572308718253 9.4559737518222047 0 0 0 0 -37.845173048770675 3.2420562788365856 0 3.2420562788365856 0.99998415457120604 0 0 0 0 -71.772901992138941 7.9441331576141554 0 7.9441331576141554 26.759972745504399 0 0 0 0 -36.51506290519319 -5.5635634760905432 0 -5.5635634760905432 8.2654319689636253 0 0 0 0 -66.388195542516769 16.492703635950043 0 16.492703635950043 -5.7139605715763935 0 0 0 0 -55.002793288804241 7.5036864388948121 0 7.5036864388948121 -5.4224042837307831 0 0 0 0 -56.945747213729192 23.505954305817514 0 23.505954305817514 -8.6036855497660127 0 0 0 0 -48.080212239729008 13.691228752560345 0 13.691228752560345 0.00079818664547659599 0 0 0 0 -28.054941764895261 11.117464260477735 0 11.117464260477735 -4.5397194307743023 0 0 0 0 -26.727021961734863 10.361974008925699 0 10.361974008925699 4.6915874016178805 0 0 0 0 -65.456505756854312 30.618475630795896 0 30.618475630795896 19.820241082980964 0 0 0 0 -27.017961477962672 13.983883042316943 0 13.983883042316943 -8.8119248398925141 0 0 0 0 -29.056557455362054 5.6436777097360391 0 5.6436777097360391 -3.519174401071723 0 0 0 0 -19.788747946645799 9.3691427467684463 0 9.3691427467684463 -1.5783748621194764 0 0 0 0 23.261853230021188 20.938661882921252 0 20.938661882921252 -2.3911653833256423 0 0 0 0 -32.715081467758864 1.8639879504580676 0 1.8639879504580676 -3.3031434775875823 0 0 0 0 26.801751039514784 -29.857653778211443 0 -29.857653778211443 -14.684331127502446 0 0 0 0 -4.5008426087248665 3.7266046675687505 0 3.7266046675687505 0.66578896274658206 0 0 0 0 -27.727041512815049 -13.091392924848151 0 -13.091392924848151 10.869637842658449 0 0 0 0 -11.865259220357984 23.711403614513529 0 23.711403614513529 -7.2827568409011292 0 0 0 0 -27.584680552463396 3.5068748684134334 0 3.5068748684134334 3.5846343123180304 0 0 0 0 -13.085798696651182 5.4655760658974941 0 5.4655760658974941 2.4657958156321911 0 0 0 0 -4.7733114872728493 -0.49005061183987664 0 -0.49005061183987664 1.9997979703145567 0 0 0 0 -172.89959674430429 -6.8983099682191096 0 -6.8983099682191096 -18.002528620301746 0 0 0 0 -28.877517422835808 -1.7297373337733006 0 -1.7297373337733006 -82.639171249391438 0 0 0 0 -30.580036574239784 -14.400917302054268 0 -14.400917302054268 18.797274523407395 0 0 0 0 -163.20986406432348 -29.196813657822531 0 -29.196813657822531 8.2022040335323254 0 0 0 0 -139.5176171521889 -27.435181680908499 0 -27.435181680908499 6.8520296567430705 0 0 0 0 -165.43250447875471 1.1483769109813693 0 1.1483769109813693 15.596472818322582 0 0 0 0 -135.02887675113743 -22.769273972930023 0 -22.769273972930023 8.415317068287095 0 0 0 0 -94.872196932206862 -14.236993200942379 0 -14.236993200942379 3.6138806001254125 0 0 0 0 -111.96027345843322 8.7876008400126011 0 8.7876008400126011 15.67358487616184 0 0 0 0 -32.93987675322569 4.8590558459018212 0 4.8590558459018212 0.4753379892117664 0 0 0 0 -31.958433800638886 7.6436901527772534 0 7.6436901527772534 2.337181264241508 0 0 0 0 -21.23282882624224 -5.0979874042648419 0 -5.0979874042648419 0.50984774557812784 0 0 0 0 -73.498847471433692 48.143166646751524 0 48.143166646751524 21.604528459670746 0 0 0 0 -125.01854042790728 26.23906212548718 0 26.23906212548718 -45.386765655428462 0 0 0 0 -27.845917274810233 38.240540343417052 0 38.240540343417052 -0.32228139191011174 0 0 0 0 -140.48065410535492 28.743798861195046 0 28.743798861195046 24.947185476519735 0 0 0 0 -54.450924730233965 73.034467825670163 0 73.034467825670163 -45.181490565628337 0 0 0 0 -7.1558796354350989 -15.400394486985784 0 -15.400394486985784 6.3130514437245484 0 0 0 0 -122.36814289633185 12.113875604431087 0 12.113875604431087 27.13396950211586 0 0 0 0 -30.771892371640348 34.638388999692154 0 34.638388999692154 -0.13716414424586532 0 0 0 0 -106.37880303000566 6.5550909480894006 0 6.5550909480894006 11.906913576731313 0 0 0 0 -66.156577766683768 65.754702272282429 0 65.754702272282429 -34.883307643487569 0 0 0 0 -116.02070798637578 16.782612007429634 0 16.782612007429634 5.5627806740185406 0 0 0 0 -225.40445490169805 5.9614295048540953 0 5.9614295048540953 -16.037440346110088 0 0 0 0 -188.9237932742908 32.297574814827385 0 32.297574814827385 2.8925648893018661 0 0 0 0 -158.32215734917554 90.07961837464245 0 90.07961837464245 -30.574145504900116 0 0 0 0 -60.890315521712182 79.390617326229403 0 79.390617326229403 157.24780742488292 0 0 0 0 -101.0184838888963 4.2595652849634007 0 4.2595652849634007 26.326155563249813 0 0 0 0 -699.60932223766576 226.40714306894461 0 226.40714306894461 458.9211566609506 0 0 0 0 -61.978238688484225 -11.155792698859614 0 -11.155792698859614 -0.21156794971781423 0 0 0 0 -10.922674747635028 124.98741138310265 0 124.98741138310265 52.781594037575815 0 0 0 0 4.5621451766928658 140.49695799250912 0 140.49695799250912 -3.7684122403766196 0 0 0 0 27.359685183757392 252.72920419354114 0 252.72920419354114 199.2911354604139 0 0 0 0 -2212.7465398913191 -671.04073497250829 0 -671.04073497250829 370.75908898417947 0 0 0 0 -101.75771683354105 -6.3251011142447169 0 -6.3251011142447169 9.1075376223125204 0 0 0 0 -100.71820966948872 -10.576804639211332 0 -10.576804639211332 24.505478245926497 0 0 0 0 -83.973087295773439 -35.043641139332976 0 -35.043641139332976 -28.072619342539838 0 0 0 0 -87.373590437258827 -9.4209998687410916 0 -9.4209998687410916 -22.33609481665917 0 0 0 0 -2282.1659265340422 -2740.6736055298343 0 -2740.6736055298343 4490.4281258235969 0 0 0 0 -67.393596053152578 -28.896584071514553 0 -28.896584071514553 -53.469950669230457 0 0 0 0 -12.396681141438236 2.6971621125643992 0 2.6971621125643992 -11.317126532630169 0 0 0 0 -772.71250956696895 1107.2297733740982 0 1107.2297733740982 -34.423127606466551 0 0 0 0 -1509.8752609525836 440.27692189593381 0 440.27692189593381 410.48426978798011 0 0 0 0 -1272.3681363060314 997.24776535275487 0 997.24776535275487 -3726.3246839710228 0 0 0 0 -66.960062926922546 -36.996061880444017 0 -36.996061880444017 -79.545021894067759 0 0 0 0 -96.02598244548426 -35.813242688272112 0 -35.813242688272112 -25.72526233501776 0 0 0 0 -96.144019131665118 -38.849777461788108 0 -38.849777461788108 -47.1368214019476 0 0 0 0 -114.78412368646241 -29.332254218377784 0 -29.332254218377784 -1.9887355497121462 0 0 0 0 -108.82681013445836 -40.459457386547001 0 -40.459457386547001 -45.668221983783951 0 0 0 0 -108.75375449332932 -43.149808243095322 0 -43.149808243095322 -70.038076484575868 0 0 0 0 -71.014456453136518 -48.209924227619922 0 -48.209924227619922 -97.332827905134764 0 0 0 0 -115.77518664085073 -64.504548040542431 0 -64.504548040542431 -83.99394830809797 0 0 0 0 -81.554041490948293 -57.014816182003415 0 -57.014816182003415 -97.46823878590294 0 0 0 0 -8.030111703860257 7.8806546923482799 0 7.8806546923482799 -1.2721320034847921 0 0 0 0 -145.22708021948347 -51.546274869429908 0 -51.546274869429908 -67.589640898600919 0 0 0 0 -163.74810220143991 -20.155150952092299 0 -20.155150952092299 -267.97489967574074 0 0 0 0 -263.731907177018 -73.362572861220542 0 -73.362572861220542 -72.472801202831761 0 0 0 0 -142.17682644916931 -46.745826996331743 0 -46.745826996331743 -74.624621383074555 0 0 0 0 -293.0680865385948 -4.0197760692108204 0 -4.0197760692108204 -42.001962829825061 0 0 0 0 -306.66990670136875 69.512819341809518 0 69.512819341809518 -213.27109971244499 0 0 0 0 -219.66350613208488 36.87907763208932 0 36.87907763208932 -20.009253616088245 0 0 0 0 -107.91597930304124 -26.190327747268384 0 -26.190327747268384 -26.360067624128078 0 0 0 0 -142.99700879078591 40.501534419950531 0 40.501534419950531 0.98917800282288226 0 0 0 0 -198.03729633294279 -55.532348901284422 0 -55.532348901284422 -45.627043246473477 0 0 0 0 -153.56789182993816 -23.385235857309453 0 -23.385235857309453 -26.33248931644448 0 0 0 0 -105.05585076675197 24.831876737323682 0 24.831876737323682 65.578715776699937 0 0 0 0 -59.06463200590224 -0.29721273502946133 0 -0.29721273502946133 -3.0603793475320344 0 0 0 0 -104.45118575560628 -16.624264268462866 0 -16.624264268462866 8.2740056057737092 0 0 0 0 -79.935043517267331 -26.256241829878491 0 -26.256241829878491 -20.456912143767113 0 0 0 0 -79.501090806763386 -25.473272827406618 0 -25.473272827406618 8.851658337713161 0 0 0 0 -69.786713781199069 -3.8835852881102255 0 -3.8835852881102255 25.45782955568211 0 0 0 0 5.0270567841325828 87.205113864131022 0 87.205113864131022 -10.937759949236352 0 0 0 0 8.134209951676894 72.170565285246084 0 72.170565285246084 -42.708757223839712 0 0 0 0 -100.62109321076423 37.968177222464874 0 37.968177222464874 -54.486328519691597 0 0 0 0 -208.76852170930943 21.393341146733292 0 21.393341146733292 -0.34293335633628885 0 0 0 0 -251.73811241710791 88.64412134349277 0 88.64412134349277 -68.099925393675221 0 0 0 0 -127.47805554978549 103.66332602602961 0 103.66332602602961 -97.483958585558867 0 0 0 0 -78.538987750958768 94.189814330908348 0 94.189814330908348 -103.58855470912385 0 0 0 0 -5.8711699181585573 55.959973643145531 0 55.959973643145531 -53.987346131147206 0 0 0 0 22.636255326331593 5.4304744155624576 0 5.4304744155624576 -88.119644855376464 0 0 0 0 -30.369626447281917 32.930039978400146 0 32.930039978400146 -43.474512208360466 0 0 0 0 7.8952330050742603 40.813579910049157 0 40.813579910049157 -18.440398088247093 0 0 0 0 6.8655646190163679 37.597968650057737 0 37.597968650057737 -27.594578559052025 0 0 0 0 17.836454048585438 0.42059752584577836 0 0.42059752584577836 -21.821798542776378 0 0 0 0 -1.96102958158815 2.0710533277357683 0 2.0710533277357683 -1.4271904183127901 0 0 0 0 -27.619684902648942 5.2243204300181105 0 5.2243204300181105 14.907283226099025 0 0 0 0 -10.024493951379554 23.494214385429586 0 23.494214385429586 28.970580498717027 0 0 0 0 -7.9332565119523792 16.263687632744293 0 16.263687632744293 -0.54208941860391491 0 0 0 0 -29.270420851462404 -0.35218301347504166 0 -0.35218301347504166 65.535783262993846 0 0 0 0 -40.46891516196979 18.108573635574032 0 18.108573635574032 -1.8358922838924805 0 0 0 0 -6.6406332156475401 84.214179011710712 0 84.214179011710712 30.48127466254482 0 0 0 0 -46.147128332813736 50.22951938414235 0 50.22951938414235 180.37971729219316 0 0 0 0 -23.238695622232626 55.215161577420076 0 55.215161577420076 77.675659807311604 0 0 0 0 -44.836212029964372 -16.788854287555296 0 -16.788854287555296 214.23051264112246 0 0 0 0 31.094037505608867 -58.925573893080582 0 -58.925573893080582 409.26313426363458 0 0 0 0 7.1981265494105173 -101.08833934643553 0 -101.08833934643553 334.90486741019095 0 0 0 0 -40.258440581719015 14.963697661766794 0 14.963697661766794 -1.701664297139736 0 0 0 0 0.94069237059375155 -6.2780248414305788 0 -6.2780248414305788 393.24484635273075 0 0 0 0 -46.878943750925828 83.556869057712902 0 83.556869057712902 264.19134072067936 0 0 0 0 -35.354067885986296 72.568233217001762 0 72.568233217001762 60.185128475133524 0 0 0 0 -36.642625270871349 -17.905242457108443 0 -17.905242457108443 13.998334571308078 0 0 0 0 260.44792299767141 -2.0004445793438208 0 -2.0004445793438208 357.8781301211975 0 0 0 0 -2.8307867277124501 -0.73171812571894179 0 -0.73171812571894179 0.25877706989017568 0 0 0 0 -247.12563096126541 538.77576834151478 0 538.77576834151478 613.75123532759244 0 0 0 0 -59.368415853736224 21.72121881532621 0 21.72121881532621 15.633268179973498 0 0 0 0 -34.457212212145635 12.992920166305197 0 12.992920166305197 -0.77952459442858668 0 0 0 0 -221.99890264272108 705.11292562727158 0 705.11292562727158 148.38154680591833 0 0 0 0 -340.24005559149373 258.55737043407134 0 258.55737043407134 623.4710570544612 0 0 0 0 69.35805506244651 122.48084483631465 0 122.48084483631465 614.82383894673694 0 0 0 0 -1.8501734716047906 1.4080048465939399 0 1.4080048465939399 -7.5163305508363969 0 0 0 0 -82.472959615668515 -38.658929101624381 0 -38.658929101624381 17.080763463100965 0 0 0 0 -110.26833213266218 -31.50527762812635 0 -31.50527762812635 30.83719412296341 0 0 0 0 -67.15051390422741 -16.89616657741999 0 -16.89616657741999 -40.466954962530508 0 0 0 0 9.85074177714705 -45.556777579922709 0 -45.556777579922709 -107.660019687979 0 0 0 0 5.6183747496979777 -22.047948372312021 0 -22.047948372312021 -42.267127250192061 0 0 0 0 -216.50296053927741 6.2660483177455717 0 6.2660483177455717 -13.859010292439734 0 0 0 0 -185.67089276062325 -100.99875655598589 0 -100.99875655598589 -65.32441438544447 0 0 0 0 -273.69259677744412 35.838660348695157 0 35.838660348695157 66.226287369676356 0 0 0 0 -190.89209188375389 -32.488984599046489 0 -32.488984599046489 -1.4100019131160479 0 0 0 0 -288.41414102685303 -53.419952235691653 0 -53.419952235691653 -41.345410986553361 0 0 0 0 -639.65154064432681 -21.296116973128392 0 -21.296116973128392 9.7173835406356375 0 0 0 0 113.47640114039677 125.51186993519923 0 125.51186993519923 -81.231558584782761 0 0 0 0 9.2404545465251431 -64.97134619762619 0 -64.97134619762619 -201.83650586173644 0 0 0 0 86.264373062193044 51.988615048132488 0 51.988615048132488 -82.239994315705189 0 0 0 0 45.462597860416281 45.701212939171455 0 45.701212939171455 15.597706155636843 0 0 0 0 62.777505145168107 56.041927382691711 0 56.041927382691711 -15.597911071734416 0 0 0 0 -46.6327968622752 16.54956595347727 0 16.54956595347727 0.4807106234402827 0 0 0 0 -52.861219494632678 18.464184178664254 0 18.464184178664254 29.311786072700556 0 0 0 0 45.510934219262708 78.564227753512114 0 78.564227753512114 8.7479887539302581 0 0 0 0 -52.940288318379316 20.273939747029544 0 20.273939747029544 5.9667283707731258 0 0 0 0 -20.766075839083442 15.660588613481821 0 15.660588613481821 3.3252583590157165 0 0 0 0 -28.909123496967368 18.754732854114991 0 18.754732854114991 -6.4386133694752061 0 0 0 0 -30.704531440460585 5.45702354629843 0 5.45702354629843 6.1685413748488962 0 0 0 0 -7.8287263012315975 4.45078539199055 0 4.45078539199055 -2.8172217912874444 0 0 0 0 -45.268640920381586 25.852672507733587 0 25.852672507733587 87.897580627255593 0 0 0 0 -47.097066870883282 48.388358147812141 0 48.388358147812141 -35.574536538498251 0 0 0 0 -69.586641654139385 47.759114387733462 0 47.759114387733462 17.184506212532142 0 0 0 0 29.370407428956241 55.503748128863663 0 55.503748128863663 6.8231589621751141 0 0 0 0 -1.2376414609786082 10.753789451678315 0 10.753789451678315 3.085427334891417 0 0 0 0 -0.97758119276841171 -46.531458581755942 0 -46.531458581755942 -24.327897596410821 0 0 0 0 46.660546358994907 6.595640374227969 0 6.595640374227969 -34.630789771317723 0 0 0 0 16.608692859968869 22.062908840690397 0 22.062908840690397 -25.626774746234332 0 0 0 0 59.103653708138154 -30.854125807878518 0 -30.854125807878518 61.658354097948177 0 0 0 0 -9.4859379186091246 -88.266349052692931 0 -88.266349052692931 204.32832145251814 0 0 0 0 4.5281577574411358 2.2075797226001583 0 2.2075797226001583 1.9456706242368256 0 0 0 0 -67.531755216718011 9.6593553598631843 0 9.6593553598631843 181.33467358131111 0 0 0 0 -85.429547957694012 -30.804817548472329 0 -30.804817548472329 225.79542744504761 0 0 0 0 -69.360115837524063 7.1767610239521673 0 7.1767610239521673 185.26374997468338 0 0 0 0 -66.08719893801026 -0.00081682839027052978 0 -0.00081682839027052978 226.20731495025757 0 0 0 0 -33.706894119968638 15.387778740268914 0 15.387778740268914 88.588819186254113 0 0 0 0 -71.129676956801632 -3.7185129632861162 0 -3.7185129632861162 160.4781856724876 0 0 0 0 -60.233178951209993 19.076195275203645 0 19.076195275203645 173.95568152808664 0 0 0 0 -45.165149190681404 -4.7636167470427608 0 -4.7636167470427608 184.9755304784278 0 0 0 0 -71.611223488551332 13.49666510085035 0 13.49666510085035 194.09426400896064 0 0 0 0 -122.80322944452928 -8.0543811495199407 0 -8.0543811495199407 267.24998423140596 0 0 0 0 56.447881098545622 -196.81646841596398 0 -196.81646841596398 315.98679993623227 0 0 0 0 1.304064203820019 0.60254431680775156 0 0.60254431680775156 0.44513772045212363 0 0 0 0 -168.51136218954343 25.197229326059642 0 25.197229326059642 35.168416630179081 0 0 0 0 -170.60728586185724 53.43182462733148 0 53.43182462733148 65.154901366121805 0 0 0 0 -132.06483499825117 28.716039409683617 0 28.716039409683617 32.821461636542153 0 0 0 0 -61.472210912766968 -148.90169921056599 0 -148.90169921056599 58.780300606411402 0 0 0 0 -106.61646745351027 -105.72297404093933 0 -105.72297404093933 33.873993069577409 0 0 0 0 -58.595618350368341 -126.34253118055088 0 -126.34253118055088 -13.946513506616611 0 0 0 0 -85.79850085216458 -65.305177508163979 0 -65.305177508163979 -55.922785679907975 0 0 0 0 -105.70904892241379 -17.604755045766069 0 -17.604755045766069 -86.660822963312967 0 0 0 0 -57.474570591127303 -101.08139036920943 0 -101.08139036920943 -119.1369427726986 0 0 0 0 -229.05640423750447 -159.49603970693443 0 -159.49603970693443 108.63223433758503 0 0 0 0 -118.46354749157945 83.689978305559862 0 83.689978305559862 86.393600132067149 0 0 0 0 -2.1162693298294073 -1.5143123601823731 0 -1.5143123601823731 -0.57023756472035458 0 0 0 0 62.761703591619153 -305.37132012305028 0 -305.37132012305028 -0.52297700862254715 0 0 0 0 -47.138123810407706 -181.00972870131864 0 -181.00972870131864 -66.96820549707445 0 0 0 0 31.571913459032658 -199.72739301835963 0 -199.72739301835963 -245.62918547959453 0 0 0 0 31.672386611033289 -18.903765086445674 0 -18.903765086445674 -278.34705317120256 0 0 0 0 1.5032513300398875 -1.6597905399697623 0 -1.6597905399697623 -3.1362597591558981 0 0 0 0 -221.03437157268854 51.453151857559078 0 51.453151857559078 -84.732930197154928 0 0 0 0 -24.659515139275754 -49.058051277484992 0 -49.058051277484992 -78.466954357596478 0 0 0 0 7.7707993755248026 -9.2134417843108167 0 -9.2134417843108167 -31.191777964679204 0 0 0 0 -91.761398589449527 -46.30463413536836 0 -46.30463413536836 -14.598706886709806 0 0 0 0 -86.772416536965466 -7.9455366083284389 0 -7.9455366083284389 -12.035209065325944 0 0 0 0 -79.908829332634923 -19.965806708804848 0 -19.965806708804848 -0.82164682231814368 0 0 0 0 -88.078796477879223 -48.769331411538587 0 -48.769331411538587 -32.489365440842448 0 0 0 0 -80.535185509106668 -40.072929807559376 0 -40.072929807559376 -41.679005004536521 0 0 0 0 -155.94466497539543 -104.94562860380438 0 -104.94562860380438 -71.866523373919335 0 0 0 0 -775.78501043314463 596.18868374482417 0 596.18868374482417 -286.81810230609335 0 0 0 0 -389.26587117000599 343.10256083554168 0 343.10256083554168 -84.254164625452177 0 0 0 0 -911.69654413938406 445.01787572655576 0 445.01787572655576 -50.879939618978824 0 0 0 0 -703.46435274573287 565.33988369113843 0 565.33988369113843 -51.64662849886372 0 0 0 0 -155.97210989781161 209.46387339698458 0 209.46387339698458 118.8647085562443 0 0 0 0 -271.50315944917384 422.38075073915024 0 422.38075073915024 380.28201595351857 0 0 0 0 -287.34424987625971 264.47005994714209 0 264.47005994714209 193.09165239990944 0 0 0 0 -570.41049895170727 267.40758662590542 0 267.40758662590542 196.22200811950984 0 0 0 0 -403.14593491551932 172.81166734387398 0 172.81166734387398 195.2824274621762 0 0 0 0 -351.96081194130238 72.120003158875306 0 72.120003158875306 -25.961367952068031 0 0 0 0 -137.10572541246074 238.61832945866081 0 238.61832945866081 90.548105873505847 0 0 0 0 -47.42463998734479 -30.61409293911899 0 -30.61409293911899 228.78046013276253 0 0 0 0 -151.09435367347032 -228.94392641284776 0 -228.94392641284776 320.04013646888779 0 0 0 0 -5.2408604356180888 -1.8900083128906999 0 -1.8900083128906999 -0.019113656428800141 0 0 0 0 32.151470430318568 30.569790105298438 0 30.569790105298438 -15.897286047473244 0 0 0 0 -369.90930049311282 -52.119889625326323 0 -52.119889625326323 -31.628071088473234 0 0 0 0 -270.51668648920167 -206.00245246721261 0 -206.00245246721261 -287.84572564725022 0 0 0 0 -1348.4170163472809 -305.23677376136311 0 -305.23677376136311 65.982056448603544 0 0 0 0 -567.19987363252585 -20.438896943439886 0 -20.438896943439886 -294.14178828001059 0 0 0 0 -263.2588195410317 -36.65187073134166 0 -36.65187073134166 -293.45387760098856 0 0 0 0 -572.76644447170474 340.88923012324403 0 340.88923012324403 -247.25211821863377 0 0 0 0 -720.21232212266477 191.43649653598277 0 191.43649653598277 1.176341424196039 0 0 0 0 -1516.7026505794638 660.50160018754923 0 660.50160018754923 -196.81492647411869 0 0 0 0 -1131.9803710557244 440.70780841042142 0 440.70780841042142 -71.67200172329558 0 0 0 0 -994.74201046874896 1041.3596152893422 0 1041.3596152893422 -823.06685306546933 0 0 0 0 -545.7415386215871 28.451728297581212 0 28.451728297581212 -403.41337067578388 0 0 0 0 -661.62131021163077 630.78486623917365 0 630.78486623917365 -1174.4951715084644 0 0 0 0 -599.43033985310649 354.30918468153686 0 354.30918468153686 -46.224453229036953 0 0 0 0 -807.2236495427278 -367.15474486242238 0 -367.15474486242238 -996.16993556330226 0 0 0 0 -2035.0937281883889 579.29856535479212 0 579.29856535479212 -386.096160323812 0 0 0 0 -557.36405724198266 1019.2349216446528 0 1019.2349216446528 -1861.8483709569446 0 0 0 0 -480.39484316974995 -537.46875135321443 0 -537.46875135321443 -132.70006060776723 0 0 0 0 -17.471028697616617 0.85772124807642314 0 0.85772124807642314 -0.65601910370165761 0 0 0 0 -8.2829723122122232 75.47635020819871 0 75.47635020819871 -224.28458622806852 0 0 0 0 -177.5877729462336 84.021718511097788 0 84.021718511097788 268.06967411960613 0 0 0 0 -252.57163738800591 445.00165461117831 0 445.00165461117831 -741.93140661948564 0 0 0 0 -47.422116727221464 1.1424222841312073 0 1.1424222841312073 0.73395948429071645 0 0 0 0 -282.82280441368493 448.06670767579453 0 448.06670767579453 -685.47304971833546 0 0 0 0 -274.99774981903465 410.44419507884231 0 410.44419507884231 -661.73035332855125 0 0 0 0 -629.269500629498 680.03101991109293 0 680.03101991109293 -414.74636434654531 0 0 0 0 -558.22442021807365 504.67937526348032 0 504.67937526348032 -75.540293107533216 0 0 0 0 -417.85931580857869 452.495648563332 0 452.495648563332 -209.9984606533817 0 0 0 0 -455.65319128453848 462.76812583462925 0 462.76812583462925 -208.87441400318266 0 0 0 0 -482.44914863204031 326.394559687727 0 326.394559687727 -85.003610708432689 0 0 0 0 -872.63255229554125 391.67303333846144 0 391.67303333846144 -64.57254756058137 0 0 0 0 -935.95961517293472 193.53837255737153 0 193.53837255737153 14.649412752291937 0 0 0 0 -538.79309999733232 307.32457032561615 0 307.32457032561615 -420.17206135673905 0 0 0 0 -233.87854715340654 -42.996394139295262 0 -42.996394139295262 32.780174296527264 0 0 0 0 -242.65316492228249 79.509335696806815 0 79.509335696806815 292.03249576669623 0 0 0 0 -118.75936208957501 -277.08767940528151 0 -277.08767940528151 -498.30234058605311 0 0 0 0 -60.60927848990832 -15.722177446888963 0 -15.722177446888963 22.813222390366718 0 0 0 0 -44.486959668319741 -12.916244683639952 0 -12.916244683639952 -2.2836439877548838 0 0 0 0 -61.093229154357687 -7.3989706694082997 0 -7.3989706694082997 30.866588306252652 0 0 0 0 -52.646219783350745 -11.331178466334094 0 -11.331178466334094 6.4107703111277061 0 0 0 0 -57.364824613403471 -14.843140985557511 0 -14.843140985557511 14.328462894714903 0 0 0 0 -58.586243518915069 -5.1847774652087182 0 -5.1847774652087182 2.9784364355335828 0 0 0 0 -57.187650016327098 -26.261827143314349 0 -26.261827143314349 17.261944820500503 0 0 0 0 -74.752408922817267 0.41382630022781086 0 0.41382630022781086 16.9400746795327 0 0 0 0 -70.038165390127688 -7.2987319587555248 0 -7.2987319587555248 11.297006901631903 0 0 0 0 -37.30318681729841 -20.057052112839301 0 -20.057052112839301 10.240666470859651 0 0 0 0 -68.050924080919685 -31.736862149213152 0 -31.736862149213152 6.9504758173061418 0 0 0 0 -45.209996137738926 -27.205279552059437 0 -27.205279552059437 -6.9537175370205659 0 0 0 0 -39.155790437608175 -36.862858733646021 0 -36.862858733646021 8.2787818244050868 0 0 0 0 -12.256897687784289 0.30077438310938476 0 0.30077438310938476 -3.3279875913221346 0 0 0 0 -45.957926554508958 -26.63848185932693 0 -26.63848185932693 12.202359833801893 0 0 0 0 -37.959068233001744 48.488049655389659 0 48.488049655389659 -88.857088335045319 0 0 0 0 -254.79254462423705 419.34965288471176 0 419.34965288471176 -712.57715616531186 0 0 0 0 -69.13208639313757 -5.8538616542433104 0 -5.8538616542433104 1.1660531527891251 0 0 0 0 -227.84887369006901 197.67341248811499 0 197.67341248811499 -268.73436943236675 0 0 0 0 -62.153867722190625 94.180828326398114 0 94.180828326398114 39.238961205230225 0 0 0 0 -202.85889651611069 182.86827298792559 0 182.86827298792559 -262.8679906220168 0 0 0 0 -323.30318569207157 302.94750965162893 0 302.94750965162893 -175.85972446233063 0 0 0 0 -175.89526553089308 235.77904728833073 0 235.77904728833073 -325.63815405944842 0 0 0 0 -360.24502924947592 458.43800501795522 0 458.43800501795522 -436.59990483969204 0 0 0 0 -441.91237208015809 432.43225842791844 0 432.43225842791844 -142.78102975086586 0 0 0 0 -393.60848785939743 396.42024704946016 0 396.42024704946016 -260.67087576689119 0 0 0 0 -286.71386514389451 340.1283071404132 0 340.1283071404132 -246.25263690949032 0 0 0 0 -307.34244057709293 320.30547640792383 0 320.30547640792383 -234.59737741887875 0 0 0 0 -327.12462293733552 315.38658923172943 0 315.38658923172943 -230.83551870190331 0 0 0 0 -328.14012955486123 230.65498866374151 0 230.65498866374151 -124.50945411384237 0 0 0 0 -374.79186258099799 321.06492862245977 0 321.06492862245977 -265.34502367464893 0 0 0 0 -525.42577950844498 109.75693568907218 0 109.75693568907218 -33.745112934286226 0 0 0 0 -240.7478425247682 230.70707738130841 0 230.70707738130841 -170.51419009386154 0 0 0 0 -194.79571253841823 77.135238057758613 0 77.135238057758613 -48.062954842720501 0 0 0 0 -179.32114278601694 -40.322617428630906 0 -40.322617428630906 -19.148712549076663 0 0 0 0 -32.655016520625509 2.3431972449694953 0 2.3431972449694953 1.6406344949804392 0 0 0 0 -65.366496603910491 -14.416056259502852 0 -14.416056259502852 8.5098602673824644 0 0 0 0 -36.395736455400765 -10.988506606185183 0 -10.988506606185183 -9.1527032238263928 0 0 0 0 -63.106639347883174 5.276659859888241 0 5.276659859888241 -10.021818651839681 0 0 0 0 -43.118314886891255 -19.367566913403351 0 -19.367566913403351 -0.14041691195011197 0 0 0 0 -78.759770719087101 -59.693360069319169 0 -59.693360069319169 34.217940723268839 0 0 0 0 -40.699813913284743 2.8838896921861306 0 2.8838896921861306 -0.37970018490159418 0 0 0 0 -38.345117166770819 -9.5018920722418869 0 -9.5018920722418869 2.0292884981152071 0 0 0 0 -10.894609124972774 -4.063928258093469 0 -4.063928258093469 -4.340846740506688 0 0 0 0 -28.745341385219945 135.19257658546667 0 135.19257658546667 -383.98463519648067 0 0 0 0 -79.97093875061546 -42.442922567015557 0 -42.442922567015557 -194.55058711374295 0 0 0 0 814.2246301445557 -656.24434464938713 0 -656.24434464938713 211.07413801258008 0 0 0 0 8.5378975108033046 -21.517800029200771 0 -21.517800029200771 27.499297188311175 0 0 0 0 -13.259977401325557 4.0173229386224136 0 4.0173229386224136 7.7041804031727885 0 0 0 0 7.7906904048868455 -31.285685101347553 0 -31.285685101347553 -100.04238227134192 0 0 0 0 70.142772101433366 91.916817988372713 0 91.916817988372713 -155.44168183074362 0 0 0 0 -49.665636369696585 130.69517074235773 0 130.69517074235773 -45.402140120085278 0 0 0 0 167.44932899707055 242.09914088168262 0 242.09914088168262 60.814619686527749 0 0 0 0 379.62489253813692 -171.78936888248427 0 -171.78936888248427 49.562398793279499 0 0 0 0 -110.53545854188269 141.32711159885366 0 141.32711159885366 349.44318794870378 0 0 0 0 -210.41406028541678 -47.933674065847299 0 -47.933674065847299 469.88450790487786 0 0 0 0 -230.21469422857626 100.01400528343402 0 100.01400528343402 155.67835495523468 0 0 0 0 -464.00558415843989 285.53546183779781 0 285.53546183779781 240.05883514152447 0 0 0 0 -281.96486300019023 450.80731367909175 0 450.80731367909175 -158.7454267601679 0 0 0 0 -175.43612814252265 270.73292664203291 0 270.73292664203291 -21.90744410951811 0 0 0 0 -111.80091595373233 -468.23184498969567 0 -468.23184498969567 243.87194442675172 0 0 0 0 -36.128488168256581 10.056535887470458 0 10.056535887470458 0.072554513398831233 0 0 0 0 -1084.9082881693321 552.86203747311083 0 552.86203747311083 -472.97482388139179 0 0 0 0 -898.89163887868926 399.43498388164699 0 399.43498388164699 257.7529378969266 0 0 0 0 -272.9158572320157 85.004239565629177 0 85.004239565629177 337.70740602131991 0 0 0 0 -76.175607192468306 253.00577836861157 0 253.00577836861157 -211.92061525447934 0 0 0 0 -75.7850541176158 156.19044147412023 0 156.19044147412023 20.264527424039443 0 0 0 0 -126.62288833394268 75.6363789347497 0 75.6363789347497 -22.651582509345189 0 0 0 0 -169.92531195949596 212.07924902402635 0 212.07924902402635 -9.0110818503162591 0 0 0 0 47.538419703822001 146.676920270349 0 146.676920270349 -125.02528190675912 0 0 0 0 34.332819764131273 52.086044938372652 0 52.086044938372652 -28.623565066985975 0 0 0 0 79.70894327021233 -15.437438990358942 0 -15.437438990358942 44.832321910325845 0 0 0 0 -4.8457015841098325 4.7973426097545211 0 4.7973426097545211 -2.4603387727248638 0 0 0 0 -72.960208635152867 177.47555675078212 0 177.47555675078212 -121.65360076970137 0 0 0 0 -51.021281074882012 7.4802899903950753 0 7.4802899903950753 3.2219528074049748 0 0 0 0 -59.601854455155262 -3.4622104153922919 0 -3.4622104153922919 4.3419897460130414 0 0 0 0 532.8598440218193 -429.27593865755989 0 -429.27593865755989 -86.096154651288089 0 0 0 0 -41.962416922644479 15.311485809943406 0 15.311485809943406 8.3639803357928031 0 0 0 0 -44.017044061997183 2.7580484912953409 0 2.7580484912953409 3.4379285892348834 0 0 0 0 -86.289555430339533 -7.5970303347403387 0 -7.5970303347403387 49.05963267981133 0 0 0 0 -38.579238835817691 9.6079976908365694 0 9.6079976908365694 16.343881888366504 0 0 0 0 -80.082633441019425 -6.2671934159830016 0 -6.2671934159830016 16.337474634641694 0 0 0 0 -45.054796956144855 25.643929702785499 0 25.643929702785499 -5.207806267549131 0 0 0 0 -82.959255187452072 -25.854595990963844 0 -25.854595990963844 25.48789213343116 0 0 0 0 -8.734849601373476 -1.7930651073816932 0 -1.7930651073816932 0.2046263594794695 0 0 0 0 -62.822827024214348 9.3229788882058529 0 9.3229788882058529 24.829116194781818 0 0 0 0 -59.589342972110899 -37.86758662247621 0 -37.86758662247621 -24.417712800051959 0 0 0 0 -23.540314632102962 12.772591352598127 0 12.772591352598127 22.127261005566197 0 0 0 0 -58.914637423476961 3.558129324361289 0 3.558129324361289 25.298561085886831 0 0 0 0 -70.924615766125498 -6.46465557540796 0 -6.46465557540796 15.681488335810172 0 0 0 0 -39.49342262353457 -18.266584651417361 0 -18.266584651417361 23.825897651378909 0 0 0 0 -60.846650579524066 -4.3656696887679232 0 -4.3656696887679232 33.779119220846042 0 0 0 0 -24.040998351441061 -5.422397336317303 0 -5.422397336317303 19.44696321723767 0 0 0 0 -60.055289028408879 -1.0585199163551806 0 -1.0585199163551806 25.654183476834078 0 0 0 0 -57.821060988368117 2.5791976920022535 0 2.5791976920022535 19.023561620835608 0 0 0 0 -61.658565578138223 0.63635101274940098 0 0.63635101274940098 30.602449825232725 0 0 0 0 -58.666178875697369 18.772358651319337 0 18.772358651319337 35.080457781952646 0 0 0 0 -56.119453381292203 -0.25059656623040638 0 -0.25059656623040638 15.246030627237875 0 0 0 0 -59.629012759920442 -19.511956907220707 0 -19.511956907220707 27.1201186431501 0 0 0 0 -71.3073584716185 -16.083523668530688 0 -16.083523668530688 28.621077950593417 0 0 0 0 -63.505823096224049 -21.693777960824264 0 -21.693777960824264 30.502997876554218 0 0 0 0 -43.806107074387342 -4.7129040451365327 0 -4.7129040451365327 21.89581721115939 0 0 0 0 -69.448231609575146 -1.987200213913237 0 -1.987200213913237 12.111626359448405 0 0 0 0 -180.07280194861596 -76.140944899229908 0 -76.140944899229908 140.79019450559827 0 0 0 0 -48.826293828664035 -20.732300103412278 0 -20.732300103412278 16.591373189158652 0 0 0 0 -52.325164980706177 -16.700916644549579 0 -16.700916644549579 63.863373332810625 0 0 0 0 -53.739235723873151 10.002420781383613 0 10.002420781383613 3.0922682269611572 0 0 0 0 -103.6587802709621 -102.92421413530644 0 -102.92421413530644 52.835667216595539 0 0 0 0 -127.65272030553024 55.338174048516521 0 55.338174048516521 266.96208657248735 0 0 0 0 -22.421206903753699 1.0145958264507389 0 1.0145958264507389 2.8157996769337483 0 0 0 0 -99.68550671914636 104.91345832005027 0 104.91345832005027 142.12828270546925 0 0 0 0 -10.921840343915392 -42.898370831255306 0 -42.898370831255306 163.17539468547329 0 0 0 0 -84.649429650977254 41.933901709444399 0 41.933901709444399 107.20225476821179 0 0 0 0 -66.71408378835622 8.7693121288048133 0 8.7693121288048133 12.211071238052682 0 0 0 0 -162.01097560185008 14.178695859987783 0 14.178695859987783 14.373530133835629 0 0 0 0 -57.72411377037497 41.21852639151075 0 41.21852639151075 -38.113869706725382 0 0 0 0 -69.032233849249224 -62.636697635709879 0 -62.636697635709879 16.755047902281149 0 0 0 0 -158.86704174327315 18.24163187260001 0 18.24163187260001 -54.543340383253963 0 0 0 0 -384.77481198542955 -145.24283142515651 0 -145.24283142515651 19.022103245510436 0 0 0 0 -17.840434123419982 47.384664034955222 0 47.384664034955222 15.573557079247621 0 0 0 0 -5.7747135189626775 -1.0140517218740541 0 -1.0140517218740541 0.54237853201763642 0 0 0 0 -46.692102587368574 -13.996073042511 0 -13.996073042511 17.717039783107282 0 0 0 0 -85.973254301919951 -17.508923313369451 0 -17.508923313369451 61.010141412771191 0 0 0 0 -39.833989816153917 -27.109260443338371 0 -27.109260443338371 36.905395756753933 0 0 0 0 -35.232875337547739 -58.27846271008724 0 -58.27846271008724 66.089014529181441 0 0 0 0 -53.420369415187452 -68.229809623474011 0 -68.229809623474011 39.109601175550097 0 0 0 0 11.775105922904004 -47.6817123969916 0 -47.6817123969916 13.00015846259339 0 0 0 0 -18.93897519661509 3.0783578745464979 0 3.0783578745464979 0.84457458754258852 0 0 0 0 -18.616163721810153 -32.268083319129119 0 -32.268083319129119 0.35244342125190542 0 0 0 0 -38.104237946881788 -28.681187777920528 0 -28.681187777920528 22.057892729690948 0 0 0 0 -64.981260123313405 -25.771533985440328 0 -25.771533985440328 114.93748069594039 0 0 0 0 -85.720209942912334 -143.51073458844257 0 -143.51073458844257 189.36106023400998 0 0 0 0 -57.646914619049937 -7.317158603183179 0 -7.317158603183179 8.8839337577506807 0 0 0 0 -29.914634721993934 -145.48828171904461 0 -145.48828171904461 76.227127129815472 0 0 0 0 3.5864792424254119 -30.963941440981216 0 -30.963941440981216 53.534271731806257 0 0 0 0 -53.415563860704424 -12.329538818655237 0 -12.329538818655237 50.219261405331054 0 0 0 0 -22.065051813850317 -31.625806333477229 0 -31.625806333477229 32.020868859575017 0 0 0 0 -35.699238978268113 -60.194691379154392 0 -60.194691379154392 64.167183941451185 0 0 0 0 -77.291643277524329 -25.385260924970908 0 -25.385260924970908 41.280428066389518 0 0 0 0 -31.96714486038023 -18.611156149718241 0 -18.611156149718241 21.469307569960399 0 0 0 0 -47.866030990284344 -25.430940651954643 0 -25.430940651954643 28.229581472220161 0 0 0 0 2.2651126552025289 -38.3468630747807 0 -38.3468630747807 30.104889189467318 0 0 0 0 -36.623761502996786 -46.716844829286629 0 -46.716844829286629 -6.831444056593682 0 0 0 0 -35.960040503574419 -31.608232332868511 0 -31.608232332868511 26.234387744389096 0 0 0 0 -37.936366630953472 -53.350027708599669 0 -53.350027708599669 30.730234733709882 0 0 0 0 -28.490369094889914 -22.411597446387049 0 -22.411597446387049 22.661216821616179 0 0 0 0 -154.39250185025594 103.91411262083193 0 103.91411262083193 -13.663514846022281 0 0 0 0 -38.331013384588005 31.907411357806723 0 31.907411357806723 27.69184510763921 0 0 0 0 -87.159907309922431 0.23888342242448424 0 0.23888342242448424 2.0109626526624238 0 0 0 0 -59.910913457346396 -3.7729041502649352 0 -3.7729041502649352 5.9760677205740649 0 0 0 0 35.701164140155015 -151.41742602983186 0 -151.41742602983186 10.190906133084354 0 0 0 0 -7.7502923181505707 -5.5532625850710104 0 -5.5532625850710104 -5.5704917853415754 0 0 0 0 -651.5782125543592 239.3605845375148 0 239.3605845375148 -59.753097378357779 0 0 0 0 631.75524494669662 -90.481014053021681 0 -90.481014053021681 -652.38999746993159 0 0 0 0 -82.592638310030452 -170.07284287812126 0 -170.07284287812126 422.11205367592675 0 0 0 0 -240.72560565455933 133.81298439877673 0 133.81298439877673 -40.576642037628517 0 0 0 0 -520.34283689693439 83.284256773265383 0 83.284256773265383 60.35434003433511 0 0 0 0 -44.215065563024837 29.338949566041265 0 29.338949566041265 -49.280175196021901 0 0 0 0 -275.94410142709967 58.819614648546121 0 58.819614648546121 -15.692979792057486 0 0 0 0 -23.398575892904773 -65.828061813464956 0 -65.828061813464956 -48.822316605583183 0 0 0 0 -24.180377723740378 -19.453974013687237 0 -19.453974013687237 -6.6414585502107819 0 0 0 0 -65.459847334204824 -74.763830656345306 0 -74.763830656345306 14.145561874282066 0 0 0 0 -29.780094628251391 -40.972346770700824 0 -40.972346770700824 -39.33184657237689 0 0 0 0 -125.59093872384619 -16.299457482667663 0 -16.299457482667663 23.241039751957032 0 0 0 0 -79.186486080201576 10.593724561521867 0 10.593724561521867 -12.448790440435005 0 0 0 0 -81.199077450371988 87.763751019377196 0 87.763751019377196 66.105093902199769 0 0 0 0 -5.5846900130927679 -7.4436720943985648 0 -7.4436720943985648 7.8408626239532246 0 0 0 0 -75.677490284957457 -39.652946623372372 0 -39.652946623372372 -45.835744691464242 0 0 0 0 -114.58822127152234 -5.7051292102748903 0 -5.7051292102748903 -10.914390640147758 0 0 0 0 -239.47484736974002 -0.96636060250420996 0 -0.96636060250420996 -3.6186517081509919 0 0 0 0 -274.73667675332399 -29.040577873467555 0 -29.040577873467555 42.513854986025763 0 0 0 0 -282.18647118227091 33.920335206345953 0 33.920335206345953 54.209512310330865 0 0 0 0 -400.38448105697898 20.778440185736258 0 20.778440185736258 62.816191165931741 0 0 0 0 -40.41120994593075 -32.133124508754463 0 -32.133124508754463 28.921572399648994 0 0 0 0 -56.517074911993404 -23.349983686006588 0 -23.349983686006588 26.612849915584782 0 0 0 0 -22.553789280773898 -20.145079367918328 0 -20.145079367918328 16.480175038628666 0 0 0 0 -45.317135871536522 -21.311568415474586 0 -21.311568415474586 39.654088477833859 0 0 0 0 -37.372430087765679 -35.609841945652278 0 -35.609841945652278 16.436069109650361 0 0 0 0 -5.9052196150369127 -77.315527736421245 0 -77.315527736421245 -66.84759924863647 0 0 0 0 -31.087752831954276 -29.323085958736556 0 -29.323085958736556 67.039448997089494 0 0 0 0 -5.0491666734660612 -7.9300914234678643 0 -7.9300914234678643 10.817240622784842 0 0 0 0 -14.631371012402383 -21.778925641086403 0 -21.778925641086403 29.803708648403564 0 0 0 0 -39.27677262031284 -37.028415207344551 0 -37.028415207344551 29.696986709217072 0 0 0 0 -32.470523367396652 -20.415875432928274 0 -20.415875432928274 7.438504712388589 0 0 0 0 -13.247904437273974 -79.911142837522448 0 -79.911142837522448 11.923128101115253 0 0 0 0 -33.067705335095525 -39.669303128964202 0 -39.669303128964202 30.530169907254844 0 0 0 0 -28.725748776352702 -26.164239316558394 0 -26.164239316558394 31.477887881160314 0 0 0 0 -22.550296448632821 -23.1215861870024 0 -23.1215861870024 17.512619310153553 0 0 0 0 -27.833374944573734 -18.912789260480622 0 -18.912789260480622 19.876814852771304 0 0 0 0 -14.832618748293555 -16.197136340810872 0 -16.197136340810872 3.1746985154083127 0 0 0 0 -6.3399940332099618 -28.069954551400613 0 -28.069954551400613 15.31293717239987 0 0 0 0 -9.4661531302845106 -32.476150242735457 0 -32.476150242735457 22.487557928098113 0 0 0 0 -6.323723418755236 -30.576326555764197 0 -30.576326555764197 23.2254646999545 0 0 0 0 12.967150801152457 -45.19750851617755 0 -45.19750851617755 -23.390966032232427 0 0 0 0 13.715838531831821 -23.201642929242311 0 -23.201642929242311 15.611713542947955 0 0 0 0 -205.51183628834406 -182.90835367953775 0 -182.90835367953775 -117.40901235925594 0 0 0 0 3.6213508224563 -6.3519795746906595 0 -6.3519795746906595 -1.562783434377403 0 0 0 0 1.6790096582501945 -14.472892637354136 0 -14.472892637354136 26.944689173196629 0 0 0 0 -7.7880454398400616 -28.243369646318001 0 -28.243369646318001 30.644820635297037 0 0 0 0 -7.6538449610234238 -37.020185617687389 0 -37.020185617687389 33.826138311763316 0 0 0 0 -407.27646273477876 -164.32145003380379 0 -164.32145003380379 -18.88393015819895 0 0 0 0 -354.51598200571607 -29.680073007202736 0 -29.680073007202736 42.605852921303153 0 0 0 0 -399.68074522673851 -67.049898231913971 0 -67.049898231913971 23.732798769120564 0 0 0 0 -225.6376126059331 -121.60930542226447 0 -121.60930542226447 -35.655344248551955 0 0 0 0 228.9350312295428 -296.93267428203171 0 -296.93267428203171 -166.83711265731517 0 0 0 0 -611.70303266728297 -61.050838353411564 0 -61.050838353411564 199.04748034168824 0 0 0 0 -8.0465760722876212 -2.2787667746432447 0 -2.2787667746432447 10.095323171454663 0 0 0 0 -291.82758290393394 -43.730632551296139 0 -43.730632551296139 129.03322531416234 0 0 0 0 -251.84581722256553 -74.39082211111463 0 -74.39082211111463 8.8408375022881955 0 0 0 0 -298.02742182504153 12.16200223489318 0 12.16200223489318 44.954144611494485 0 0 0 0 -129.05415777655435 26.990938851818555 0 26.990938851818555 58.973109116794603 0 0 0 0 -137.6615990067512 52.094600149107009 0 52.094600149107009 2.492436477499723 0 0 0 0 286.86226601307862 -3.3611409120703684 0 -3.3611409120703684 -97.849420405829733 0 0 0 0 -121.95311048688018 -216.9112728072314 0 -216.9112728072314 48.298576524852251 0 0 0 0 -118.47097485527047 102.85303620429568 0 102.85303620429568 125.10433823152744 0 0 0 0 -433.55873972210975 -93.705185692161876 0 -93.705185692161876 47.78491586179598 0 0 0 0 0.78965633224942167 -0.10669375201260323 0 -0.10669375201260323 2.12024234126077 0 0 0 0 141.66525448332686 244.55377343231169 0 244.55377343231169 69.252112734812727 0 0 0 0 -138.36176297333441 163.19972521582804 0 163.19972521582804 250.89507517547372 0 0 0 0 -281.27812065786202 -115.64308057965377 0 -115.64308057965377 12.069043181062625 0 0 0 0 -228.32887785957428 -29.551515338961053 0 -29.551515338961053 149.7648592525552 0 0 0 0 -170.63122310207109 -46.752854378700476 0 -46.752854378700476 0.23277595689432928 0 0 0 0 -186.93976880377159 -98.58570401469683 0 -98.58570401469683 -5.3769773502235694 0 0 0 0 -230.45405455004948 -133.83107257040683 0 -133.83107257040683 -8.5876382805236062 0 0 0 0 -376.06607677350985 -23.345166003809936 0 -23.345166003809936 60.058788567828742 0 0 0 0 1.3170675848103315 -2.6177555080142128 0 -2.6177555080142128 3.4653759711711967 0 0 0 0 -190.61251345586788 -77.846538952765059 0 -77.846538952765059 -25.246846322323108 0 0 0 0 -4.0486939508011659 1.0546577836904589 0 1.0546577836904589 7.7587520793301978 0 0 0 0 -208.78863458494016 -55.988609999980781 0 -55.988609999980781 17.767667117736437 0 0 0 0 -209.43414873340225 -27.777820264089996 0 -27.777820264089996 -88.299160992208272 0 0 0 0 -22.197292808479688 -38.922955631586547 0 -38.922955631586547 33.589589108208656 0 0 0 0 -15.330121456892812 -30.978596735875385 0 -30.978596735875385 37.758604065073087 0 0 0 0 -17.606407270144132 -6.9741290203264725 0 -6.9741290203264725 10.683159430019812 0 0 0 0 -27.609980847497354 -9.2286970307231968 0 -9.2286970307231968 46.590808264750308 0 0 0 0 -34.329580693611206 -18.298102699903922 0 -18.298102699903922 9.6834527657911167 0 0 0 0 -27.20818354410585 -27.007785293761572 0 -27.007785293761572 -83.740462185466185 0 0 0 0 -98.463997119964915 -13.986869371027296 0 -13.986869371027296 9.9944818527355892 0 0 0 0 -46.907510223594727 -189.59165949854014 0 -189.59165949854014 68.012570244438393 0 0 0 0 -98.712092532934548 -20.762350306491044 0 -20.762350306491044 166.66108169859035 0 0 0 0 -21.524825187907425 -5.3016505173333854 0 -5.3016505173333854 6.9997957394672046 0 0 0 0 -1.9082676724065095 108.82983441467559 0 108.82983441467559 206.24058064590008 0 0 0 0 -11.714931436341431 -1.1849382940088162 0 -1.1849382940088162 5.026279229035481 0 0 0 0 14.287341714843933 -23.512103395530175 0 -23.512103395530175 -0.58044775115519087 0 0 0 0 -9.1524188915209379 11.798948249170451 0 11.798948249170451 63.07673000189061 0 0 0 0 -23.146838192391442 -49.130919962592998 0 -49.130919962592998 65.74272710033938 0 0 0 0 -3.021246392610017 -5.2136192470132556 0 -5.2136192470132556 33.186828984634666 0 0 0 0 -43.836602101961034 52.707704615372677 0 52.707704615372677 78.175024631443648 0 0 0 0 1.2954109673773075 -5.0172441968192771 0 -5.0172441968192771 27.451187028543451 0 0 0 0 -80.058460723841563 -71.280097191528967 0 -71.280097191528967 67.06630923481498 0 0 0 0 -39.11704574066971 11.499416236771594 0 11.499416236771594 -22.201865145332704 0 0 0 0 -198.08424897286022 -19.175131385531131 0 -19.175131385531131 11.856835114835121 0 0 0 0 -115.54839097903459 -63.067092641644194 0 -63.067092641644194 8.7520980028476743 0 0 0 0 -105.84589171253901 -108.94993500628516 0 -108.94993500628516 24.399948114290964 0 0 0 0 -163.08184200415053 -93.047328887283129 0 -93.047328887283129 83.906239724727129 0 0 0 0 -127.71270151268982 -74.874023384948487 0 -74.874023384948487 25.248858017810562 0 0 0 0 -117.91613128912286 -101.801014022667 0 -101.801014022667 20.31101682926419 0 0 0 0 -87.176143768956535 -63.953558790143688 0 -63.953558790143688 -11.266378580752644 0 0 0 0 -18.584169949070201 -149.59615820877116 0 -149.59615820877116 19.5887892483006 0 0 0 0 -0.35745225067854136 1.4068544517827206 0 1.4068544517827206 3.9675990490446225 0 0 0 0 -92.671913739141019 -2.4195333738234694 0 -2.4195333738234694 24.029308056491573 0 0 0 0 -133.39229193824576 -25.908032312592695 0 -25.908032312592695 154.51477851249001 0 0 0 0 -79.384014361610753 -80.116054051743049 0 -80.116054051743049 13.369835283527209 0 0 0 0 -237.49992502309033 -4.6568151694882545 0 -4.6568151694882545 21.299282832293102 0 0 0 0 -124.34883869121404 -88.065398247444136 0 -88.065398247444136 75.176381973768002 0 0 0 0 -299.24166352194152 -228.90419562448733 0 -228.90419562448733 258.37042360642226 0 0 0 0 -2.1781418309142282 -2.2126495966878394 0 -2.2126495966878394 6.8003178704627025 0 0 0 0 288.73376303612895 198.95085341087542 0 198.95085341087542 -270.79688121253275 0 0 0 0 -105.89633560838411 -7.1536793787356601 0 -7.1536793787356601 34.41374856886614 0 0 0 0 -99.957394293549441 -36.156325031535744 0 -36.156325031535744 -3.5093324551926344 0 0 0 0 -103.94479958707234 -13.113158369893426 0 -13.113158369893426 -30.052534356285832 0 0 0 0 -72.244460551708471 -11.248208620172591 0 -11.248208620172591 2.4703826314721482 0 0 0 0 -88.510263692267472 13.167639479601348 0 13.167639479601348 32.968208055172909 0 0 0 0 -97.907130506282556 -28.39469454722348 0 -28.39469454722348 8.1263516288072424 0 0 0 0 -84.318993561650132 -25.748995441846318 0 -25.748995441846318 -6.6559175603142648 0 0 0 0 -105.25669781641045 -43.996094762058419 0 -43.996094762058419 -21.358968462524899 0 0 0 0 -70.204123340678052 -8.2404017657363511 0 -8.2404017657363511 1.6586371347038948 0 0 0 0 -85.20998665220759 -4.783099155997661 0 -4.783099155997661 19.760327656127629 0 0 0 0 -15.261282457070351 3.8778934393066322 0 3.8778934393066322 18.764843817974864 0 0 0 0 -39.450727718649432 12.731084133101831 0 12.731084133101831 10.872084489799818 0 0 0 0 -74.105642410468135 -12.236948394286628 0 -12.236948394286628 27.248549131752952 0 0 0 0 -55.259773894184036 -6.6678563090699754 0 -6.6678563090699754 15.75155841890296 0 0 0 0 -36.936659264312766 -8.1032979340093334 0 -8.1032979340093334 12.778149379559181 0 0 0 0 -57.38457327667129 -12.088885927290448 0 -12.088885927290448 8.5786784362378512 0 0 0 0 -23.232711140518418 7.8807588568181615 0 7.8807588568181615 14.98671327072794 0 0 0 0 -35.994340151965559 -12.805736167441339 0 -12.805736167441339 3.1482434534847847 0 0 0 0 3.1449976738222176 -33.92918717175462 0 -33.92918717175462 18.911927401389221 0 0 0 0 -52.180253764698136 -13.86058814608532 0 -13.86058814608532 5.0787830264462173 0 0 0 0 -9.2411301860547894 1.5611718929465326 0 1.5611718929465326 0.021679066022178617 0 0 0 0 -26.29732174462697 -21.977486735846924 0 -21.977486735846924 4.2083905394811154 0 0 0 0 -10.312880513010896 -42.762187783977311 0 -42.762187783977311 20.324801769585065 0 0 0 0 -6.0728042272530729 -42.899395011494562 0 -42.899395011494562 14.857504194596913 0 0 0 0 -8.5916948729060039 -1.816133306482314 0 -1.816133306482314 3.5685029061705684 0 0 0 0 -54.15555363837484 -11.216352414361609 0 -11.216352414361609 39.639919914267011 0 0 0 0 -23.466752677124362 -4.5748408718870763 0 -4.5748408718870763 22.304544985024204 0 0 0 0 -3499.9955201508928 90.485868021865272 0 90.485868021865272 1058.1132630159079 0 0 0 0 -2291.2873023776774 40.315391334987481 0 40.315391334987481 932.41675011983011 0 0 0 0 -1917.2220728395296 -892.67460005923078 0 -892.67460005923078 157.17522715466379 0 0 0 0 -1560.3767274131533 -612.56531864042722 0 -612.56531864042722 150.68358452858408 0 0 0 0 -1475.8612420351274 -1171.797588371192 0 -1171.797588371192 412.56607902385122 0 0 0 0 -1050.6977082413214 -981.97237547092732 0 -981.97237547092732 -121.13064102172484 0 0 0 0 -2830.3144559627981 -1049.2239212956965 0 -1049.2239212956965 455.97542994271362 0 0 0 0 -782.39535732283912 -1949.0851776128993 0 -1949.0851776128993 777.89936694120479 0 0 0 0 143.80694553609646 -375.87203068665997 0 -375.87203068665997 182.47867543012904 0 0 0 0 -974.19652628316544 -359.52119763380892 0 -359.52119763380892 1214.3310076069401 0 0 0 0 -650.20294184750674 362.23476420647125 0 362.23476420647125 -359.98454627120509 0 0 0 0 -37.040485079963219 -13.126588344927256 0 -13.126588344927256 -0.35614274028752613 0 0 0 0 -19.689358675217704 -6.7823877891824225 0 -6.7823877891824225 -0.16255846756202974 0 0 0 0 -3384.7939971525921 1145.9977144446298 0 1145.9977144446298 464.37889066837795 0 0 0 0 -1851.5327872934868 1184.1037970883788 0 1184.1037970883788 348.47399460590947 0 0 0 0 -1288.5923479276962 572.44200996689358 0 572.44200996689358 592.5091979167662 0 0 0 0 -1448.2313146987362 -184.47076593738791 0 -184.47076593738791 1435.6068786209498 0 0 0 0 -18.231718152590133 -5.4708127647522673 0 -5.4708127647522673 -0.79477266600627028 0 0 0 0 -3494.5554615662768 1599.4993820045856 0 1599.4993820045856 183.9577403281086 0 0 0 0 -3491.4680709744644 -1208.6654411602074 0 -1208.6654411602074 448.79239413808051 0 0 0 0 -35.492981399700511 -1465.5326293987789 0 -1465.5326293987789 35.634827490772778 0 0 0 0 313.50232181449428 -490.19369765241379 0 -490.19369765241379 -234.06874544480922 0 0 0 0 -7.0873842681512826 -3.689665943123174 0 -3.689665943123174 -1.0583784593976222 0 0 0 0 -308.65789524433922 -1005.6762385174898 0 -1005.6762385174898 -357.9945009811513 0 0 0 0 -398.33112946985057 221.01590501759506 0 221.01590501759506 393.41091457138322 0 0 0 0 -8.7983717355782858 -3.1793230284995957 0 -3.1793230284995957 -0.72676203073205181 0 0 0 0 -3497.5762195229618 459.88718306915763 0 459.88718306915763 386.57804526243905 0 0 0 0 -537.59498322032596 -303.60599692855124 0 -303.60599692855124 -94.408238371497447 0 0 0 0 -1199.8139820932556 96.630423944142549 0 96.630423944142549 -0.82853192725035085 0 0 0 0 -812.43720265471893 492.18296646042614 0 492.18296646042614 -66.777061508118493 0 0 0 0 -3462.0665054329147 -670.72983639940401 0 -670.72983639940401 -112.46737909947632 0 0 0 0 -1773.8222551897215 200.70797197111096 0 200.70797197111096 -41.389824096258707 0 0 0 0 -1783.4400196047791 250.11313340245272 0 250.11313340245272 0.16979913563484672 0 0 0 0 -2042.3207387535367 184.66292305752546 0 184.66292305752546 68.78086720590494 0 0 0 0 -1909.1985345427456 155.54325378305907 0 155.54325378305907 -168.50462385134188 0 0 0 0 -2047.5617161477858 427.24057241769907 0 427.24057241769907 -17.220804240435839 0 0 0 0 -1926.7783703845053 127.06095428640835 0 127.06095428640835 -139.17221679309156 0 0 0 0 -2001.4324472832614 377.6378689455405 0 377.6378689455405 -103.36736456720971 0 0 0 0 -1828.4511844075605 -67.925578006166347 0 -67.925578006166347 -15.156507930543512 0 0 0 0 -1933.217030803331 -38.948095536597734 0 -38.948095536597734 37.5650057621813 0 0 0 0 -1898.2718360082072 -69.543520746000155 0 -69.543520746000155 -58.077440045369769 0 0 0 0 -2503.2252029874217 210.13616284535425 0 210.13616284535425 24.073401856127219 0 0 0 0 -4.5991675847856888 -1.3475958381916655 0 -1.3475958381916655 -0.75767642007873559 0 0 0 0 -2090.1996566683156 157.24249323114984 0 157.24249323114984 65.218761890347423 0 0 0 0 -2021.1880338678802 116.83867133999891 0 116.83867133999891 -97.129103895302137 0 0 0 0 -1974.1183770390635 150.69183505021354 0 150.69183505021354 0.43020848447616694 0 0 0 0 -1962.0510759181634 127.19088447000328 0 127.19088447000328 -70.869838161896553 0 0 0 0 -1910.5187845241599 99.536801720405776 0 99.536801720405776 -68.581471038679254 0 0 0 0 -3.4216470748380559 0.0062925282652201986 0 0.0062925282652201986 -0.18745288152182937 0 0 0 0 -1979.3281880762224 119.66029191865165 0 119.66029191865165 0.54875127159007653 0 0 0 0 -46.305528006774693 11.614278575504258 0 11.614278575504258 5.425106592966273 0 0 0 0 -5.7628416977233314 -0.73924882125643876 0 -0.73924882125643876 0.80273289185235497 0 0 0 0 -1941.8591418973228 194.30462705273874 0 194.30462705273874 -98.642516329935347 0 0 0 0 -1908.5678329210896 115.9985533289038 0 115.9985533289038 -274.57583418166746 0 0 0 0 -1638.5276085014921 1008.2541669673063 0 1008.2541669673063 -223.14074420690946 0 0 0 0 -2.8438209668939294 2.0089865195834946 0 2.0089865195834946 -2.3731993288056801 0 0 0 0 -1760.564900209909 -311.31740166913488 0 -311.31740166913488 -62.01415649724072 0 0 0 0 19.349107409696444 50.591229283259509 0 50.591229283259509 28.273311916845159 0 0 0 0 -826.23078957692633 326.23073585613872 0 326.23073585613872 -366.96116380323662 0 0 0 0 -3.3402132276759957 6.7362927116247135 0 6.7362927116247135 -11.670011578386749 0 0 0 0 19.994557251757215 31.69571314606992 0 31.69571314606992 -29.263374937670051 0 0 0 0 -1017.5806091278355 789.24166451033466 0 789.24166451033466 -427.8182478347444 0 0 0 0 -1892.0955038840393 29.775653435247779 0 29.775653435247779 -41.96032807524341 0 0 0 0 -2065.6490409380931 -162.15454198350494 0 -162.15454198350494 -242.25382701561443 0 0 0 0 -1711.5620395693695 250.66095218694772 0 250.66095218694772 -12.450087340589391 0 0 0 0 -2535.3536828050856 449.63474824961992 0 449.63474824961992 123.67250094643896 0 0 0 0 -1620.5645615546382 291.94544574397861 0 291.94544574397861 -0.0059509091375389289 0 0 0 0 -1828.6850340913952 -42.841588193099454 0 -42.841588193099454 29.414102177627285 0 0 0 0 -1702.8433771117852 127.1737771694068 0 127.1737771694068 126.74019417012732 0 0 0 0 -1566.1582962313114 49.411201128094461 0 49.411201128094461 15.519031880117609 0 0 0 0 69.536073385257623 -4.5955675244242684 0 -4.5955675244242684 -2.678928166100377 0 0 0 0 -1275.9582404651737 11.894212670345198 0 11.894212670345198 90.192048334335539 0 0 0 0 -1438.1858755815483 248.23734733565936 0 248.23734733565936 181.67281278146291 0 0 0 0 0.52101585985409571 3.6309304034545846 0 3.6309304034545846 -9.9137927537774946 0 0 0 0 -1173.0021609121031 154.90847388948504 0 154.90847388948504 -64.127254544268794 0 0 0 0 114.44134988623773 13.765525498630836 0 13.765525498630836 -19.717961156310594 0 0 0 0 -1346.2744796698826 57.725718520628959 0 57.725718520628959 -30.866285185169204 0 0 0 0 -1195.5186757812262 250.45749620722898 0 250.45749620722898 -260.7393875402754 0 0 0 0 -0.44296468592892779 1.3708354705616159 0 1.3708354705616159 -4.0338537361063294 0 0 0 0 -1312.3780579741142 175.33299136072435 0 175.33299136072435 3.9992758475698338 0 0 0 0 -1318.6739616446575 40.964938060643703 0 40.964938060643703 -89.580176446488849 0 0 0 0 -1681.5416170060198 -109.84680209911346 0 -109.84680209911346 -40.164348710345621 0 0 0 0 -1674.6771971572089 -16.122919804754474 0 -16.122919804754474 19.324602796418503 0 0 0 0 -1441.4849502148863 176.60575774975547 0 176.60575774975547 35.557655980957222 0 0 0 0 -2009.4089283224748 -0.85931161998087191 0 -0.85931161998087191 79.584512519330019 0 0 0 0 -1734.3396045892441 113.74084510244199 0 113.74084510244199 -2.5552954838142092 0 0 0 0 -2938.9081785191665 19.638404467489522 0 19.638404467489522 540.42942410791102 0 0 0 0 -2657.8386338922646 13.872738313580228 0 13.872738313580228 64.481890628301741 0 0 0 0 -4.9350249033195333 -4.0354637451143276 0 -4.0354637451143276 -7.0829864839328351 0 0 0 0 -4068.3279914910381 -312.86753913065695 0 -312.86753913065695 553.63543170306366 0 0 0 0 -1694.9595719391073 0.43892341573007343 0 0.43892341573007343 -96.992098554075255 0 0 0 0 -1773.8772611263848 43.00796284090643 0 43.00796284090643 -95.199979636270228 0 0 0 0 -4.4241953322458709 -4.0375712268942152 0 -4.0375712268942152 -13.489578914262353 0 0 0 0 -2250.4021749911522 -197.63252214108647 0 -197.63252214108647 -177.96594389236725 0 0 0 0 -1999.6354101896723 -321.17240237220585 0 -321.17240237220585 -184.48223734294743 0 0 0 0 -2424.1117450008605 387.00377069803699 0 387.00377069803699 -1320.8638450867363 0 0 0 0 -2459.5923796178031 -294.18518647571256 0 -294.18518647571256 276.17655768606892 0 0 0 0 -3688.8593256142194 356.199321234389 0 356.199321234389 195.80804786901922 0 0 0 0 -3.8330695678647615 -4.220774170160098 0 -4.220774170160098 -0.11637012307146222 0 0 0 0 708.2724242454351 -448.04284104627993 0 -448.04284104627993 -121.30084897541565 0 0 0 0 -300.5986963476098 -47.062472755608496 0 -47.062472755608496 192.16072472950236 0 0 0 0 -397.01233030614094 -136.27873564450442 0 -136.27873564450442 111.62546232625152 0 0 0 0 -541.86463266965438 262.065676718502 0 262.065676718502 -436.30563638119565 0 0 0 0 -936.62687857980563 -610.15924641278161 0 -610.15924641278161 70.929246266731298 0 0 0 0 -1798.8029320662317 -59.927867361122026 0 -59.927867361122026 -42.973894725675109 0 0 0 0 -29.839282713335706 47.306972142962309 0 47.306972142962309 -80.319449596474897 0 0 0 0 -92.515952256377204 139.51506618263215 0 139.51506618263215 -215.6590812127331 0 0 0 0 34.45453994757554 136.3054032887153 0 136.3054032887153 -350.01068508903381 0 0 0 0 -317.19164943114447 257.19671287814083 0 257.19671287814083 -132.64820811981053 0 0 0 0 -118.05780614739706 63.112193127947762 0 63.112193127947762 38.938408912877094 0 0 0 0 -17.380284171740641 178.22237455188792 0 178.22237455188792 -198.22524852810261 0 0 0 0 -29.366475096518116 197.63803780021749 0 197.63803780021749 -227.36653298279998 0 0 0 0 6.1797043297847267 241.06209770692431 0 241.06209770692431 -179.31418645621363 0 0 0 0 -272.4679938738991 661.16980058777904 0 661.16980058777904 -616.72137306058721 0 0 0 0 -1094.6794849909202 308.08118830374315 0 308.08118830374315 256.0301525910495 0 0 0 0 -503.25955731794238 143.81228253980498 0 143.81228253980498 152.52795663092456 0 0 0 0 -562.83756521594478 436.68602392486287 0 436.68602392486287 118.47497273067597 0 0 0 0 -555.0333986839687 310.15176916627092 0 310.15176916627092 32.603705993713675 0 0 0 0 -593.03370911667298 25.836986102988334 0 25.836986102988334 344.8506547878942 0 0 0 0 -452.86427640623151 21.155052851640562 0 21.155052851640562 308.52609456593564 0 0 0 0 -332.76711349492689 104.72121163978716 0 104.72121163978716 180.45017483289394 0 0 0 0 -321.31887847858889 -100.64013635574906 0 -100.64013635574906 189.45688882424156 0 0 0 0 -294.19268185537658 20.229312526880904 0 20.229312526880904 257.54694055614573 0 0 0 0 -0.80297598865570308 -0.19384969794867857 0 -0.19384969794867857 0.043763812447203065 0 0 0 0 -87.993709251022665 192.17639465735738 0 192.17639465735738 -181.89903340432735 0 0 0 0 -320.56828937309183 94.74986244389936 0 94.74986244389936 89.814485776420042 0 0 0 0 -223.50095251814491 -9.5921098909512352 0 -9.5921098909512352 56.705799660289813 0 0 0 0 -271.61483030423551 -84.126913164743598 0 -84.126913164743598 157.60255850469048 0 0 0 0 -364.43556490320771 -229.78339321758972 0 -229.78339321758972 1.1852609671096275 0 0 0 0 -161.12143934055348 -105.59836802087352 0 -105.59836802087352 -40.57405756850676 0 0 0 0 -67.220134271825373 -84.609270241531249 0 -84.609270241531249 -60.085297783431542 0 0 0 0 -0.58767050182774483 -0.38335535267756882 0 -0.38335535267756882 -0.13291792120022627 0 0 0 0 -23.568777738590143 34.160463438791112 0 34.160463438791112 -88.073860296547196 0 0 0 0 172.30810775384634 -43.935105487382401 0 -43.935105487382401 -116.93994366718334 0 0 0 0 99.083220922242617 31.071766050437759 0 31.071766050437759 -14.57898722707796 0 0 0 0 -14.517300220497418 0.96592116225201607 0 0.96592116225201607 27.60208524604127 0 0 0 0 71.204591389279813 33.218732362436867 0 33.218732362436867 -6.9451903112394575 0 0 0 0 -0.26701705924503472 -0.19754071301443332 0 -0.19754071301443332 0.010162516831575985 0 0 0 0 7.3220983659357444 44.694516183563593 0 44.694516183563593 -56.095920445578486 0 0 0 0 4.2598400678580219 26.115205345979092 0 26.115205345979092 -58.975925240556535 0 0 0 0 15.881276985426666 9.1107669930916018 0 9.1107669930916018 -37.724113358014392 0 0 0 0 42.404849408805603 65.667162562889189 0 65.667162562889189 -36.094094789940527 0 0 0 0 10.633408358422457 37.849126025833016 0 37.849126025833016 4.5824944115370272 0 0 0 0 25.509979071910493 30.70174197348797 0 30.70174197348797 -63.783769745682775 0 0 0 0 28.467739095678553 83.808835184548343 0 83.808835184548343 21.143118305707048 0 0 0 0 26.611340578005183 47.552007849110851 0 47.552007849110851 -35.101446422649587 0 0 0 0 34.773657528246986 58.541840701323963 0 58.541840701323963 -49.708331763049046 0 0 0 0 -32.694097524926406 10.225908160906865 0 10.225908160906865 -2.8556925904149613 0 0 0 0 -41.15073479062994 7.8828264737409057 0 7.8828264737409057 6.178266028466183 0 0 0 0 8.3729312516370555 76.728948701207628 0 76.728948701207628 51.732964266360113 0 0 0 0 -34.948940222287263 9.7919871507162313 0 9.7919871507162313 -1.8542569427332252 0 0 0 0 -28.978928521202761 0.98771958272358518 0 0.98771958272358518 23.459266396351474 0 0 0 0 -31.578404898595181 7.2089248728485531 0 7.2089248728485531 13.657945960248336 0 0 0 0 -19.463274424822885 2.2425710092426279 0 2.2425710092426279 0.14844489752543921 0 0 0 0 -31.437692068997421 7.639209174647223 0 7.639209174647223 1.2411058299143853 0 0 0 0 -38.623240483575501 11.711045372016875 0 11.711045372016875 -0.037772693384280361 0 0 0 0 -65.053419950316311 -34.645975868269886 0 -34.645975868269886 152.49775797435575 0 0 0 0 -15.427578579416149 -9.4493926496327614 0 -9.4493926496327614 83.308555254608834 0 0 0 0 -3.9957478551223176 -56.464617746576756 0 -56.464617746576756 -0.34094055194571216 0 0 0 0 -15.49373716453556 -5.7469075989116591 0 -5.7469075989116591 10.049888464553487 0 0 0 0 138.27192052431928 233.47755492570445 0 233.47755492570445 177.28185258644783 0 0 0 0 -279.64414833735646 520.48923705207039 0 520.48923705207039 901.87169886648167 0 0 0 0 -34.638608862271894 7.8352927917958795 0 7.8352927917958795 -0.62640858524553145 0 0 0 0 170.67733044998022 13.309465477161439 0 13.309465477161439 -108.95454038856406 0 0 0 0 -16.679883637829334 10.118212511422598 0 10.118212511422598 -80.590192374445905 0 0 0 0 142.9454954046596 -139.76858130762139 0 -139.76858130762139 -655.60235360424394 0 0 0 0 167.29510667345312 107.81788341027459 0 107.81788341027459 -127.45808026522923 0 0 0 0 -97.764657211293525 -132.32833174968584 0 -132.32833174968584 -199.10333694205656 0 0 0 0 -679.54655612978968 -204.03570890345645 0 -204.03570890345645 -230.14234554946313 0 0 0 0 -320.09613635925052 -295.79391827018958 0 -295.79391827018958 -252.26522016917829 0 0 0 0 -574.13899987503828 217.17074713656416 0 217.17074713656416 -383.90901962511543 0 0 0 0 -213.52467013979913 318.95068092864904 0 318.95068092864904 -359.14236426955631 0 0 0 0 -15.224788008055839 -3.9811193588934373 0 -3.9811193588934373 -0.7317952022788603 0 0 0 0 -1648.8804941255003 970.58751000953839 0 970.58751000953839 -879.17730113890639 0 0 0 0 -987.12804279508418 -1259.050188650343 0 -1259.050188650343 876.69433828856063 0 0 0 0 -1221.5578383315515 -605.95711546167354 0 -605.95711546167354 -306.98342861910078 0 0 0 0 -518.53621910810034 -625.07267338828751 0 -625.07267338828751 -822.62441069257693 0 0 0 0 349.8406768158311 650.86589123663907 0 650.86589123663907 -809.93253221750979 0 0 0 0 -1432.9468994941708 -936.39808485782783 0 -936.39808485782783 662.70373985099832 0 0 0 0 -1716.6909903192136 -920.6634020134419 0 -920.6634020134419 736.77207040950384 0 0 0 0 -17.222684748765346 1.3592668562775927 0 1.3592668562775927 0.30128546640413773 0 0 0 0 -175.73668010478468 295.12567248866895 0 295.12567248866895 -211.99714114203243 0 0 0 0 -2101.8171819690906 139.46647922542644 0 139.46647922542644 0.25041855679361796 0 0 0 0 -58.565438935649581 -120.47537506736948 0 -120.47537506736948 92.039423663325536 0 0 0 0 -32.132968757869094 616.61906176921173 0 616.61906176921173 -0.58307518840579353 0 0 0 0 -866.4792885883071 348.0691278304455 0 348.0691278304455 -49.716937681389936 0 0 0 0 228.9176306493755 688.3282468591558 0 688.3282468591558 -362.64557460123524 0 0 0 0 207.84443506717798 432.86024922146999 0 432.86024922146999 -126.84890463062879 0 0 0 0 -1501.981307193033 -419.97826289649606 0 -419.97826289649606 -877.14468063924312 0 0 0 0 -683.77598548255628 771.93532927946012 0 771.93532927946012 -457.43278735956039 0 0 0 0 -2244.2520419830034 -64.543848711040823 0 -64.543848711040823 411.99129391320412 0 0 0 0 155.14072898120503 -347.16039875969773 0 -347.16039875969773 435.63130603436247 0 0 0 0 -7.1146205083059613 446.5864557092109 0 446.5864557092109 96.965702046328147 0 0 0 0 -631.55955982453452 606.90306198479516 0 606.90306198479516 64.042240975356435 0 0 0 0 -5.7147416313382564 443.53722373367191 0 443.53722373367191 44.349114941363496 0 0 0 0 -40.598689840952716 -9.6197673468433891 0 -9.6197673468433891 -0.4406938814607031 0 0 0 0 -109.40082618388988 129.56192535622358 0 129.56192535622358 111.82138933966962 0 0 0 0 -158.50826428606524 -47.932843685832722 0 -47.932843685832722 885.40779977283773 0 0 0 0 -486.30719391886669 494.80555515053902 0 494.80555515053902 553.6296743031985 0 0 0 0 -442.88726040327674 724.1027727889757 0 724.1027727889757 -614.89782670280329 0 0 0 0 -110.29962358163903 476.00010980097522 0 476.00010980097522 -467.00131598727262 0 0 0 0 -279.43746373843896 554.37336090479334 0 554.37336090479334 -58.396515213409202 0 0 0 0 -289.51996796560707 663.90481076302967 0 663.90481076302967 -135.90579666027338 0 0 0 0 -2319.4945052469193 -1585.4412549289818 0 -1585.4412549289818 494.5188584206644 0 0 0 0 -39.127579492444056 1031.5448577892944 0 1031.5448577892944 -70.167632845301881 0 0 0 0 317.5792534903303 716.56812130014816 0 716.56812130014816 -251.09605726588109 0 0 0 0 -21.625890385995575 9.7690179474980994 0 9.7690179474980994 -3.7400183632417328 0 0 0 0 132.41024731315338 92.048408322276174 0 92.048408322276174 380.51465204401438 0 0 0 0 48.331626694031002 343.68170982105812 0 343.68170982105812 -88.569361384283638 0 0 0 0 -492.81659181034775 322.46440664831766 0 322.46440664831766 -88.781365916147934 0 0 0 0 -205.69475696084555 -28.211105967360936 0 -28.211105967360936 63.445877904925084 0 0 0 0 -925.11604529722536 12.057755053777328 0 12.057755053777328 72.338113329535645 0 0 0 0 -397.92324347718841 -32.874704138902842 0 -32.874704138902842 281.60855811470856 0 0 0 0 -242.4065466363536 82.140156805125116 0 82.140156805125116 300.71159042489182 0 0 0 0 142.55120445867942 263.90588251532972 0 263.90588251532972 350.02699906103607 0 0 0 0 -374.43143738535582 134.49112894379209 0 134.49112894379209 416.21871903170177 0 0 0 0 -90.722018698630563 162.70124801403239 0 162.70124801403239 618.59858370504344 0 0 0 0 -39.903706720278933 6.7087720236794439 0 6.7087720236794439 279.13085712279462 0 0 0 0 -25.68259096305701 182.06484444019452 0 182.06484444019452 425.53507494256769 0 0 0 0 -263.32732921432034 -83.762527179912979 0 -83.762527179912979 366.85439252255492 0 0 0 0 -712.44459693449608 78.758599790964126 0 78.758599790964126 217.54405494416915 0 0 0 0 -414.10653873841511 -77.788128543643325 0 -77.788128543643325 377.45829765370399 0 0 0 0 -17.282904263789533 61.866645278366832 0 61.866645278366832 297.2183355758707 0 0 0 0 462.00214294315083 256.87062495622763 0 256.87062495622763 198.56780247108873 0 0 0 0 293.79594397879555 -101.94688340256448 0 -101.94688340256448 168.34262164735628 0 0 0 0 973.02305664296728 529.84603993356359 0 529.84603993356359 -1541.7277264209333 0 0 0 0 2828.9860903060762 -2685.7581805426071 0 -2685.7581805426071 -2232.7259586374712 0 0 0 0 1279.7566062180558 2249.5587022776854 0 2249.5587022776854 -4823.1120368108714 0 0 0 0 4533.1718867102172 -1467.0885635802333 0 -1467.0885635802333 -6353.5387507593368 0 0 0 0 -70.671873547311407 -151.36446897523319 0 -151.36446897523319 255.73722990370698 0 0 0 0 -56.132690606308984 35.261368963376533 0 35.261368963376533 -18.320189993716351 0 0 0 0 149.28843548634904 461.33565241384372 0 461.33565241384372 542.08572263712267 0 0 0 0 294.67056904427591 729.0195642863946 0 729.0195642863946 1271.5476764151044 0 0 0 0 727.3251545852836 637.15008167937594 0 637.15008167937594 4.4471041138313012 0 0 0 0 489.9522877134732 -1196.4993194384115 0 -1196.4993194384115 1180.340176902102 0 0 0 0 492.05641095610918 189.35182199944757 0 189.35182199944757 -198.61629792052918 0 0 0 0 587.4085047809931 47.514369748394529 0 47.514369748394529 -399.27291942174634 0 0 0 0 196.74615930780419 99.658251732580538 0 99.658251732580538 173.52194824877733 0 0 0 0 -365.64605318463873 -209.97309469845823 0 -209.97309469845823 -158.88052357951597 0 0 0 0 272.85791422564944 179.14605618328369 0 179.14605618328369 -389.79568631657094 0 0 0 0 -678.53073157489416 -18.153252035677724 0 -18.153252035677724 611.60358165576872 0 0 0 0 563.6428349606249 82.110955496369343 0 82.110955496369343 -213.41148095414246 0 0 0 0 -703.03329987985489 187.62957248274233 0 187.62957248274233 -481.87469075374975 0 0 0 0 -1623.1046160689148 -398.49181313288591 0 -398.49181313288591 -186.29081344570659 0 0 0 0 -2405.7863387855541 534.04711382387359 0 534.04711382387359 -182.65432912337928 0 0 0 0 -1816.8798353219318 -784.84535105034774 0 -784.84535105034774 -338.72756875275627 0 0 0 0 -3732.2470209282619 -1151.6460386948584 0 -1151.6460386948584 -265.79961485885906 0 0 0 0 -9.3861023210082806 2.3117628767596727 0 2.3117628767596727 -1.2888942615973633 0 0 0 0 -3203.1956057228745 -516.0423235922608 0 -516.0423235922608 273.56522898978437 0 0 0 0 -2.91267180968552 -6.7881189814208369 0 -6.7881189814208369 1.8044762504126268 0 0 0 0 -814.96509404201061 354.39583796253646 0 354.39583796253646 -396.58404478706916 0 0 0 0 -300.11437741207192 67.344908176207355 0 67.344908176207355 -437.7146597606752 0 0 0 0 -2212.3716757228131 -613.0523051751461 0 -613.0523051751461 168.08159249884193 0 0 0 0 -651.43524082424119 993.4256487565408 0 993.4256487565408 728.56133047835101 0 0 0 0 -49.118553179438635 27.198270147209435 0 27.198270147209435 -11.387158204561109 0 0 0 0 -0.026075094225234352 548.21209825036351 0 548.21209825036351 778.51323815696776 0 0 0 0 -606.15264586546255 373.0996571706919 0 373.0996571706919 -299.20306214928678 0 0 0 0 -172.30236376439279 196.46208028169804 0 196.46208028169804 -327.87343112098461 0 0 0 0 -467.17632826074259 190.31866397687554 0 190.31866397687554 -320.5744979148767 0 0 0 0 -638.37740909670538 426.83364955051184 0 426.83364955051184 -78.292841428863909 0 0 0 0 -1100.7433470694523 387.06351953829653 0 387.06351953829653 -78.013648947821451 0 0 0 0 -1456.7396421134181 -15.73212052569761 0 -15.73212052569761 -257.19468142752521 0 0 0 0 -868.03243135548655 294.15670596002769 0 294.15670596002769 -94.118222623448673 0 0 0 0 -698.09585252360739 605.51372515791491 0 605.51372515791491 -30.176382845762419 0 0 0 0 -1720.547098003095 591.69853984769543 0 591.69853984769543 136.30392946993743 0 0 0 0 1489.0241630574892 898.15905068824395 0 898.15905068824395 57.611041427931923 0 0 0 0 -656.993654982718 1146.8852604628964 0 1146.8852604628964 34.342021280172048 0 0 0 0 -1232.2385965815592 324.39698410794699 0 324.39698410794699 -621.01775267035555 0 0 0 0 -359.05496324613341 9.2190372939003282 0 9.2190372939003282 -397.39427032158346 0 0 0 0 -1025.2668253657648 -191.79120998865346 0 -191.79120998865346 -304.01599402496504 0 0 0 0 -838.87766819843819 -30.642283351527567 0 -30.642283351527567 -287.02268448108225 0 0 0 0 -110.24033329794474 2.5433472729000641 0 2.5433472729000641 -477.81383121034378 0 0 0 0 -356.07560608560743 37.994445185740915 0 37.994445185740915 -390.91638767618315 0 0 0 0 61.802219301593141 -97.914224960270076 0 -97.914224960270076 -471.56457721710467 0 0 0 0 307.31646840667236 239.33075496455149 0 239.33075496455149 -543.69980671041412 0 0 0 0 363.86338958538545 152.83225041399601 0 152.83225041399601 -411.38719892572044 0 0 0 0 459.23813296004664 418.76934299851928 0 418.76934299851928 -879.85472061378823 0 0 0 0 812.53164424846182 -91.747217251420807 0 -91.747217251420807 -532.49371894069554 0 0 0 0 422.59398827695986 525.74717945588418 0 525.74717945588418 -660.79159083848208 0 0 0 0 559.56862126020133 201.97756937687882 0 201.97756937687882 -616.35675042569346 0 0 0 0 -149.97767917043529 548.46298717517311 0 548.46298717517311 -436.42226827748163 0 0 0 0 239.4053152599954 339.04230612524043 0 339.04230612524043 -618.04251072071258 0 0 0 0 284.42599162947954 516.09630196495368 0 516.09630196495368 -648.71274714870378 0 0 0 0 344.63573940287461 238.34907585704605 0 238.34907585704605 -550.39472889098033 0 0 0 0 -22.181934507501865 190.08794887376871 0 190.08794887376871 -463.7996892025476 0 0 0 0 -955.79036644755615 268.01086139984864 0 268.01086139984864 -63.017482590090367 0 0 0 0 -14.074036094374605 2255.7740559178033 0 2255.7740559178033 -413.47978002207446 0 0 0 0 -636.89920333548162 -50.264419484961778 0 -50.264419484961778 114.4676229371762 0 0 0 0 -22.651726191658952 20.562123066506445 0 20.562123066506445 -15.38406726093519 0 0 0 0 -1785.5202660525829 1599.3664541333355 0 1599.3664541333355 -1008.8293757376596 0 0 0 0 -398.49434150403249 648.15248109318236 0 648.15248109318236 -359.53205800596334 0 0 0 0 1058.1021732068257 460.54548929400607 0 460.54548929400607 -1485.7164006059684 0 0 0 0 -189.42836616924615 1087.5581869420166 0 1087.5581869420166 -1050.548515161774 0 0 0 0 -83.713894699576485 364.67951557753213 0 364.67951557753213 -230.58619345802799 0 0 0 0 -616.95871546081617 636.21299054606425 0 636.21299054606425 -357.50437503734065 0 0 0 0 -329.14690605886062 -189.97779331450556 0 -189.97779331450556 105.974401519803 0 0 0 0 -61.232955022365786 235.29837508537366 0 235.29837508537366 -26.417616974049452 0 0 0 0 64.349956185629708 269.91000836904095 0 269.91000836904095 -319.60330928701842 0 0 0 0 19.037561984499916 388.87124933289488 0 388.87124933289488 -366.27366445730422 0 0 0 0 -2.9494830725071211 5.8555292194100872 0 5.8555292194100872 8.8652231934402934 0 0 0 0 44.370975924030063 351.21221475362472 0 351.21221475362472 -314.89791413064995 0 0 0 0 -153.21324854891282 137.33026291853275 0 137.33026291853275 -222.21461505904881 0 0 0 0 114.04327432301943 85.764910187017904 0 85.764910187017904 -62.312660259656695 0 0 0 0 -181.38797099071962 -248.48465905136982 0 -248.48465905136982 72.965464925633569 0 0 0 0 43.477184178904281 195.2578868575747 0 195.2578868575747 -164.83776638563904 0 0 0 0 -10.380899456184125 -100.93020023484132 0 -100.93020023484132 -330.87884282913728 0 0 0 0 -6.3711969388350553 251.8745867593575 0 251.8745867593575 -219.63742282851308 0 0 0 0 66.468994877533987 105.93103229088774 0 105.93103229088774 -413.71171236561349 0 0 0 0 -117.92764930657586 129.13652814265993 0 129.13652814265993 62.248899008214721 0 0 0 0 -0.24622204432938588 2.5013434820674121 0 2.5013434820674121 -4.7797636996543602 0 0 0 0 -109.20331004277341 213.35700791615125 0 213.35700791615125 -25.666418300352234 0 0 0 0 -44.924269031427684 171.41457466519842 0 171.41457466519842 -8.6335307575609477 0 0 0 0 -49.723822830608697 159.03981332286276 0 159.03981332286276 -14.489297786279167 0 0 0 0 -123.35380831801012 174.71727711865969 0 174.71727711865969 37.0671421416464 0 0 0 0 7.7662424207519507 167.22508717625442 0 167.22508717625442 -147.65177743265667 0 0 0 0 -5.7863274320390303 4.0568130918698557 0 4.0568130918698557 5.3830151398385482 0 0 0 0 -501.7994416624133 357.33953464240312 0 357.33953464240312 -297.00562584378849 0 0 0 0 -0.88725785084170639 -30.649996720061608 0 -30.649996720061608 196.49501509396578 0 0 0 0 -546.37206872746174 475.45353772724684 0 475.45353772724684 -406.4037018972258 0 0 0 0 -90.216580716201861 -139.90114696543151 0 -139.90114696543151 296.88170563265521 0 0 0 0 -3.1122056551623132 1.9357576860611516 0 1.9357576860611516 1.8553349942919084 0 0 0 0 -67.289007885825413 41.48171625447867 0 41.48171625447867 -174.29434830276296 0 0 0 0 -24.623276807811635 -42.879802858632047 0 -42.879802858632047 -352.15947841317757 0 0 0 0 -94.897633984037384 -18.660863136588432 0 -18.660863136588432 -150.23727105480611 0 0 0 0 -5.7121091487351805 36.151931401374895 0 36.151931401374895 -241.74659507837168 0 0 0 0 -29.915600128566439 -72.873747095798535 0 -72.873747095798535 -680.62348503697376 0 0 0 0 -200.53534237076019 -231.36934490360454 0 -231.36934490360454 -65.530049270202653 0 0 0 0 -92.135430758768052 -258.04481980497394 0 -258.04481980497394 19.364082252150183 0 0 0 0 8.3921581428439822 -276.82864215319569 0 -276.82864215319569 -314.29660250353618 0 0 0 0 -11.719659933900402 -637.19682293149208 0 -637.19682293149208 264.39701008414886 0 0 0 0 -15.524984542870527 -3.5909507844355346 0 -3.5909507844355346 1.2960049699228762 0 0 0 0 -265.56508076758473 -305.8116719581194 0 -305.8116719581194 619.96227503806767 0 0 0 0 298.31837326291861 -143.77934474775202 0 -143.77934474775202 -53.118946210392323 0 0 0 0 510.23979076862452 -213.34552928349603 0 -213.34552928349603 -360.81614729444482 0 0 0 0 65.898403304861858 225.75243953649806 0 225.75243953649806 -259.82543968151822 0 0 0 0 283.08389732791693 -342.5578621265131 0 -342.5578621265131 251.81349011369093 0 0 0 0 226.84260316708242 7.3909142527063523 0 7.3909142527063523 -10.041447293908277 0 0 0 0 -179.48939442446681 467.37938601556641 0 467.37938601556641 -413.25930333563156 0 0 0 0 -367.95621013196069 -509.46388178048983 0 -509.46388178048983 223.95598958581832 0 0 0 0 -1.0791880790999073 -0.46638378513004852 0 -0.46638378513004852 -0.3708082913962194 0 0 0 0 -916.17664384548698 -853.36846946397054 0 -853.36846946397054 541.48082234906929 0 0 0 0 275.92500920878956 88.776202189937976 0 88.776202189937976 -595.39889979697364 0 0 0 0 -645.67728343239287 525.6789216240677 0 525.6789216240677 -335.75045819976231 0 0 0 0 -91.837031913542887 110.24004746825449 0 110.24004746825449 -107.87298578344053 0 0 0 0 -750.02114845406322 -253.88284902565374 0 -253.88284902565374 68.894389765645428 0 0 0 0 -436.47489424267405 -21.818492016728669 0 -21.818492016728669 -74.663318575301673 0 0 0 0 24.01246763265226 132.61382264798522 0 132.61382264798522 -120.86372996186583 0 0 0 0 27.966911374824122 95.972514799093915 0 95.972514799093915 -98.636051828530071 0 0 0 0 200.55471449885226 29.337962000186963 0 29.337962000186963 -112.37910919639944 0 0 0 0 302.5624379618821 6.2668428349852547 0 6.2668428349852547 -136.37295399036338 0 0 0 0 52.940166957945621 95.457067931426536 0 95.457067931426536 -97.41635199481243 0 0 0 0 -36.841319194980315 38.15459408211882 0 38.15459408211882 -57.01214989554137 0 0 0 0 -38.918359209506889 45.630596112584499 0 45.630596112584499 -76.85205040089491 0 0 0 0 -14.130148378928425 93.411081586011278 0 93.411081586011278 -129.12294607343779 0 0 0 0 -38.074377706805535 94.594762270331557 0 94.594762270331557 -51.721485656900768 0 0 0 0 -32.166606852526456 102.18164527707222 0 102.18164527707222 -48.622894676849683 0 0 0 0 41.99602815786784 24.96268149846037 0 24.96268149846037 26.754572956533593 0 0 0 0 95.416528781446686 75.923726881997027 0 75.923726881997027 -57.763882913297948 0 0 0 0 93.884249842813006 60.516802548781925 0 60.516802548781925 7.155015949526387 0 0 0 0 -3.3104673633749258 6.2272595955502794 0 6.2272595955502794 -12.027269150096522 0 0 0 0 -14.111126564195729 -7.7279877162791308 0 -7.7279877162791308 -37.509820694252085 0 0 0 0 -11.690827387045829 3.3961312622170681 0 3.3961312622170681 -46.064778353060319 0 0 0 0 -5.2884504966447423 11.202151170448914 0 11.202151170448914 -21.211470726234182 0 0 0 0 4.48169568679441 -8.6824901550371578 0 -8.6824901550371578 -24.433006641993416 0 0 0 0 8.8254331820062362 54.957017624992659 0 54.957017624992659 -27.455849805821344 0 0 0 0 -1.6576213057702489 3.0896976327676526 0 3.0896976327676526 -5.3177371928198127 0 0 0 0 71.711287386438926 16.294910171147421 0 16.294910171147421 -41.778199682939885 0 0 0 0 86.927558456765837 23.980332530900569 0 23.980332530900569 -38.271779534927191 0 0 0 0 54.981075271163718 -4.1204825289414657 0 -4.1204825289414657 -25.132484543973987 0 0 0 0 109.78205904312199 26.330933499081766 0 26.330933499081766 -35.588404172451192 0 0 0 0 84.016571889418628 9.8628798516087954 0 9.8628798516087954 -44.495551420368429 0 0 0 0 292.64597717078868 -114.79279948018575 0 -114.79279948018575 -28.236697301213553 0 0 0 0 105.78235853680235 -26.153638768130349 0 -26.153638768130349 -9.2616832348594471 0 0 0 0 -0.10790325873151119 -2.0885580539564899 0 -2.0885580539564899 -3.636454765446846 0 0 0 0 74.684890508520766 7.8048884149484365 0 7.8048884149484365 -44.466769566221757 0 0 0 0 30.872886013268726 141.55267441990463 0 141.55267441990463 -328.76444349943085 0 0 0 0 -9.7626561122451676 -26.25632612709569 0 -26.25632612709569 -221.7879214601744 0 0 0 0 -1.7684626951804034 -1.2818021582859984 0 -1.2818021582859984 -9.2441674858389717 0 0 0 0 -29.43101203180413 148.96783114038203 0 148.96783114038203 -149.89733681162124 0 0 0 0 11.942921609621408 233.50772490474765 0 233.50772490474765 -397.18893186348942 0 0 0 0 -262.78179701179033 117.84251171341793 0 117.84251171341793 -39.509975830903386 0 0 0 0 -287.27196559042204 -68.979122959567576 0 -68.979122959567576 93.03800494317602 0 0 0 0 -573.41199717919517 259.39022410598363 0 259.39022410598363 -38.175585873530963 0 0 0 0 -477.51030120012274 -264.3040812239235 0 -264.3040812239235 -107.27110071687457 0 0 0 0 -154.83400163971237 319.76051178887246 0 319.76051178887246 -502.84290743196016 0 0 0 0 -99.133418698940659 250.07619113857663 0 250.07619113857663 -62.375932675556214 0 0 0 0 -45.081629766791593 110.39649622496199 0 110.39649622496199 -114.68648809916795 0 0 0 0 -10.012059520246112 -15.692457360433309 0 -15.692457360433309 -527.42970546028243 0 0 0 0 -3.3538213166924606 3.0805357120855632 0 3.0805357120855632 -4.7550586135005375 0 0 0 0 -417.57390410829248 309.32444862753687 0 309.32444862753687 -413.61048702053722 0 0 0 0 -474.11375817727094 342.94415365168402 0 342.94415365168402 -143.96091926681675 0 0 0 0 -376.5182113477349 213.9764045029824 0 213.9764045029824 -65.487818835353437 0 0 0 0 -434.58666443956099 67.16620841254533 0 67.16620841254533 23.998906125166286 0 0 0 0 -119.31386541527172 -108.33372837118486 0 -108.33372837118486 -40.691868277420895 0 0 0 0 0.54460681249628351 2.9275267552392563 0 2.9275267552392563 -3.5771697580412267 0 0 0 0 -23.077643771568546 17.271352602117986 0 17.271352602117986 -30.476630210267103 0 0 0 0 -7.5974817769371725 -7.0099180224328137 0 -7.0099180224328137 -12.243656672074046 0 0 0 0 7.3503461337822955 -6.2236587392058027 0 -6.2236587392058027 -39.125925569116589 0 0 0 0 0.69747950063174358 41.750904487310663 0 41.750904487310663 -69.377671792288311 0 0 0 0 44.242679325478093 16.939426075462734 0 16.939426075462734 -88.577645449251577 0 0 0 0 -45.714598309263238 3.753049602914416 0 3.753049602914416 -5.884453774128815 0 0 0 0 0.43858457554597408 267.78891712615632 0 267.78891712615632 -262.88126089741218 0 0 0 0 -156.24585425782425 -49.024912681567457 0 -49.024912681567457 -17.079769988406042 0 0 0 0 -59.183711496501928 -87.495044675582449 0 -87.495044675582449 -15.559372414253176 0 0 0 0 -21.179667669139519 -12.958459750843616 0 -12.958459750843616 -15.81802709379042 0 0 0 0 -19.376407299198036 5.96142208784579 0 5.96142208784579 -50.358150530017156 0 0 0 0 -33.048388754921518 26.615155171877703 0 26.615155171877703 -28.505165117548945 0 0 0 0 -59.627134228459909 36.157147642070868 0 36.157147642070868 67.96904678823438 0 0 0 0 -23.666852599068079 10.438626257370288 0 10.438626257370288 -51.174568696918868 0 0 0 0 -18.689708440793765 32.518410158992083 0 32.518410158992083 -38.746319975876759 0 0 0 0 -27.559175114853133 16.433301198723711 0 16.433301198723711 -55.048745869644335 0 0 0 0 -16.018522044883866 6.5852036020569358 0 6.5852036020569358 -45.971985162861529 0 0 0 0 -18.195713187655201 10.825914131298305 0 10.825914131298305 -54.157419770966953 0 0 0 0 -7.7233122685065609 -2.7254591648352289 0 -2.7254591648352289 -78.296414716753134 0 0 0 0 -16.664834092967794 -7.2543084145600005 0 -7.2543084145600005 -46.063071658340647 0 0 0 0 -30.254479164212171 -52.158574821629372 0 -52.158574821629372 -135.01176380279503 0 0 0 0 6.066205607730808 51.936743116019898 0 51.936743116019898 -84.394052218296565 0 0 0 0 27.589580319036031 74.464699128884604 0 74.464699128884604 -183.59669805611338 0 0 0 0 12.147037902497686 45.986532564020308 0 45.986532564020308 -165.65190493697446 0 0 0 0 -0.32995527104503708 42.381099862624069 0 42.381099862624069 -92.333700014702117 0 0 0 0 -37.407016074525899 39.482414909459813 0 39.482414909459813 -33.503216152754199 0 0 0 0 -17.487188348153722 70.281405925439685 0 70.281405925439685 -43.795082064900043 0 0 0 0 -91.470142052057781 114.02369806923389 0 114.02369806923389 788.67172649688428 0 0 0 0 -17.741346153139602 116.32424843423723 0 116.32424843423723 -90.220198741333434 0 0 0 0 -57.927829926367849 90.448406575897025 0 90.448406575897025 105.39162408506127 0 0 0 0 -14.237205267010722 60.683514697362625 0 60.683514697362625 -15.953443019814586 0 0 0 0 -39.18556610372616 23.117072633480348 0 23.117072633480348 98.84191485813426 0 0 0 0 0.47103710338222982 18.079202511685224 0 18.079202511685224 3.9295462576194744 0 0 0 0 -18.022650555285509 69.936619517568033 0 69.936619517568033 9.9586453089286806 0 0 0 0 -1076.8550330809667 3771.3229180751268 0 3771.3229180751268 -1808.7877378913372 0 0 0 0 -24.500349937147917 20.465245169816939 0 20.465245169816939 -11.154085158472013 0 0 0 0 1642.6123242279718 -436.28116104298283 0 -436.28116104298283 -2107.5748588040406 0 0 0 0 3513.7039578102267 -5795.2142933251862 0 -5795.2142933251862 8258.6560214389319 0 0 0 0 -30.735916270608186 50.962808276117102 0 50.962808276117102 -39.417939648187847 0 0 0 0 -129.55234151385957 1309.7864981288742 0 1309.7864981288742 -1880.0655256915065 0 0 0 0 -1374.1063658962375 1042.7600992811599 0 1042.7600992811599 -332.67979767549878 0 0 0 0 384.432029853313 -928.67024059430378 0 -928.67024059430378 546.99827467946079 0 0 0 0 624.26472005916003 177.15894417063714 0 177.15894417063714 -505.37632591223701 0 0 0 0 141.5803014485864 -8.2521979084963277 0 -8.2521979084963277 -348.61933542241604 0 0 0 0 -85.583216693019494 -58.961661743971263 0 -58.961661743971263 254.96045617679283 0 0 0 0 184.61113669637416 -98.494949923736499 0 -98.494949923736499 -161.90871321033228 0 0 0 0 -194.55631195343449 12.039347538251491 0 12.039347538251491 156.02255092991527 0 0 0 0 -78.786934364412446 -0.32658794939266045 0 -0.32658794939266045 44.497335284688646 0 0 0 0 -86.357528220498352 0.18342062203214482 0 0.18342062203214482 76.93213343558557 0 0 0 0 -58.308839364115556 29.834966469004371 0 29.834966469004371 96.583753536424183 0 0 0 0 20.799455496671726 139.7246008759858 0 139.7246008759858 199.42500353686751 0 0 0 0 -1649.9011210932658 -657.70717512597616 0 -657.70717512597616 -265.2554779087327 0 0 0 0 -17.524585906748861 -15.265370747162848 0 -15.265370747162848 -1.4958345633651309 0 0 0 0 -80.384922565513989 -30.539058965804884 0 -30.539058965804884 45.095511554474342 0 0 0 0 -2270.4382979969523 460.77574623521502 0 460.77574623521502 205.29253376467545 0 0 0 0 -2764.3724081902183 692.90510012473044 0 692.90510012473044 96.409852743381293 0 0 0 0 -77.161140282551059 -14.402777015218135 0 -14.402777015218135 63.589558996454116 0 0 0 0 -69.551276153084473 -68.563880435730653 0 -68.563880435730653 95.231383011900789 0 0 0 0 -66.82511313087889 -49.035660974029952 0 -49.035660974029952 14.952966976416519 0 0 0 0 -53.2454134675354 -155.5574393549125 0 -155.5574393549125 148.91381582883929 0 0 0 0 -182.60106978081876 -89.659979979736562 0 -89.659979979736562 126.80000297840934 0 0 0 0 103.77117160627677 -124.44914583768946 0 -124.44914583768946 48.231044172650854 0 0 0 0 -2899.5050752885036 181.37414294120839 0 181.37414294120839 84.132939256320242 0 0 0 0 -7.2348736528433193 -12.579118290925408 0 -12.579118290925408 -0.68496465177623556 0 0 0 0 -2414.6963641888869 -42.953267588695155 0 -42.953267588695155 -143.76567336769062 0 0 0 0 -2.9675349286806112 -1.7951701622284872 0 -1.7951701622284872 -6.9660327085575071 0 0 0 0 -2547.6600674051297 -74.371947453076473 0 -74.371947453076473 34.199742640870568 0 0 0 0 -1197.0870011450897 -350.02595562904747 0 -350.02595562904747 250.83596394187293 0 0 0 0 -1037.0318131178647 -308.70990315043861 0 -308.70990315043861 -195.84285747080628 0 0 0 0 -989.71746509238437 -391.10706323021191 0 -391.10706323021191 -524.18242568910921 0 0 0 0 87.225549725553719 -473.27000768474397 0 -473.27000768474397 -589.29039784621102 0 0 0 0 -2331.9012444306718 46.090774494340735 0 46.090774494340735 -470.76050071891996 0 0 0 0 -743.0813814328867 328.85458805713802 0 328.85458805713802 -536.81012417016291 0 0 0 0 -1928.2966018888983 1247.1835666220504 0 1247.1835666220504 170.31049271196821 0 0 0 0 -2017.8450099262918 1384.7728535061879 0 1384.7728535061879 1529.2521185733845 0 0 0 0 1077.7340119852597 -374.68296917324039 0 -374.68296917324039 -207.73232034343749 0 0 0 0 -616.25729376404342 -488.7766583570442 0 -488.7766583570442 1472.8860381944219 0 0 0 0 -1540.6392680710051 -146.27806640957323 0 -146.27806640957323 -218.10832252883074 0 0 0 0 -1363.1237199907591 -205.37527277179589 0 -205.37527277179589 1455.4038026588951 0 0 0 0 -52.683421518645588 -2.1436934162808434 0 -2.1436934162808434 3.9110498166336511 0 0 0 0 -248.32331253940356 -1201.6263497307277 0 -1201.6263497307277 -640.57286913691814 0 0 0 0 -26.623397768371632 -1.0634409792656569 0 -1.0634409792656569 1.8518215589508915 0 0 0 0 -1631.1515198453562 -1372.1929151908435 0 -1372.1929151908435 -556.22993522954232 0 0 0 0 -2169.9937017595075 -456.40571740808014 0 -456.40571740808014 173.32960811744715 0 0 0 0 -9.9553387053963007 2.9974826625997082 0 2.9974826625997082 -14.64446880738368 0 0 0 0 -2286.0263469509955 539.20840707090133 0 539.20840707090133 709.58235575475908 0 0 0 0 -3351.0626400181281 27.166410141235414 0 27.166410141235414 483.21780819093078 0 0 0 0 -3291.0086494819261 -599.19736506447407 0 -599.19736506447407 417.3211272357488 0 0 0 0 -3634.586756769364 197.7928248173389 0 197.7928248173389 737.50013846564116 0 0 0 0 -1003.5423193952956 871.33093457794814 0 871.33093457794814 -2997.4194396278886 0 0 0 0 -2869.1944960093751 1180.5131326584774 0 1180.5131326584774 1617.528601791068 0 0 0 0 -3.4332789236063945 -3.3351925791054668 0 -3.3351925791054668 -4.7711860513482511 0 0 0 0 -47.394712893522154 -10.777452078267657 0 -10.777452078267657 -0.71098844922229176 0 0 0 0 -61.531040157526149 22.576800205775271 0 22.576800205775271 -11.01024005852895 0 0 0 0 -67.008872131773387 -31.092199992276505 0 -31.092199992276505 12.769315950298733 0 0 0 0 -89.98476241309254 -16.51913847355263 0 -16.51913847355263 -7.412058601093122 0 0 0 0 -12.836608517999309 -8.9407547433150043 0 -8.9407547433150043 0.2701801960120207 0 0 0 0 -61.269526071715518 18.730303983457361 0 18.730303983457361 18.115449972874558 0 0 0 0 -134.87397440694622 41.451978142738881 0 41.451978142738881 21.924772191974057 0 0 0 0 -66.26463034277549 -80.797178097979668 0 -80.797178097979668 -122.68586699939624 0 0 0 0 -171.15242511162069 -21.600195939668993 0 -21.600195939668993 59.243397540447404 0 0 0 0 -78.269838486419758 101.81627739174201 0 101.81627739174201 143.06834957524188 0 0 0 0 -6.9026458629959961 24.908360417330414 0 24.908360417330414 -3.2072340897884715 0 0 0 0 -178.19685440258763 108.16676145925061 0 108.16676145925061 -212.05983851874953 0 0 0 0 -0.31965984270438952 2.1884854318980729 0 2.1884854318980729 -7.0639883922986941 0 0 0 0 -114.59299996074697 -20.49446962375805 0 -20.49446962375805 -156.48956147306853 0 0 0 0 -24.709682388682268 7.49313064768603 0 7.49313064768603 -608.56919725212447 0 0 0 0 -967.08819528028107 444.33005781193765 0 444.33005781193765 -732.28548565528672 0 0 0 0 -742.35701584064009 -430.7847936180043 0 -430.7847936180043 -196.62566679990596 0 0 0 0 -2054.1479094449096 677.15142875045285 0 677.15142875045285 34.263527053504731 0 0 0 0 -1421.5190483925326 -166.0352238913315 0 -166.0352238913315 -287.71620041456754 0 0 0 0 -858.01713935119915 -75.041110298751846 0 -75.041110298751846 83.143923778729004 0 0 0 0 -355.8761786099476 622.57142079928951 0 622.57142079928951 -512.78299767757198 0 0 0 0 -905.06941137838294 443.32159291686912 0 443.32159291686912 -107.20408332146053 0 0 0 0 -494.63458394119516 105.88159806196177 0 105.88159806196177 136.92316051067337 0 0 0 0 -381.76299994892906 184.95758414443981 0 184.95758414443981 3.1022609693784489 0 0 0 0 -441.66430341228624 -92.286640590503566 0 -92.286640590503566 359.27712345379405 0 0 0 0 110.2942801516765 -401.18178563129231 0 -401.18178563129231 200.9860872584095 0 0 0 0 -350.57026073934685 -18.834633570068945 0 -18.834633570068945 -39.788480678364976 0 0 0 0 -240.80380746374431 -314.72584482306684 0 -314.72584482306684 291.00627152059405 0 0 0 0 45.42455857785535 -451.47860458329524 0 -451.47860458329524 170.00850204291237 0 0 0 0 -305.84121413710818 -273.8968789688538 0 -273.8968789688538 189.87757529619103 0 0 0 0 -200.8272963758136 -202.44644604560051 0 -202.44644604560051 -23.398814206822863 0 0 0 0 -1345.140260864122 -251.77873712557914 0 -251.77873712557914 208.73143311225431 0 0 0 0 334.79780744806339 -83.051643827325279 0 -83.051643827325279 330.06599546428015 0 0 0 0 54.298388173410785 -460.69432537204284 0 -460.69432537204284 21.064289295078197 0 0 0 0 -117.01330135564785 -469.98534844770711 0 -469.98534844770711 546.79707696678452 0 0 0 0 993.09082838403265 -703.11165789110942 0 -703.11165789110942 164.13319445490743 0 0 0 0 161.96626076188113 -329.9170982813489 0 -329.9170982813489 577.15087760066172 0 0 0 0 -881.49815644760383 -570.43616891337706 0 -570.43616891337706 -93.325882049365418 0 0 0 0 -14.864102149665541 -26.625315313566801 0 -26.625315313566801 -32.347596435472212 0 0 0 0 -1761.3389884410644 110.60084958510569 0 110.60084958510569 216.00595310618345 0 0 0 0 1587.5706532247204 -618.51733438888391 0 -618.51733438888391 -575.21558150930287 0 0 0 0 -3220.2380650293562 48.173995476834456 0 48.173995476834456 244.23520969091331 0 0 0 0 -6.585401793642859 -10.203501865754617 0 -10.203501865754617 -12.95434964588711 0 0 0 0 -325.12456129367638 -75.39053345139564 0 -75.39053345139564 -17.018532081785509 0 0 0 0 135.0394294519574 -480.81297239381365 0 -480.81297239381365 -57.827502505366283 0 0 0 0 457.75755846817992 -1038.6240652294885 0 -1038.6240652294885 -679.76044674367949 0 0 0 0 79.128929971346224 -943.83638767807111 0 -943.83638767807111 -699.00648812914369 0 0 0 0 220.61394361343264 -3.7776790846280619 0 -3.7776790846280619 -1092.2525643890726 0 0 0 0 -1129.749171190073 621.6801931582936 0 621.6801931582936 -364.48852954574437 0 0 0 0 -425.91052770356328 1117.181351391828 0 1117.181351391828 -20.750475353399793 0 0 0 0 -1159.0042140614896 125.75878964639554 0 125.75878964639554 9.9473980131804183 0 0 0 0 -1176.7087407093786 153.09351911154721 0 153.09351911154721 -21.07762745226745 0 0 0 0 -2171.18210103405 -753.42064578634586 0 -753.42064578634586 -577.4827891896316 0 0 0 0 -2121.5907228627693 -223.15425088057373 0 -223.15425088057373 381.92292184954067 0 0 0 0 -1074.0104976592775 468.20780276984556 0 468.20780276984556 129.41012014428134 0 0 0 0 -2131.3864928227231 -152.31624173899024 0 -152.31624173899024 102.26040108236117 0 0 0 0 -2589.8835551751181 447.82960031486391 0 447.82960031486391 219.78628896432792 0 0 0 0 -649.55079796923201 796.96232720674186 0 796.96232720674186 -348.53925602713116 0 0 0 0 -3039.535539883087 -459.71475085212342 0 -459.71475085212342 321.12739650065782 0 0 0 0 -1751.7841718373456 -964.32269241937593 0 -964.32269241937593 -739.29294807116003 0 0 0 0 -10.447627862150812 -27.580931095956814 0 -27.580931095956814 13.561289280141027 0 0 0 0 153.98656868455873 -116.31394895659014 0 -116.31394895659014 48.167051063338477 0 0 0 0 -3374.5490153728533 -587.39392551350318 0 -587.39392551350318 -84.864611908033154 0 0 0 0 -138.86255833750329 -163.58014591261781 0 -163.58014591261781 335.93045348021133 0 0 0 0 -3497.705380030231 -233.28163790461926 0 -233.28163790461926 30.938445155689308 0 0 0 0 -5.2366798254375908 -215.53776813768781 0 -215.53776813768781 14.29788483645325 0 0 0 0 -234.90352521628665 -374.56911279465476 0 -374.56911279465476 52.957801397429648 0 0 0 0 -4.1243199368473142 -95.504706482106485 0 -95.504706482106485 -207.51544944051534 0 0 0 0 -712.0799177618137 -57.023264092419595 0 -57.023264092419595 81.762810067401688 0 0 0 0 -457.02520742185879 80.416204842589195 0 80.416204842589195 -49.140777079945565 0 0 0 0 -0.22473313749259916 -19.915789497816377 0 -19.915789497816377 1.7143685489263796 0 0 0 0 568.984801361883 -31.95874781283527 0 -31.95874781283527 -144.17231705916799 0 0 0 0 -3380.9553603617896 -143.86975561597927 0 -143.86975561597927 24.090839345859489 0 0 0 0 -47.534751491621137 -281.2308021278775 0 -281.2308021278775 -29.238988837954253 0 0 0 0 253.52942379977321 48.508583166764311 0 48.508583166764311 38.054638127978251 0 0 0 0 -3502.6813758844946 57.755377368437699 0 57.755377368437699 20.805828539497874 0 0 0 0 417.76753433980048 -195.27488576799885 0 -195.27488576799885 -63.437865710370147 0 0 0 0 -833.84201870055404 294.91186714834942 0 294.91186714834942 -18.900765844997963 0 0 0 0 -360.47712529572163 -317.54688778352886 0 -317.54688778352886 289.79784333341547 0 0 0 0 -918.84717305758386 164.08076251162481 0 164.08076251162481 275.14481440745942 0 0 0 0 -1398.7965138811778 -1903.2110680996607 0 -1903.2110680996607 -1649.1885216617216 0 0 0 0 -876.78294922804344 183.85333550009841 0 183.85333550009841 231.20418896739307 0 0 0 0 -2714.8933117751876 224.21009796936346 0 224.21009796936346 332.52235985692221 0 0 0 0 -1.9078480286582629 -6.9555870232160686 0 -6.9555870232160686 -1.622450788934928 0 0 0 0 1404.8603903714975 -270.61869850098645 0 -270.61869850098645 -805.30139245340797 0 0 0 0 -4828.2281480542915 -1749.2612735993921 0 -1749.2612735993921 -1035.1130965369871 0 0 0 0 -2559.0456734501859 -1078.6945379309195 0 -1078.6945379309195 -2075.4968199732184 0 0 0 0 -2564.1304369805584 -1229.9011597921094 0 -1229.9011597921094 -1382.084695547642 0 0 0 0 -3499.6315957363186 -2657.3676080043783 0 -2657.3676080043783 -1790.9550421088798 0 0 0 0 -2955.9493335073639 -742.20645865513677 0 -742.20645865513677 -818.87994559052333 0 0 0 0 -3499.1670272396659 -1279.7945963608413 0 -1279.7945963608413 -267.25787916384434 0 0 0 0 -1993.3191515216167 -1168.1811483760498 0 -1168.1811483760498 -526.94054768150909 0 0 0 0 -3350.4296015802975 -1139.1759202313267 0 -1139.1759202313267 -399.86506180525794 0 0 0 0 -2941.019538526496 -621.73925605330976 0 -621.73925605330976 -1449.1758041597127 0 0 0 0 -1439.3108672655508 1179.0466033013959 0 1179.0466033013959 686.87616840113469 0 0 0 0 -26.131969133568248 -1.4246455043164925 0 -1.4246455043164925 0.71386480872663327 0 0 0 0 -1725.0933430103178 -1778.098491761192 0 -1778.098491761192 -1276.2752042547233 0 0 0 0 -869.43236092370353 -1031.5258956536625 0 -1031.5258956536625 -117.67150919344463 0 0 0 0 58.413547929420019 -125.02886413523316 0 -125.02886413523316 -156.25565988229869 0 0 0 0 -114.46640222575661 -1077.431889390328 0 -1077.431889390328 -1050.9558183248885 0 0 0 0 -2015.5975804783229 -1407.059926470806 0 -1407.059926470806 -391.58433872299491 0 0 0 0 -1593.8316296286794 -1260.9230842546808 0 -1260.9230842546808 -234.01363177856283 0 0 0 0 -700.88635046004492 -1136.6776617812445 0 -1136.6776617812445 -440.37605356425109 0 0 0 0 -1024.0483064906693 -879.06717476552581 0 -879.06717476552581 -159.12457702191477 0 0 0 0 -1192.2712437226437 -504.70788533473115 0 -504.70788533473115 -193.63103832551795 0 0 0 0 -1838.6632489737603 -794.23962733990345 0 -794.23962733990345 71.465006925653483 0 0 0 0 -3499.2469144403149 -790.60231738558787 0 -790.60231738558787 557.50187626918421 0 0 0 0 -2858.857670301687 -622.80721488270149 0 -622.80721488270149 385.02437441417572 0 0 0 0 -2693.4235062100925 -1426.8255721100111 0 -1426.8255721100111 -96.657337151075396 0 0 0 0 604.01623188250232 -377.97553735101519 0 -377.97553735101519 -1415.1652116856192 0 0 0 0 260.99869944246711 32.231965565579912 0 32.231965565579912 147.67996724393925 0 0 0 0 -7.0094414282193185 -10.636482034903025 0 -10.636482034903025 -23.26697513715694 0 0 0 0 -4044.0203208609892 585.92236630043749 0 585.92236630043749 13.409749647088921 0 0 0 0 -4285.4179334195906 367.12864890281662 0 367.12864890281662 -183.81551513686509 0 0 0 0 -3502.0658766280685 345.22469845269694 0 345.22469845269694 -558.98512531116353 0 0 0 0 -2616.6362056466678 670.22866495514279 0 670.22866495514279 16.496150372527957 0 0 0 0 70.958412685784424 -353.61891273786114 0 -353.61891273786114 293.55441447680369 0 0 0 0 -378.59063567213161 -292.55541163254475 0 -292.55541163254475 470.14076471493809 0 0 0 0 -520.75007936147449 109.6110287379106 0 109.6110287379106 428.39487460102828 0 0 0 0 -86.563670695272933 1.121504978906696 0 1.121504978906696 35.689691014177797 0 0 0 0 -158.50154932052828 220.58497077468928 0 220.58497077468928 314.57663608860116 0 0 0 0 -104.52307971930713 92.631239160884434 0 92.631239160884434 377.94387977502447 0 0 0 0 -377.41353471863658 277.94878882408614 0 277.94878882408614 750.2734539306839 0 0 0 0 410.98671008010569 422.20536000080392 0 422.20536000080392 279.262289791277 0 0 0 0 -473.5711687221592 -5.7492622277310375 0 -5.7492622277310375 612.65179767115114 0 0 0 0 -344.20573120036443 110.60277033308137 0 110.60277033308137 314.88882242367799 0 0 0 0 -452.97664538411755 -172.76874784720263 0 -172.76874784720263 297.10253008260952 0 0 0 0 280.18507609359222 239.44747845408074 0 239.44747845408074 1.9491693579423099 0 0 0 0 -1093.7346686375313 -1015.6112672339607 0 -1015.6112672339607 -662.45625063936313 0 0 0 0 -982.3034045739405 279.1960654612194 0 279.1960654612194 -75.517666808956619 0 0 0 0 -249.38232183622313 -225.40021690086678 0 -225.40021690086678 -104.42246694505047 0 0 0 0 -1101.0830854676242 -989.08709003024717 0 -989.08709003024717 -603.82165817031432 0 0 0 0 -95.329653681044874 -95.42298251721536 0 -95.42298251721536 -1026.3029302835216 0 0 0 0 -389.36384574750264 -338.62149195073084 0 -338.62149195073084 -10.138344426514323 0 0 0 0 -1309.990062491117 -314.3418296066593 0 -314.3418296066593 803.15209603439143 0 0 0 0 -1539.8834601855451 -710.65457613986177 0 -710.65457613986177 489.27276226838785 0 0 0 0 -935.9737811326122 -265.10892528532258 0 -265.10892528532258 226.23105168653967 0 0 0 0 -775.73174938673765 169.18605842565285 0 169.18605842565285 678.07366003779055 0 0 0 0 514.72323968575984 -152.04881501427732 0 -152.04881501427732 -564.87842022917891 0 0 0 0 1052.3286962507409 -1706.5171598605052 0 -1706.5171598605052 -1272.0076553055264 0 0 0 0 -8.8402323706857828 -9.9271366267761607 0 -9.9271366267761607 -7.9131085212401597 0 0 0 0 1502.0312157728695 -1337.8857372693576 0 -1337.8857372693576 -2136.9260224949071 0 0 0 0 937.22101583238145 -722.05267936176062 0 -722.05267936176062 -2071.3134043705545 0 0 0 0 700.62673944201379 -1175.7298193414749 0 -1175.7298193414749 -1134.2787038962747 0 0 0 0 -3968.2053807074772 -194.42498897917895 0 -194.42498897917895 -1106.9044941694351 0 0 0 0 -3689.3176400477278 464.12180648442342 0 464.12180648442342 1736.9230410295709 0 0 0 0 -3493.4714218416157 -56.385022437070141 0 -56.385022437070141 -1167.5520399860202 0 0 0 0 -11.00658233020269 -8.750731497494705 0 -8.750731497494705 -6.6371965977973497 0 0 0 0 61.185712021731888 -1219.5397313022461 0 -1219.5397313022461 -1323.1598763005245 0 0 0 0 -2658.4561827319267 -1831.5614495511511 0 -1831.5614495511511 14.516696788341221 0 0 0 0 -572.2937292451461 -1895.0149881213938 0 -1895.0149881213938 -1248.3243908109064 0 0 0 0 -875.62511284580978 -758.46551195407142 0 -758.46551195407142 -106.94931946255991 0 0 0 0 -958.22467587534084 -947.43529947583397 0 -947.43529947583397 -417.8270905017946 0 0 0 0 -917.30235764903409 -826.30569432972868 0 -826.30569432972868 -69.726166032196147 0 0 0 0 -1121.332284450742 -788.29682688478624 0 -788.29682688478624 646.07126237764396 0 0 0 0 -3421.12485429554 -850.43476059982277 0 -850.43476059982277 1188.5081919707793 0 0 0 0 -1105.4898178746953 -740.19809793604281 0 -740.19809793604281 769.02822557192769 0 0 0 0 132.08603727712762 1137.2507240258751 0 1137.2507240258751 1259.0018414655642 0 0 0 0 697.13606775475273 771.73172181333643 0 771.73172181333643 449.65889155715013 0 0 0 0 -1746.4223246474576 687.18124459266483 0 687.18124459266483 2588.1872095543258 0 0 0 0 -13.029838749086395 5.095012831912328 0 5.095012831912328 10.552552962806811 0 0 0 0 -379.79046014619234 211.0875393508054 0 211.0875393508054 561.18433131260667 0 0 0 0 -1440.3669022918821 -602.87396273902755 0 -602.87396273902755 785.09650252256097 0 0 0 0 -682.16443455312401 160.48122781420511 0 160.48122781420511 1381.5116366545794 0 0 0 0 -782.91189083493191 -332.64071281785414 0 -332.64071281785414 339.08608521863016 0 0 0 0 -637.42069936284679 -33.688552489206359 0 -33.688552489206359 656.47069505366244 0 0 0 0 -98.573429692263744 -68.272157393712405 0 -68.272157393712405 103.20979064079074 0 0 0 0 495.65914825489017 391.5728818587304 0 391.5728818587304 391.47624382148661 0 0 0 0 -68.371809659397087 -2.7610683416781914 0 -2.7610683416781914 7.1717783538005566 0 0 0 0 -3486.5210768194065 138.21678200067595 0 138.21678200067595 2.5979821976880455 0 0 0 0 -0.6038400925368137 -21.095269763221157 0 -21.095269763221157 20.410483688278362 0 0 0 0 -25.873385796631254 0.61628508304121787 0 0.61628508304121787 -1.2049970023853493 0 0 0 0 -1938.9333763668837 -1355.0741199815161 0 -1355.0741199815161 -372.61359055113326 0 0 0 0 -687.87879324548248 -447.33432338738265 0 -447.33432338738265 125.81285984199212 0 0 0 0 -1127.598254763041 -958.26380943452205 0 -958.26380943452205 136.24588539047727 0 0 0 0 -2584.432133159733 276.12498686905252 0 276.12498686905252 302.65981412437031 0 0 0 0 -1222.2571943678195 -47.105767857927049 0 -47.105767857927049 375.33888823629559 0 0 0 0 -1397.529922778449 -145.93010716556398 0 -145.93010716556398 327.65105422693972 0 0 0 0 -1101.668232416363 -269.6259321211682 0 -269.6259321211682 91.73828795034413 0 0 0 0 -1617.5570464493903 -660.24031118803794 0 -660.24031118803794 200.42953094401793 0 0 0 0 -1019.3076265303916 -496.0524467462331 0 -496.0524467462331 203.71615874384699 0 0 0 0 -1004.187599232202 -383.7602325048876 0 -383.7602325048876 98.935517796963126 0 0 0 0 -990.68782147529782 -402.49948467354727 0 -402.49948467354727 26.605264811750658 0 0 0 0 -634.71899163864873 -221.10740224794745 0 -221.10740224794745 83.304183415572766 0 0 0 0 -580.05473885564425 -25.146621084934623 0 -25.146621084934623 4.8210509206583083 0 0 0 0 -444.30224022154289 -67.081174235068602 0 -67.081174235068602 -80.517535909240451 0 0 0 0 -435.34586391429457 35.061621269732868 0 35.061621269732868 13.612946915159228 0 0 0 0 -363.79774970397193 -1.8934594739814088 0 -1.8934594739814088 -0.7847582956289898 0 0 0 0 5.9894991293862461 -0.8158081401224706 0 -0.8158081401224706 -5.2688003996474215 0 0 0 0 -449.14708110374613 120.2496905764463 0 120.2496905764463 -31.171415375791184 0 0 0 0 -317.86455240765645 82.8472946375432 0 82.8472946375432 -53.048711606387087 0 0 0 0 -727.15395174204605 29.313345061533255 0 29.313345061533255 185.09817389375667 0 0 0 0 -655.94981230527628 -23.989221468122651 0 -23.989221468122651 9.0936582089108242 0 0 0 0 -1216.0356697560783 -17.187418373945093 0 -17.187418373945093 185.88347037213654 0 0 0 0 -449.55201737815514 166.32560715131649 0 166.32560715131649 -80.813989267705892 0 0 0 0 -815.32177216131822 381.06321535934012 0 381.06321535934012 73.456879288350137 0 0 0 0 146.15754260149333 43.211141526362553 0 43.211141526362553 -54.099386841228238 0 0 0 0 -434.65712312929099 233.50541105208094 0 233.50541105208094 93.863654129518181 0 0 0 0 258.11219460351276 -303.95602142886332 0 -303.95602142886332 -185.36924715562418 0 0 0 0 0.40722843077247717 -0.83948868735097903 0 -0.83948868735097903 -2.2723389305060309 0 0 0 0 322.00526230698597 296.31102136976779 0 296.31102136976779 332.18920142970455 0 0 0 0 8.6487478164781351 -673.84287217489873 0 -673.84287217489873 -228.59374086814205 0 0 0 0 -16.172406691133006 -30.249921877037337 0 -30.249921877037337 -38.205958500306501 0 0 0 0 195.76320951903472 146.84072491259252 0 146.84072491259252 -660.30228198460281 0 0 0 0 -894.3189792810299 -222.65297632346255 0 -222.65297632346255 -1260.6403376566504 0 0 0 0 -1200.0853668920608 680.97335206489674 0 680.97335206489674 -738.68361696390366 0 0 0 0 -340.39689484839619 534.19832245432963 0 534.19832245432963 -350.47601376152306 0 0 0 0 -839.44245862860407 98.506840845586339 0 98.506840845586339 94.110870588726357 0 0 0 0 -80.950382048671599 -177.21159453660766 0 -177.21159453660766 231.25688491736582 0 0 0 0 -129.07355799031211 -217.50221524391964 0 -217.50221524391964 203.79551579328472 0 0 0 0 -208.73570317175472 -186.43586865400312 0 -186.43586865400312 307.59072217486573 0 0 0 0 -135.57409099838696 -203.87352235892286 0 -203.87352235892286 200.83460869881128 0 0 0 0 -126.52135496719256 -363.14137787906805 0 -363.14137787906805 125.56543244510249 0 0 0 0 373.96093728835694 -247.03364676209185 0 -247.03364676209185 10.841212718891256 0 0 0 0 137.4949343528715 -276.41304185092849 0 -276.41304185092849 137.15254083774198 0 0 0 0 80.696873039210914 -400.03755545569402 0 -400.03755545569402 -9.1760746065001513 0 0 0 0 207.68154915157356 -329.55164150365636 0 -329.55164150365636 28.82552080037749 0 0 0 0 126.45421505639024 -166.08626691858717 0 -166.08626691858717 160.42575886018312 0 0 0 0 -47.954121792921796 -262.73740217304658 0 -262.73740217304658 139.01913571335353 0 0 0 0 31.372415240766713 -177.24363366222497 0 -177.24363366222497 159.16175667526659 0 0 0 0 -114.16702679953596 -178.586487234782 0 -178.586487234782 -182.95313609264576 0 0 0 0 -20.443053656844342 -27.057582045869438 0 -27.057582045869438 -29.603590485000751 0 0 0 0 -47.296330322496942 -130.01947193501928 0 -130.01947193501928 179.01975559859784 0 0 0 0 166.27288987344946 -76.867876718185471 0 -76.867876718185471 113.18750485267446 0 0 0 0 16.800146500754636 -70.410666230556672 0 -70.410666230556672 112.97603297002979 0 0 0 0 12.459686010086443 -70.409117636241717 0 -70.409117636241717 114.18450811717594 0 0 0 0 -70.383880769542884 -78.235258455999428 0 -78.235258455999428 149.17974524957936 0 0 0 0 -17.488648160586308 -119.74928686344583 0 -119.74928686344583 181.74505171503188 0 0 0 0 22.147545313506271 -76.330757265341163 0 -76.330757265341163 112.60131910297423 0 0 0 0 -5.5553733200940769 -56.910038079342485 0 -56.910038079342485 84.280126745914458 0 0 0 0 9.9019164456112776 -78.28013090836248 0 -78.28013090836248 113.58180596097191 0 0 0 0 -18.844490973860957 -77.591829838380363 0 -77.591829838380363 133.72180871531964 0 0 0 0 -101.41037203688757 -87.814374503730505 0 -87.814374503730505 242.43806856251103 0 0 0 0 -82.255988882992824 -58.426875932448183 0 -58.426875932448183 146.53834036469925 0 0 0 0 -102.25524763943395 -48.239028221072658 0 -48.239028221072658 157.96263216944499 0 0 0 0 -82.624157257610932 -58.04480448033064 0 -58.04480448033064 211.04953923183257 0 0 0 0 -68.065527361672139 -86.589521147347114 0 -86.589521147347114 176.70197286591792 0 0 0 0 -80.801315541903023 -161.64827382521435 0 -161.64827382521435 230.9017776154252 0 0 0 0 -140.60997272378881 -131.86030858768572 0 -131.86030858768572 255.55233876001876 0 0 0 0 -137.64661354819691 -110.72680201841058 0 -110.72680201841058 337.67178346837136 0 0 0 0 -168.80251842198777 -74.987393871941094 0 -74.987393871941094 305.23359161475946 0 0 0 0 -109.64006888529548 -39.210076175595304 0 -39.210076175595304 321.39599910799188 0 0 0 0 -115.74133920134045 -65.744526330433473 0 -65.744526330433473 209.33101428381269 0 0 0 0 -51.483251415702398 -4.8235034901326799 0 -4.8235034901326799 174.10989016004351 0 0 0 0 -37.342555037299462 2.2455572938960131 0 2.2455572938960131 3.7897588535704472 0 0 0 0 -35.349974142215558 -6.4367522550134382 0 -6.4367522550134382 7.6609835660715699 0 0 0 0 -36.439000924874563 -0.73802661020999949 0 -0.73802661020999949 143.88919937980427 0 0 0 0 -55.561996860837098 -47.810598545072935 0 -47.810598545072935 116.44961498628254 0 0 0 0 -14.072956525080372 -39.447688399141043 0 -39.447688399141043 3.8729607421919354 0 0 0 0 -124.96555959014222 -41.299721694504115 0 -41.299721694504115 153.28333984438723 0 0 0 0 -99.837214394283365 6.2943987318667496 0 6.2943987318667496 57.693400816177018 0 0 0 0 -142.86825716073508 -23.744374410191085 0 -23.744374410191085 46.374722135718912 0 0 0 0 -9.6613279618529191 -6.0261764045514497 0 -6.0261764045514497 5.9966118958527765 0 0 0 0 -25.784427756996593 29.403827612102759 0 29.403827612102759 15.728146828310855 0 0 0 0 31.898482178730774 -76.052197515032276 0 -76.052197515032276 72.058527205415885 0 0 0 0 -7.4661761163974347 -3.6204240678532074 0 -3.6204240678532074 -5.2657531474990655 0 0 0 0 10.179541438410524 -39.419124678539447 0 -39.419124678539447 -7.9046371027397981 0 0 0 0 31.250773088089773 -62.967815700390929 0 -62.967815700390929 15.886708564590663 0 0 0 0 2.7306394854094833 -62.489068491748185 0 -62.489068491748185 82.035632992739011 0 0 0 0 -0.26391989958938211 -45.894844917336741 0 -45.894844917336741 34.280463506205706 0 0 0 0 -56.639224931248464 -41.107576280879584 0 -41.107576280879584 101.21322174485249 0 0 0 0 -49.727595320378896 -10.095577133914048 0 -10.095577133914048 8.6646169316481974 0 0 0 0 -27.42526633962072 0.16141754158448407 0 0.16141754158448407 8.5699854782622644 0 0 0 0 -18.801521321060136 -2.6621111419972294 0 -2.6621111419972294 3.2798617084772559 0 0 0 0 -42.520371120864311 -4.2658124057280844 0 -4.2658124057280844 23.121745261221331 0 0 0 0 -6.6852680159397551 -2.1135838608899604 0 -2.1135838608899604 2.5247366684516006 0 0 0 0 -31.679958501656074 21.765132859553944 0 21.765132859553944 42.198443040621584 0 0 0 0 -16.733667565070903 -27.017726732503107 0 -27.017726732503107 -25.868081248942751 0 0 0 0 -44.113436454645125 -99.754473445149415 0 -99.754473445149415 -22.166106559685431 0 0 0 0 -3.1677177856035996 -32.647942080317819 0 -32.647942080317819 -70.036951441464865 0 0 0 0 -16.760808983177412 -26.464173088472535 0 -26.464173088472535 -71.031153405198467 0 0 0 0 -173.55904214409384 80.703924803549512 0 80.703924803549512 -68.801214175663972 0 0 0 0 -0.49389227639704814 -0.33954404825962214 0 -0.33954404825962214 -1.6911563305850887 0 0 0 0 -19.099670416764184 -2.4781851794011232 0 -2.4781851794011232 -3.8309387279256248 0 0 0 0 -29.617403983209897 -42.292077534702429 0 -42.292077534702429 -89.623993202596921 0 0 0 0 -17.775470530193815 0.0017602667065546029 0 0.0017602667065546029 5.6366068137339127 0 0 0 0 -19.882843923378317 -3.5026523622133965 0 -3.5026523622133965 9.3150134393250621 0 0 0 0 -43.023343054479483 -8.0626433871561893 0 -8.0626433871561893 13.749478011787218 0 0 0 0 -20.60929187664442 6.1661650026850339 0 6.1661650026850339 3.6149580769374552 0 0 0 0 -21.182363810526539 7.4609882930890201 0 7.4609882930890201 10.269646944487475 0 0 0 0 -9.2471805759757828 7.2009920198566846 0 7.2009920198566846 11.320640980885555 0 0 0 0 7.3499498245666999 12.682775512404049 0 12.682775512404049 1.4710356494639543 0 0 0 0 -46.572124758851714 26.260220520590082 0 26.260220520590082 -1.1061684237431564 0 0 0 0 -53.734383236005669 34.558421871124189 0 34.558421871124189 8.9721260924843023 0 0 0 0 -6.2189979119024485 21.061412027683772 0 21.061412027683772 28.989975158921755 0 0 0 0 -61.925250274754944 27.278704046968073 0 27.278704046968073 14.578937884743937 0 0 0 0 -63.198663290248078 24.657342767977312 0 24.657342767977312 10.889965138929156 0 0 0 0 -86.745971345393627 60.078849431021354 0 60.078849431021354 72.334213673783779 0 0 0 0 -89.901963912510837 97.045540492701775 0 97.045540492701775 -2.1562269098490106 0 0 0 0 3.4501776106117177 69.997257011461897 0 69.997257011461897 -93.553153713386564 0 0 0 0 -161.72275441237434 59.99760088001176 0 59.99760088001176 -9.6751349352884972 0 0 0 0 -145.65703595344075 6.4754103003753301 0 6.4754103003753301 -106.73061364029058 0 0 0 0 -152.04116301528848 60.483169726326196 0 60.483169726326196 -47.915307644028417 0 0 0 0 -380.79063018650413 -281.34810552298109 0 -281.34810552298109 -248.89602965705762 0 0 0 0 30.352251086231263 121.69653469400328 0 121.69653469400328 -95.177992256046309 0 0 0 0 -47.395254072980606 151.34448536125365 0 151.34448536125365 68.028430759950425 0 0 0 0 -154.41759552538861 33.165822509065947 0 33.165822509065947 1.4041609993473685 0 0 0 0 -241.40940336743006 -171.9337597355559 0 -171.9337597355559 4.4487880914548441 0 0 0 0 -127.06377418105149 -3.9476461210521165 0 -3.9476461210521165 392.95854932730981 0 0 0 0 -15.431758146404121 -11.313157617785066 0 -11.313157617785066 1.8118204559283839 0 0 0 0 -15.804108918127895 415.01848478802913 0 415.01848478802913 604.04028488563517 0 0 0 0 9.1948452310316497 239.80515748098514 0 239.80515748098514 961.50159124378479 0 0 0 0 -189.64390221092071 -95.445408542978385 0 -95.445408542978385 -17.36573980413641 0 0 0 0 -22.665228001752823 1.529979272710122 0 1.529979272710122 14.418892652733589 0 0 0 0 -128.55307649423048 -136.3508696367835 0 -136.3508696367835 -157.76592720790723 0 0 0 0 -183.57291313905444 -226.80190702273103 0 -226.80190702273103 -144.49671021570975 0 0 0 0 -206.13531946788135 -137.51156097591775 0 -137.51156097591775 -123.97090539111741 0 0 0 0 -78.983861638495398 -57.575773125245945 0 -57.575773125245945 -22.828152688095589 0 0 0 0 -16.626515158825143 -13.970934072668269 0 -13.970934072668269 8.2395418487568968 0 0 0 0 -181.96494022229672 -79.457515346390892 0 -79.457515346390892 -5.0199498854099147 0 0 0 0 -85.927438135809979 -7.7355296633550381 0 -7.7355296633550381 19.125779767762893 0 0 0 0 -76.275983641578932 39.770194799341425 0 39.770194799341425 42.463224213844569 0 0 0 0 -69.273566112453409 38.007575770532412 0 38.007575770532412 21.002797976336296 0 0 0 0 -107.99204846839712 -6.6930411335069948 0 -6.6930411335069948 58.002091694417913 0 0 0 0 -133.98515055685129 -10.076961312271123 0 -10.076961312271123 56.254921595244724 0 0 0 0 -109.16133103244283 7.6414530604538413 0 7.6414530604538413 67.496716223239901 0 0 0 0 -93.831123164534802 -10.182512036743901 0 -10.182512036743901 56.241173606690609 0 0 0 0 -87.272467003027955 3.6267192230315253 0 3.6267192230315253 25.200363725207655 0 0 0 0 -89.18104201596725 -9.6993044217433635 0 -9.6993044217433635 51.157672018249286 0 0 0 0 -88.947964036553458 -17.490706548213893 0 -17.490706548213893 36.336939876848191 0 0 0 0 -23.214108574379061 -8.534053401846009 0 -8.534053401846009 9.0932099861518871 0 0 0 0 -134.63121332186711 32.435092489758063 0 32.435092489758063 218.41487013557253 0 0 0 0 -136.82160009402969 52.218055642441271 0 52.218055642441271 72.507970449980348 0 0 0 0 -79.616471805364199 -4.4645028225977512 0 -4.4645028225977512 -7.0061016570462016 0 0 0 0 -40.289068002100976 -19.383282544991289 0 -19.383282544991289 35.479234311702385 0 0 0 0 -9.4811985546409261 2.8285564360769442 0 2.8285564360769442 3.1574104043996734 0 0 0 0 -45.4910420232533 21.704729874744494 0 21.704729874744494 14.274047787674169 0 0 0 0 -82.703824294598235 10.003357425594459 0 10.003357425594459 18.329477600578684 0 0 0 0 -98.035140255115039 -14.783139896139687 0 -14.783139896139687 61.885904650223893 0 0 0 0 -94.392328065267066 -10.519698795726526 0 -10.519698795726526 56.270894460549243 0 0 0 0 -52.374618561210809 9.6060213548280444 0 9.6060213548280444 53.242230581896024 0 0 0 0 -169.61920407604339 57.729011073730362 0 57.729011073730362 97.721111321076023 0 0 0 0 -532.9361496526617 73.652979072544895 0 73.652979072544895 97.909386453807485 0 0 0 0 -540.49582803219528 -250.7556360422177 0 -250.7556360422177 169.86463985162027 0 0 0 0 -248.6744526938237 -231.11070551534476 0 -231.11070551534476 82.072981623908163 0 0 0 0 -272.68310781828404 -180.93096392690416 0 -180.93096392690416 94.529793780832733 0 0 0 0 34.570490776211955 -161.42320598650304 0 -161.42320598650304 42.922486192085444 0 0 0 0 -128.15046031849488 -216.73677265245715 0 -216.73677265245715 69.095433190404492 0 0 0 0 -110.33667593808786 -218.42948887266175 0 -218.42948887266175 25.541652241161501 0 0 0 0 -112.69462214927 -149.05910006110116 0 -149.05910006110116 -26.701608002706053 0 0 0 0 -96.022178315673955 -155.74770428252214 0 -155.74770428252214 -35.171942327955549 0 0 0 0 -204.12180096795782 -163.88620428526247 0 -163.88620428526247 -5.9248801010489842 0 0 0 0 -156.33540509798331 -174.02165398404031 0 -174.02165398404031 -37.910097095191304 0 0 0 0 -149.36570916452729 -121.78075720389683 0 -121.78075720389683 -55.929384166212913 0 0 0 0 -310.79223043632737 -101.59801107431394 0 -101.59801107431394 47.481273501880423 0 0 0 0 -268.99933243799023 -156.57091029967432 0 -156.57091029967432 83.473752669207897 0 0 0 0 -205.11676224147232 -156.59179347875397 0 -156.59179347875397 16.797345342965855 0 0 0 0 -232.35377386421169 -114.49141143025554 0 -114.49141143025554 -20.956692667345123 0 0 0 0 -232.0719294999144 -96.265846095646339 0 -96.265846095646339 44.282307282328929 0 0 0 0 -22.721361722586352 10.939015223468289 0 10.939015223468289 -2.3745762415260181 0 0 0 0 -209.85656263016426 -95.167676594711338 0 -95.167676594711338 -57.3276254596949 0 0 0 0 -128.93307105216445 -52.596859820449708 0 -52.596859820449708 -49.222357027074395 0 0 0 0 -7.2586622017654321 3.8935028145173227 0 3.8935028145173227 0.17223968723639871 0 0 0 0 -150.89879010454024 -116.48369445889603 0 -116.48369445889603 -65.0723034341936 0 0 0 0 -233.86660426497838 -156.55865436041495 0 -156.55865436041495 -70.242069890986386 0 0 0 0 -148.39183842809871 -153.77790995622127 0 -153.77790995622127 -90.882409641257254 0 0 0 0 -156.66614186269817 -146.50000697611654 0 -146.50000697611654 -82.721914236757584 0 0 0 0 -106.62151422898751 -145.82077090064377 0 -145.82077090064377 -206.49713361037357 0 0 0 0 -84.268502083570638 -111.29430123620477 0 -111.29430123620477 -154.99955016121567 0 0 0 0 -162.30886240377549 -189.08323303759107 0 -189.08323303759107 -160.41164553674571 0 0 0 0 -6.7624638438342402 2.6586262561950917 0 2.6586262561950917 -1.6464451669737485 0 0 0 0 -319.39528759357927 -283.85384026919292 0 -283.85384026919292 -261.15543096341753 0 0 0 0 199.82446879393774 102.30766928873118 0 102.30766928873118 -106.26094727988675 0 0 0 0 876.00045291779679 -220.30014653758008 0 -220.30014653758008 45.968412514226657 0 0 0 0 99.134630649678002 -166.73244508283915 0 -166.73244508283915 -25.365520682383249 0 0 0 0 -0.19479283641018696 8.1895667190882797 0 8.1895667190882797 4.8943208842220445 0 0 0 0 188.19620039525762 68.445448204196509 0 68.445448204196509 17.190490987828071 0 0 0 0 -333.69912761120941 -99.021963285729726 0 -99.021963285729726 487.41416558371247 0 0 0 0 281.34274532593554 -33.127110643581545 0 -33.127110643581545 65.530064178339671 0 0 0 0 -46.808292005516705 -153.58445759198912 0 -153.58445759198912 111.09066890959639 0 0 0 0 -1346.8495166037756 471.43188542317876 0 471.43188542317876 349.18118268006401 0 0 0 0 -3.2383231561448724 -4.578035937758635 0 -4.578035937758635 -1.6902465472017791 0 0 0 0 -20.712982765515335 -83.792295927948544 0 -83.792295927948544 72.103584022416726 0 0 0 0 -51.97466723761292 -10.412027363234007 0 -10.412027363234007 2.0832190016442707 0 0 0 0 -40.763825665504555 -122.93371091329664 0 -122.93371091329664 8.4799693184030502 0 0 0 0 -4.0569263570359908 245.21921082122481 0 245.21921082122481 -44.202838347191573 0 0 0 0 -178.84317347956676 66.453294343769812 0 66.453294343769812 272.40262793818147 0 0 0 0 91.070971550361719 230.64357895265493 0 230.64357895265493 345.37455161632533 0 0 0 0 -45.31271110844682 14.739048358078435 0 14.739048358078435 14.546039699664107 0 0 0 0 -28.146032386536206 8.5689782288460847 0 8.5689782288460847 3.2420911654541058 0 0 0 0 -69.950287586465947 27.27900278987488 0 27.27900278987488 17.644817999018414 0 0 0 0 -27.098669033002807 5.8781034151129461 0 5.8781034151129461 12.092937912189541 0 0 0 0 -19.856468950447834 7.4861246649221904 0 7.4861246649221904 16.688527184031784 0 0 0 0 -49.202940753413714 -79.611746316338213 0 -79.611746316338213 -59.312495968123585 0 0 0 0 -13.816701197968541 6.7798507768229115 0 6.7798507768229115 19.914227567715059 0 0 0 0 -65.158157351281261 27.324376372255692 0 27.324376372255692 16.559150322021154 0 0 0 0 -52.17975990416744 32.205912105646348 0 32.205912105646348 11.25813945905611 0 0 0 0 -63.206956781665212 30.385051779306082 0 30.385051779306082 19.907226095235274 0 0 0 0 -134.35409248065844 40.539551598525577 0 40.539551598525577 113.39495452541814 0 0 0 0 -74.329309299268061 30.161198183304805 0 30.161198183304805 9.7697752216918161 0 0 0 0 -26.262590119062224 31.340937159725854 0 31.340937159725854 -4.1774524715856387 0 0 0 0 -19.689991725688287 8.783115762879504 0 8.783115762879504 24.207357895676044 0 0 0 0 -32.582255004617764 -11.780375385970125 0 -11.780375385970125 2.9900629811641579 0 0 0 0 -39.327218904027831 -14.460051629338784 0 -14.460051629338784 2.2193633746212784 0 0 0 0 -32.213857859707787 -10.574016740025627 0 -10.574016740025627 6.6915870440218441 0 0 0 0 -32.443514878672431 -62.512516534533006 0 -62.512516534533006 27.798159694055386 0 0 0 0 -27.668293281087244 -9.5681515470023442 0 -9.5681515470023442 -22.54280686923039 0 0 0 0 -30.135644354711985 -13.483824333592565 0 -13.483824333592565 -28.705148114911196 0 0 0 0 -45.834394286663155 14.78303851362466 0 14.78303851362466 35.894304851957031 0 0 0 0 -36.747027017905566 -7.5472745654318629 0 -7.5472745654318629 24.981871579503718 0 0 0 0 -32.274564646068029 -3.3569636929323678 0 -3.3569636929323678 -0.45992202846395003 0 0 0 0 -32.369065829261672 5.3862696241445747 0 5.3862696241445747 24.108398346835429 0 0 0 0 -53.284645935811568 131.24378420767971 0 131.24378420767971 389.79645540701404 0 0 0 0 -59.269193596337573 51.303990497922314 0 51.303990497922314 190.84037912018175 0 0 0 0 -98.633111022354569 -177.74106560248401 0 -177.74106560248401 405.01129005947587 0 0 0 0 -156.79503442306304 -20.035180766290523 0 -20.035180766290523 522.77589381298276 0 0 0 0 4.0385767052357551 96.477051531544703 0 96.477051531544703 70.203254238664158 0 0 0 0 -0.40022938510489325 5.3224085495916782 0 5.3224085495916782 5.2953354985567973 0 0 0 0 -110.04118958086474 -43.844612772170876 0 -43.844612772170876 793.36151157178483 0 0 0 0 -45.634836541180448 -5.9952035953018523 0 -5.9952035953018523 6.2947594743279893 0 0 0 0 -124.88369538457482 -20.810071571370372 0 -20.810071571370372 131.10433101687067 0 0 0 0 87.016607749603281 127.1537837324131 0 127.1537837324131 311.92026278423873 0 0 0 0 -279.5325198382925 36.586163756319365 0 36.586163756319365 371.0894224518579 0 0 0 0 -219.65992072317749 -220.91314402862554 0 -220.91314402862554 241.05526064275364 0 0 0 0 -169.83521602616383 -107.92356919987765 0 -107.92356919987765 338.29491160964244 0 0 0 0 31.667874973631115 84.480251605581543 0 84.480251605581543 359.52206505315189 0 0 0 0 187.8005352098844 54.362399065826139 0 54.362399065826139 -197.46592344457895 0 0 0 0 -38.724203126144857 -120.62354081747526 0 -120.62354081747526 424.38162090914921 0 0 0 0 -147.11414453731413 169.89337626062616 0 169.89337626062616 345.68141767256202 0 0 0 0 12.934341833155486 183.23140986459748 0 183.23140986459748 -133.60084969887703 0 0 0 0 -63.640713985805633 65.87720723079201 0 65.87720723079201 318.67156950250501 0 0 0 0 -135.86225309621659 187.29820091376132 0 187.29820091376132 677.30393326873082 0 0 0 0 -28.080487094572163 -122.69678214714622 0 -122.69678214714622 17.476792254447446 0 0 0 0 -120.26241112532443 -12.80574144530658 0 -12.80574144530658 105.55943395246248 0 0 0 0 1.8558505145298625 -4.5467418162116147 0 -4.5467418162116147 0.15135825975322881 0 0 0 0 -52.949678474834144 -6.9860286452593989 0 -6.9860286452593989 1.3328842627884028 0 0 0 0 -29.949797882885832 -126.83471807367053 0 -126.83471807367053 337.24714995037448 0 0 0 0 -121.7301891764946 22.789131277332331 0 22.789131277332331 79.161846956903076 0 0 0 0 -3.6562694660187844 -46.037184871449142 0 -46.037184871449142 -78.974007445190253 0 0 0 0 -168.98811521424796 -71.904221595416118 0 -71.904221595416118 -29.747930950070298 0 0 0 0 -23.794229124803678 2.4726952484746079 0 2.4726952484746079 -13.273755195403055 0 0 0 0 -81.730354301485932 -0.31837785391799844 0 -0.31837785391799844 -1.9917604167319958 0 0 0 0 -102.00433766657079 39.175780325914481 0 39.175780325914481 -4.1330821606655768 0 0 0 0 -54.077682187085344 -1.9969334462518091 0 -1.9969334462518091 8.9960630223581575 0 0 0 0 -345.16343419997429 39.446344848457329 0 39.446344848457329 175.8962647996791 0 0 0 0 -86.685021884382877 53.908280508352789 0 53.908280508352789 -104.05681599365494 0 0 0 0 -218.89909914780583 38.618977279623095 0 38.618977279623095 -12.044533917133094 0 0 0 0 -28.749469598600626 -29.757401608886308 0 -29.757401608886308 -84.604206592359105 0 0 0 0 -0.3565693077978267 7.384480304137206 0 7.384480304137206 3.4688147684037229 0 0 0 0 -342.26610924353736 521.63507332853624 0 521.63507332853624 285.5202312148931 0 0 0 0 120.91636884426407 64.295926946703574 0 64.295926946703574 -8.3351909355846594 0 0 0 0 -48.66052863697405 -84.666654281877712 0 -84.666654281877712 -98.285815441436057 0 0 0 0 -51.105054894535726 -4.4045336902299042 0 -4.4045336902299042 10.146890191680898 0 0 0 0 -244.53259892430651 -437.14402939910724 0 -437.14402939910724 -79.70564875504715 0 0 0 0 -13.328307193958146 -5.3865284287022064 0 -5.3865284287022064 -10.617537092675839 0 0 0 0 -81.172630625846068 -119.52554824440949 0 -119.52554824440949 405.31828406761633 0 0 0 0 197.57647157172687 -227.14850907539312 0 -227.14850907539312 -105.33821491362141 0 0 0 0 -55.740186060109409 -9.0850737362393374 0 -9.0850737362393374 -34.263184971695409 0 0 0 0 -15.017301509884419 -23.371647714214077 0 -23.371647714214077 -10.85528652755238 0 0 0 0 -23.055132772540674 -8.1408739816479283 0 -8.1408739816479283 5.2212705223873854 0 0 0 0 21.359712084755301 -7.0762531317354558 0 -7.0762531317354558 -16.242939547198375 0 0 0 0 -59.013911991696908 -29.356183407200291 0 -29.356183407200291 -0.94468698590033329 0 0 0 0 51.447384197352221 -37.266730377241565 0 -37.266730377241565 -15.034633044924448 0 0 0 0 -43.396866257109366 -10.956691288061066 0 -10.956691288061066 8.0806489819828329 0 0 0 0 -37.242305755295092 -52.318229046938541 0 -52.318229046938541 81.34195321863956 0 0 0 0 -19.252596099871511 -8.5345766032617725 0 -8.5345766032617725 6.1622712950912053 0 0 0 0 -18.274759486295807 -13.577399089275275 0 -13.577399089275275 11.669891805841416 0 0 0 0 -1.2684688459365532 -19.523032112905668 0 -19.523032112905668 -3.5742980832577489 0 0 0 0 -51.507641385833267 -43.722179959656103 0 -43.722179959656103 38.753477541782672 0 0 0 0 -46.290035902863394 -8.0690508448851404 0 -8.0690508448851404 0.22810485528911739 0 0 0 0 -42.939072502667358 -8.9582337579687277 0 -8.9582337579687277 10.335699421282968 0 0 0 0 -16.956068707599087 -8.7016207198318298 0 -8.7016207198318298 2.0254057017564611 0 0 0 0 -149.56530535561615 -19.16661883998222 0 -19.16661883998222 249.85075638413718 0 0 0 0 -26.003557044867193 -277.77370842069286 0 -277.77370842069286 198.70928603052107 0 0 0 0 -12.427214032033049 -2.3836806406898461 0 -2.3836806406898461 6.2672713745449293 0 0 0 0 -399.45290697347082 31.308255670124254 0 31.308255670124254 552.17626836665204 0 0 0 0 -32.897606948929024 131.45077882243731 0 131.45077882243731 444.03716346715009 0 0 0 0 104.77461044835945 -162.8225603059459 0 -162.8225603059459 115.65512440555449 0 0 0 0 55.900916045560734 426.86575096126035 0 426.86575096126035 -538.10581328923945 0 0 0 0 13.533695022459142 533.09089267873605 0 533.09089267873605 -456.77720796621907 0 0 0 0 325.03299871314084 188.35587558992984 0 188.35587558992984 -452.14819511765563 0 0 0 0 -3.1492394488437014 2.984072054804443 0 2.984072054804443 6.7779850116032794 0 0 0 0 -165.0513547124865 -72.198075511727438 0 -72.198075511727438 -361.06526478567503 0 0 0 0 -431.6744895222655 30.985803351761206 0 30.985803351761206 43.119485245963006 0 0 0 0 -4.4716390245739603 -540.90941550872412 0 -540.90941550872412 625.33794729969486 0 0 0 0 -38.500576657647628 -13.408375656928335 0 -13.408375656928335 -0.56397540082092679 0 0 0 0 -453.89271653982723 296.29698071496841 0 296.29698071496841 581.51577049427578 0 0 0 0 -298.44026534875957 821.69889344256717 0 821.69889344256717 -375.62634633382459 0 0 0 0 -351.92937917973904 77.10416456610767 0 77.10416456610767 107.26805882490731 0 0 0 0 -1.5006485746606302 7.8936348651083108 0 7.8936348651083108 13.237667540814037 0 0 0 0 -365.76045305725711 317.78109971162917 0 317.78109971162917 55.554715938686059 0 0 0 0 -301.20471889793407 337.88058902452849 0 337.88058902452849 -57.421725109645195 0 0 0 0 -350.52809560822789 125.02139982853987 0 125.02139982853987 250.53421751277051 0 0 0 0 -279.34156878685462 71.545732597414599 0 71.545732597414599 -124.44628699896845 0 0 0 0 -53.243229958141455 -73.825889876715792 0 -73.825889876715792 -193.41473185923041 0 0 0 0 -369.58974915417366 175.11080117020265 0 175.11080117020265 -163.83449097349057 0 0 0 0 -1.6914730242971245 14.536855292984654 0 14.536855292984654 18.494210017704809 0 0 0 0 -48.117772701873037 -40.175190933647286 0 -40.175190933647286 -70.334475764799663 0 0 0 0 -324.87090788513888 705.69899387765508 0 705.69899387765508 -86.078203925458865 0 0 0 0 -53.261407778645321 -3.2660380657807799 0 -3.2660380657807799 4.4479973840781648 0 0 0 0 -31.692715496741585 15.183912500549781 0 15.183912500549781 54.545016159592933 0 0 0 0 -81.359822884071036 92.771991949640778 0 92.771991949640778 187.97932073768061 0 0 0 0 -72.141817396477563 112.17416265764356 0 112.17416265764356 145.14153925690516 0 0 0 0 -65.566728854813846 174.33444497403639 0 174.33444497403639 24.596624805137992 0 0 0 0 -50.16663619899191 72.888515585988443 0 72.888515585988443 38.878149473401663 0 0 0 0 -72.47607144657988 -5.9999418408391705 0 -5.9999418408391705 0.55035679227877843 0 0 0 0 -272.3245393497491 -62.265273481566282 0 -62.265273481566282 168.79602248858782 0 0 0 0 -1.1473733629570972 0.055763639341584792 0 0.055763639341584792 -3.2946049621005518 0 0 0 0 -60.408721451573001 43.704544105095181 0 43.704544105095181 139.5771763087705 0 0 0 0 -227.62937705108197 -207.09390720586828 0 -207.09390720586828 -182.67010933633429 0 0 0 0 0.37837718599288905 -1.1697490867833835 0 -1.1697490867833835 -0.8338442816993018 0 0 0 0 -46.62097169891058 164.03520120720395 0 164.03520120720395 -79.655228540920916 0 0 0 0 -261.47812286679982 -276.53892404789542 0 -276.53892404789542 27.757249548340269 0 0 0 0 -47.681288268649951 50.758980533895283 0 50.758980533895283 -210.64846172237867 0 0 0 0 -59.069458711674088 52.048986783268447 0 52.048986783268447 70.58458209809919 0 0 0 0 1.9856953561738919 27.237721324762902 0 27.237721324762902 -70.907114078943778 0 0 0 0 -79.843463204568252 10.803233221912706 0 10.803233221912706 -38.057489865464959 0 0 0 0 -22.160144137789757 -56.649435286057269 0 -56.649435286057269 -193.26892465652872 0 0 0 0 58.545852112467401 88.054694973342521 0 88.054694973342521 -187.96863371053109 0 0 0 0 -14.266932308608375 -22.416090869552704 0 -22.416090869552704 -75.259985040647734 0 0 0 0 -87.380551924157771 -59.441672967041086 0 -59.441672967041086 -77.058864315900479 0 0 0 0 -139.87271620253523 -192.68841852128162 0 -192.68841852128162 -263.9893559686916 0 0 0 0 -201.88951097899553 -269.53069450422436 0 -269.53069450422436 -252.03050998828712 0 0 0 0 -150.01464328272414 -276.55491841284947 0 -276.55491841284947 -295.40061596165469 0 0 0 0 -196.36231082933227 -418.51294655476568 0 -418.51294655476568 -291.43486858599772 0 0 0 0 -27.225842630916304 -289.2869962466707 0 -289.2869962466707 -296.67912058985712 0 0 0 0 -556.58770723582711 -268.08026777776149 0 -268.08026777776149 -110.62427067469343 0 0 0 0 1.4081295603549897 -0.54213851860009754 0 -0.54213851860009754 -5.6692056712505909 0 0 0 0 -157.18986374871929 -83.452666341889142 0 -83.452666341889142 -26.617396188958082 0 0 0 0 -34.094111883299774 -14.919812222931796 0 -14.919812222931796 -113.1412755117326 0 0 0 0 45.620455649564974 -212.38306341513999 0 -212.38306341513999 13.513653261999934 0 0 0 0 -74.976678832092148 144.71120166787387 0 144.71120166787387 -25.87802335561355 0 0 0 0 -160.83873243571725 -24.883390847787268 0 -24.883390847787268 -130.45600601523802 0 0 0 0 -43.997469254485623 32.032009212533922 0 32.032009212533922 -468.05855859269195 0 0 0 0 -596.05345899225722 25.131449531351791 0 25.131449531351791 -79.748567035836459 0 0 0 0 -163.5443914550051 -19.106018468128241 0 -19.106018468128241 -125.98543890126302 0 0 0 0 272.9660835471368 47.300373223163206 0 47.300373223163206 -234.00286625722538 0 0 0 0 -32.83004463837915 -170.86333542062931 0 -170.86333542062931 -386.64820346978104 0 0 0 0 -20.541416783145905 -92.131693405838973 0 -92.131693405838973 -110.28944873000546 0 0 0 0 -99.915566694537119 -104.1209929703432 0 -104.1209929703432 -77.330121866118134 0 0 0 0 -163.22079120754643 -181.79319370357416 0 -181.79319370357416 69.991306747537237 0 0 0 0 -55.466441710523213 -145.96818887810514 0 -145.96818887810514 -73.867051899649823 0 0 0 0 -84.56242362014018 -198.38904485075636 0 -198.38904485075636 34.147608510215832 0 0 0 0 -195.65655344918923 -75.278810094708888 0 -75.278810094708888 170.98294103750322 0 0 0 0 -324.23217806332104 -20.351583792166934 0 -20.351583792166934 255.11702363248605 0 0 0 0 -179.46946612559987 -69.516214800910348 0 -69.516214800910348 151.056071373848 0 0 0 0 -194.41499698737607 186.27996214856057 0 186.27996214856057 530.57267224494831 0 0 0 0 -5.9795391756852041 -291.02223306341284 0 -291.02223306341284 206.64008364493452 0 0 0 0 -150.85235605779235 13.58151078025503 0 13.58151078025503 -273.68567664403599 0 0 0 0 -464.01545100070507 -270.32820273319248 0 -270.32820273319248 96.382112889267773 0 0 0 0 -59.99962533065991 24.630027070304124 0 24.630027070304124 97.616107225610904 0 0 0 0 -79.502583441411844 -0.056151992775085091 0 -0.056151992775085091 200.09601147905471 0 0 0 0 -61.327334429550319 24.389781982704505 0 24.389781982704505 163.05791964894524 0 0 0 0 -49.224202595563838 -12.023773356499532 0 -12.023773356499532 112.60059264078086 0 0 0 0 -47.876978716067242 38.048523483062127 0 38.048523483062127 112.13137783223419 0 0 0 0 67.56088435966376 224.37213120340311 0 224.37213120340311 201.25788562726757 0 0 0 0 -53.496232834411785 102.31527262391501 0 102.31527262391501 87.298084791269503 0 0 0 0 -175.12492411805579 11.842601456659622 0 11.842601456659622 207.93838326259493 0 0 0 0 -105.97465141241264 86.846078292468292 0 86.846078292468292 279.91670109728511 0 0 0 0 -102.07293301092432 -41.261335559576764 0 -41.261335559576764 177.51972404734943 0 0 0 0 -6.9117887670145137 -63.864321323251716 0 -63.864321323251716 190.81108213848961 0 0 0 0 -129.80410097465938 -62.661455026759313 0 -62.661455026759313 208.14251976479954 0 0 0 0 -75.413267971227469 -152.71149741883755 0 -152.71149741883755 160.99361089735157 0 0 0 0 -31.898199288640171 -93.395047941427492 0 -93.395047941427492 119.14570144381105 0 0 0 0 121.90172706679732 -95.91639422903836 0 -95.91639422903836 173.64344342108052 0 0 0 0 -36.474258513757377 -116.33500482030496 0 -116.33500482030496 262.87267372475753 0 0 0 0 75.797541905920298 -181.22535938823034 0 -181.22535938823034 240.34803695385517 0 0 0 0 -0.97731856181245291 0.23480680372556861 0 0.23480680372556861 -0.27274578066994692 0 0 0 0 30.553882554098891 -62.127199298863388 0 -62.127199298863388 156.66241503136189 0 0 0 0 -91.704386691231775 -17.374870791209901 0 -17.374870791209901 175.56489180948211 0 0 0 0 -61.091373385228508 -78.974808528697849 0 -78.974808528697849 214.93960867079863 0 0 0 0 -39.884021309684613 -37.512253557365057 0 -37.512253557365057 182.07312380284657 0 0 0 0 -9.9996884871216025 -0.60476753724833543 0 -0.60476753724833543 0.57409746341090795 0 0 0 0 2.0210514566570055 -39.152672375907059 0 -39.152672375907059 144.26487243217252 0 0 0 0 -12.916505219418468 -30.263587199578382 0 -30.263587199578382 12.431278457401731 0 0 0 0 -21.03166290140507 -54.742453003298351 0 -54.742453003298351 155.64902649862512 0 0 0 0 -10.40671853220779 -2.7762690984859297 0 -2.7762690984859297 1.325307943716675 0 0 0 0 -4.1621556205353336 -1.3825521887314665 0 -1.3825521887314665 -0.32256927476966712 0 0 0 0 -5.0280231216563607 1.4669648488879261 0 1.4669648488879261 2.5507515023698968 0 0 0 0 -38.207639310241674 -7.9492010203640575 0 -7.9492010203640575 21.694467361346884 0 0 0 0 -24.320900430737282 -8.6393571199733614 0 -8.6393571199733614 6.8047048582237455 0 0 0 0 -17.413612318696323 -2.1825468551821814 0 -2.1825468551821814 18.746680723868849 0 0 0 0 -21.960383617816667 -3.3688439951880582 0 -3.3688439951880582 5.3233608132280494 0 0 0 0 -17.902949351577263 -4.3661534613361255 0 -4.3661534613361255 14.305692914538668 0 0 0 0 48.286874615510897 -104.86043949025213 0 -104.86043949025213 -84.629355519369028 0 0 0 0 -118.17437141637129 80.599752042324667 0 80.599752042324667 39.265599207782316 0 0 0 0 -14.210701185132208 -5.9410005451352816 0 -5.9410005451352816 1.1455805587342711 0 0 0 0 -124.10684825742646 45.55538090889786 0 45.55538090889786 -22.289712200215035 0 0 0 0 -120.86463791673305 30.827369028618705 0 30.827369028618705 7.7963354046378299 0 0 0 0 -47.130084517910291 12.94703941955413 0 12.94703941955413 14.415021052303018 0 0 0 0 -49.032535607595491 -30.98266689762761 0 -30.98266689762761 39.688695152472825 0 0 0 0 -10.731774435837885 11.940110056579471 0 11.940110056579471 16.022848922861634 0 0 0 0 -46.386268187576206 9.6493766862649863 0 9.6493766862649863 28.755733703739679 0 0 0 0 -26.753716257885785 3.5750132133052404 0 3.5750132133052404 21.66978370156933 0 0 0 0 -34.169365422274495 -0.017452854885050328 0 -0.017452854885050328 27.383029274194996 0 0 0 0 -45.612653186655734 10.848517820538518 0 10.848517820538518 28.17901235534373 0 0 0 0 -29.430472862184807 3.8979309621964742 0 3.8979309621964742 16.813972886537009 0 0 0 0 -31.096835143238422 1.5666815528211373 0 1.5666815528211373 23.375598734242885 0 0 0 0 -38.650485950008374 -10.207524809255485 0 -10.207524809255485 9.607274420052768 0 0 0 0 -43.708129719594581 -10.42628118888905 0 -10.42628118888905 77.430108868898969 0 0 0 0 -15.657109939157948 -4.9942023759396932 0 -4.9942023759396932 7.426163929523053 0 0 0 0 -49.99399875641393 -13.235895663704014 0 -13.235895663704014 113.25202735158143 0 0 0 0 -30.907774391078419 -15.205094196226582 0 -15.205094196226582 14.480723525131907 0 0 0 0 -43.70324223631178 13.052751600499505 0 13.052751600499505 41.347355006600083 0 0 0 0 -38.580111336334411 8.6562135815997152 0 8.6562135815997152 23.306920069594636 0 0 0 0 -166.82177777891047 -82.599504100246122 0 -82.599504100246122 -32.415218204187113 0 0 0 0 -132.32445368215485 -96.71984193123717 0 -96.71984193123717 -29.435407164755816 0 0 0 0 -161.36787844295213 -75.328598587462693 0 -75.328598587462693 -36.618303109653425 0 0 0 0 -181.81996900345257 -141.14572852791025 0 -141.14572852791025 -4.1383092280375422 0 0 0 0 -10.714310649646883 6.422155929523754 0 6.422155929523754 10.699650887306838 0 0 0 0 -203.63200184369634 -30.873226607945981 0 -30.873226607945981 27.957683753185847 0 0 0 0 -338.68993349368975 -76.292735057540995 0 -76.292735057540995 19.784536161776487 0 0 0 0 -101.03075345145771 -16.321898980317201 0 -16.321898980317201 0.11372567735088523 0 0 0 0 -30.100653677441066 1.1507095579708135 0 1.1507095579708135 16.192080765916856 0 0 0 0 -198.24672562604019 -125.86831698216952 0 -125.86831698216952 -10.678168344442383 0 0 0 0 -133.36742594805037 -88.864093107966255 0 -88.864093107966255 -35.900739524899109 0 0 0 0 -197.23856465676727 -92.737609504873035 0 -92.737609504873035 5.1241135838790797 0 0 0 0 -181.65642004103574 -119.42485541321003 0 -119.42485541321003 -49.814594769595715 0 0 0 0 -142.09531238899763 -100.83374509026362 0 -100.83374509026362 -39.248295419165515 0 0 0 0 -115.96907257759449 -41.030851739177706 0 -41.030851739177706 -54.579671002687974 0 0 0 0 -142.67080613318103 -95.831270850892906 0 -95.831270850892906 -57.184444527636515 0 0 0 0 -239.42421528494879 -126.00467788896367 0 -126.00467788896367 -22.615706474651233 0 0 0 0 -160.0446584962956 -133.28670167492237 0 -133.28670167492237 -135.67701610556105 0 0 0 0 -15.995898591446316 1.4906910642662563 0 1.4906910642662563 14.400503364890497 0 0 0 0 -226.04757084135053 -24.953724934992351 0 -24.953724934992351 -89.076113121607705 0 0 0 0 -174.29629084687622 -63.536420016818738 0 -63.536420016818738 -17.6233458771394 0 0 0 0 -187.20559449411667 -112.50000165167512 0 -112.50000165167512 -2.8662939273417578 0 0 0 0 -159.26263464237491 -90.685619700354437 0 -90.685619700354437 -24.766135908761498 0 0 0 0 -43.012694753226242 12.286870293261018 0 12.286870293261018 28.823710824889531 0 0 0 0 -29.09767995346343 4.731290435606077 0 4.731290435606077 17.656025759198787 0 0 0 0 -62.806536588865129 -124.52998721897893 0 -124.52998721897893 -142.00318049942143 0 0 0 0 -99.407211083932452 -27.613051179897411 0 -27.613051179897411 -19.044598364227568 0 0 0 0 -154.76991638878826 -98.137976376077859 0 -98.137976376077859 -10.329896461073076 0 0 0 0 -160.70903825425557 -112.21710075188457 0 -112.21710075188457 -20.215791846465436 0 0 0 0 -201.48331842510379 -78.690160548547283 0 -78.690160548547283 4.1823316012469149 0 0 0 0 -17.129165085368118 0.44954406187702745 0 0.44954406187702745 11.843878100761792 0 0 0 0 -96.61124328144615 -121.76552822178928 0 -121.76552822178928 -29.588111352564738 0 0 0 0 -180.80724432472016 -85.211252111495924 0 -85.211252111495924 24.794736558516888 0 0 0 0 -170.11085920409914 -91.326789955069671 0 -91.326789955069671 10.985142492580053 0 0 0 0 -170.11547876622353 -90.020108678179895 0 -90.020108678179895 -12.137353875931694 0 0 0 0 -276.56566808645039 -139.01905659751537 0 -139.01905659751537 11.062327944233402 0 0 0 0 -141.94190788552078 -97.273444616951565 0 -97.273444616951565 -3.0620159257705382 0 0 0 0 -125.38115076033228 -89.760318000116058 0 -89.760318000116058 -11.175748696812661 0 0 0 0 -66.220537266679457 -56.503248378881835 0 -56.503248378881835 -3.5839514938002139 0 0 0 0 -35.324019579233209 -48.883954025359344 0 -48.883954025359344 15.610019788675345 0 0 0 0 -82.127685547184228 -31.006222821451956 0 -31.006222821451956 14.665637386764047 0 0 0 0 -104.70411306985534 16.429225002433213 0 16.429225002433213 66.896626588502841 0 0 0 0 -147.20973959590538 -118.06081830793573 0 -118.06081830793573 -94.286162233896903 0 0 0 0 -237.83253518368838 -67.60086581228461 0 -67.60086581228461 39.587496981715958 0 0 0 0 -89.748073704469789 16.844044639738968 0 16.844044639738968 -43.184745782627942 0 0 0 0 -109.28933281734135 -4.8567070933895593 0 -4.8567070933895593 59.874778886800868 0 0 0 0 27.883436793907094 -10.06775443436527 0 -10.06775443436527 59.031878787949609 0 0 0 0 4.9562676591235597 -43.856389461494238 0 -43.856389461494238 1.5909141635781907 0 0 0 0 -285.9515420765656 -24.017283381092057 0 -24.017283381092057 62.532108036864884 0 0 0 0 -182.76075623754446 52.378179484571149 0 52.378179484571149 67.171399497841776 0 0 0 0 -207.13975856455363 -11.519422182442213 0 -11.519422182442213 -11.991255158118292 0 0 0 0 -161.77128720203109 -96.768576739487798 0 -96.768576739487798 14.144503289100612 0 0 0 0 -120.1577612108249 -94.831307335114616 0 -94.831307335114616 -11.20935907513558 0 0 0 0 -174.28841903593684 -167.69022817496489 0 -167.69022817496489 -108.25512444034757 0 0 0 0 -193.20712682556768 36.904684243074371 0 36.904684243074371 17.315727165317639 0 0 0 0 -4.622463661149304 -12.195741573162344 0 -12.195741573162344 0.74096726606291519 0 0 0 0 -96.659864034697748 4.9373220445059616 0 4.9373220445059616 19.313198809372668 0 0 0 0 -56.081872818383999 -8.073093747774692 0 -8.073093747774692 11.211385176653948 0 0 0 0 -194.07227202984359 -46.044724922803653 0 -46.044724922803653 -0.11823854950125678 0 0 0 0 -66.845110075169856 10.325071645847991 0 10.325071645847991 22.921428816377432 0 0 0 0 -125.05640371811023 19.963070534093958 0 19.963070534093958 50.504736369809052 0 0 0 0 -123.34517638679881 14.5313331173341 0 14.5313331173341 40.248753548800323 0 0 0 0 -47.785661301144501 -24.37363518246093 0 -24.37363518246093 -0.65130086560020573 0 0 0 0 -45.741909367288827 -6.5567191105222236 0 -6.5567191105222236 12.97447388289779 0 0 0 0 -27.787340758605538 11.548840412349747 0 11.548840412349747 21.752113433804986 0 0 0 0 -129.46803318564366 22.408758681822746 0 22.408758681822746 19.126156317186542 0 0 0 0 -51.282989735831507 -0.28670990127284313 0 -0.28670990127284313 21.435929221805054 0 0 0 0 -21.565453388194705 6.3974487241270879 0 6.3974487241270879 22.438798133305308 0 0 0 0 -42.975393253062748 8.9578945183536192 0 8.9578945183536192 26.923748977220384 0 0 0 0 -69.075204765339549 16.892212871958748 0 16.892212871958748 19.451577118799833 0 0 0 0 -35.758310777852238 0.059974276999177789 0 0.059974276999177789 24.444747686952844 0 0 0 0 -145.60243471631657 8.8243608026614311 0 8.8243608026614311 47.04286345815899 0 0 0 0 -116.48704768871539 43.058281441527242 0 43.058281441527242 8.4654472900847395 0 0 0 0 -157.58477571320691 21.644096008497399 0 21.644096008497399 39.039153290360559 0 0 0 0 -168.03558948860882 14.156297182030812 0 14.156297182030812 62.317149224475997 0 0 0 0 -166.6450699761117 14.865230895350578 0 14.865230895350578 38.842064962478275 0 0 0 0 -152.03766058046313 7.3355616283242853 0 7.3355616283242853 41.693835425863654 0 0 0 0 -147.19236931816272 17.827876601660158 0 17.827876601660158 57.86244157571582 0 0 0 0 -154.62750354839955 4.2312461039982736 0 4.2312461039982736 76.945244652541078 0 0 0 0 -154.60568178277049 14.34215219384137 0 14.34215219384137 61.572932283784212 0 0 0 0 -108.19012638209824 1.4269089169761173 0 1.4269089169761173 36.786383374836532 0 0 0 0 -154.97352586084162 -12.333183743925929 0 -12.333183743925929 32.516638686921851 0 0 0 0 -186.29711419040541 17.629396090624141 0 17.629396090624141 68.914823966606946 0 0 0 0 -91.877019230154929 9.2326854184793774 0 9.2326854184793774 15.883640206989639 0 0 0 0 -180.98481148271094 7.7173573159311672 0 7.7173573159311672 42.124551043029669 0 0 0 0 -99.418960877705629 4.6701543247259227 0 4.6701543247259227 9.2339359257295293 0 0 0 0 -85.431713409912817 10.967440129853774 0 10.967440129853774 14.380040589813571 0 0 0 0 -18.871566602547929 -10.937004416269112 0 -10.937004416269112 2.4872759176342356 0 0 0 0 -101.77832209035114 37.335538254219728 0 37.335538254219728 20.439066054092564 0 0 0 0 -82.460402759352291 -12.635007737754222 0 -12.635007737754222 43.78703985777247 0 0 0 0 -63.180130057255155 -5.6127603335417007 0 -5.6127603335417007 11.048529599864196 0 0 0 0 -54.675261339933684 0.91846294585817745 0 0.91846294585817745 8.6638467224461664 0 0 0 0 -50.676451128558256 -6.5940290137459669 0 -6.5940290137459669 13.637981284033231 0 0 0 0 -74.213599850590015 -4.4110607693432033 0 -4.4110607693432033 11.847654624906378 0 0 0 0 -113.2178140305484 -6.352403923371952 0 -6.352403923371952 4.7552925013205822 0 0 0 0 -112.22455322170546 6.2505318384700104 0 6.2505318384700104 25.710719525859531 0 0 0 0 -114.63585886799632 -10.942945628175949 0 -10.942945628175949 -7.841551875386358 0 0 0 0 -125.97168399901602 -9.9810877331365191 0 -9.9810877331365191 12.446038105351363 0 0 0 0 10.890443444746779 85.213565735808515 0 85.213565735808515 56.781982783220883 0 0 0 0 -114.73857242544341 -10.269145309676787 0 -10.269145309676787 6.1734794646381488 0 0 0 0 -66.828496609996492 20.078262953062712 0 20.078262953062712 13.839419639148907 0 0 0 0 -75.141460082168123 139.62958920175652 0 139.62958920175652 87.410058055971604 0 0 0 0 -63.362577376294212 106.76068043973464 0 106.76068043973464 51.1411398336204 0 0 0 0 -208.90089580286076 -31.080937966093188 0 -31.080937966093188 80.602247482809844 0 0 0 0 -104.50310264018226 -2.2169475225812718 0 -2.2169475225812718 8.4390492579737177 0 0 0 0 63.234971178848355 148.76606480149621 0 148.76606480149621 -273.87894287143172 0 0 0 0 -156.78332101775413 17.604290004548602 0 17.604290004548602 29.392331795621885 0 0 0 0 -235.60100682461416 92.031406661546953 0 92.031406661546953 412.87282004694316 0 0 0 0 -2.4883711210889885 6.4514685560335412 0 6.4514685560335412 3.302993210878201 0 0 0 0 -53.834585130423037 32.885766918158268 0 32.885766918158268 10.973660634696827 0 0 0 0 -103.69619483859606 20.184463340270611 0 20.184463340270611 27.89491372334453 0 0 0 0 -43.810909747197002 -2.9566249520448764 0 -2.9566249520448764 -47.933560886260238 0 0 0 0 -17.501713757607263 4.889726887545601 0 4.889726887545601 1.9775702293688759 0 0 0 0 -123.65699112802673 -34.864654457139181 0 -34.864654457139181 82.927340430236654 0 0 0 0 -41.974871530770542 74.687180878971049 0 74.687180878971049 -13.834232255556344 0 0 0 0 -71.254356967018964 65.199240113023151 0 65.199240113023151 16.447870772281014 0 0 0 0 -85.288951157426709 -4.6979553894782384 0 -4.6979553894782384 34.27896129585838 0 0 0 0 -115.10090746523929 29.487452049276953 0 29.487452049276953 20.306355305284342 0 0 0 0 -103.68131966951489 -3.2735962245841801 0 -3.2735962245841801 16.04816214415138 0 0 0 0 -66.596420792728694 -5.0398768371279772 0 -5.0398768371279772 16.246903542571452 0 0 0 0 -75.848823783533589 2.4335110992174123 0 2.4335110992174123 32.021537337718314 0 0 0 0 -101.59920529703413 18.545754610631064 0 18.545754610631064 23.706395338040238 0 0 0 0 -78.982271353220682 0.83775776724433726 0 0.83775776724433726 18.879231446895247 0 0 0 0 -105.43972960378233 15.788061771009779 0 15.788061771009779 27.821532938079145 0 0 0 0 -137.19563379526153 -1.6736659880471052 0 -1.6736659880471052 37.840122336508102 0 0 0 0 -44.132712595372141 -39.883523220884967 0 -39.883523220884967 32.69008276583827 0 0 0 0 -42.249796968309965 38.607530975771169 0 38.607530975771169 -35.633846647059727 0 0 0 0 -72.692732668712608 11.996121413880971 0 11.996121413880971 10.782682608079005 0 0 0 0 -17.541449971841551 2.8807705946498672 0 2.8807705946498672 2.223387600887845 0 0 0 0 -190.16769096470307 48.763628820141776 0 48.763628820141776 36.221102957772018 0 0 0 0 -87.159649649999636 6.2688508200458308 0 6.2688508200458308 14.725028980822005 0 0 0 0 -162.78841283338988 -57.743422114404666 0 -57.743422114404666 22.135039217529538 0 0 0 0 -10.283571733545259 -0.26205169623494839 0 -0.26205169623494839 20.54092924075124 0 0 0 0 -143.17673911176826 -161.83293332050107 0 -161.83293332050107 -178.68106506454114 0 0 0 0 -164.57293037841373 -73.177928494695607 0 -73.177928494695607 -64.063272561497797 0 0 0 0 -139.7199411837355 -93.392550290439431 0 -93.392550290439431 -130.61543955332672 0 0 0 0 -183.9075047771039 -61.383680926224315 0 -61.383680926224315 32.282795451568745 0 0 0 0 -205.86662760624313 -135.18660036014762 0 -135.18660036014762 -23.565367792682991 0 0 0 0 -192.37120234112808 -67.045816825038401 0 -67.045816825038401 58.063330753198898 0 0 0 0 -191.90663176283124 -82.267755073777153 0 -82.267755073777153 72.780226798116928 0 0 0 0 -182.09960992338893 -77.963981555986265 0 -77.963981555986265 46.545473330566892 0 0 0 0 -184.01604680128366 -42.630480364721734 0 -42.630480364721734 99.94162701102141 0 0 0 0 -182.87832999563034 -23.278835916113906 0 -23.278835916113906 141.08228833364592 0 0 0 0 -185.1011189637793 -41.047708467455777 0 -41.047708467455777 97.938719301518177 0 0 0 0 -180.67724891322723 -41.712926429095205 0 -41.712926429095205 95.187283854808356 0 0 0 0 -182.7848772661041 -56.791738179694306 0 -56.791738179694306 54.17653780685032 0 0 0 0 -167.53461425999558 -6.0543952770749456 0 -6.0543952770749456 89.093218334111043 0 0 0 0 -152.82226677310609 -14.141757220564386 0 -14.141757220564386 28.709554338896851 0 0 0 0 -166.16036815309781 19.979598502706267 0 19.979598502706267 66.240849760763922 0 0 0 0 -168.50572388974251 15.21616569317689 0 15.21616569317689 110.77075128672095 0 0 0 0 -166.92972170876601 7.7865219341881584 0 7.7865219341881584 96.441712484445816 0 0 0 0 -175.44588837417541 -22.909068228929755 0 -22.909068228929755 65.217520822293409 0 0 0 0 -177.38718488777522 -15.187398894145645 0 -15.187398894145645 132.53822051007046 0 0 0 0 -89.833243506200233 -50.630722670583225 0 -50.630722670583225 78.165708658676522 0 0 0 0 -94.749097988948051 192.53747860177873 0 192.53747860177873 -104.93286679482844 0 0 0 0 -148.10458592706789 -12.444805449722395 0 -12.444805449722395 92.648862609768003 0 0 0 0 -140.58878353394539 14.508457009268341 0 14.508457009268341 37.77514132162446 0 0 0 0 0.63147081805394478 -0.49935840552782196 0 -0.49935840552782196 12.725502870430891 0 0 0 0 -176.22493386331917 -193.79984322237101 0 -193.79984322237101 126.3538686921421 0 0 0 0 -81.913324401110003 92.908997766872957 0 92.908997766872957 16.987244602949659 0 0 0 0 -123.31987932040647 16.248934106841375 0 16.248934106841375 54.530319781239172 0 0 0 0 -217.72156152466778 56.522183047384942 0 56.522183047384942 103.63097784077422 0 0 0 0 -179.50269495105022 35.882412991643832 0 35.882412991643832 107.20691170353484 0 0 0 0 -128.57837472114625 40.759719437421921 0 40.759719437421921 75.24455591389318 0 0 0 0 -147.67881772491819 60.168193038972731 0 60.168193038972731 78.197500077324378 0 0 0 0 -242.23338275161223 88.489311458697543 0 88.489311458697543 76.921145354974797 0 0 0 0 -163.63440986255591 63.196404342338951 0 63.196404342338951 84.810101999774133 0 0 0 0 -292.0936998421239 58.882170752200182 0 58.882170752200182 64.561420255773498 0 0 0 0 -84.71597704440228 -83.833707711284276 0 -83.833707711284276 -91.553382663055118 0 0 0 0 -184.70579498993175 53.150430733205212 0 53.150430733205212 -54.826226282973948 0 0 0 0 -172.51552526988962 98.23750171704441 0 98.23750171704441 109.69304675231456 0 0 0 0 -296.1458283145912 118.60752342962314 0 118.60752342962314 -89.273204582842936 0 0 0 0 -236.81288977508666 -36.180411007722341 0 -36.180411007722341 -167.03438744548339 0 0 0 0 -267.83384698398004 65.324527178159883 0 65.324527178159883 -366.44210989629937 0 0 0 0 -378.87491885523195 -54.065683230225204 0 -54.065683230225204 -35.849973263868378 0 0 0 0 -95.141398609353928 12.61236656006372 0 12.61236656006372 -247.91859587219324 0 0 0 0 -232.22505487009767 -112.43563305596831 0 -112.43563305596831 167.10979990684086 0 0 0 0 -233.60862658793667 -133.73870700537356 0 -133.73870700537356 -73.223500657953537 0 0 0 0 -94.801845099678758 -83.975135739255677 0 -83.975135739255677 5.4996218713367853 0 0 0 0 -0.36288932787768502 0.34099912648099462 0 0.34099912648099462 4.1016140474357154 0 0 0 0 87.738724959490355 52.978682241439003 0 52.978682241439003 -66.305173148750725 0 0 0 0 -270.00780688244413 10.269019011136834 0 10.269019011136834 287.96872871212236 0 0 0 0 -141.1137562063559 -9.628448799520811 0 -9.628448799520811 -8.9847373149232226 0 0 0 0 -162.56920113638625 -38.450741047952988 0 -38.450741047952988 -3.8258469868810607 0 0 0 0 -171.72655735748776 -41.661049474455012 0 -41.661049474455012 51.107436909101125 0 0 0 0 -191.45862913283781 31.793822580150163 0 31.793822580150163 36.065629591867719 0 0 0 0 -165.12844472897632 8.4290165418424294 0 8.4290165418424294 20.825695576226735 0 0 0 0 -229.86462105077226 21.939777556214267 0 21.939777556214267 18.165176997125172 0 0 0 0 -7.7196223595396276 -5.4925745328994111 0 -5.4925745328994111 -2.5121551305607763 0 0 0 0 -281.60898473729321 149.98717700615975 0 149.98717700615975 -45.998785072926012 0 0 0 0 -299.84167781452561 90.753172607727947 0 90.753172607727947 -26.826298897678498 0 0 0 0 -190.95681884378428 106.25615395202135 0 106.25615395202135 -75.935803249244145 0 0 0 0 -234.56468741751451 36.739222504122608 0 36.739222504122608 43.686193458755042 0 0 0 0 -279.84376086938573 97.80808414434955 0 97.80808414434955 -26.219063608922625 0 0 0 0 -257.40340706579445 38.063862984309935 0 38.063862984309935 -10.102240552162584 0 0 0 0 -325.99397098712507 20.995317806537059 0 20.995317806537059 94.621483952227436 0 0 0 0 -474.73218839090987 48.216989152079805 0 48.216989152079805 148.90873520087735 0 0 0 0 -737.879780871408 351.33584578978957 0 351.33584578978957 -79.51995528256839 0 0 0 0 -337.39304298967727 216.20165067981634 0 216.20165067981634 -306.51738854789437 0 0 0 0 116.37865240128303 487.47723788305984 0 487.47723788305984 227.03341069499811 0 0 0 0 -6.8547601287864381 -6.6314805258070919 0 -6.6314805258070919 -5.8610158319179391 0 0 0 0 -1.6812049932697448 -2.1191649822258398 0 -2.1191649822258398 -1.7194280864884415 0 0 0 0 0.63618911019420921 -495.94627824746249 0 -495.94627824746249 -772.82732587058126 0 0 0 0 132.46761950642394 -346.16702030199849 0 -346.16702030199849 202.0971758018095 0 0 0 0 -127.81361064111115 46.863326903016059 0 46.863326903016059 14.624392442656244 0 0 0 0 1.0011970774227876 -0.445549613449991 0 -0.445549613449991 -1.1718676632491984 0 0 0 0 -244.59165008629134 -316.55341933364548 0 -316.55341933364548 116.75303879411149 0 0 0 0 -124.38208113126893 -254.18106421010771 0 -254.18106421010771 188.01616357063631 0 0 0 0 -115.7267457572525 -496.3190339615719 0 -496.3190339615719 -62.784325075438574 0 0 0 0 -629.20155701814656 472.20491900979391 0 472.20491900979391 -182.96484434486456 0 0 0 0 -3.2472039991333759 -2.1899902342900148 0 -2.1899902342900148 -1.6867635102089524 0 0 0 0 -261.28928558775806 -297.56119009025451 0 -297.56119009025451 97.068663188008941 0 0 0 0 -276.01837871852513 -322.18839719599998 0 -322.18839719599998 165.91035277471292 0 0 0 0 80.812220396415796 -84.264041866661728 0 -84.264041866661728 -80.43436156649841 0 0 0 0 1.5016720112463702 0.79310162129333861 0 0.79310162129333861 -0.29236238991109431 0 0 0 0 -452.53371002362837 -206.06701695020843 0 -206.06701695020843 -446.72100294724942 0 0 0 0 -720.82991698110436 -195.71804084094242 0 -195.71804084094242 156.91129728425403 0 0 0 0 -74.571667294039798 -176.18752641875221 0 -176.18752641875221 -133.74597203567964 0 0 0 0 -93.704499049359583 -39.786896283718079 0 -39.786896283718079 2.1114980210481917 0 0 0 0 -95.224391855854265 -47.057239337174451 0 -47.057239337174451 6.3542202429398458 0 0 0 0 -152.19981778658621 -184.72163296767275 0 -184.72163296767275 -53.456812327363878 0 0 0 0 -189.0318725356301 -102.83871213634484 0 -102.83871213634484 -26.057200780128824 0 0 0 0 -178.05733820719615 -133.7118571464988 0 -133.7118571464988 10.123448331785767 0 0 0 0 -219.01533012301661 -230.12429475527642 0 -230.12429475527642 -82.192492444156869 0 0 0 0 -135.20475802716101 -298.2262191903219 0 -298.2262191903219 59.012738107915766 0 0 0 0 54.520686739604571 -38.484940841768775 0 -38.484940841768775 -115.6081544991398 0 0 0 0 -486.28612012827216 21.001053395480312 0 21.001053395480312 -77.050287309529267 0 0 0 0 -7.7736590382482049 -4.2513936917376682 0 -4.2513936917376682 3.0679347080774648 0 0 0 0 -199.80807123907653 130.00583572289156 0 130.00583572289156 -27.006231506824406 0 0 0 0 -105.09560250835057 42.213018842898691 0 42.213018842898691 -17.382841728182825 0 0 0 0 -271.6337217010223 -13.328171725688662 0 -13.328171725688662 12.467064755892579 0 0 0 0 -203.30237064976245 15.493178888879811 0 15.493178888879811 22.014398061320662 0 0 0 0 -378.57184179548494 -133.37870888529596 0 -133.37870888529596 20.277481956125712 0 0 0 0 -140.50373945449974 -11.080851552368813 0 -11.080851552368813 23.493753949307575 0 0 0 0 -113.75550533663591 7.575704466741854 0 7.575704466741854 31.317685503673601 0 0 0 0 -72.878682729773573 17.022652452495549 0 17.022652452495549 13.704680314209327 0 0 0 0 -117.72737236877947 52.227809117116465 0 52.227809117116465 -13.46771219846778 0 0 0 0 -83.696201276332431 -93.324452934911051 0 -93.324452934911051 12.309497793859919 0 0 0 0 -25.258168059900321 -2.6880376524515697 0 -2.6880376524515697 7.5929021239661987 0 0 0 0 -76.901467340976524 21.09988559928297 0 21.09988559928297 37.638646973286086 0 0 0 0 -111.35818564453075 15.992489363396544 0 15.992489363396544 73.188926248228427 0 0 0 0 -134.96194639852865 -119.41493391875136 0 -119.41493391875136 -17.664008819083847 0 0 0 0 -69.783570393537957 -80.238673791700151 0 -80.238673791700151 -44.610082788608565 0 0 0 0 -137.13380067356047 -64.291443798997307 0 -64.291443798997307 20.827660170456056 0 0 0 0 -5.6948847270978149 2.9692080208559446 0 2.9692080208559446 30.433460468821409 0 0 0 0 26.423609622805088 -50.64570332627067 0 -50.64570332627067 1.9983519278916333 0 0 0 0 15.405123174145047 2.5376208726419378 0 2.5376208726419378 4.9299762223826065 0 0 0 0 6.1207375928788679 -17.458156287654958 0 -17.458156287654958 -25.139576665391019 0 0 0 0 -38.630756031194323 -14.073297473204491 0 -14.073297473204491 -5.6231939325364522 0 0 0 0 -3.6773816882257506 42.422541009879019 0 42.422541009879019 31.311034819925226 0 0 0 0 -3.5581936753216183 -4.964364706300973 0 -4.964364706300973 3.4389110734056088 0 0 0 0 -20.14281284018216 -23.344183189028627 0 -23.344183189028627 -12.087662289454897 0 0 0 0 -18.488591325083689 -0.26011166528110152 0 -0.26011166528110152 -20.592280837535917 0 0 0 0 19.376479996226408 -3.0009434494282914 0 -3.0009434494282914 12.603142641848081 0 0 0 0 3.8094308840580311 -7.8735894110622091 0 -7.8735894110622091 3.8978116694859648 0 0 0 0 -95.76373021992913 -191.25826218441398 0 -191.25826218441398 -29.685268052016795 0 0 0 0 24.922360608852614 -2.779631238346667 0 -2.779631238346667 -6.499016062186513 0 0 0 0 -8.2583071781817736 -2.8013449876015173 0 -2.8013449876015173 6.2708873349804897 0 0 0 0 -292.91375093802344 51.867772681595625 0 51.867772681595625 -74.319158233752432 0 0 0 0 27.660204570428505 -9.6573907192609028 0 -9.6573907192609028 7.6583334733968513 0 0 0 0 -379.53881218429751 53.834465119314956 0 53.834465119314956 1.6022624568977335 0 0 0 0 -649.71847443385923 -19.598915167674704 0 -19.598915167674704 -17.958083466067592 0 0 0 0 -212.50127847474505 377.4671937029384 0 377.4671937029384 -201.26035708446216 0 0 0 0 -479.51886463231494 -169.64730673247527 0 -169.64730673247527 -462.33528463930907 0 0 0 0 -496.68167896504747 -193.425350111017 0 -193.425350111017 -198.23849120108753 0 0 0 0 -499.34738034942711 60.109176616838795 0 60.109176616838795 -186.08888747687706 0 0 0 0 -967.38098652576446 187.81872366712105 0 187.81872366712105 -382.4714901467172 0 0 0 0 -490.23493128841801 49.911485286896095 0 49.911485286896095 -467.19734292663452 0 0 0 0 -840.06284380384022 102.77756250234438 0 102.77756250234438 -95.268251602587952 0 0 0 0 -473.34979108964035 -50.229613523222724 0 -50.229613523222724 -32.782082586594015 0 0 0 0 -313.01883332710713 65.993362407163772 0 65.993362407163772 -203.78003508906477 0 0 0 0 8.7319437081823708 -400.58077035267627 0 -400.58077035267627 -878.81192668760468 0 0 0 0 0.13838980106343257 -0.85387084084153742 0 -0.85387084084153742 0.74457687610369394 0 0 0 0 -1410.9633306167016 -553.02841202765194 0 -553.02841202765194 -533.88672234663318 0 0 0 0 -3.2154575011412874 -2.5549673495658674 0 -2.5549673495658674 2.9883474940331389 0 0 0 0 -910.91111375149922 -791.17399482251494 0 -791.17399482251494 -659.92814236064442 0 0 0 0 -560.57045736565487 -143.65638826891518 0 -143.65638826891518 -453.90193062386004 0 0 0 0 -527.82243130130519 -21.441738146008447 0 -21.441738146008447 -45.505777928209682 0 0 0 0 -327.47653822864231 -181.70836326245561 0 -181.70836326245561 63.621356584247337 0 0 0 0 -422.10634427949844 -260.3232352279515 0 -260.3232352279515 100.82911101420922 0 0 0 0 -494.85728451133764 107.72974626709083 0 107.72974626709083 -37.970366619736978 0 0 0 0 -545.94102655535607 -57.07571657313656 0 -57.07571657313656 42.747463511293745 0 0 0 0 -289.35154918802436 -137.74791024675756 0 -137.74791024675756 67.77158100263209 0 0 0 0 -404.865675124267 -7.5653250634406106 0 -7.5653250634406106 69.870279101499165 0 0 0 0 -270.76938814702953 35.769497702611943 0 35.769497702611943 -17.690914722143589 0 0 0 0 -242.09871999830648 -23.984689842540774 0 -23.984689842540774 71.518818196200272 0 0 0 0 -254.87588618046721 -2.5386113740848941 0 -2.5386113740848941 117.04173854504461 0 0 0 0 -277.90753819858946 -20.739862341873845 0 -20.739862341873845 103.19993002099386 0 0 0 0 -222.35022563158418 -7.5605335443112835 0 -7.5605335443112835 84.880092097027728 0 0 0 0 -234.17030062741378 -208.96937519365753 0 -208.96937519365753 99.041913848794593 0 0 0 0 -365.36822256377491 -180.64363511097574 0 -180.64363511097574 93.729122640737046 0 0 0 0 -7.348121898532554 -203.75378175435435 0 -203.75378175435435 82.251594416026933 0 0 0 0 -169.75135702245461 -29.963091772450753 0 -29.963091772450753 124.43356563445377 0 0 0 0 -206.46790831626095 -5.8456708484931141 0 -5.8456708484931141 115.99251571464174 0 0 0 0 -182.60401248046765 -46.811651547115275 0 -46.811651547115275 111.82816414131503 0 0 0 0 -248.12826115167991 -239.07348634260848 0 -239.07348634260848 -33.537582083324196 0 0 0 0 -1.1895773704793555 -0.76645609108863866 0 -0.76645609108863866 3.5673802240842751 0 0 0 0 -382.3835318464462 -156.65572778703205 0 -156.65572778703205 -80.496652493079409 0 0 0 0 -412.13655396942704 -10.368945595089258 0 -10.368945595089258 64.335069108356038 0 0 0 0 2.8205016349449252 1.0098579371911711 0 1.0098579371911711 -0.37852445262955037 0 0 0 0 -146.67951418889425 -40.891411573707501 0 -40.891411573707501 -26.420994461765758 0 0 0 0 -238.27596012044523 -51.979357545059429 0 -51.979357545059429 -6.762045221209064 0 0 0 0 -381.84566504184477 40.269692451328979 0 40.269692451328979 63.946050065115742 0 0 0 0 -418.78329511157062 47.510751630163213 0 47.510751630163213 62.883525917484576 0 0 0 0 -396.42329859633901 4.2583789495604378 0 4.2583789495604378 74.174565056013307 0 0 0 0 -443.7911405358609 1.0416765429899897 0 1.0416765429899897 79.619764496808784 0 0 0 0 -193.30535689358294 32.05949057078567 0 32.05949057078567 -9.6842528614106413 0 0 0 0 142.94993115651232 -129.10168874495366 0 -129.10168874495366 19.943474944739137 0 0 0 0 -2.5655750132864341 -44.911603152586395 0 -44.911603152586395 98.681884607151005 0 0 0 0 -107.63486998699955 26.236962513822618 0 26.236962513822618 144.94083128460443 0 0 0 0 -116.85354332409042 1.9718041119213012 0 1.9718041119213012 121.7759627999385 0 0 0 0 -119.25388503065915 -4.3566010316103529 0 -4.3566010316103529 110.00338245280454 0 0 0 0 -168.49752684668601 1.7902474279140961 0 1.7902474279140961 141.01147437933741 0 0 0 0 -129.02593589692333 -60.986465438228834 0 -60.986465438228834 114.76214960119614 0 0 0 0 88.189912619991446 66.612200761156942 0 66.612200761156942 92.701079798698629 0 0 0 0 -153.45071555471804 36.987097547124904 0 36.987097547124904 221.34857634134596 0 0 0 0 -94.391289556573611 90.761812853995252 0 90.761812853995252 212.65436520527794 0 0 0 0 -74.709366039038287 27.460063166480722 0 27.460063166480722 149.05210400964415 0 0 0 0 -186.92899713412044 -21.462094816936769 0 -21.462094816936769 188.65289156574181 0 0 0 0 -138.97527267062105 -13.150387910529844 0 -13.150387910529844 158.29804506359505 0 0 0 0 -142.85336953905062 -3.9673702875843446 0 -3.9673702875843446 137.93230208349041 0 0 0 0 -204.16559176116425 -66.932962463544754 0 -66.932962463544754 124.79491291125919 0 0 0 0 -17.957350711864748 4.4410437775744001 0 4.4410437775744001 3.4273861608961393 0 0 0 0 -232.96932430913148 -90.448490246807523 0 -90.448490246807523 67.646953002309601 0 0 0 0 -121.17618146923451 -14.652576192469269 0 -14.652576192469269 0.32873466457931499 0 0 0 0 -58.012590366233781 -10.652378075679735 0 -10.652378075679735 -541.85581350277425 0 0 0 0 -167.7845521751733 -30.248490840632712 0 -30.248490840632712 126.3598170919704 0 0 0 0 -239.56982356280787 -116.95113899693297 0 -116.95113899693297 68.693015808599739 0 0 0 0 -179.82389315364708 -96.905382687539714 0 -96.905382687539714 9.0120106351951108 0 0 0 0 -232.77568307609181 -176.93110828146564 0 -176.93110828146564 -57.181160773152442 0 0 0 0 -180.62461916428583 -18.198891631531296 0 -18.198891631531296 164.04228025469274 0 0 0 0 -177.29353260843345 130.09095095761404 0 130.09095095761404 -109.81695318634593 0 0 0 0 -382.9086371727085 0.95739572167005349 0 0.95739572167005349 15.817905232041085 0 0 0 0 -367.30249868912506 305.65562013954241 0 305.65562013954241 -202.8534845096674 0 0 0 0 -10.294457287225455 -6.7712135620204288 0 -6.7712135620204288 3.0747454775993024 0 0 0 0 -170.0462548682699 75.680261471967242 0 75.680261471967242 37.277385606398184 0 0 0 0 -168.71942824699363 -140.50554013682768 0 -140.50554013682768 -65.937863271552487 0 0 0 0 3.8754846923329751 -103.78426283184581 0 -103.78426283184581 -68.379327041097895 0 0 0 0 -179.53747227850545 -6.4179764039627116 0 -6.4179764039627116 79.257092570604982 0 0 0 0 -255.25891782223334 -62.594035877915303 0 -62.594035877915303 42.270961551975233 0 0 0 0 -223.57951970323484 -15.308551894759148 0 -15.308551894759148 89.536043841110313 0 0 0 0 -78.932109219731984 -13.169083240720742 0 -13.169083240720742 3.2735733189089773 0 0 0 0 -48.767385947813864 -11.47320423470137 0 -11.47320423470137 -9.5922026215848746 0 0 0 0 -118.81654085125592 -6.9169793385435696 0 -6.9169793385435696 -8.145761025793945 0 0 0 0 -67.499922228531005 -10.214099071001055 0 -10.214099071001055 1.5460651404531767 0 0 0 0 -113.77771781797196 -4.347385103099441 0 -4.347385103099441 6.3673416395513414 0 0 0 0 -340.67102450122184 655.78661709029075 0 655.78661709029075 53.89788563368802 0 0 0 0 -101.1198507543977 4.2072632448216609 0 4.2072632448216609 20.157103186651511 0 0 0 0 -43.041459219545111 10.753452063503442 0 10.753452063503442 -6.3938348802355556 0 0 0 0 -44.118573789253787 12.505051585092588 0 12.505051585092588 -6.8349326722855039 0 0 0 0 -67.565060998813522 -11.062395953677202 0 -11.062395953677202 0.057036761628047827 0 0 0 0 -92.744723647703722 -16.86535307935992 0 -16.86535307935992 -13.293490452797414 0 0 0 0 -90.353064544426161 -15.192633463317634 0 -15.192633463317634 -14.437032069947236 0 0 0 0 -44.251359695095744 -16.156176852937278 0 -16.156176852937278 32.048352160322793 0 0 0 0 -53.671536004772861 -10.523452587523934 0 -10.523452587523934 10.051463875283389 0 0 0 0 -7.2213242850048118 -68.103986477631224 0 -68.103986477631224 5.6510573792397736 0 0 0 0 -44.455456105514777 -26.722080546647199 0 -26.722080546647199 5.2059940683533714 0 0 0 0 -64.489280319978846 -0.63816553920478825 0 -0.63816553920478825 -2.6649319822546786 0 0 0 0 -40.219039991578029 21.266542575357107 0 21.266542575357107 -16.165442134977638 0 0 0 0 -36.013781068419561 -12.265692985040793 0 -12.265692985040793 -0.60854647880693058 0 0 0 0 -44.586373109114902 -1.5096282242705001 0 -1.5096282242705001 6.7298709013457483 0 0 0 0 -32.162611680363518 2.7297866274637324 0 2.7297866274637324 -3.5527177816236497 0 0 0 0 -23.991750244877267 14.788592471834363 0 14.788592471834363 -15.22609124879682 0 0 0 0 -37.293560507987422 -4.0688688561290292 0 -4.0688688561290292 -6.0970585531495658 0 0 0 0 -24.60550743910342 0.15978239408735995 0 0.15978239408735995 -1.4148010368151596 0 0 0 0 -18.212749990257024 -10.922537133414565 0 -10.922537133414565 -4.3511837494816543 0 0 0 0 -27.474524469608923 -9.6925346540663782 0 -9.6925346540663782 -1.9108988830653288 0 0 0 0 -5.8647838220198167 -6.2619978448782412 0 -6.2619978448782412 5.8992859592143656 0 0 0 0 -79.669782801134716 -15.66976968059339 0 -15.66976968059339 -12.447409160327993 0 0 0 0 -25.972860680401936 -17.746321966327287 0 -17.746321966327287 0.36297207349116434 0 0 0 0 -88.818396650935028 16.638655005673854 0 16.638655005673854 -44.832294115072273 0 0 0 0 -24.194286803907744 -19.098521925545811 0 -19.098521925545811 0.49976023169301698 0 0 0 0 -24.793106829878525 -23.283952450748217 0 -23.283952450748217 -4.7236197499257742 0 0 0 0 -9.8171222823166318 -9.1726910402123849 0 -9.1726910402123849 -4.4203748749164333 0 0 0 0 -19.644758661066589 -18.608278471252561 0 -18.608278471252561 -9.1281007155125735 0 0 0 0 -11.865480983873013 -4.8037506092650002 0 -4.8037506092650002 2.9054664807339758 0 0 0 0 -15.051224552957137 -5.3640099166366326 0 -5.3640099166366326 4.340120673095953 0 0 0 0 -30.833098173968665 -2.3149019754295068 0 -2.3149019754295068 -3.8776687526601563 0 0 0 0 -15.225852204424676 -3.9277088059836558 0 -3.9277088059836558 -1.1508150299683448 0 0 0 0 -7.4592451747703308 -0.4381810900193841 0 -0.4381810900193841 -2.1982584813482617 0 0 0 0 -28.675368922574762 4.8627462462805511 0 4.8627462462805511 -9.1611169771313143 0 0 0 0 -15.189747827350566 0.81826174255353612 0 0.81826174255353612 -2.2883300030790306 0 0 0 0 -5.1074817879926258 5.3641115196461691 0 5.3641115196461691 -7.1821463284637987 0 0 0 0 -33.687288593884659 -2.1411190416245063 0 -2.1411190416245063 -11.084818656609968 0 0 0 0 -38.072260504730821 3.8099081610336043 0 3.8099081610336043 -5.3684202088938946 0 0 0 0 36.675233120937264 43.342050199348392 0 43.342050199348392 -154.4039478033277 0 0 0 0 -20.400746316559889 -10.221430552046968 0 -10.221430552046968 -6.4662238640116811 0 0 0 0 -28.170774334645102 3.3080380826909277 0 3.3080380826909277 -5.7054189468058212 0 0 0 0 -32.760458514377909 1.0770199616161147 0 1.0770199616161147 -2.7334155947180765 0 0 0 0 -57.517828768479831 9.9395211022283547 0 9.9395211022283547 -7.0230516931055718 0 0 0 0 -26.190042972472838 2.4055661106232265 0 2.4055661106232265 -16.657946020697182 0 0 0 0 -10.859994069122845 -3.7701929684763149 0 -3.7701929684763149 3.8443562050453863 0 0 0 0 -15.822212341292509 -6.5002646637087178 0 -6.5002646637087178 -17.321609928383669 0 0 0 0 -153.26622452826021 -81.608055556446885 0 -81.608055556446885 -135.81589808177387 0 0 0 0 -555.30755923014044 -145.11504328785935 0 -145.11504328785935 89.974426017984001 0 0 0 0 -208.56800691963394 144.67943965157588 0 144.67943965157588 41.192462515378907 0 0 0 0 -63.903926908447374 20.425420307938339 0 20.425420307938339 6.0848343617653882 0 0 0 0 -53.60598307622422 55.992942314479478 0 55.992942314479478 -4.7893672514674108 0 0 0 0 -30.856193054668438 0.29873925550054992 0 0.29873925550054992 -28.865795146894925 0 0 0 0 -34.360359428748765 17.173805292407678 0 17.173805292407678 -13.154035879262429 0 0 0 0 -27.267323050865343 3.2151983282035417 0 3.2151983282035417 -51.783955552897169 0 0 0 0 -1358.7893868961478 370.63389019589158 0 370.63389019589158 168.09527576215208 0 0 0 0 -3502.8337467665992 301.83428947468451 0 301.83428947468451 543.02558209931613 0 0 0 0 -812.74740042926419 156.1022462568003 0 156.1022462568003 -114.05491792235938 0 0 0 0 -1110.7657942829298 -71.646284984151649 0 -71.646284984151649 5.9367253427086197 0 0 0 0 -43.681094594745325 -7.816693587870235 0 -7.816693587870235 -3.8800656984484547 0 0 0 0 -990.520270038239 379.29859180841038 0 379.29859180841038 -74.212585338269093 0 0 0 0 -362.68731126466196 201.30951566201699 0 201.30951566201699 -82.560387487195939 0 0 0 0 -1014.5644544706261 325.887225284745 0 325.887225284745 173.47834883728416 0 0 0 0 -3490.8959192881275 1904.2743171572995 0 1904.2743171572995 -622.24741295174908 0 0 0 0 -1399.5257203864367 -1678.6098496783911 0 -1678.6098496783911 -1525.8932421017203 0 0 0 0 -18.072494442434031 -3.0918240403410286 0 -3.0918240403410286 -2.573151247380399 0 0 0 0 -255.61321224224957 -22.62386387022616 0 -22.62386387022616 132.68734774154595 0 0 0 0 -152.29691682650082 -38.037224808803231 0 -38.037224808803231 -298.66553877552042 0 0 0 0 -5.6909071564834228 -1.571092769266464 0 -1.571092769266464 -5.798888033361127 0 0 0 0 -2021.4099561206058 -477.46578488873729 0 -477.46578488873729 -123.40668774995981 0 0 0 0 84.60122255616443 -90.257175874686027 0 -90.257175874686027 177.72295244931092 0 0 0 0 -150.96469302879268 291.95138441143234 0 291.95138441143234 -51.143957402163778 0 0 0 0 343.2813639123633 260.92133123070471 0 260.92133123070471 -130.31295894081842 0 0 0 0 0.48020363664084442 -0.45276366572309001 0 -0.45276366572309001 -1.3052728052911176 0 0 0 0 -1426.6827831095579 -451.47946043177865 0 -451.47946043177865 217.97906096824752 0 0 0 0 -991.5474203176891 -582.52684868324206 0 -582.52684868324206 -560.86706627316448 0 0 0 0 -2459.9447222880008 -1063.7717793222505 0 -1063.7717793222505 -19.168733086164536 0 0 0 0 -1341.7454149640253 -535.20239223718966 0 -535.20239223718966 99.857243577964709 0 0 0 0 -2674.1556694707215 -564.60378054401474 0 -564.60378054401474 139.36286436600238 0 0 0 0 -3494.0747988900885 -1427.8413615874822 0 -1427.8413615874822 367.32674107015208 0 0 0 0 -2573.759437061477 -965.94743821765712 0 -965.94743821765712 255.58356501167614 0 0 0 0 -2613.3023244030373 -981.58205054203995 0 -981.58205054203995 249.60588656239298 0 0 0 0 -2607.9360259562327 -586.36907769749507 0 -586.36907769749507 -92.997449048902041 0 0 0 0 -3500.722180864419 -636.74553722884639 0 -636.74553722884639 231.2913482337222 0 0 0 0 -3183.251199175058 -845.00419180226561 0 -845.00419180226561 217.24943286829026 0 0 0 0 -3077.706148811294 -443.3114410444432 0 -443.3114410444432 -93.865350577533604 0 0 0 0 -2897.634542929718 -216.31308810407711 0 -216.31308810407711 19.313977943509251 0 0 0 0 -2680.9882307789812 187.3064126823391 0 187.3064126823391 256.0049710791447 0 0 0 0 -644.78991903732094 -980.53464788313636 0 -980.53464788313636 -695.71797957610227 0 0 0 0 -2603.877997024596 -607.22780210428868 0 -607.22780210428868 -10.106612991451811 0 0 0 0 288.07696249877336 -130.21710022414646 0 -130.21710022414646 -437.20348803323304 0 0 0 0 -2338.2516183575226 903.05929765549035 0 903.05929765549035 78.082599245145502 0 0 0 0 -1.85025330818371 -1.2655908080058218 0 -1.2655908080058218 -3.7257148401106615 0 0 0 0 -37.142428579845728 -106.49775477023252 0 -106.49775477023252 95.941080937897141 0 0 0 0 18.07651693414482 -11.323904190071772 0 -11.323904190071772 -28.567018281609762 0 0 0 0 -8.8936659361530275 -3.9275126186533491 0 -3.9275126186533491 -3.300024624170959 0 0 0 0 -23.077382379997289 23.026478799263373 0 23.026478799263373 -41.380514447941209 0 0 0 0 -198.84695567924791 15.755679517046019 0 15.755679517046019 85.310617162059486 0 0 0 0 -16.937682628180482 26.363647760103532 0 26.363647760103532 -119.8675269212149 0 0 0 0 -65.198663337323524 28.523540060368191 0 28.523540060368191 89.772960318495223 0 0 0 0 11.403337907043351 -36.990359025871186 0 -36.990359025871186 -41.083106219555475 0 0 0 0 -82.096653761484049 -24.803939668100561 0 -24.803939668100561 -32.509939496631908 0 0 0 0 -278.98619985755795 -226.0339369848358 0 -226.0339369848358 -101.96236199338011 0 0 0 0 -74.289185511970572 -105.88996455960699 0 -105.88996455960699 -128.25796532247705 0 0 0 0 -35.123756784303623 -123.95970399940049 0 -123.95970399940049 -276.97686890967714 0 0 0 0 -451.34986846249831 -350.15950596780209 0 -350.15950596780209 71.977777779258076 0 0 0 0 -411.85473159361027 -59.907686103415784 0 -59.907686103415784 23.622476393398301 0 0 0 0 -12.097325989557582 -1.9737396567154981 0 -1.9737396567154981 4.3941812620854046 0 0 0 0 188.49400531376159 -435.66210054858141 0 -435.66210054858141 -477.08161615744234 0 0 0 0 -144.64798858144422 -114.44921200390718 0 -114.44921200390718 -36.355211407346417 0 0 0 0 -179.60359854674971 -86.23668218368482 0 -86.23668218368482 -23.100007263038378 0 0 0 0 -169.70673885610086 -130.4301705803868 0 -130.4301705803868 -48.399015050282287 0 0 0 0 -193.0818116228802 -102.38770741823623 0 -102.38770741823623 -5.3422763926491825 0 0 0 0 -58.288386729302147 -112.71354135819547 0 -112.71354135819547 130.04842773488053 0 0 0 0 -196.94803684949875 -18.324546235539401 0 -18.324546235539401 15.809678367494371 0 0 0 0 -73.998512996866481 -7.8867390356753937 0 -7.8867390356753937 39.404031991238298 0 0 0 0 -1987.0959758102108 -186.49325114260364 0 -186.49325114260364 -148.75715691386617 0 0 0 0 -25.543263054189708 -37.160002625719343 0 -37.160002625719343 -53.027360902566357 0 0 0 0 -2970.9251066221077 192.71609940136406 0 192.71609940136406 242.88349967106092 0 0 0 0 -3499.558256411241 252.74828604549401 0 252.74828604549401 296.99900144866416 0 0 0 0 -3499.148153964823 -107.40079420197415 0 -107.40079420197415 134.69933312504585 0 0 0 0 -3017.1605852284029 -353.65285681939395 0 -353.65285681939395 21.170930863434918 0 0 0 0 -14.461200640741481 -6.7164227234918048 0 -6.7164227234918048 -5.95567542075419 0 0 0 0 -232.98053108342447 690.50748635324237 0 690.50748635324237 242.81875771695675 0 0 0 0 -1164.6955549054219 418.57859480146999 0 418.57859480146999 -556.70574535282503 0 0 0 0 -462.17496348763962 -37.681385331045931 0 -37.681385331045931 -800.56834809836391 0 0 0 0 -421.27797762296723 133.38233141776163 0 133.38233141776163 -324.44872879014929 0 0 0 0 -453.29894998265081 -127.46151566661547 0 -127.46151566661547 -325.17762290314096 0 0 0 0 -1047.3220119727266 -43.060386003684016 0 -43.060386003684016 -248.27565482898444 0 0 0 0 -481.79020099579066 193.29486032857426 0 193.29486032857426 -160.43737272945293 0 0 0 0 -159.3307739177144 395.7578132609674 0 395.7578132609674 -309.41412319342862 0 0 0 0 -728.19428473178323 642.90248753126889 0 642.90248753126889 -359.68179745895213 0 0 0 0 -124.67709438973179 278.44654467560213 0 278.44654467560213 -255.68457892744698 0 0 0 0 -151.07578345460206 288.80644191832016 0 288.80644191832016 -192.37125933210973 0 0 0 0 -32.714924466552475 135.98517357506807 0 135.98517357506807 -174.24810041026194 0 0 0 0 254.68317086108073 340.95510849828588 0 340.95510849828588 -453.31676117153302 0 0 0 0 -2.8828445590467382 3.4178111618260516 0 3.4178111618260516 -6.4323251696614463 0 0 0 0 66.831619056782074 210.87658369606288 0 210.87658369606288 120.33708356074195 0 0 0 0 -64.703978886433106 78.434481353521278 0 78.434481353521278 117.95788067679132 0 0 0 0 -62.104183831055707 64.465186850564351 0 64.465186850564351 108.63921335418127 0 0 0 0 -39.951639258913929 48.50384248980663 0 48.50384248980663 99.656625646387511 0 0 0 0 -776.52882390773084 -432.80920977495316 0 -432.80920977495316 -270.53570398635566 0 0 0 0 -566.29770159640611 -410.40998486936587 0 -410.40998486936587 -304.31227675925948 0 0 0 0 -10.534040091472704 11.29187473946704 0 11.29187473946704 -13.403284274335782 0 0 0 0 -665.98029173622854 -246.45055955240332 0 -246.45055955240332 -189.11732656535969 0 0 0 0 -773.54274766009621 -323.56195406516326 0 -323.56195406516326 -230.60502181217998 0 0 0 0 -710.27246324325097 -334.78453102407866 0 -334.78453102407866 -268.11641556923496 0 0 0 0 -1531.8127629831179 -472.01599194438313 0 -472.01599194438313 -284.44275930386539 0 0 0 0 -692.70939145951729 192.95270293059377 0 192.95270293059377 -376.69131722914062 0 0 0 0 -426.44565781109122 44.710212530754688 0 44.710212530754688 -445.47342170247612 0 0 0 0 -440.2410278638672 11.716838172534153 0 11.716838172534153 -253.98710329871574 0 0 0 0 -193.41876708725249 84.164267336854209 0 84.164267336854209 -242.61777340537265 0 0 0 0 -268.09866651734137 195.17626492714203 0 195.17626492714203 -406.76321453763012 0 0 0 0 -147.82842940233604 165.43155981750078 0 165.43155981750078 -342.29728344966634 0 0 0 0 -74.197584286526762 76.413266113305326 0 76.413266113305326 -399.05401407600812 0 0 0 0 -439.98017044818084 132.52593774144373 0 132.52593774144373 -380.61548416687856 0 0 0 0 -84.157448183815177 71.459744227107421 0 71.459744227107421 -205.35723297870936 0 0 0 0 -48.476381154068804 144.85665941796924 0 144.85665941796924 -337.04172142932021 0 0 0 0 -70.532043887342297 105.59059290494133 0 105.59059290494133 -327.6026184261359 0 0 0 0 -75.940959774794464 123.74064426290261 0 123.74064426290261 -350.36773289591656 0 0 0 0 -157.33964013708373 74.073555432631565 0 74.073555432631565 -175.62473008593133 0 0 0 0 -114.65638550879339 95.37854608960879 0 95.37854608960879 -329.8690157654687 0 0 0 0 -113.30663120554891 8.2378164285905768 0 8.2378164285905768 -233.17052729473289 0 0 0 0 -144.06188786383427 13.89096708584816 0 13.89096708584816 -118.55700970101589 0 0 0 0 -98.230129170794498 39.479291454803956 0 39.479291454803956 -226.04422854598852 0 0 0 0 -138.79482816761993 21.794603017006011 0 21.794603017006011 -179.45610887775217 0 0 0 0 -112.63765873838679 -47.389566134464047 0 -47.389566134464047 14.147116195924117 0 0 0 0 -218.27069189506437 -64.990686481115517 0 -64.990686481115517 -397.34943782578421 0 0 0 0 -147.88925592598571 114.79845904237391 0 114.79845904237391 -551.40697151023778 0 0 0 0 -92.115250586229649 52.945776878852996 0 52.945776878852996 -367.90877770985844 0 0 0 0 -141.38833338607583 65.70527248420558 0 65.70527248420558 -348.83933688888601 0 0 0 0 -136.41637686001559 -44.187261101472814 0 -44.187261101472814 -242.40756700071574 0 0 0 0 -159.72719992828752 14.418916259952312 0 14.418916259952312 -327.50287697208887 0 0 0 0 0.068984106105241416 -2.6843733492477 0 -2.6843733492477 0.072210639795637022 0 0 0 0 -194.23261013393426 -113.00716289068009 0 -113.00716289068009 -133.82968328135621 0 0 0 0 -217.23745531334998 -34.618894147239033 0 -34.618894147239033 -12.028287203780792 0 0 0 0 -212.14557427807085 -13.208389798901749 0 -13.208389798901749 10.697385542604422 0 0 0 0 -111.28051430359847 1.143578878339234 0 1.143578878339234 -2.093474105128811 0 0 0 0 -256.1733926108318 37.157245591250785 0 37.157245591250785 -10.126511103123107 0 0 0 0 -126.66702777264072 -4.9019773512577558 0 -4.9019773512577558 -25.015699003278883 0 0 0 0 1.74256034976246 -3.770648727290407 0 -3.770648727290407 2.8184685508006111 0 0 0 0 -83.293842052612035 -3.8849564566177293 0 -3.8849564566177293 -45.391007856505666 0 0 0 0 -140.465932824226 47.563733824231079 0 47.563733824231079 -109.06419089306473 0 0 0 0 -131.7968736456678 -10.857522241573861 0 -10.857522241573861 -120.9398100381856 0 0 0 0 -154.71679218910867 -43.403797358802876 0 -43.403797358802876 -22.493948560281183 0 0 0 0 -94.664035338283881 -50.850623234002938 0 -50.850623234002938 18.518028336667452 0 0 0 0 -134.32036138397234 -34.748626347485228 0 -34.748626347485228 -18.897270309858285 0 0 0 0 204.036574388796 -418.6090152923216 0 -418.6090152923216 48.333054328582875 0 0 0 0 -20.583646013088583 -108.6579213252694 0 -108.6579213252694 159.64840964314067 0 0 0 0 -24.094037150423453 1.2008025014498607 0 1.2008025014498607 2.2858696637318712 0 0 0 0 287.23622480900667 -219.47422980391457 0 -219.47422980391457 -306.63186828120706 0 0 0 0 72.819855461151747 96.419561111953954 0 96.419561111953954 -292.43280663590008 0 0 0 0 -6.02990804148763 -0.50141463868030911 0 -0.50141463868030911 -1.4035703786040017 0 0 0 0 -177.66144847891701 74.39619113037088 0 74.39619113037088 13.040500958601726 0 0 0 0 -365.96202440075103 -254.6618437056087 0 -254.6618437056087 -1.5142661261579633 0 0 0 0 173.27190979631996 -122.67853868770862 0 -122.67853868770862 -13.042437507395334 0 0 0 0 49.022085375117967 -79.301301544152281 0 -79.301301544152281 29.889270819629473 0 0 0 0 2.0033579997229083 -16.403267976740985 0 -16.403267976740985 -0.38084109693551937 0 0 0 0 64.042760325283325 41.388026902278426 0 41.388026902278426 -79.175330092837612 0 0 0 0 -203.37721085671365 61.674862650094383 0 61.674862650094383 5.9873025825222612 0 0 0 0 -123.26755806010624 -42.065223352202338 0 -42.065223352202338 22.266470805505378 0 0 0 0 -230.40634163080904 -86.06580977190481 0 -86.06580977190481 -49.81102321070648 0 0 0 0 98.181332848311285 -46.062353254282243 0 -46.062353254282243 0.85679194950955662 0 0 0 0 15.563299657943972 -9.0714276126781961 0 -9.0714276126781961 -0.85452342054749275 0 0 0 0 144.69446069794503 -119.45374935038581 0 -119.45374935038581 -122.63247081955251 0 0 0 0 -65.55750594957351 -53.839522672394153 0 -53.839522672394153 24.867019124936657 0 0 0 0 -333.17680289571945 -85.33695002200102 0 -85.33695002200102 188.27339673567076 0 0 0 0 -103.95897076102119 -84.207040234169199 0 -84.207040234169199 83.082434207166443 0 0 0 0 -137.85031992141376 -29.671769935048133 0 -29.671769935048133 7.800709928957076 0 0 0 0 -62.232498159721672 -56.543192002883352 0 -56.543192002883352 34.476001496515281 0 0 0 0 -31.932791767773537 -44.107541734119003 0 -44.107541734119003 11.764322633392597 0 0 0 0 -12.438479796456296 -3.4115491464707759 0 -3.4115491464707759 8.8924879954871479 0 0 0 0 -114.67357925086071 3.7369524974420756 0 3.7369524974420756 40.240135408368587 0 0 0 0 -64.278315700323219 -5.9520075652461628 0 -5.9520075652461628 -10.981996927026557 0 0 0 0 -100.75737531764025 -12.662193746828052 0 -12.662193746828052 34.860570931083657 0 0 0 0 -252.34552007619186 -0.042551719688844969 0 -0.042551719688844969 23.723388590955437 0 0 0 0 -103.90037983460206 65.234472122917396 0 65.234472122917396 12.876291264711426 0 0 0 0 -223.35575299206539 -67.620813052105177 0 -67.620813052105177 -61.119416701601949 0 0 0 0 -155.17244290589588 23.349391542527883 0 23.349391542527883 16.431632318302036 0 0 0 0 -178.70187613487178 19.099369046064112 0 19.099369046064112 -35.584452601717203 0 0 0 0 -162.25709437339901 -5.1334735666096094 0 -5.1334735666096094 -8.8888601014150481 0 0 0 0 -225.51069487789937 5.189053945260639 0 5.189053945260639 -8.3576802862642978 0 0 0 0 -227.74903526227354 56.036223355650236 0 56.036223355650236 -24.347919898799773 0 0 0 0 -204.06505942124386 22.717059921038754 0 22.717059921038754 -2.1067659761711184 0 0 0 0 -306.16618697356898 76.649286308973899 0 76.649286308973899 -9.2792583429551456 0 0 0 0 -219.34080966385591 -11.213775237236177 0 -11.213775237236177 24.741422626385429 0 0 0 0 -187.69721221099462 -4.0036213916895349 0 -4.0036213916895349 44.161520475739621 0 0 0 0 -190.71370513220972 28.307191765716198 0 28.307191765716198 7.5271952713774226 0 0 0 0 -243.7382236669655 5.4400341622510382 0 5.4400341622510382 22.022821318590104 0 0 0 0 -254.34112957510115 -90.115315479436958 0 -90.115315479436958 25.014427218450237 0 0 0 0 -397.79219657124486 90.220172307087523 0 90.220172307087523 -0.49196220688253334 0 0 0 0 -382.84077786797934 172.25417202842755 0 172.25417202842755 -57.443476651348305 0 0 0 0 -245.80582446368135 120.08919172538558 0 120.08919172538558 -66.150480364115083 0 0 0 0 -328.6054848095373 137.70127195743783 0 137.70127195743783 -69.845251985115738 0 0 0 0 -594.51165608334122 168.19166112791299 0 168.19166112791299 -51.623069175864657 0 0 0 0 -192.91217916492678 99.336047966375844 0 99.336047966375844 -137.06692919842862 0 0 0 0 -211.71952772838995 353.62752133448498 0 353.62752133448498 -271.46298899189463 0 0 0 0 -159.03546090411692 310.94764258314984 0 310.94764258314984 -259.03080116428987 0 0 0 0 -468.39817058494737 465.71522121147734 0 465.71522121147734 -241.4599378996877 0 0 0 0 -248.042902205063 321.76204067693124 0 321.76204067693124 -176.70859346904717 0 0 0 0 -285.95065162289393 290.91700941257704 0 290.91700941257704 -183.50471592039594 0 0 0 0 -220.20376600786039 240.53460757916048 0 240.53460757916048 -158.51735359760551 0 0 0 0 -193.45875681955658 196.78649503851966 0 196.78649503851966 -167.89673963623528 0 0 0 0 -194.71314022101615 278.29531651103298 0 278.29531651103298 -266.29529223878944 0 0 0 0 -187.87498137958028 251.39646002002814 0 251.39646002002814 -218.42952795240171 0 0 0 0 -123.69014487222012 142.4748908132633 0 142.4748908132633 -157.81526834486249 0 0 0 0 -150.5101951916331 215.53605648767029 0 215.53605648767029 -229.84101180075231 0 0 0 0 -191.37742558619539 183.46831454899529 0 183.46831454899529 -140.5852690346378 0 0 0 0 -260.81655986416445 131.22260304172119 0 131.22260304172119 -66.690860560852343 0 0 0 0 -196.18346784034293 112.69585075854684 0 112.69585075854684 -55.340434430581809 0 0 0 0 -170.32498631532508 87.167177516830634 0 87.167177516830634 -69.367940332311974 0 0 0 0 -135.33454727083154 68.269059324537011 0 68.269059324537011 -36.746533638272012 0 0 0 0 -189.3996290618681 114.05640420434074 0 114.05640420434074 5.4668691293409211 0 0 0 0 -130.55901161755901 47.844137017501453 0 47.844137017501453 -23.731802181272428 0 0 0 0 -170.07709023118514 100.70255437393371 0 100.70255437393371 12.868154435654105 0 0 0 0 -118.40704803851077 233.86722287848988 0 233.86722287848988 -182.69528153504871 0 0 0 0 -153.22985199895629 107.74263094314392 0 107.74263094314392 -59.529360100418216 0 0 0 0 -85.848194748627066 88.367344919686502 0 88.367344919686502 -103.41983258636174 0 0 0 0 -49.333537548591266 17.351567076502761 0 17.351567076502761 -14.851120896977591 0 0 0 0 -189.67252383677192 98.003626162441762 0 98.003626162441762 142.6188743077546 0 0 0 0 -81.389931718800653 80.192275192082434 0 80.192275192082434 -17.941967464688787 0 0 0 0 -142.50750307479757 238.66011904701827 0 238.66011904701827 -86.532225965007456 0 0 0 0 108.89457622190093 120.84718377899526 0 120.84718377899526 -174.9473432765808 0 0 0 0 -266.85997198567202 285.91743833836995 0 285.91743833836995 -159.83319199246398 0 0 0 0 -124.9673628705641 370.92719908845993 0 370.92719908845993 -317.61693743892943 0 0 0 0 -204.35594620386109 253.72018097538523 0 253.72018097538523 -200.94966221083052 0 0 0 0 -196.75449576572282 193.74241317172891 0 193.74241317172891 -185.87958897323824 0 0 0 0 -270.6082909560937 211.25902527897603 0 211.25902527897603 -211.90628173813514 0 0 0 0 -441.77198468530696 180.914772357522 0 180.914772357522 -134.581348703201 0 0 0 0 -448.86412487610505 211.5976937352757 0 211.5976937352757 -163.21448450367961 0 0 0 0 -275.97019159218326 235.19652487275656 0 235.19652487275656 -217.97966841033303 0 0 0 0 -410.40428258496104 169.78431314774662 0 169.78431314774662 -334.51906116284817 0 0 0 0 -384.13327673210006 236.17004332131205 0 236.17004332131205 -169.18318703189834 0 0 0 0 -539.14729993376386 255.8449416702847 0 255.8449416702847 -138.74570715691334 0 0 0 0 -433.82961281681492 292.02460693090688 0 292.02460693090688 -211.69453352105711 0 0 0 0 -447.13327756361832 319.19364319184433 0 319.19364319184433 -129.85343185488 0 0 0 0 -501.75807052297023 274.95212214635603 0 274.95212214635603 -104.80923063630803 0 0 0 0 -490.03844567262422 222.45137463777792 0 222.45137463777792 -169.45613549614893 0 0 0 0 -491.70980292913737 406.78601066948886 0 406.78601066948886 -36.920566390746899 0 0 0 0 -483.85241914982907 365.48177926067319 0 365.48177926067319 -124.09724939131092 0 0 0 0 -550.79003180469226 317.93838013821403 0 317.93838013821403 -27.144366056425497 0 0 0 0 -532.56632858641751 269.41150200485271 0 269.41150200485271 -86.194558635683734 0 0 0 0 -615.45817022445408 229.97203462930622 0 229.97203462930622 -64.652380319586371 0 0 0 0 -595.81552356637985 134.23280970989015 0 134.23280970989015 -146.67285555134441 0 0 0 0 -593.59028924721315 266.03669841449249 0 266.03669841449249 2.4038853449742419 0 0 0 0 -572.96708086426224 233.715680697219 0 233.715680697219 -120.22930085456005 0 0 0 0 -12.058327796776467 -3.704440079870551 0 -3.704440079870551 -0.91615167043817891 0 0 0 0 -984.1296415505858 251.57350963938097 0 251.57350963938097 -120.74717518829479 0 0 0 0 -721.21862645293731 502.7003683742746 0 502.7003683742746 -339.15565248539997 0 0 0 0 370.09830800441705 17.962630132932645 0 17.962630132932645 -407.52547707429858 0 0 0 0 -720.05200266983229 -71.479579209063957 0 -71.479579209063957 -330.73686172365888 0 0 0 0 -177.28284394211187 289.50112896405574 0 289.50112896405574 -233.00484800760569 0 0 0 0 -135.07797456696426 295.96372868483377 0 295.96372868483377 -366.50839666299976 0 0 0 0 -256.62254494908848 185.45363129545237 0 185.45363129545237 -310.49498447309958 0 0 0 0 -187.66125503398609 242.69944746951802 0 242.69944746951802 -263.70082337025553 0 0 0 0 -352.09455853352483 103.01260349562403 0 103.01260349562403 -266.9327215854355 0 0 0 0 -337.78599368353844 207.70802494804894 0 207.70802494804894 -225.50733417699249 0 0 0 0 -265.53550078971602 720.2443290058668 0 720.2443290058668 -5.0803106686295223 0 0 0 0 323.25444918632274 141.58825037260181 0 141.58825037260181 -269.07579153198185 0 0 0 0 -450.40962254678016 449.27322961828395 0 449.27322961828395 -341.2282344365758 0 0 0 0 143.53836786681495 -791.26689573113936 0 -791.26689573113936 -0.56444351809204818 0 0 0 0 226.0239238066024 -190.42590875126257 0 -190.42590875126257 267.84110241526105 0 0 0 0 -648.41032354079653 250.08727676146236 0 250.08727676146236 275.74637690322561 0 0 0 0 -255.98039170521952 36.857105504172978 0 36.857105504172978 450.60615530588666 0 0 0 0 -97.448803854029393 64.062748519838351 0 64.062748519838351 153.55122145527002 0 0 0 0 -676.60289383026247 -1069.3568965177201 0 -1069.3568965177201 1125.3758080984107 0 0 0 0 -154.61539842156344 -249.57975735341506 0 -249.57975735341506 454.65050370587329 0 0 0 0 -45.023054320764714 -19.363095974716053 0 -19.363095974716053 -4.1114998464951622 0 0 0 0 -492.53082942902984 169.9228148852693 0 169.9228148852693 207.78476980097957 0 0 0 0 5.3290244183299365 67.564751458947399 0 67.564751458947399 58.407103509933108 0 0 0 0 -598.51118350971228 442.10396264334531 0 442.10396264334531 32.719519145688537 0 0 0 0 -575.88619646584993 363.0901087835 0 363.0901087835 112.73141276298293 0 0 0 0 -465.48617395642214 383.4207126986089 0 383.4207126986089 -62.923557799734283 0 0 0 0 -493.34461022922915 362.17568438062187 0 362.17568438062187 4.1835251853638056 0 0 0 0 -348.80108319550345 234.53131444950418 0 234.53131444950418 45.164218118999088 0 0 0 0 -184.97510419734317 283.64293758898702 0 283.64293758898702 -253.78760894781681 0 0 0 0 148.55855445814086 -201.37323739805652 0 -201.37323739805652 410.73257996198572 0 0 0 0 -6.6905006160056928 -2.0037189655079999 0 -2.0037189655079999 0.5904249027107582 0 0 0 0 512.02259539905936 -390.1350056864917 0 -390.1350056864917 219.86174875361644 0 0 0 0 576.57124915009626 -301.65048403734818 0 -301.65048403734818 -41.835523316172726 0 0 0 0 -31.654055022155717 -14.678504648866671 0 -14.678504648866671 -4.9699922082109014 0 0 0 0 -278.95659113904367 50.751212216805186 0 50.751212216805186 93.320789013763715 0 0 0 0 598.03592228245543 -652.30546970490605 0 -652.30546970490605 260.32435139308285 0 0 0 0 708.08153840181694 -595.44912905253614 0 -595.44912905253614 -125.33898049997333 0 0 0 0 -1231.5884131705971 199.00072076333618 0 199.00072076333618 1040.8089701837559 0 0 0 0 -895.9979049755093 614.32944143678174 0 614.32944143678174 -733.78425985537797 0 0 0 0 -1825.2840547060578 25.452402552802369 0 25.452402552802369 -1114.7465668847417 0 0 0 0 -1515.0358753009823 1030.4880535592147 0 1030.4880535592147 43.941895956339067 0 0 0 0 -14.465480782800412 -3.7204927947126833 0 -3.7204927947126833 0.39666120154607398 0 0 0 0 -137.11018084400712 -202.36598031763606 0 -202.36598031763606 -330.03477029257738 0 0 0 0 -551.76871153566026 -388.06656146826572 0 -388.06656146826572 -377.78904883375981 0 0 0 0 -102.19066123287485 -169.22795705250519 0 -169.22795705250519 -448.6782461906123 0 0 0 0 -1079.8126226809254 1117.0896808445555 0 1117.0896808445555 -806.10816113302189 0 0 0 0 -803.52101342206879 226.28564063144631 0 226.28564063144631 256.30838126300114 0 0 0 0 -521.09931838874036 277.6668744192616 0 277.6668744192616 -1413.4641688687534 0 0 0 0 -1294.828087710368 664.23935404821896 0 664.23935404821896 -954.7081896323034 0 0 0 0 -1231.4943802956259 293.65383940657375 0 293.65383940657375 -151.61139992970129 0 0 0 0 -520.46125096832839 776.96724447324914 0 776.96724447324914 -1785.7775203073288 0 0 0 0 -2.0576245739568435 -0.76278184814419348 0 -0.76278184814419348 1.5809243558483108 0 0 0 0 -167.21083877545971 -111.31782099519864 0 -111.31782099519864 -145.69569797229997 0 0 0 0 -425.67751406842581 -213.9091753230955 0 -213.9091753230955 -185.67318491781589 0 0 0 0 -139.01003475148718 -242.04929738431383 0 -242.04929738431383 -316.94379921105428 0 0 0 0 -506.58074950554874 -344.82750883948756 0 -344.82750883948756 -327.65984669403861 0 0 0 0 -1136.5133642349792 840.14771009875028 0 840.14771009875028 -576.5254859658462 0 0 0 0 -335.98550462589628 -127.94304440997757 0 -127.94304440997757 -269.83546167449697 0 0 0 0 -1540.184674702854 -272.21459277220583 0 -272.21459277220583 -172.7922034507319 0 0 0 0 -579.43974922413418 -19.339373640550718 0 -19.339373640550718 -297.68897420499434 0 0 0 0 -650.06970266593635 383.78100404149825 0 383.78100404149825 -311.10234483718887 0 0 0 0 -234.88283740834595 22.987613214362227 0 22.987613214362227 -67.862297109175415 0 0 0 0 -268.38024771038181 469.0394588342881 0 469.0394588342881 -419.34920666801872 0 0 0 0 446.01724883969291 -909.49964361907405 0 -909.49964361907405 453.51966968460829 0 0 0 0 -369.29446055848894 723.21049895439853 0 723.21049895439853 -706.23758214099644 0 0 0 0 -16.319465317326191 -4.34791178748943 0 -4.34791178748943 4.964827776099261 0 0 0 0 -65.235460917790988 443.92394972343237 0 443.92394972343237 -751.8200814022407 0 0 0 0 -81.517797551601689 -13.837012598572301 0 -13.837012598572301 -136.14663411863467 0 0 0 0 -98.150799727667618 -101.37442135647689 0 -101.37442135647689 -41.676994229255797 0 0 0 0 4.5597184684284287 -2.5891884831552403 0 -2.5891884831552403 1.6413817421211654 0 0 0 0 217.77790083861328 563.15608887263261 0 563.15608887263261 574.45955536575536 0 0 0 0 23.541386923139726 120.98081554090231 0 120.98081554090231 390.24953345821723 0 0 0 0 -269.53420205354632 353.94318700802478 0 353.94318700802478 605.5125706079707 0 0 0 0 -206.83927528402546 -15.087914277377934 0 -15.087914277377934 424.55460070986737 0 0 0 0 -285.55902045427865 5.491531957664165 0 5.491531957664165 386.13923206388517 0 0 0 0 -167.34928470172599 166.31751684995788 0 166.31751684995788 28.481651699039048 0 0 0 0 -108.06378052923355 25.429172018686018 0 25.429172018686018 440.65607142309636 0 0 0 0 -86.537053178537462 168.62290639662297 0 168.62290639662297 416.76738388409024 0 0 0 0 -40.639144453969493 3.9754134202430578 0 3.9754134202430578 363.2932696390094 0 0 0 0 -100.88152232032371 -125.03730826542869 0 -125.03730826542869 994.85722099481563 0 0 0 0 3.3509848341747102 1.5245068005621647 0 1.5245068005621647 1.0521312099032105 0 0 0 0 99.392557093098731 120.65184580607433 0 120.65184580607433 200.86790185708378 0 0 0 0 16.073023536315304 -142.28282922770404 0 -142.28282922770404 -144.74496540198925 0 0 0 0 -127.55153727472498 149.63283802839851 0 149.63283802839851 -46.915301821954927 0 0 0 0 -343.85488012971655 96.980472870731319 0 96.980472870731319 320.79537061700648 0 0 0 0 -90.353589600814303 248.10732683626929 0 248.10732683626929 -222.81317333077732 0 0 0 0 -220.22700579458979 294.36803280484378 0 294.36803280484378 -133.92576799230756 0 0 0 0 -206.69503771486779 200.94972551216256 0 200.94972551216256 -22.143876671866565 0 0 0 0 -126.57796066145238 153.16766163758803 0 153.16766163758803 -544.20926473661871 0 0 0 0 -853.10244402193712 242.38356981691072 0 242.38356981691072 356.71534229775716 0 0 0 0 89.967382376831665 -408.10968186388345 0 -408.10968186388345 525.67008258990472 0 0 0 0 553.84051661013655 -623.05959422163323 0 -623.05959422163323 -209.08312290307481 0 0 0 0 -24.281614507718032 -2.5954803650863312 0 -2.5954803650863312 13.592232467337571 0 0 0 0 -437.52952848398672 892.4689515856852 0 892.4689515856852 -441.86996322434698 0 0 0 0 -97.926861027008272 -0.57972352006891015 0 -0.57972352006891015 -72.826843264667332 0 0 0 0 -423.85001554579503 16.277763033013343 0 16.277763033013343 171.69917173569638 0 0 0 0 -613.75637610136982 474.1806203428082 0 474.1806203428082 -264.63897113925668 0 0 0 0 -29.416527177062761 -1.5534301929741012 0 -1.5534301929741012 19.823467337612875 0 0 0 0 -39.545010258651018 -176.07307424841383 0 -176.07307424841383 345.61647480798638 0 0 0 0 -163.9706164518102 126.93235936237033 0 126.93235936237033 155.33917498070514 0 0 0 0 -75.156194479095575 65.89048206188636 0 65.89048206188636 142.93170080532673 0 0 0 0 -118.18564568058355 33.380088155689009 0 33.380088155689009 129.89695345176733 0 0 0 0 -49.240673538799456 25.468355048890771 0 25.468355048890771 130.2516448556853 0 0 0 0 -33.0667529885893 -1.2505881501581833 0 -1.2505881501581833 20.200595305041524 0 0 0 0 -689.42934147119377 262.83731071237344 0 262.83731071237344 -107.13705837950693 0 0 0 0 -426.32299367424275 255.84938991291529 0 255.84938991291529 -120.14205496630166 0 0 0 0 -370.34242836969497 376.31582703640561 0 376.31582703640561 -220.50891976397543 0 0 0 0 -9.1663972333995929 -2.2374980457519769 0 -2.2374980457519769 4.2684975738093982 0 0 0 0 -955.48991056381783 259.87483451714797 0 259.87483451714797 -64.195576058387815 0 0 0 0 -463.02458645256411 -224.46862988015346 0 -224.46862988015346 -785.92525338410633 0 0 0 0 -1683.5327483626606 836.64755463159963 0 836.64755463159963 241.874197788522 0 0 0 0 -796.63237507141093 526.32936087769576 0 526.32936087769576 -190.97028157594468 0 0 0 0 -205.964687444437 532.54865321763646 0 532.54865321763646 -335.30434410884845 0 0 0 0 82.32087474592845 534.15873931331589 0 534.15873931331589 -526.24673100546352 0 0 0 0 -1507.0173278379443 243.18151822082791 0 243.18151822082791 -338.39120295869361 0 0 0 0 -808.08730895752524 178.65697333904973 0 178.65697333904973 -928.32530397909977 0 0 0 0 -250.08524686175952 191.92394982845963 0 191.92394982845963 -99.829428367982473 0 0 0 0 -48.957308171753539 75.287471963431017 0 75.287471963431017 -161.75933331543365 0 0 0 0 -141.02762954142145 162.6136912373795 0 162.6136912373795 -149.0327058767798 0 0 0 0 -122.61805641579122 165.68252647791996 0 165.68252647791996 -162.70619868797075 0 0 0 0 -372.43266852021043 367.07833380432385 0 367.07833380432385 -257.96834751866754 0 0 0 0 -403.003632474396 285.92152615629811 0 285.92152615629811 -156.73763643720304 0 0 0 0 -275.44381542720294 122.24871461802718 0 122.24871461802718 -47.370947875149795 0 0 0 0 -245.78511164041993 123.33300788943325 0 123.33300788943325 -98.160405912230999 0 0 0 0 -182.07428036603051 -67.059101761397869 0 -67.059101761397869 26.298091694212417 0 0 0 0 -68.257695712858549 -27.053328186262661 0 -27.053328186262661 -4.7339297883931977 0 0 0 0 -133.93804106306197 22.961639149118128 0 22.961639149118128 57.040882877128752 0 0 0 0 -60.654219932177512 -2.9285471573812174 0 -2.9285471573812174 65.153374450073898 0 0 0 0 -73.637864918253399 51.780084073321632 0 51.780084073321632 -38.493020118905406 0 0 0 0 -56.802581157799452 -19.472455900883809 0 -19.472455900883809 -0.34732820957020749 0 0 0 0 -105.88445045662593 -96.012478305426612 0 -96.012478305426612 110.29674704079298 0 0 0 0 -75.020491341860179 6.4175913591989229 0 6.4175913591989229 -1.4242909201893781 0 0 0 0 -90.781794241764146 7.7539126243927967 0 7.7539126243927967 40.45794370297881 0 0 0 0 -42.221621159875212 -5.520982785236761 0 -5.520982785236761 4.5673447084752183 0 0 0 0 -91.5616238567236 1.4770124840088101 0 1.4770124840088101 -9.8773740820233797 0 0 0 0 -475.70074547264812 65.932366080833162 0 65.932366080833162 -66.541804325797784 0 0 0 0 -14.862549582026368 13.515194391313365 0 13.515194391313365 -17.958742542286728 0 0 0 0 -1059.3701760665863 2.5070034447508078 0 2.5070034447508078 1.6931500922382838 0 0 0 0 -814.17751035860783 -169.01063000461818 0 -169.01063000461818 -26.891366816253139 0 0 0 0 -1124.7823586450195 -168.32755436745902 0 -168.32755436745902 8.7392359832701914 0 0 0 0 -2.6990563608875675 4.2351982425262875 0 4.2351982425262875 -8.6118771791106496 0 0 0 0 -915.82796887349468 -418.6973425705346 0 -418.6973425705346 -56.301946216241049 0 0 0 0 -1633.0375514301604 -337.54479002494395 0 -337.54479002494395 -42.840303584092908 0 0 0 0 54.145583922436344 304.23530406060127 0 304.23530406060127 -273.23400756560659 0 0 0 0 -65.300136506707759 69.583886892344481 0 69.583886892344481 143.32449730858207 0 0 0 0 148.02863875408366 -35.269402408061069 0 -35.269402408061069 -20.90044154313 0 0 0 0 -37.57228553717141 30.539387315697468 0 30.539387315697468 72.688177166590776 0 0 0 0 -59.143398354070086 19.767592249609152 0 19.767592249609152 72.63986513934924 0 0 0 0 49.926235754550362 97.765632043972062 0 97.765632043972062 -70.264121948451248 0 0 0 0 -64.790913866629126 52.859477396933471 0 52.859477396933471 75.372328417576682 0 0 0 0 -64.09550517379148 59.603885760294901 0 59.603885760294901 32.2571808499697 0 0 0 0 4.2233529415040749 5.9904742115476282 0 5.9904742115476282 11.066411172206383 0 0 0 0 -8.7255258318327833 9.6287630695360349 0 9.6287630695360349 441.54555713559012 0 0 0 0 -60.625041614829414 -6.8490540633411214 0 -6.8490540633411214 18.100672475623394 0 0 0 0 -88.28894226103148 -50.444556066140649 0 -50.444556066140649 -66.134841301296547 0 0 0 0 -36.081069867243059 -4.3815104029426948 0 -4.3815104029426948 24.406606653543349 0 0 0 0 -45.37035246306634 -5.6646935695761371 0 -5.6646935695761371 19.974005106761666 0 0 0 0 -59.186424509234172 27.185229646343341 0 27.185229646343341 38.344988202135028 0 0 0 0 -90.073895926598198 9.6321810536155681 0 9.6321810536155681 -79.108653909326677 0 0 0 0 -109.1555028001867 -34.815882713784049 0 -34.815882713784049 -62.257915016580228 0 0 0 0 -44.674646009245265 -1.7374393400877857 0 -1.7374393400877857 20.487265144002382 0 0 0 0 -63.906225824299327 -60.204579011960959 0 -60.204579011960959 17.889183134968334 0 0 0 0 -87.711406701921078 -22.327548207760401 0 -22.327548207760401 99.265501000445511 0 0 0 0 14.815175514610019 105.37174329550089 0 105.37174329550089 391.7825627911306 0 0 0 0 4.9610231785275403 -9.0286064592637274 0 -9.0286064592637274 11.995605391857147 0 0 0 0 -6.5989017209758458 -10.52901451144448 0 -10.52901451144448 -2.4306990411788902 0 0 0 0 -23.322641523656785 -43.024418752227575 0 -43.024418752227575 -8.8158118555566034 0 0 0 0 -27.587492372062115 -126.86767938029152 0 -126.86767938029152 -10.120820770461251 0 0 0 0 -75.139986990463171 -30.139435606992553 0 -30.139435606992553 -4.6628072992191321 0 0 0 0 -68.165726524628326 -15.34097486774931 0 -15.34097486774931 -34.051639959434397 0 0 0 0 -50.850817415856 -6.4589248971096822 0 -6.4589248971096822 -75.268462510841346 0 0 0 0 -63.218913312419318 12.32219678493675 0 12.32219678493675 9.5382311778639632 0 0 0 0 -45.675748297930113 68.63389378422653 0 68.63389378422653 61.150304433755082 0 0 0 0 6.4181810253576259 -7.2699642555435275 0 -7.2699642555435275 15.040070637157442 0 0 0 0 -16.219220386285087 -9.9846760399868799 0 -9.9846760399868799 -40.392455970035371 0 0 0 0 -78.852339783868956 -25.090802706297836 0 -25.090802706297836 -41.476703676519492 0 0 0 0 -59.138626643078169 -28.304136400127391 0 -28.304136400127391 -61.510538242207986 0 0 0 0 -78.904761035093543 -60.8201331356222 0 -60.8201331356222 -51.414619094615773 0 0 0 0 -70.356701908000105 -36.41382770394921 0 -36.41382770394921 -43.131240856640943 0 0 0 0 -105.9499112525591 -44.976058595802897 0 -44.976058595802897 -60.220659450284074 0 0 0 0 -50.059725700662966 -59.835542118655667 0 -59.835542118655667 -20.74785624091237 0 0 0 0 -42.295784773054038 -16.711542031032877 0 -16.711542031032877 6.1259112192710745 0 0 0 0 -45.668712837123167 -71.362210100602169 0 -71.362210100602169 -35.600624207569126 0 0 0 0 -93.254897958292986 -85.421491000746755 0 -85.421491000746755 -37.603600972408458 0 0 0 0 -75.103248890594841 -61.867306835345516 0 -61.867306835345516 -33.81890608246249 0 0 0 0 -106.26962904725951 -66.692275282475748 0 -66.692275282475748 -18.415009577485762 0 0 0 0 -109.52503434318351 -97.960882703826428 0 -97.960882703826428 -51.427542216162692 0 0 0 0 -124.39236271511982 -65.21559004937626 0 -65.21559004937626 -50.290331343941943 0 0 0 0 -46.497329519013874 14.19478032533334 0 14.19478032533334 52.703836989803676 0 0 0 0 -43.874449013315484 4.1560797669500431 0 4.1560797669500431 16.271271097959797 0 0 0 0 -44.564714266935582 -4.9283104154135913 0 -4.9283104154135913 21.409396592233552 0 0 0 0 -122.88261013892452 -91.211982811538746 0 -91.211982811538746 -56.15359385474585 0 0 0 0 -16.537513351002417 33.10388710881125 0 33.10388710881125 90.925362533493171 0 0 0 0 -44.099772382118317 -31.842160127238458 0 -31.842160127238458 43.101315168085421 0 0 0 0 -58.273570048848342 -10.309484220305194 0 -10.309484220305194 10.961019006641436 0 0 0 0 -101.71620826641629 -32.214843193451088 0 -32.214843193451088 21.99315777382435 0 0 0 0 -74.070586866746453 -79.819076016614417 0 -79.819076016614417 -18.434271472780893 0 0 0 0 -50.429544219674426 -15.140940518970183 0 -15.140940518970183 8.6095351701442269 0 0 0 0 -81.155963338613219 -73.099691968778643 0 -73.099691968778643 -26.730687352970563 0 0 0 0 15.938318956687908 42.247965205669516 0 42.247965205669516 73.927211709338735 0 0 0 0 -21.513925276396549 -37.720753227253226 0 -37.720753227253226 25.315565584096476 0 0 0 0 88.228632337846648 49.671688571434061 0 49.671688571434061 80.132061314981911 0 0 0 0 10.380424771490652 13.825405156751003 0 13.825405156751003 144.56652449974899 0 0 0 0 -2.3236013878013182 -36.026659965376894 0 -36.026659965376894 15.239397708266551 0 0 0 0 -15.335616061187238 44.410011622848856 0 44.410011622848856 98.547473394111876 0 0 0 0 -228.01688666123664 -178.63911367230685 0 -178.63911367230685 -182.12449612116325 0 0 0 0 -1.8788702290123496 -0.71212521581032462 0 -0.71212521581032462 1.9304169130134952 0 0 0 0 16.567157880008381 176.7664797011962 0 176.7664797011962 257.0924109995467 0 0 0 0 -198.87108675732088 -109.99865364029029 0 -109.99865364029029 -188.20259879125979 0 0 0 0 2.4150780212958125 13.752935986157354 0 13.752935986157354 -114.80372602443822 0 0 0 0 -109.50137981525222 232.07102981260959 0 232.07102981260959 414.52071936899574 0 0 0 0 39.175583662838108 -68.989039894153393 0 -68.989039894153393 -135.59352860789295 0 0 0 0 -3.4114989666689439 -1.6147601437486045 0 -1.6147601437486045 3.9656114911254718 0 0 0 0 -103.93470228392107 -186.2292817031896 0 -186.2292817031896 -175.44060186793467 0 0 0 0 63.963242406840436 130.37456402068074 0 130.37456402068074 174.52381503468109 0 0 0 0 -33.292242214613907 -159.83877422888554 0 -159.83877422888554 -195.17197406367268 0 0 0 0 67.356556763848914 31.01053532691131 0 31.01053532691131 72.113763638193632 0 0 0 0 45.694943797201631 132.7752295490709 0 132.7752295490709 133.90626479415732 0 0 0 0 -5.5493445434757973 -2.5290019415579721 0 -2.5290019415579721 6.1268944029392927 0 0 0 0 -6.7893796022945025 24.988071224010127 0 24.988071224010127 126.23124079080685 0 0 0 0 -6.7620047510949917 49.304202082781103 0 49.304202082781103 73.161052611070772 0 0 0 0 -372.80131794230874 -249.74224061588211 0 -249.74224061588211 -90.030935582864913 0 0 0 0 -878.48841243609786 -169.92322398664783 0 -169.92322398664783 -96.334060315203033 0 0 0 0 -530.52999139028179 0.032037948753895762 0 0.032037948753895762 -498.42706115549299 0 0 0 0 -941.00725029667046 -387.02981869823589 0 -387.02981869823589 -338.51255469860916 0 0 0 0 -502.83229801390371 -497.39522413969826 0 -497.39522413969826 -334.06873037443074 0 0 0 0 -6.5653158413402792 0.71609805460436426 0 0.71609805460436426 -4.5096469658460556 0 0 0 0 -120.04517614186261 -307.67603576179681 0 -307.67603576179681 -558.2609007545343 0 0 0 0 -99.88475787002244 -31.250885203620783 0 -31.250885203620783 14.16445445296722 0 0 0 0 -79.72785184724421 -76.099728488242818 0 -76.099728488242818 -318.08727627343978 0 0 0 0 -5.6023871064500597 -0.096137993774220831 0 -0.096137993774220831 -1.0313531786837373 0 0 0 0 -112.04565574906519 -3.1900662551142887 0 -3.1900662551142887 151.57442304618962 0 0 0 0 -101.79290748144558 -36.732474910460951 0 -36.732474910460951 43.823018911538384 0 0 0 0 -112.85524244376938 -20.580541760054984 0 -20.580541760054984 23.515590150005664 0 0 0 0 -176.08947537284257 -58.126614310584046 0 -58.126614310584046 -114.84571018830411 0 0 0 0 -276.76453970467901 -147.90405013163263 0 -147.90405013163263 -25.323944996544014 0 0 0 0 -363.44738241902814 -318.60257517370337 0 -318.60257517370337 -130.227954643869 0 0 0 0 -318.35481808565237 -237.57968922034547 0 -237.57968922034547 -89.685685873304465 0 0 0 0 -0.20951457044800748 0.51608230466204219 0 0.51608230466204219 -0.83898147186874183 0 0 0 0 -451.25689677184346 -210.45067602336076 0 -210.45067602336076 -90.929645809815213 0 0 0 0 -439.72311841252667 -150.10669086654798 0 -150.10669086654798 107.33908776521548 0 0 0 0 -390.21580074355916 -252.5375431376624 0 -252.5375431376624 -99.63905996561698 0 0 0 0 -402.70585090236273 -185.11475989703195 0 -185.11475989703195 73.142783312523534 0 0 0 0 -356.93371091699009 -194.79172812412116 0 -194.79172812412116 -6.8959436740697129 0 0 0 0 -466.51214446131598 -298.20861198059811 0 -298.20861198059811 -24.057613859644334 0 0 0 0 -395.50773418955214 -191.64104165242406 0 -191.64104165242406 -97.995128034621587 0 0 0 0 -417.12953025296156 -238.65413364887263 0 -238.65413364887263 38.237832552214968 0 0 0 0 -343.67342490699775 -64.163374168859264 0 -64.163374168859264 179.14313217247036 0 0 0 0 -295.91253381325077 -64.970024013485272 0 -64.970024013485272 153.02416990049824 0 0 0 0 -238.40738897131087 98.457619805143622 0 98.457619805143622 432.7532358991557 0 0 0 0 -238.75326720629164 -198.43917249654623 0 -198.43917249654623 229.80160592191805 0 0 0 0 51.532239916619801 -162.10733613101729 0 -162.10733613101729 369.00013780245354 0 0 0 0 -133.09317810677385 77.811521370706942 0 77.811521370706942 62.19208263616747 0 0 0 0 -351.54600782684065 2.1938317163767351 0 2.1938317163767351 69.636506661494877 0 0 0 0 -402.64754647618179 -21.491104743300696 0 -21.491104743300696 38.952388012250594 0 0 0 0 -266.25361545653504 -69.681877117776821 0 -69.681877117776821 -274.22079507686067 0 0 0 0 -279.34463776759367 234.89240023786397 0 234.89240023786397 60.145618260823539 0 0 0 0 -272.29065020003691 165.98485547155633 0 165.98485547155633 686.11081701377498 0 0 0 0 17.483538307615163 331.8656508976037 0 331.8656508976037 91.044582144873857 0 0 0 0 -76.225238447561424 346.72650309360324 0 346.72650309360324 806.53778329004854 0 0 0 0 -68.623474527578765 405.64506900694505 0 405.64506900694505 884.30592627740225 0 0 0 0 231.95776135258893 415.02268499551246 0 415.02268499551246 98.855325546790937 0 0 0 0 -37.58590995781924 95.325229142187709 0 95.325229142187709 -34.863556223784599 0 0 0 0 -367.50163060590421 281.96783270458764 0 281.96783270458764 89.64370624626244 0 0 0 0 3.4010614123592404 74.417467650376722 0 74.417467650376722 -427.86586194791016 0 0 0 0 5.833516849190346 129.93467731693454 0 129.93467731693454 -343.09265484646448 0 0 0 0 -27.905742957200346 285.07440196383504 0 285.07440196383504 -268.72258533828972 0 0 0 0 -10.871262655588879 9.4779612446515173 0 9.4779612446515173 4.7495306907498289 0 0 0 0 -20.563338117834064 -17.676888720008719 0 -17.676888720008719 46.100757997848632 0 0 0 0 -19.252496322282241 -2.8341435414113221 0 -2.8341435414113221 96.341073621819305 0 0 0 0 -20.34721752325715 0.69502970425687138 0 0.69502970425687138 4.3507078421115857 0 0 0 0 3.0340294076273366 9.6522625824312751 0 9.6522625824312751 12.532827384038548 0 0 0 0 -14.628215080538212 34.033955471209993 0 34.033955471209993 13.8152090426629 0 0 0 0 -27.09674814295613 9.4506499440176412 0 9.4506499440176412 42.575866647257499 0 0 0 0 -397.35157753507156 -10.127357588069572 0 -10.127357588069572 -256.79802000095833 0 0 0 0 -277.95386055598647 383.84561342475354 0 383.84561342475354 -378.33556426598079 0 0 0 0 -198.92348327052605 -91.641176400059521 0 -91.641176400059521 -322.93522360439056 0 0 0 0 -313.86745028861333 212.54287310653672 0 212.54287310653672 -620.70632305214895 0 0 0 0 -47.264770436744584 -28.03813560805429 0 -28.03813560805429 -35.793960171718936 0 0 0 0 -580.83168527168891 318.73276326071209 0 318.73276326071209 -398.80986879408738 0 0 0 0 -1.5299751760441251 0.91066151014589991 0 0.91066151014589991 -3.9418108496250355 0 0 0 0 -668.90109443257984 270.17916971321392 0 270.17916971321392 -215.34608274124912 0 0 0 0 -245.91309414251009 -73.045491188364394 0 -73.045491188364394 62.96632584080362 0 0 0 0 -536.95532051925693 78.153836780842539 0 78.153836780842539 -316.53142230529011 0 0 0 0 -544.27061407568181 84.537841911841497 0 84.537841911841497 -301.03720529320526 0 0 0 0 -544.79879595254897 155.89530263424967 0 155.89530263424967 -139.32655784778763 0 0 0 0 -838.72443324179039 -98.334330907331605 0 -98.334330907331605 -66.760444287314385 0 0 0 0 -663.78378793249067 2.675196060054077 0 2.675196060054077 -66.213215613326611 0 0 0 0 -888.85987469289103 -32.097334049793972 0 -32.097334049793972 -107.54563720132137 0 0 0 0 -866.89483149729131 -82.118094337405637 0 -82.118094337405637 -7.0796389212619033 0 0 0 0 -1180.810716551081 -83.236922402393247 0 -83.236922402393247 -88.299935541705963 0 0 0 0 53.847459961818458 -39.702394758406626 0 -39.702394758406626 5.0622836901029586 0 0 0 0 -530.07733593101148 110.49990918558615 0 110.49990918558615 -147.80509101791358 0 0 0 0 -313.36579855201126 -55.717168741570276 0 -55.717168741570276 -169.18956970326144 0 0 0 0 -1.0393771774199259 -4.9192496006285253 0 -4.9192496006285253 2.0236795076251042 0 0 0 0 -637.53593937352707 -86.935391942115075 0 -86.935391942115075 117.27508662724358 0 0 0 0 -531.67774115447537 209.47802081773898 0 209.47802081773898 -12.616364162255195 0 0 0 0 -4.2329758869837617 -1.2485943421655747 0 -1.2485943421655747 6.2708962785376627 0 0 0 0 -5.2754728503950901 -5.776431071966897 0 -5.776431071966897 29.233904898101173 0 0 0 0 -14.118591714075592 -9.63690444959866 0 -9.63690444959866 41.027855361200636 0 0 0 0 -13.650090259641729 -23.803582247719532 0 -23.803582247719532 35.832675804186692 0 0 0 0 -11.571018242748323 -12.922478616865646 0 -12.922478616865646 40.279550729992479 0 0 0 0 -9.559698298573494 -24.299462852428405 0 -24.299462852428405 22.23067840564272 0 0 0 0 -39.906402354819875 -20.568908901981558 0 -20.568908901981558 47.786457786380197 0 0 0 0 -24.868004888397991 -38.567202146219643 0 -38.567202146219643 60.13146628829054 0 0 0 0 2.5813078566498007 9.2260352438952395 0 9.2260352438952395 27.413932996882068 0 0 0 0 -112.75301910519192 41.584297825573231 0 41.584297825573231 37.725506077320915 0 0 0 0 -141.67048812581561 17.848572273798709 0 17.848572273798709 43.373782424991077 0 0 0 0 -111.20999653854415 51.121669050601213 0 51.121669050601213 11.780603814600909 0 0 0 0 -35.642321005943813 -75.729014188616475 0 -75.729014188616475 59.147205948294868 0 0 0 0 -103.97776456904103 25.416959741785377 0 25.416959741785377 47.072468661272069 0 0 0 0 -232.39028357085317 108.0227583712749 0 108.0227583712749 -44.619685104265955 0 0 0 0 -231.06469925474448 53.494577367981037 0 53.494577367981037 30.286035001041455 0 0 0 0 -177.31599880348585 -52.523940028276684 0 -52.523940028276684 -22.760437501645356 0 0 0 0 -299.87638892087671 56.325816408904757 0 56.325816408904757 -78.714084667271891 0 0 0 0 -284.14943704120014 107.53001887507435 0 107.53001887507435 -227.97550154541341 0 0 0 0 -288.22257868275574 -335.93112414751045 0 -335.93112414751045 -208.56447750188636 0 0 0 0 -419.12578976432815 55.772620212963375 0 55.772620212963375 -59.191329902636426 0 0 0 0 -708.84160174757926 -457.24588877409315 0 -457.24588877409315 -297.17928679306351 0 0 0 0 -963.33840278412026 -439.08495051005684 0 -439.08495051005684 -139.93581306736814 0 0 0 0 -17.889097353072415 19.046479802802345 0 19.046479802802345 -17.035149237062569 0 0 0 0 -686.64492544273526 -344.03139329905207 0 -344.03139329905207 -176.72509145744334 0 0 0 0 -778.75910679454194 -76.462528541639301 0 -76.462528541639301 -3.2779539978946559 0 0 0 0 -513.70069043692456 -474.90592867482997 0 -474.90592867482997 -551.41699099946709 0 0 0 0 -701.38915507500496 -472.54508305782474 0 -472.54508305782474 -187.58264210518371 0 0 0 0 -779.44134967186983 -122.5142874944795 0 -122.5142874944795 -496.7348182325477 0 0 0 0 -847.6240401701175 -125.96619752928586 0 -125.96619752928586 -440.86589793289022 0 0 0 0 -0.55076365039421082 -3.101875776503924 0 -3.101875776503924 -0.51983054581213395 0 0 0 0 265.93078932286517 -119.61568602635271 0 -119.61568602635271 -180.35912704556085 0 0 0 0 -823.6528963652072 -354.53529301880917 0 -354.53529301880917 -213.0127596184866 0 0 0 0 -56.889183609846441 38.689762453851472 0 38.689762453851472 -87.961539385074502 0 0 0 0 20.692667326652554 -137.18134660346004 0 -137.18134660346004 309.33540913613251 0 0 0 0 30.709681429711054 234.17586137977378 0 234.17586137977378 -371.86684170025728 0 0 0 0 65.799057566428701 43.132115337532696 0 43.132115337532696 -251.21445943043545 0 0 0 0 -85.476542806864018 62.340017213668943 0 62.340017213668943 -101.77968421889182 0 0 0 0 -98.816767421489203 100.12526898199872 0 100.12526898199872 -208.80230776884673 0 0 0 0 -257.59458820789587 179.28146572056266 0 179.28146572056266 -176.7875503088826 0 0 0 0 -205.52320516485088 97.230442259054144 0 97.230442259054144 -82.761916184917936 0 0 0 0 -205.82580107781541 145.51759823373504 0 145.51759823373504 -21.262329556802797 0 0 0 0 -206.90231077349745 96.412867514382015 0 96.412867514382015 -0.60331515777943423 0 0 0 0 -232.2130722270449 120.8177660383908 0 120.8177660383908 -12.725942611270966 0 0 0 0 -230.65404248776031 130.5049482008817 0 130.5049482008817 21.159463840638637 0 0 0 0 -148.54278743700706 133.13931214990407 0 133.13931214990407 7.1937837350305927 0 0 0 0 -173.94965464808047 56.906126613050219 0 56.906126613050219 37.175772036702256 0 0 0 0 -121.44405831405857 71.962832279649774 0 71.962832279649774 26.854912426362716 0 0 0 0 -92.628353545725986 61.564051710700369 0 61.564051710700369 29.052591896532249 0 0 0 0 -88.368668791599703 114.33348273550291 0 114.33348273550291 13.060123352531264 0 0 0 0 -184.16126409378739 278.70838891575795 0 278.70838891575795 -266.6782164641827 0 0 0 0 -408.9147122065242 149.11493089325904 0 149.11493089325904 78.430769004293325 0 0 0 0 -100.67699522559815 130.59831852884508 0 130.59831852884508 46.195714451740059 0 0 0 0 -207.31034696571442 49.023106482671665 0 49.023106482671665 177.56409608936519 0 0 0 0 -64.414607200691535 197.53771500344737 0 197.53771500344737 160.57951048412724 0 0 0 0 -85.758789158773652 225.38298848464547 0 225.38298848464547 -243.80137969117368 0 0 0 0 -57.681979704510013 -69.398188343533548 0 -69.398188343533548 -192.0046920178429 0 0 0 0 -377.1177582863387 24.574882174750201 0 24.574882174750201 73.492660609259474 0 0 0 0 -63.870956728904275 -4.8034942242084071 0 -4.8034942242084071 72.547424162816071 0 0 0 0 -146.62230723578796 184.63650818944916 0 184.63650818944916 27.574793201795728 0 0 0 0 -351.04547135912424 268.93578862956269 0 268.93578862956269 6.5768701922643231 0 0 0 0 -14.808203653581792 0.74804559359827749 0 0.74804559359827749 0.59410842251220597 0 0 0 0 -57.52569716211292 19.032039153114965 0 19.032039153114965 84.580276505907932 0 0 0 0 -79.366532406644183 63.524547633930524 0 63.524547633930524 -3.6131026872571965 0 0 0 0 -5.5736452785015516 1.0860026806659135 0 1.0860026806659135 0.053205237254122295 0 0 0 0 -106.4787965307678 -108.14379282671871 0 -108.14379282671871 -0.84798155707449041 0 0 0 0 -15.133298253291287 -54.813747346826858 0 -54.813747346826858 -0.55619830055314878 0 0 0 0 -17.751874422760011 -35.821824545612799 0 -35.821824545612799 0.05351057241205126 0 0 0 0 -28.187445297939121 30.105993972460055 0 30.105993972460055 -11.856466761624233 0 0 0 0 -54.429300329181387 41.087432255681051 0 41.087432255681051 51.199528218356136 0 0 0 0 -318.72119601116128 502.33846003926556 0 502.33846003926556 26.482886225869152 0 0 0 0 -290.82382159640474 199.86758060372813 0 199.86758060372813 -30.302793646322016 0 0 0 0 2.3407346842135581 6.0178125252921113 0 6.0178125252921113 10.342583302838321 0 0 0 0 -729.44347285224649 -7.6611272600493976 0 -7.6611272600493976 107.26768225070555 0 0 0 0 -187.82090359464837 -44.317441275006331 0 -44.317441275006331 264.96372810671528 0 0 0 0 -36.718933437239684 -267.09250986627922 0 -267.09250986627922 382.49399463070949 0 0 0 0 115.46894684462859 -132.89074352576245 0 -132.89074352576245 138.27402368615367 0 0 0 0 -88.254910813262541 -17.669513880104205 0 -17.669513880104205 120.22935069409141 0 0 0 0 -5.5218633298936766 544.13637336331885 0 544.13637336331885 -310.98290344167617 0 0 0 0 -2.9952889392761435 0.74304563133072676 0 0.74304563133072676 1.4691183056133212 0 0 0 0 -178.31696806927175 178.95288557883941 0 178.95288557883941 -413.83985597303399 0 0 0 0 -0.8975082497563065 1.794610091674512 0 1.794610091674512 5.2124434204913115 0 0 0 0 -285.23675967841336 -88.326151278286488 0 -88.326151278286488 230.79415730040637 0 0 0 0 -358.86722058560554 41.672388019189384 0 41.672388019189384 418.95725703743119 0 0 0 0 -288.39867162394148 -6.6254104647887289 0 -6.6254104647887289 -55.224611342011485 0 0 0 0 -188.25781641609501 238.77210726406702 0 238.77210726406702 -239.44605902758485 0 0 0 0 -147.9759762194426 162.74241114009419 0 162.74241114009419 83.854098334493756 0 0 0 0 -243.27291756324848 182.78637203200697 0 182.78637203200697 79.65450931518717 0 0 0 0 19.663785452067714 22.775191768011609 0 22.775191768011609 95.243655604150263 0 0 0 0 -206.70755431146972 45.779337603660679 0 45.779337603660679 134.22788974390642 0 0 0 0 -6.1798742509129312 0.43350227502136107 0 0.43350227502136107 2.7918875823900535 0 0 0 0 -3.4092810823603941 -110.31325749956432 0 -110.31325749956432 288.76206436802022 0 0 0 0 40.892744482644048 54.520896931548123 0 54.520896931548123 -132.75142110111665 0 0 0 0 -191.35373219594567 -91.880079160065179 0 -91.880079160065179 260.0299779687266 0 0 0 0 -13.658994200024054 5.7325651703195639 0 5.7325651703195639 3.5116069754041632 0 0 0 0 -166.8022878982124 81.623365071242006 0 81.623365071242006 3.4957576967626665 0 0 0 0 -147.01939061631219 27.562743321346716 0 27.562743321346716 151.11867595323201 0 0 0 0 -161.58047585486383 293.63926614136108 0 293.63926614136108 -146.61882893949587 0 0 0 0 -81.432949711153924 -155.88685545278349 0 -155.88685545278349 369.16697007371295 0 0 0 0 -99.075778331480791 -4.633858821136009 0 -4.633858821136009 9.2883885900507082 0 0 0 0 36.914469949904742 -174.20788127369815 0 -174.20788127369815 64.287098277638506 0 0 0 0 -48.894207673574783 -149.24203960884643 0 -149.24203960884643 369.02447468459832 0 0 0 0 -87.108783558835057 7.5108956114449938 0 7.5108956114449938 -54.438517329195747 0 0 0 0 -41.948402372363489 -131.39223146925724 0 -131.39223146925724 420.46104837347229 0 0 0 0 -45.796936167662352 15.900678389487439 0 15.900678389487439 2.9306996952345798 0 0 0 0 -98.826480124928366 3.3923239467089843 0 3.3923239467089843 16.99519820259593 0 0 0 0 -50.518397026045932 14.490060246513622 0 14.490060246513622 -2.6672684566774691 0 0 0 0 -46.635497127666866 8.3836751086752415 0 8.3836751086752415 2.4925146694429579 0 0 0 0 -16.31730953877053 -5.7650709112025265 0 -5.7650709112025265 13.017751643675837 0 0 0 0 -324.88305186968137 -141.1383888726632 0 -141.1383888726632 381.83572216857601 0 0 0 0 -328.38659622288151 -89.390392376888713 0 -89.390392376888713 253.89094967450364 0 0 0 0 -251.36072405707455 -24.536779985606699 0 -24.536779985606699 127.78085109972744 0 0 0 0 -292.09944832954125 -103.84462643226652 0 -103.84462643226652 239.6783431024669 0 0 0 0 -176.7035737568367 131.23892674112358 0 131.23892674112358 410.07866000016838 0 0 0 0 2.0090547318977769 -50.689279921836714 0 -50.689279921836714 -21.653320115448878 0 0 0 0 -103.50620937367157 -6.6886942817045991 0 -6.6886942817045991 8.0045853408554102 0 0 0 0 -348.07108050577335 -187.62516835769566 0 -187.62516835769566 449.31647528222766 0 0 0 0 -264.98438853792686 -48.037754546065798 0 -48.037754546065798 163.78794834455584 0 0 0 0 -236.54614431487281 78.869963413467786 0 78.869963413467786 -509.14517473659726 0 0 0 0 39.98945578610892 -138.73354185642029 0 -138.73354185642029 20.974973666619917 0 0 0 0 -108.80892832618702 29.068009637119758 0 29.068009637119758 2.9948969859765384 0 0 0 0 -135.64831163541703 -78.306607589935538 0 -78.306607589935538 106.51570458023707 0 0 0 0 -86.666603724284869 22.531324195491834 0 22.531324195491834 -179.50290826874516 0 0 0 0 -131.54630814539087 8.9109045563345717 0 8.9109045563345717 -23.441205662526045 0 0 0 0 -237.10264470344737 -48.332595438193493 0 -48.332595438193493 -21.145255423232811 0 0 0 0 -41.258342704088136 -83.101205823915734 0 -83.101205823915734 204.89043385270998 0 0 0 0 -12.129053315235069 -79.909629975474672 0 -79.909629975474672 98.957868376397528 0 0 0 0 -13.208369191532256 -95.649284598461236 0 -95.649284598461236 134.00683161482448 0 0 0 0 -14.030822388456727 -106.6306863798527 0 -106.6306863798527 124.91288610428455 0 0 0 0 -7.4012743210114422 -94.547983809925427 0 -94.547983809925427 89.013728548452491 0 0 0 0 -10.219406956457533 -77.177017054753378 0 -77.177017054753378 89.674166566504482 0 0 0 0 -3.3909982470686373 -88.434984645846271 0 -88.434984645846271 54.596978564281017 0 0 0 0 -0.77225508883566363 -64.030886731725332 0 -64.030886731725332 61.72024161824811 0 0 0 0 -8.5924615705880569 -85.497839768148879 0 -85.497839768148879 91.66254925589601 0 0 0 0 -2.480094867059961 -68.235402924379741 0 -68.235402924379741 87.846743445188622 0 0 0 0 -1.1526479579188162 -68.289958357796422 0 -68.289958357796422 87.767271622538829 0 0 0 0 9.2395291188149713 -58.095287998323329 0 -58.095287998323329 87.773500795141445 0 0 0 0 8.820864384964807 -54.168312544345099 0 -54.168312544345099 90.246992759810382 0 0 0 0 1.1505827252403833 -65.970554698149499 0 -65.970554698149499 105.02750773364824 0 0 0 0 11.597040757093055 -60.308434178419702 0 -60.308434178419702 92.564002219907707 0 0 0 0 4.813089101575315 -50.97579946150654 0 -50.97579946150654 123.2184567169752 0 0 0 0 -6.6488811129820533 -64.233969753258862 0 -64.233969753258862 140.51597728188062 0 0 0 0 -12.856263694226072 -79.151366935635451 0 -79.151366935635451 120.38639612417319 0 0 0 0 -3.0269405020662816 -62.795323027294216 0 -62.795323027294216 119.16989351125085 0 0 0 0 -16.304429002062534 -67.712528280633705 0 -67.712528280633705 150.7715130092256 0 0 0 0 -5.592029627179727 -65.938154783383652 0 -65.938154783383652 119.87213707192132 0 0 0 0 -17.292109155619983 -73.078313606521988 0 -73.078313606521988 126.29943936907512 0 0 0 0 -17.404516883543693 -40.359652063751128 0 -40.359652063751128 196.43144188394035 0 0 0 0 -25.195425013414933 -85.816539083843963 0 -85.816539083843963 153.90017347253161 0 0 0 0 -25.072997233262868 -87.067531979504565 0 -87.067531979504565 144.45501303304627 0 0 0 0 -28.475353793808608 -69.25855232867616 0 -69.25855232867616 187.039235291355 0 0 0 0 0.13984007938415743 -44.343787920035538 0 -44.343787920035538 151.55415535251814 0 0 0 0 -29.499005561592639 -117.76335217649466 0 -117.76335217649466 180.40907403851452 0 0 0 0 -24.816999754184508 -86.993519656709395 0 -86.993519656709395 139.26631308384458 0 0 0 0 -27.29981401337136 -100.61778415735898 0 -100.61778415735898 170.47419244558841 0 0 0 0 -20.322856811828387 -94.633741092671698 0 -94.633741092671698 135.46798495930852 0 0 0 0 -14.903345423066639 -118.0794200169039 0 -118.0794200169039 151.79297368629705 0 0 0 0 -43.667779342707945 -87.425647816155106 0 -87.425647816155106 198.42334082761954 0 0 0 0 -22.864018448160095 -96.140574144889797 0 -96.140574144889797 188.07681717609375 0 0 0 0 10.500324127158819 -109.06276268763759 0 -109.06276268763759 34.270734070694743 0 0 0 0 -15.87496702815406 -124.38760707979964 0 -124.38760707979964 148.35736306133549 0 0 0 0 4.6669030670855136 -88.817287483867403 0 -88.817287483867403 186.9619726150122 0 0 0 0 -31.715526317319018 -193.29579541481144 0 -193.29579541481144 253.1416225239409 0 0 0 0 -39.977799221589521 -31.628716688763234 0 -31.628716688763234 -44.586418001847051 0 0 0 0 -56.838004600285785 -82.043299960125296 0 -82.043299960125296 15.716484702537855 0 0 0 0 -31.427044399933948 -51.564289716985513 0 -51.564289716985513 50.911475327293374 0 0 0 0 -1.2439455562926014 -100.29966821777271 0 -100.29966821777271 73.07878646269819 0 0 0 0 -14.61463110200566 -91.942128936956578 0 -91.942128936956578 40.734500785350974 0 0 0 0 -16.164700924306089 -77.314679533477829 0 -77.314679533477829 76.88028179480898 0 0 0 0 1.5849787476690835 -61.588947335625562 0 -61.588947335625562 6.6897813244540885 0 0 0 0 -9.5089132334469468 -30.921118321053655 0 -30.921118321053655 -28.807945690105043 0 0 0 0 -34.944469910627959 -51.508069872246779 0 -51.508069872246779 16.990118462024839 0 0 0 0 -69.331456592222821 -48.971830336081439 0 -48.971830336081439 -89.236559773438785 0 0 0 0 -14.840799172325205 -41.56213219334677 0 -41.56213219334677 -66.68973257345715 0 0 0 0 -66.044300322319032 -29.188255248780479 0 -29.188255248780479 -13.304706074486603 0 0 0 0 -18.326023890600482 -30.792174577960395 0 -30.792174577960395 -11.381189627447384 0 0 0 0 8.1182740300282603 -40.864957989813774 0 -40.864957989813774 -40.640579142374918 0 0 0 0 2.9398351923518931 -53.18317287354148 0 -53.18317287354148 -17.268567218341559 0 0 0 0 -4.0679383976384997 -48.220577503561799 0 -48.220577503561799 23.869893235794734 0 0 0 0 6.0058260844671167 -51.45238020580291 0 -51.45238020580291 21.205867121803749 0 0 0 0 -2.3574570856762875 -75.657192091965044 0 -75.657192091965044 45.447863846733526 0 0 0 0 -12.472674564683984 -61.109606815200095 0 -61.109606815200095 51.169378741556102 0 0 0 0 14.331562865205342 -50.957481341753009 0 -50.957481341753009 59.75515010250092 0 0 0 0 15.625377814241801 -58.746465827771317 0 -58.746465827771317 58.449729949978064 0 0 0 0 8.6191135113185737 -54.074778563684958 0 -54.074778563684958 53.971619344989449 0 0 0 0 10.298664501417079 -62.382360954972683 0 -62.382360954972683 53.183595102556865 0 0 0 0 12.041638973380032 -60.476960845091526 0 -60.476960845091526 23.052371847777977 0 0 0 0 -0.27695711377236876 -56.895970675096578 0 -56.895970675096578 25.063757249779883 0 0 0 0 15.277868502715137 -58.869032164850069 0 -58.869032164850069 37.610165902340668 0 0 0 0 21.935909653097042 -43.311657317535719 0 -43.311657317535719 23.302618609384808 0 0 0 0 23.634074858739041 -48.225507535285942 0 -48.225507535285942 8.2188143921521259 0 0 0 0 16.625751033287088 -42.292970069796866 0 -42.292970069796866 24.704617768940807 0 0 0 0 20.372045492542384 -44.147687781241984 0 -44.147687781241984 -5.0925026093100314 0 0 0 0 5.1054896296482184 -36.302052917177207 0 -36.302052917177207 1.3202892151202832 0 0 0 0 14.982627798513931 -10.942845693703021 0 -10.942845693703021 -16.483885701978579 0 0 0 0 28.991083847588015 -32.230097877389198 0 -32.230097877389198 -29.941419901177142 0 0 0 0 12.382847023593058 -21.710458028972425 0 -21.710458028972425 -55.863184829919192 0 0 0 0 -10.232704370020656 -8.0609411123223254 0 -8.0609411123223254 -32.980925947390915 0 0 0 0 -11.295108665324733 -15.38044709672613 0 -15.38044709672613 -70.799522584733495 0 0 0 0 -48.245987392256211 10.189938734365569 0 10.189938734365569 -50.727887015651504 0 0 0 0 -8.9080641751552321 10.01804733667268 0 10.01804733667268 -83.473623072401097 0 0 0 0 -6.7444813915426494 20.663735550704587 0 20.663735550704587 -36.617130370943414 0 0 0 0 13.065152686514921 -1.1968507674728244 0 -1.1968507674728244 -28.65478159538543 0 0 0 0 -49.825627033100318 37.554455960578707 0 37.554455960578707 -43.739990856769509 0 0 0 0 -30.091399647877552 71.167940891495164 0 71.167940891495164 -79.859270899452895 0 0 0 0 -17.523372647628094 34.555207792717283 0 34.555207792717283 -5.9207663797460555 0 0 0 0 26.194539823791274 46.894829496670354 0 46.894829496670354 -40.810739028681382 0 0 0 0 -105.50033723298111 55.407585729451966 0 55.407585729451966 -186.40614856782304 0 0 0 0 -92.896370438887971 91.576446213764939 0 91.576446213764939 -86.61122540809265 0 0 0 0 -60.609428039027989 57.738112047868526 0 57.738112047868526 -53.365972500112548 0 0 0 0 -49.912186643014138 40.828916845197455 0 40.828916845197455 -133.12413035915233 0 0 0 0 -115.24548723860607 12.101360576793923 0 12.101360576793923 -81.623436823141674 0 0 0 0 -47.312002137223317 24.589737792979577 0 24.589737792979577 -96.416919954714103 0 0 0 0 -60.23063798505973 -14.120266763318796 0 -14.120266763318796 -75.695440413182951 0 0 0 0 -43.288086292639491 5.2300689972762484 0 5.2300689972762484 -57.846848691040123 0 0 0 0 -97.128288576153864 33.014201144149411 0 33.014201144149411 -89.161700117248827 0 0 0 0 -113.93645661124719 11.829858482181407 0 11.829858482181407 -112.44416910375367 0 0 0 0 -307.81857428055082 131.06172176385371 0 131.06172176385371 -126.40691805996812 0 0 0 0 -132.54391970008464 71.505609654219143 0 71.505609654219143 -126.06475405349556 0 0 0 0 -391.04120146532841 108.17211399563439 0 108.17211399563439 -21.412801616368597 0 0 0 0 -537.20763419386003 75.073637059966131 0 75.073637059966131 -23.383040461705605 0 0 0 0 -299.07612792439522 -58.590282517006699 0 -58.590282517006699 -207.7844992391656 0 0 0 0 -264.03525905293645 44.224228783825311 0 44.224228783825311 -93.988484981093279 0 0 0 0 -169.36322683384196 110.0891645797235 0 110.0891645797235 -302.82601032461389 0 0 0 0 -157.53576424815219 167.87300094008924 0 167.87300094008924 -86.109439927837229 0 0 0 0 -501.17036403397833 -442.0125169372842 0 -442.0125169372842 -314.13079768124953 0 0 0 0 -378.70519539796078 252.76114554344349 0 252.76114554344349 -15.020410726932823 0 0 0 0 -174.92421144239415 62.751817680613385 0 62.751817680613385 112.83630851085582 0 0 0 0 -200.95203361932772 183.84994516569623 0 183.84994516569623 86.152501305936312 0 0 0 0 -138.45790998416123 118.12180197833732 0 118.12180197833732 110.7517353692067 0 0 0 0 -164.59628343251097 172.01600248831255 0 172.01600248831255 2.6486351071071113 0 0 0 0 -45.894291575996249 32.6822252318143 0 32.6822252318143 60.542651116331399 0 0 0 0 -101.75059192389381 108.80383309156286 0 108.80383309156286 30.965606813995691 0 0 0 0 -65.761884425599419 76.218840330874627 0 76.218840330874627 32.61755251863724 0 0 0 0 -17.720781316020293 86.186699764693003 0 86.186699764693003 -19.763634432409162 0 0 0 0 -103.47705404252702 130.32252677572433 0 130.32252677572433 -39.107248888075901 0 0 0 0 -127.92259921108962 114.40247151218773 0 114.40247151218773 -9.7940027262047806 0 0 0 0 -11.970157041636412 -164.63657442976182 0 -164.63657442976182 -103.58398887330804 0 0 0 0 -372.5242721353352 -45.06203550250666 0 -45.06203550250666 258.64201576772575 0 0 0 0 -135.97698243063496 -263.1216820307709 0 -263.1216820307709 16.650684475962407 0 0 0 0 -25.264956835802877 -61.800187185905088 0 -61.800187185905088 -150.00128289029271 0 0 0 0 -184.90739220045361 -110.61439038577373 0 -110.61439038577373 302.52977030465263 0 0 0 0 -13.838553299040129 0.3857219873261144 0 0.3857219873261144 1.5682336217951161 0 0 0 0 -124.10756046223105 208.10154615384999 0 208.10154615384999 534.07452587386433 0 0 0 0 100.67876434830214 34.872333698102011 0 34.872333698102011 -89.58728736813282 0 0 0 0 -317.5199014084792 -306.25896990579167 0 -306.25896990579167 27.625891946277079 0 0 0 0 -3.4426335684156868 -2.2941094458447537 0 -2.2941094458447537 -0.73476575100527342 0 0 0 0 -134.79987619001076 -362.95029342471798 0 -362.95029342471798 152.0940099547206 0 0 0 0 119.06054280842181 -62.584186328401302 0 -62.584186328401302 -83.447675798935961 0 0 0 0 -5.2804485611000231 -0.25301289371793345 0 -0.25301289371793345 0.49118116333215411 0 0 0 0 -13.388049550395692 0.013951237559926 0 0.013951237559926 1.4811394825925213 0 0 0 0 -40.0463389365068 137.64618355173843 0 137.64618355173843 358.30813171332193 0 0 0 0 -350.72186282464827 -266.66608320614205 0 -266.66608320614205 199.45487004708775 0 0 0 0 -158.91501862256064 -163.18647242673342 0 -163.18647242673342 95.563995310487371 0 0 0 0 -35.874010527312748 -44.830158053734067 0 -44.830158053734067 -93.798493361658984 0 0 0 0 -364.75235036361846 313.06157946838539 0 313.06157946838539 261.61135933847845 0 0 0 0 -268.470009403929 -265.78753390540624 0 -265.78753390540624 -223.52809725610996 0 0 0 0 -209.26236787794005 -12.641199201365453 0 -12.641199201365453 -95.105692661381909 0 0 0 0 -13.324942897138854 9.6936180586555132 0 9.6936180586555132 -7.8728765464760784 0 0 0 0 -15.502703477262003 21.985083657649056 0 21.985083657649056 8.0990956849964277 0 0 0 0 -68.53485866432311 -56.907530677550312 0 -56.907530677550312 -140.99991659833177 0 0 0 0 -248.32886092086665 -231.65661527366501 0 -231.65661527366501 -18.85478905459604 0 0 0 0 -43.064715414753664 15.215437850722083 0 15.215437850722083 1.511678510967613 0 0 0 0 -25.311651618579809 15.763545061972637 0 15.763545061972637 -8.6536456480796105 0 0 0 0 -340.52935102645642 -112.79060346990263 0 -112.79060346990263 -58.45571800246762 0 0 0 0 -6.3231020445107404 2.9196917604018466 0 2.9196917604018466 -1.2216173371851156 0 0 0 0 -16.028009630437737 19.720191661375793 0 19.720191661375793 2.0500225564628636 0 0 0 0 -42.177903255023011 25.918159855696103 0 25.918159855696103 18.317256832293424 0 0 0 0 8.3719265587919836 59.099151244930454 0 59.099151244930454 25.731585990193707 0 0 0 0 -27.730214913559394 10.718895981193782 0 10.718895981193782 4.0699642055219556 0 0 0 0 -6.8986377979167628 24.34185615354545 0 24.34185615354545 -35.96245675811042 0 0 0 0 -46.065666529755617 200.92693488600071 0 200.92693488600071 25.439323432694437 0 0 0 0 -64.038031428244722 160.41497531889036 0 160.41497531889036 230.20650263105381 0 0 0 0 -74.463853966664772 28.507861798130243 0 28.507861798130243 8.225677740038698 0 0 0 0 -634.42936604901661 262.76391003674598 0 262.76391003674598 -81.632555830025012 0 0 0 0 -782.79613065474405 -267.64272304145652 0 -267.64272304145652 -200.93930907260255 0 0 0 0 7.0334063454452007 72.54103199692554 0 72.54103199692554 -245.23707782914062 0 0 0 0 -4.5444449594834637 3.2338439068929237 0 3.2338439068929237 -3.1530136513915323 0 0 0 0 -550.33985039669642 366.34441151298506 0 366.34441151298506 -102.00647286235426 0 0 0 0 -772.91780529249263 -210.65121182963321 0 -210.65121182963321 111.98935939425246 0 0 0 0 -108.87423955626582 70.361823814851959 0 70.361823814851959 87.162923891390164 0 0 0 0 -347.27094881920402 136.72290061727608 0 136.72290061727608 125.39408105937036 0 0 0 0 -4.2976399226626825 16.16329209943661 0 16.16329209943661 1.1733521286339652 0 0 0 0 -91.118973457633615 73.506227242754903 0 73.506227242754903 1152.0070548024778 0 0 0 0 213.88217130302655 127.67469781612181 0 127.67469781612181 -11.842683514467353 0 0 0 0 -95.815663502735518 40.028556300954925 0 40.028556300954925 -2.2655569304854666 0 0 0 0 -452.20356671465925 -70.425732002630866 0 -70.425732002630866 321.30958707910031 0 0 0 0 -111.92442619856448 -0.72589325472736732 0 -0.72589325472736732 9.6626590484500792 0 0 0 0 -445.16893478792008 -327.2238209952593 0 -327.2238209952593 96.079638048853667 0 0 0 0 -18.401925302563818 -7.0052340826568908 0 -7.0052340826568908 9.8612736581484128 0 0 0 0 80.596522650618226 254.04626410528363 0 254.04626410528363 217.52840120598194 0 0 0 0 -82.284107102152362 36.099778037293667 0 36.099778037293667 1.3989851301095939 0 0 0 0 73.50843361060106 282.86831746374537 0 282.86831746374537 169.23684832199797 0 0 0 0 -145.78747722605476 302.90369864172226 0 302.90369864172226 817.27988057924449 0 0 0 0 221.94057339173668 417.31717437561872 0 417.31717437561872 274.850186932832 0 0 0 0 -178.32077560422113 198.54088382901864 0 198.54088382901864 375.87063200292687 0 0 0 0 -156.88338685952704 137.48553964633351 0 137.48553964633351 261.49548603096264 0 0 0 0 -127.23035505660027 89.852162804887939 0 89.852162804887939 157.20831788455871 0 0 0 0 -303.61766286753846 48.461229133649795 0 48.461229133649795 250.65024704132065 0 0 0 0 -127.62894208846774 206.47562755522085 0 206.47562755522085 228.0616684635479 0 0 0 0 -246.26046076296552 96.831604489545498 0 96.831604489545498 252.69837014512086 0 0 0 0 -198.49641994465674 51.865141640942056 0 51.865141640942056 104.80670634310854 0 0 0 0 -233.4983905444933 -3.6099363213388642 0 -3.6099363213388642 61.110017038852789 0 0 0 0 -310.86074185546022 -105.0298391094484 0 -105.0298391094484 -12.929675290837622 0 0 0 0 -339.91539291174922 -44.40842867151332 0 -44.40842867151332 -105.59763934933505 0 0 0 0 -842.63439270739764 -248.30551333883886 0 -248.30551333883886 -38.404538808967118 0 0 0 0 -280.91075763202844 -531.50681712536471 0 -531.50681712536471 -637.94400182095887 0 0 0 0 -336.22986516491255 1.1776485016016522 0 1.1776485016016522 103.80612226425364 0 0 0 0 -232.7212655721778 -199.97259698572634 0 -199.97259698572634 -121.78687283274758 0 0 0 0 -439.92623677727534 45.77092575736242 0 45.77092575736242 126.87002239913363 0 0 0 0 -24.979061002787944 -47.641027590168278 0 -47.641027590168278 286.62269169557476 0 0 0 0 -286.64703085839602 95.237991142200983 0 95.237991142200983 271.88082516631039 0 0 0 0 -51.413718261570466 -315.95805262342765 0 -315.95805262342765 450.69172657894296 0 0 0 0 -287.17393065388967 -171.02449431513764 0 -171.02449431513764 421.46072211174942 0 0 0 0 -153.69517902538428 73.525445478715483 0 73.525445478715483 -50.028362277864062 0 0 0 0 -492.50508317621643 240.86418123533531 0 240.86418123533531 -32.698341782574062 0 0 0 0 4.5916852316169212 -1.0415780836697737 0 -1.0415780836697737 -2.6385277300793142 0 0 0 0 -17.543049009388653 11.267357114302854 0 11.267357114302854 8.4843750031022971 0 0 0 0 -113.65093617148341 18.767877204349588 0 18.767877204349588 245.90592185121022 0 0 0 0 -107.46664461497676 57.642000103619011 0 57.642000103619011 177.97540139290868 0 0 0 0 -71.534155284549598 18.424119092803604 0 18.424119092803604 18.823860892053474 0 0 0 0 -66.111870369833923 115.57578054894361 0 115.57578054894361 239.94538575774823 0 0 0 0 -38.686576141113619 203.66557908722643 0 203.66557908722643 238.29312204255984 0 0 0 0 -15.216990990408245 -2.2056894034966845 0 -2.2056894034966845 2.9688246381483818 0 0 0 0 -83.080401483092942 -99.412301936261883 0 -99.412301936261883 -46.299801497701992 0 0 0 0 1.561752861435707 -98.645615678937247 0 -98.645615678937247 -186.97904697620834 0 0 0 0 -147.13219549486803 -4.1161004695509291 0 -4.1161004695509291 248.03429689266795 0 0 0 0 -93.345015691702429 -41.031521300124041 0 -41.031521300124041 -23.954721497066203 0 0 0 0 -86.151082490408498 33.217386259944305 0 33.217386259944305 238.42378479500803 0 0 0 0 -81.970605809141489 -52.373716597969178 0 -52.373716597969178 -103.55579387721718 0 0 0 0 -133.38996157881411 -163.75733200342074 0 -163.75733200342074 -211.79394439345333 0 0 0 0 -12.833018027882609 -3.3953543746298145 0 -3.3953543746298145 3.0469685923187555 0 0 0 0 -5.3990755197552218 -1.8223790427869346 0 -1.8223790427869346 1.2646107079830742 0 0 0 0 -132.75712750205821 -140.80791609798052 0 -140.80791609798052 -312.9384641848219 0 0 0 0 -316.49917493279906 -226.91756119693673 0 -226.91756119693673 -4.9302575509173039 0 0 0 0 -277.93924163099109 -31.321948586758481 0 -31.321948586758481 226.37169326822004 0 0 0 0 -249.37502114245308 -26.622299111264056 0 -26.622299111264056 94.127312168220669 0 0 0 0 -246.32745563560457 -54.3069567307748 0 -54.3069567307748 102.65977084933047 0 0 0 0 -130.70016980561013 -31.480997926538294 0 -31.480997926538294 88.055556794844961 0 0 0 0 -100.08521340499101 -119.45572949971756 0 -119.45572949971756 103.79750396955194 0 0 0 0 -217.27647212540751 -118.34648122064823 0 -118.34648122064823 24.30031951469573 0 0 0 0 -48.597781327392113 -109.06275465365434 0 -109.06275465365434 72.216719304975413 0 0 0 0 -26.919019269447745 -61.675471484535592 0 -61.675471484535592 -32.867757190504562 0 0 0 0 -104.16428118643626 -113.89483039936658 0 -113.89483039936658 88.777745782586862 0 0 0 0 27.750750218287067 -58.637744167723213 0 -58.637744167723213 97.122655979350384 0 0 0 0 43.077145925028162 -222.73373867436931 0 -222.73373867436931 181.47001315538955 0 0 0 0 -84.875957268344791 -78.365406099941538 0 -78.365406099941538 93.249031112252851 0 0 0 0 -89.626635374410398 -76.291576064104447 0 -76.291576064104447 126.2138288988217 0 0 0 0 -76.289067510244976 -23.768769860003587 0 -23.768769860003587 9.6252699462045861 0 0 0 0 -231.17586416247286 -41.623970819540773 0 -41.623970819540773 149.72825829785688 0 0 0 0 -12.274400033057859 5.7021001524649417 0 5.7021001524649417 -0.0073853617225836388 0 0 0 0 -28.822282512202946 -24.954402195817238 0 -24.954402195817238 135.00840742006676 0 0 0 0 -64.798472740443685 -33.446871443227792 0 -33.446871443227792 75.366366999810452 0 0 0 0 -39.440906009249375 -55.908403540830477 0 -55.908403540830477 -33.695066410105937 0 0 0 0 -123.62234111299767 -59.470670433036503 0 -59.470670433036503 34.264810168524377 0 0 0 0 -86.649145636425601 -58.999219134860141 0 -58.999219134860141 33.057063152601586 0 0 0 0 -81.048131646601178 -69.445149412128814 0 -69.445149412128814 62.12317131081727 0 0 0 0 -83.16162105560943 -51.916499990342572 0 -51.916499990342572 46.923813345243616 0 0 0 0 -74.019870519832253 -28.551762942029821 0 -28.551762942029821 6.623828278821378 0 0 0 0 12.570891717969626 -10.008113391492634 0 -10.008113391492634 -3.1744486717215619 0 0 0 0 -96.824173860704832 -101.38997964181453 0 -101.38997964181453 203.84680370338901 0 0 0 0 -63.375537667416211 -48.359508513583478 0 -48.359508513583478 33.410930320799025 0 0 0 0 -70.602767942803439 -73.59069597158333 0 -73.59069597158333 41.162336785968364 0 0 0 0 -48.277435160733148 -139.25334886378369 0 -139.25334886378369 42.501517144341051 0 0 0 0 -154.53858257090542 -66.474326758871939 0 -66.474326758871939 68.002394958557488 0 0 0 0 -17.354176063064187 -100.2460250408476 0 -100.2460250408476 64.506555005793416 0 0 0 0 -196.4531716344045 -36.604446316972826 0 -36.604446316972826 83.761044474669234 0 0 0 0 -143.06113371097354 -25.26192539311478 0 -25.26192539311478 61.849513082779595 0 0 0 0 -141.87653175661944 -22.840329889639634 0 -22.840329889639634 64.510410506135997 0 0 0 0 -118.42321663784332 -17.405750909614653 0 -17.405750909614653 63.349892653592178 0 0 0 0 -35.801299283659318 -74.160766029854813 0 -74.160766029854813 19.072332870469836 0 0 0 0 -75.325814577816928 -34.12249129913819 0 -34.12249129913819 8.8536507274843839 0 0 0 0 -44.777410161485022 -49.816596322715895 0 -49.816596322715895 29.036009886663578 0 0 0 0 -22.726565154955395 36.379451393619419 0 36.379451393619419 42.532941416086189 0 0 0 0 -35.073439671974484 36.845386644850805 0 36.845386644850805 66.268538441112469 0 0 0 0 -94.143184061831562 -22.512930596584738 0 -22.512930596584738 109.62508962658262 0 0 0 0 -15.218370539946704 -15.980654854872995 0 -15.980654854872995 31.156492985948717 0 0 0 0 -20.278585307703537 -2.638487873061429 0 -2.638487873061429 30.384312803029864 0 0 0 0 -10.954122496261935 -9.3941254564692827 0 -9.3941254564692827 10.686804004350682 0 0 0 0 95.703048901461443 130.92231111207911 0 130.92231111207911 35.137469390842853 0 0 0 0 -42.289414764556568 -44.58991850068378 0 -44.58991850068378 -21.979956309567115 0 0 0 0 1.9098048059853454 -0.96760212209468932 0 -0.96760212209468932 0.84744013376919192 0 0 0 0 9.7068661085104395 -49.932329127325602 0 -49.932329127325602 -40.730558232074543 0 0 0 0 -27.030647536746983 -49.186408491128986 0 -49.186408491128986 -40.500417805307848 0 0 0 0 -17.579606877879996 -65.418437347842882 0 -65.418437347842882 -20.727741648111078 0 0 0 0 -31.866179230932175 -61.708235863025948 0 -61.708235863025948 10.028117055864641 0 0 0 0 -48.222726172043622 -52.327733227431509 0 -52.327733227431509 12.400989455320087 0 0 0 0 -87.637241252152307 -65.836894735474175 0 -65.836894735474175 20.910660862039322 0 0 0 0 -58.1415578128981 -63.157888722269206 0 -63.157888722269206 -5.9312945102710728 0 0 0 0 -56.864994452851533 -69.016201636182586 0 -69.016201636182586 -17.168366942905777 0 0 0 0 -161.84742056923642 -90.077775945599342 0 -90.077775945599342 14.626626715535167 0 0 0 0 -58.359653915282252 -97.065797200377347 0 -97.065797200377347 -40.834430868932031 0 0 0 0 31.181218954465294 -91.805219698794645 0 -91.805219698794645 -47.091059980763134 0 0 0 0 -77.886607541070589 -69.06943657069678 0 -69.06943657069678 -6.2289434780796 0 0 0 0 -115.65038745137645 -71.087209813324989 0 -71.087209813324989 -7.7019135225691571 0 0 0 0 -114.75534231627535 -15.78987641096046 0 -15.78987641096046 -5.3177572668591893 0 0 0 0 -77.522941790377445 -45.50885606757663 0 -45.50885606757663 -41.272863838657941 0 0 0 0 -86.922694527273052 -56.99357565307966 0 -56.99357565307966 -0.95292091121382327 0 0 0 0 -155.09713201839259 -5.8432799526808594 0 -5.8432799526808594 56.285421276561465 0 0 0 0 -66.106994392161141 -70.84177591842672 0 -70.84177591842672 102.97474303163722 0 0 0 0 -2.1994622281999909 -143.88182716900519 0 -143.88182716900519 111.8767132737878 0 0 0 0 -45.167559205192788 27.29618019549298 0 27.29618019549298 -1.0979125481353549 0 0 0 0 -3.7697503296803916 -62.142577226490175 0 -62.142577226490175 11.773247264026281 0 0 0 0 -53.065976319383481 4.8092155700778676 0 4.8092155700778676 10.792979441112948 0 0 0 0 -36.0810387751077 -4.5444280828707235 0 -4.5444280828707235 7.3136057915685768 0 0 0 0 -55.806351015410883 37.768980819525495 0 37.768980819525495 42.739400644855778 0 0 0 0 -47.494775305458461 18.748790267710319 0 18.748790267710319 9.550814201553294 0 0 0 0 -65.579903399843332 0.19855438874519393 0 0.19855438874519393 19.955270675006634 0 0 0 0 -182.74592227716857 73.617352540693901 0 73.617352540693901 28.824560130954524 0 0 0 0 -106.48974455307143 90.885926885948265 0 90.885926885948265 27.598486571299389 0 0 0 0 -271.74310792222946 67.014227103936946 0 67.014227103936946 60.451823811452414 0 0 0 0 -177.2757274715018 21.779494701539534 0 21.779494701539534 51.467077694622276 0 0 0 0 -162.95985006580668 10.778020934504639 0 10.778020934504639 59.629325857322328 0 0 0 0 -142.84172197423129 0.85926037133621946 0 0.85926037133621946 54.913459485816929 0 0 0 0 -156.60865507588863 31.012855181893798 0 31.012855181893798 102.57258410199756 0 0 0 0 -108.04711798102599 32.743657163899726 0 32.743657163899726 20.423671830943523 0 0 0 0 -173.5630135976935 54.697980271211236 0 54.697980271211236 110.0107357783545 0 0 0 0 -80.327919401988765 153.80956635517032 0 153.80956635517032 -4.6747775833282503 0 0 0 0 -41.404287274286617 68.220025833965337 0 68.220025833965337 -59.792901937547867 0 0 0 0 -101.71146002709381 32.017095437013047 0 32.017095437013047 27.126841402734492 0 0 0 0 -21.425930979326949 25.199854022663203 0 25.199854022663203 77.402268878436189 0 0 0 0 -71.572445161335054 126.35023343196008 0 126.35023343196008 65.681748775248707 0 0 0 0 -52.468804519958212 55.388463388677337 0 55.388463388677337 51.819345663934655 0 0 0 0 9.9286159443145152 27.532323969520803 0 27.532323969520803 67.40820536238607 0 0 0 0 -15.207199487955222 -16.540252937522382 0 -16.540252937522382 38.468530012272822 0 0 0 0 -4.6406622664446502 -0.78680668225644723 0 -0.78680668225644723 5.0349823071788222 0 0 0 0 -36.681328029597353 23.762309565272517 0 23.762309565272517 2.5864916814916796 0 0 0 0 0.1887756760489836 1.1818091212523569 0 1.1818091212523569 2.5357077901402292 0 0 0 0 -14.32356452314707 -27.891298561637086 0 -27.891298561637086 43.40242166864482 0 0 0 0 -48.268779962079861 56.806205437178505 0 56.806205437178505 40.774955403721833 0 0 0 0 -34.268182324085501 47.198854955779098 0 47.198854955779098 16.874930584028334 0 0 0 0 -101.57932144884944 165.29844888405933 0 165.29844888405933 -218.24283180916973 0 0 0 0 -32.176535288934247 33.636997976425846 0 33.636997976425846 -11.592975076553557 0 0 0 0 -455.68172158407106 244.9081884477564 0 244.9081884477564 44.537696134955695 0 0 0 0 -271.45245880847506 128.88683841111015 0 128.88683841111015 98.748516416144412 0 0 0 0 -573.91003936543984 40.090391013003682 0 40.090391013003682 211.95905195651358 0 0 0 0 -315.78043645535718 -106.3660572275229 0 -106.3660572275229 283.1679434060643 0 0 0 0 -38.423094276999109 -6.1989661136403811 0 -6.1989661136403811 157.67659196279783 0 0 0 0 -7.0147044246630799 -4.7172721673317817 0 -4.7172721673317817 5.2124227832221237 0 0 0 0 -119.03982503637599 -206.24951203055252 0 -206.24951203055252 130.50986321088567 0 0 0 0 -5.7891386306542216 0.0048205199528883469 0 0.0048205199528883469 0.50345074901942866 0 0 0 0 -97.590741082836757 -406.3533319177759 0 -406.3533319177759 -307.73866046577677 0 0 0 0 -143.85422735920292 376.44952234160792 0 376.44952234160792 240.25481327859279 0 0 0 0 -389.65448612346154 209.52337293395976 0 209.52337293395976 128.72792997060969 0 0 0 0 -365.93461495904558 287.5271604078298 0 287.5271604078298 -45.050219588942127 0 0 0 0 -301.67075372649788 215.26396939719416 0 215.26396939719416 -133.69214733541958 0 0 0 0 53.539363028943626 -84.255559455446019 0 -84.255559455446019 65.828034679061602 0 0 0 0 -297.44731463803328 187.26389447421752 0 187.26389447421752 -0.025076826206714031 0 0 0 0 -1.3572981612785782 -0.39879767868971783 0 -0.39879767868971783 0.42490233356816987 0 0 0 0 -210.88601619434667 -55.612192797165335 0 -55.612192797165335 -63.485471743129892 0 0 0 0 -401.41428631016606 170.0532608366525 0 170.0532608366525 -2.3600290638605657 0 0 0 0 -1.4603221161837183 -0.74644656064831594 0 -0.74644656064831594 -0.13440401451512685 0 0 0 0 11.35244136761321 -47.927348463138514 0 -47.927348463138514 60.306790050735799 0 0 0 0 -2.4736280309516587 -11.831503293257811 0 -11.831503293257811 32.963056397928085 0 0 0 0 -19.135692920030124 -20.651171266300025 0 -20.651171266300025 37.058123699831413 0 0 0 0 -4.8997372506637475 -11.480248722486067 0 -11.480248722486067 46.030735640008061 0 0 0 0 9.4676106913102558 -16.559444932549923 0 -16.559444932549923 -0.30036920296151948 0 0 0 0 -24.051068699758616 -23.376360040244435 0 -23.376360040244435 40.413123992138935 0 0 0 0 -27.792496830632217 8.8620327079074173 0 8.8620327079074173 17.027946660939051 0 0 0 0 -22.019638968402433 -5.0066390635051548 0 -5.0066390635051548 5.8992837465109105 0 0 0 0 6.6440136722399643 30.430883257792111 0 30.430883257792111 20.881598516160011 0 0 0 0 -27.530348171481819 -7.9447169454678104 0 -7.9447169454678104 -2.3677234979043007 0 0 0 0 -51.018789984053001 -65.010688246356949 0 -65.010688246356949 108.48642574136375 0 0 0 0 -45.562245397981314 6.3103748495395848 0 6.3103748495395848 0.059400121741077783 0 0 0 0 -22.932069426015204 -3.7168430944112316 0 -3.7168430944112316 7.2912429928978995 0 0 0 0 8.0972543402528459 -68.860348268197342 0 -68.860348268197342 25.557606412627138 0 0 0 0 -10.455813246121778 -8.299157835913725 0 -8.299157835913725 1.8050372784275144 0 0 0 0 -43.216037545847939 3.1490659681739999 0 3.1490659681739999 -14.097474670796146 0 0 0 0 -60.839809493616485 27.409466290753699 0 27.409466290753699 68.799832562684969 0 0 0 0 95.370971260508668 78.409454800595995 0 78.409454800595995 -103.46385856004599 0 0 0 0 -108.54213849818188 -4.9325233298714011 0 -4.9325233298714011 58.268427953526952 0 0 0 0 -0.77140143537069861 1.8783664490629803 0 1.8783664490629803 -2.7064820231351376 0 0 0 0 -64.347614852807965 -34.286080428830246 0 -34.286080428830246 67.626586461841725 0 0 0 0 -21.305046701933364 1.5459532522429988 0 1.5459532522429988 8.8172945943357703 0 0 0 0 -80.626105429013478 -23.339516763629405 0 -23.339516763629405 79.558386487692928 0 0 0 0 -62.717935058391959 -13.814077948433152 0 -13.814077948433152 14.858592333681344 0 0 0 0 -71.774079650522253 2.7138667964146634 0 2.7138667964146634 0.89983359591587941 0 0 0 0 -38.661356349419293 -26.269826692613151 0 -26.269826692613151 -32.576749481123898 0 0 0 0 -51.602519916446909 -164.27398234233613 0 -164.27398234233613 -25.388462703454024 0 0 0 0 68.95196810671041 249.55488790304855 0 249.55488790304855 89.187247253767168 0 0 0 0 -9.2709127337166919 -0.51273328973871557 0 -0.51273328973871557 13.18039216155209 0 0 0 0 -82.712948244865402 13.86247874237776 0 13.86247874237776 47.829859703241397 0 0 0 0 -40.15932250615068 -4.0789330372840915 0 -4.0789330372840915 26.557942063450771 0 0 0 0 -48.593765170293551 -7.9927551434675124 0 -7.9927551434675124 34.777076421749371 0 0 0 0 -27.741813148382988 -5.1459695441956086 0 -5.1459695441956086 13.449124841227771 0 0 0 0 -48.36149671378007 -23.88894031433847 0 -23.88894031433847 42.812684982490282 0 0 0 0 -26.784168663758464 -4.1494030960434429 0 -4.1494030960434429 44.386580575673179 0 0 0 0 -20.48821414936836 -13.492628158557503 0 -13.492628158557503 30.873473155936082 0 0 0 0 -141.01544687589194 -139.30142093075318 0 -139.30142093075318 205.56462814492897 0 0 0 0 -28.968515581218526 -11.473884874206306 0 -11.473884874206306 39.638613043443002 0 0 0 0 -17.216012910805148 -61.831072325222522 0 -61.831072325222522 26.718856477677036 0 0 0 0 67.71401490147764 -42.102746358247714 0 -42.102746358247714 -90.953943306586552 0 0 0 0 -67.042871696601651 -113.99811360004878 0 -113.99811360004878 183.23195886329449 0 0 0 0 -38.669222733063492 -14.79465717814233 0 -14.79465717814233 -5.881326845837064 0 0 0 0 -18.249466218887221 8.835443157872966 0 8.835443157872966 7.8620506027364172 0 0 0 0 -57.373092975362525 -11.338204350437216 0 -11.338204350437216 6.6054853021976072 0 0 0 0 -240.13450159914646 -133.36239052781639 0 -133.36239052781639 311.77857699712058 0 0 0 0 -362.01482188048249 -45.949181785505061 0 -45.949181785505061 276.99269337141959 0 0 0 0 86.523189238647319 -73.456955104872577 0 -73.456955104872577 -251.05476349513083 0 0 0 0 -218.85810743416368 12.855949286447867 0 12.855949286447867 242.61995036732287 0 0 0 0 -1.4354497858512048 -2.9831921393821688 0 -2.9831921393821688 -1.2353327145489246 0 0 0 0 -245.02229361345235 -86.932438553678367 0 -86.932438553678367 -112.31939593771313 0 0 0 0 -0.58016351107005448 -3.5836221462530098 0 -3.5836221462530098 -0.70501642493814964 0 0 0 0 -97.545451595218765 127.73012221042518 0 127.73012221042518 -173.04780343751736 0 0 0 0 -262.65430084905529 164.89507539152874 0 164.89507539152874 1.6527804066208773 0 0 0 0 -273.65429861816665 -48.998608396937925 0 -48.998608396937925 -161.75230288033345 0 0 0 0 -35.095027842566196 -4.9766387353756727 0 -4.9766387353756727 125.93342132826365 0 0 0 0 -72.49191368389387 6.2881984288904071 0 6.2881984288904071 27.768963814512091 0 0 0 0 -97.655627861711764 175.9543610091464 0 175.9543610091464 145.21308915989357 0 0 0 0 -168.28920543628919 114.41491974769087 0 114.41491974769087 -122.56071632119529 0 0 0 0 122.99105534738919 -44.527182018242456 0 -44.527182018242456 -34.050363952541375 0 0 0 0 -132.35334149371374 31.948412674765848 0 31.948412674765848 -9.4344932381609397 0 0 0 0 -135.45497618367972 -7.3158884511461792 0 -7.3158884511461792 -37.66208854717479 0 0 0 0 -143.40896686963242 -84.710087774429667 0 -84.710087774429667 18.908680888198433 0 0 0 0 -6.8975085620913887 -16.852134033655602 0 -16.852134033655602 -37.117259515682235 0 0 0 0 -309.47341860993765 1.9200192072730715 0 1.9200192072730715 49.96208519357242 0 0 0 0 -259.67467347084312 35.921362581557332 0 35.921362581557332 35.008531294045497 0 0 0 0 -228.91692775267438 99.717722677027723 0 99.717722677027723 70.832781783712562 0 0 0 0 -186.16992259537801 94.057387164687498 0 94.057387164687498 28.937015445460929 0 0 0 0 -300.610174934106 63.319645715870024 0 63.319645715870024 84.456803820015921 0 0 0 0 -191.97594104001837 100.59099350914994 0 100.59099350914994 138.39277678550388 0 0 0 0 -168.71357369969337 204.88315600938313 0 204.88315600938313 -95.522761164160329 0 0 0 0 -122.75984875726135 136.23731488871135 0 136.23731488871135 -59.206451524869408 0 0 0 0 -186.52043209351541 148.96436757836818 0 148.96436757836818 52.526694382559072 0 0 0 0 -102.87030651931127 103.73172533809577 0 103.73172533809577 133.37730288585954 0 0 0 0 -86.865995555737754 201.91808312613557 0 201.91808312613557 32.464850908978406 0 0 0 0 -10.182109037639748 106.59972675779227 0 106.59972675779227 103.77709420518568 0 0 0 0 43.941358035996018 -77.092403590317872 0 -77.092403590317872 263.81816924416125 0 0 0 0 -14.170403936892399 -5.0158660608958598 0 -5.0158660608958598 253.33074684929852 0 0 0 0 -49.115945592144271 122.58758928495081 0 122.58758928495081 139.46007413059033 0 0 0 0 -5.3925483899005258 -5.9102347488138562 0 -5.9102347488138562 -1.9809308209147041 0 0 0 0 -90.81643266230094 -58.715029179812518 0 -58.715029179812518 500.9543597883785 0 0 0 0 -7.5467705363116693 70.445867956114853 0 70.445867956114853 352.53284094854462 0 0 0 0 -31.447543717258668 106.29722104137727 0 106.29722104137727 8.2589174028162233 0 0 0 0 -123.63190743538144 143.09500431444849 0 143.09500431444849 200.58255771869972 0 0 0 0 -140.65400961704472 80.208955040216665 0 80.208955040216665 106.13758032840451 0 0 0 0 -22.578913081786595 210.314553747025 0 210.314553747025 -177.70684537012357 0 0 0 0 -176.46324809036741 272.89549956280007 0 272.89549956280007 -56.396000726603233 0 0 0 0 -292.03853617564891 -144.569678176362 0 -144.569678176362 -195.11444184515102 0 0 0 0 -118.48612946864159 354.63301523399036 0 354.63301523399036 -383.4974198489208 0 0 0 0 35.657568356691627 56.467754596880468 0 56.467754596880468 2.6677070719852054 0 0 0 0 -0.17932226061240897 -2.5790045354468489 0 -2.5790045354468489 -4.8464768550587785 0 0 0 0 -24.191848319416749 199.03393632108373 0 199.03393632108373 -249.41528703928634 0 0 0 0 -4.258241196571305 -5.163871664482528 0 -5.163871664482528 -5.791588123425413 0 0 0 0 -206.22546816393879 137.18476760663179 0 137.18476760663179 -55.804540214097187 0 0 0 0 121.13132392911575 -187.15884801684649 0 -187.15884801684649 60.766301326280882 0 0 0 0 -17.474050611956045 -87.182038161649871 0 -87.182038161649871 104.69253977905964 0 0 0 0 -18.850563215579257 -16.890409089657965 0 -16.890409089657965 -14.304508793857359 0 0 0 0 -93.60162400957779 -48.22097204234251 0 -48.22097204234251 127.94139922364047 0 0 0 0 79.986278965923702 32.642490797814389 0 32.642490797814389 74.617174566140648 0 0 0 0 54.671140468912199 21.551537332125008 0 21.551537332125008 69.820060328600448 0 0 0 0 71.927446107983997 -164.80339867696784 0 -164.80339867696784 358.49931061128518 0 0 0 0 115.05205982709595 -160.71886574628661 0 -160.71886574628661 162.92644925813397 0 0 0 0 -28.493729181158415 -293.70958235750004 0 -293.70958235750004 254.7264736111174 0 0 0 0 137.87082380016363 -289.33882860094218 0 -289.33882860094218 138.61405979741721 0 0 0 0 182.00743755159056 -235.01527771034125 0 -235.01527771034125 171.32863716804059 0 0 0 0 154.20364770534798 -190.92092114980005 0 -190.92092114980005 106.72612584672061 0 0 0 0 -1045.2139115504542 -310.2128612244378 0 -310.2128612244378 100.61877899055617 0 0 0 0 1.4443506347035111 -0.99395785527194391 0 -0.99395785527194391 -2.0681089512604238 0 0 0 0 152.92608768593254 48.389878046933518 0 48.389878046933518 -190.78687904743128 0 0 0 0 -14.047417195736518 4.8224543634155808 0 4.8224543634155808 1.2102810951938636 0 0 0 0 -8.0284420813984809 -3.869978604347736 0 -3.869978604347736 -1.4872003797632622 0 0 0 0 -3.8977272777674443 -3.360051766894685 0 -3.360051766894685 3.5488292964491848 0 0 0 0 133.62715506726818 -143.98250946285407 0 -143.98250946285407 120.11306168557394 0 0 0 0 23.765669304078983 -90.330984917268324 0 -90.330984917268324 -210.19698271759262 0 0 0 0 -14.981470149639406 -1.76676576874668 0 -1.76676576874668 4.8820438518292324 0 0 0 0 -42.521249102501315 66.625641107292722 0 66.625641107292722 7.6707731418955518 0 0 0 0 -269.14188236920745 -328.1630882793861 0 -328.1630882793861 137.59037785315741 0 0 0 0 -3.3527618308127227 5.6723957977461978 0 5.6723957977461978 -8.3381150944863478 0 0 0 0 -22.651667167909181 63.09449448979376 0 63.09449448979376 -43.394600752006227 0 0 0 0 -0.15535108293988742 -27.603730565982005 0 -27.603730565982005 45.036705944159621 0 0 0 0 -14.381542093331518 -249.66727057993012 0 -249.66727057993012 433.19802377288488 0 0 0 0 52.475908364234783 -17.292183804294837 0 -17.292183804294837 65.397835860999294 0 0 0 0 -7.4683199228894068 -12.313118317375945 0 -12.313118317375945 -1.5665993152313398 0 0 0 0 0.56307102783345897 -5.122272503074889 0 -5.122272503074889 2.4253325069494345 0 0 0 0 -23.962876646545794 1.3974486896101936 0 1.3974486896101936 9.3721808597056047 0 0 0 0 -21.955577995744534 -36.718036560367182 0 -36.718036560367182 62.312941963612502 0 0 0 0 -14.838586866200785 -4.2644826615360216 0 -4.2644826615360216 448.45851874781329 0 0 0 0 85.041621336829849 -251.87030920096367 0 -251.87030920096367 314.95575555287724 0 0 0 0 -8.2970966888709938 -7.8875753105921689 0 -7.8875753105921689 -2.7680956659457845 0 0 0 0 -115.79457462939899 -164.64155986306469 0 -164.64155986306469 639.05609796043154 0 0 0 0 35.652330432203598 -32.012383324295115 0 -32.012383324295115 0.47080275075313693 0 0 0 0 82.701276793317447 -141.46005735319591 0 -141.46005735319591 367.72522958884656 0 0 0 0 -44.40030794280392 41.227695393391514 0 41.227695393391514 104.98123385156214 0 0 0 0 -183.6904362335772 44.864577254993492 0 44.864577254993492 333.37795719380438 0 0 0 0 -78.900381660130734 -138.19304649770402 0 -138.19304649770402 320.0246700872849 0 0 0 0 -15.657498558962288 -186.92341047120692 0 -186.92341047120692 290.54509772959136 0 0 0 0 -185.62113531008072 -6.4268840350741812 0 -6.4268840350741812 226.54677152674958 0 0 0 0 -75.104596656135982 -276.93387198373784 0 -276.93387198373784 199.27204406046712 0 0 0 0 -200.82888354876923 -143.80412065751443 0 -143.80412065751443 149.60927695232749 0 0 0 0 -195.35531274532696 -237.25733033290135 0 -237.25733033290135 -8.18752652844978 0 0 0 0 -245.07096338739939 -89.438172005362503 0 -89.438172005362503 -83.308533928092402 0 0 0 0 -408.18062398368056 134.56665799444818 0 134.56665799444818 -67.701957343816844 0 0 0 0 -217.82683970857033 200.38270376477158 0 200.38270376477158 -51.102247806035848 0 0 0 0 -447.23453562526265 -96.994251109023935 0 -96.994251109023935 196.47655632926353 0 0 0 0 -753.12032786288182 462.99394758528319 0 462.99394758528319 -370.42633045665616 0 0 0 0 -7.4312184389384868 -4.4056361090428098 0 -4.4056361090428098 -2.6839785482946956 0 0 0 0 -808.96563474642744 -414.32341244319559 0 -414.32341244319559 -270.44492124277531 0 0 0 0 -63.64903542000684 -160.03023801786867 0 -160.03023801786867 -850.27296502714034 0 0 0 0 91.086206918756943 -161.12141757590689 0 -161.12141757590689 -347.28682856190699 0 0 0 0 -52.904570743921795 -16.919494775017824 0 -16.919494775017824 -222.30307786163769 0 0 0 0 -237.7608832391245 -351.28816519658244 0 -351.28816519658244 -43.612506966177534 0 0 0 0 86.961126210328075 -207.52114994384237 0 -207.52114994384237 158.19022099241829 0 0 0 0 60.106403094359848 -281.3624954787665 0 -281.3624954787665 -32.599104036196877 0 0 0 0 -2.3737048826003324 2.0000554497751963 0 2.0000554497751963 1.8526286197787414 0 0 0 0 567.19682804297918 -194.43892483303466 0 -194.43892483303466 -3.094342503856069 0 0 0 0 268.91991794322166 -450.47084131971599 0 -450.47084131971599 -39.456247214759969 0 0 0 0 -814.82884293887855 -260.72542101474869 0 -260.72542101474869 -82.739454510847281 0 0 0 0 -17.198443538105494 -127.68582083958978 0 -127.68582083958978 36.447774381495492 0 0 0 0 -32.140154098902713 -66.639673590662994 0 -66.639673590662994 -123.1444352976647 0 0 0 0 18.071272279403274 -244.60362591919102 0 -244.60362591919102 113.32339245478579 0 0 0 0 -411.11438968445145 -212.72114649412106 0 -212.72114649412106 19.198410073590821 0 0 0 0 -206.73778121638315 41.479572128146629 0 41.479572128146629 34.532910045922108 0 0 0 0 -192.1840874329464 0.71939914405083982 0 0.71939914405083982 53.310678607083901 0 0 0 0 -224.16096853119598 30.834995105663438 0 30.834995105663438 31.535448006407023 0 0 0 0 -215.49340743457287 28.665930116729214 0 28.665930116729214 7.0691271322866669 0 0 0 0 -31.246060281982864 140.54725776990472 0 140.54725776990472 -21.873413674002222 0 0 0 0 -881.60749510422102 -208.07714641064285 0 -208.07714641064285 225.77406890896418 0 0 0 0 -0.76029605690822777 2.6046068537626113 0 2.6046068537626113 13.536556343154324 0 0 0 0 -787.135187586764 216.93392431223219 0 216.93392431223219 375.5802214694595 0 0 0 0 -983.68834834866357 -553.8962563420564 0 -553.8962563420564 43.920651169835764 0 0 0 0 -660.21065447058936 -17.813119823221314 0 -17.813119823221314 -3.7626776749493729 0 0 0 0 -299.25276948940336 285.00088644069865 0 285.00088644069865 -598.51671148195419 0 0 0 0 -476.55022882889898 -435.49591341466839 0 -435.49591341466839 -502.89578044779773 0 0 0 0 -3.7607141946595277 -0.1605615954225712 0 -0.1605615954225712 -2.3492415234886757 0 0 0 0 -1132.8316115265843 -624.40538965700398 0 -624.40538965700398 13.921440768928733 0 0 0 0 -272.28586512889524 2.1471906203505569 0 2.1471906203505569 0.080364619940155535 0 0 0 0 233.70011352181973 -223.14694208359651 0 -223.14694208359651 -383.5293089440047 0 0 0 0 -406.35836924067644 43.576600046553949 0 43.576600046553949 16.489915226156882 0 0 0 0 -0.84732717469797869 1.7800636938782617 0 1.7800636938782617 3.2913558399126188 0 0 0 0 -241.74692705672715 60.844508896267143 0 60.844508896267143 -66.363276590680471 0 0 0 0 -696.93300198168572 77.861621604251582 0 77.861621604251582 80.158166775185236 0 0 0 0 -491.28254894975544 -195.46060729040437 0 -195.46060729040437 161.87395212247793 0 0 0 0 -953.0082216087394 312.87130011792033 0 312.87130011792033 -135.11002091458158 0 0 0 0 -886.47330730345857 -62.141558607243496 0 -62.141558607243496 216.7558947987327 0 0 0 0 -104.87769542404567 17.440315932835802 0 17.440315932835802 -46.290776732474114 0 0 0 0 -167.14934644310051 66.53686315660525 0 66.53686315660525 -57.251769431846697 0 0 0 0 -236.22959470753631 33.082006931265823 0 33.082006931265823 -26.846177466420613 0 0 0 0 -183.11264784863306 54.138455507369144 0 54.138455507369144 -45.353425388533651 0 0 0 0 -245.74525842216826 68.653086535796319 0 68.653086535796319 -6.1847248586163914 0 0 0 0 -201.38248585238398 37.430626720014061 0 37.430626720014061 11.50003337536873 0 0 0 0 -175.30596950421022 53.22956753249855 0 53.22956753249855 -14.818187911879079 0 0 0 0 -172.07157467036086 31.745793881881582 0 31.745793881881582 -15.849458428976504 0 0 0 0 -142.03159326835157 48.354201021673362 0 48.354201021673362 -38.817082311312788 0 0 0 0 -151.52819772833027 27.717945726748439 0 27.717945726748439 5.1262158517347416 0 0 0 0 -146.43155877514801 39.765039849226014 0 39.765039849226014 3.7819326040067835 0 0 0 0 -185.07210275932812 29.313528370604217 0 29.313528370604217 25.830329580723628 0 0 0 0 -236.18623195115288 34.43456733441235 0 34.43456733441235 38.894947560795117 0 0 0 0 -204.25149343120574 49.85476610925798 0 49.85476610925798 13.20514286794355 0 0 0 0 -222.84055235523192 34.041867608133543 0 34.041867608133543 38.890822281236638 0 0 0 0 -214.27934761899269 23.912685592791149 0 23.912685592791149 34.224977078361917 0 0 0 0 -150.88563932220859 18.708042131194816 0 18.708042131194816 23.951641849780572 0 0 0 0 -174.70837717638642 36.579794129051152 0 36.579794129051152 24.495839704329001 0 0 0 0 -179.00091634669661 21.788827929012768 0 21.788827929012768 30.465572024647372 0 0 0 0 -122.72035549371139 9.9149539156578612 0 9.9149539156578612 -1.0182123535068968 0 0 0 0 -178.12396329037438 26.966714842805231 0 26.966714842805231 26.13732410925536 0 0 0 0 -104.10974280219307 42.963527976134174 0 42.963527976134174 16.649697648049141 0 0 0 0 -109.46528523037341 18.243922542586006 0 18.243922542586006 20.345094632695691 0 0 0 0 -133.1979226444455 35.602960793026796 0 35.602960793026796 22.315359483017346 0 0 0 0 -78.432003351463209 35.772004360847859 0 35.772004360847859 18.153945924306754 0 0 0 0 -60.937120815375238 18.641577363150645 0 18.641577363150645 16.076306160292006 0 0 0 0 -55.245268760187173 47.276296907134565 0 47.276296907134565 20.99261477525215 0 0 0 0 -7.9280842843872961 27.203042839160844 0 27.203042839160844 12.502541090194427 0 0 0 0 55.123426809917873 16.027942499901656 0 16.027942499901656 -3.3922696061963507 0 0 0 0 6.2853360183580662 6.8272030913267372 0 6.8272030913267372 33.430886436117362 0 0 0 0 28.618892141308606 2.157897566588872 0 2.157897566588872 16.074896039281157 0 0 0 0 -15.248485913900367 23.769542907519281 0 23.769542907519281 27.349756125415297 0 0 0 0 -15.467617496164166 42.500741438183468 0 42.500741438183468 18.614334858932125 0 0 0 0 -2.245449848654971 35.382149857350669 0 35.382149857350669 12.457207145351276 0 0 0 0 35.415000380322454 22.3228068394601 0 22.3228068394601 11.102935904975311 0 0 0 0 -19.340323865275423 46.549079237742262 0 46.549079237742262 18.009482931953244 0 0 0 0 41.431732845652732 48.07926846544342 0 48.07926846544342 2.8484382116184861 0 0 0 0 -19.090043322641577 41.245544336195962 0 41.245544336195962 10.806647108933248 0 0 0 0 -43.730621889582835 27.671377334183489 0 27.671377334183489 6.6053092464590009 0 0 0 0 -25.263676082548045 45.89950859468081 0 45.89950859468081 17.710755029318534 0 0 0 0 -55.042452274778043 31.202667333564023 0 31.202667333564023 19.224951894812648 0 0 0 0 -69.260864469390071 31.759508814271612 0 31.759508814271612 25.226899160772518 0 0 0 0 6.133374263321457 53.928778883753694 0 53.928778883753694 10.985026867965644 0 0 0 0 -44.643651128848433 47.524134780282111 0 47.524134780282111 52.806693401111261 0 0 0 0 -42.898711293186352 26.64852881625302 0 26.64852881625302 18.034885435685283 0 0 0 0 -61.11477534975711 13.242996499457149 0 13.242996499457149 15.600259770523735 0 0 0 0 -40.318731676878997 36.95848165084135 0 36.95848165084135 10.127794309231831 0 0 0 0 -101.07458607593435 20.415399157359388 0 20.415399157359388 15.434927454278295 0 0 0 0 -101.30356009816751 24.746007392081992 0 24.746007392081992 -4.1950120478522877 0 0 0 0 -107.80750197179441 26.749759030150017 0 26.749759030150017 13.094932620653708 0 0 0 0 -142.25547714204367 28.718143490844795 0 28.718143490844795 18.939038728345622 0 0 0 0 -107.75779658932879 25.214050414433586 0 25.214050414433586 22.64203780725029 0 0 0 0 -69.523074832150542 28.806554133394343 0 28.806554133394343 7.0656427062640432 0 0 0 0 -90.125481628710986 -7.7497858598553648 0 -7.7497858598553648 75.13014222608399 0 0 0 0 -27.086350052220155 6.8761489708104335 0 6.8761489708104335 1.7909610742087025 0 0 0 0 76.785763104994658 71.014147876424431 0 71.014147876424431 -8.9646897992279264 0 0 0 0 -12.499110138987277 0.62475795629688946 0 0.62475795629688946 1.0447384794048915 0 0 0 0 -32.964578026815317 26.068216111927192 0 26.068216111927192 33.9274304636781 0 0 0 0 -198.25110496815432 -14.11152233137409 0 -14.11152233137409 15.218696630393978 0 0 0 0 -135.45044607144155 -5.7594420950426866 0 -5.7594420950426866 66.602830496325623 0 0 0 0 -95.130105425726782 29.810148710922668 0 29.810148710922668 12.301981918953036 0 0 0 0 -123.9402054893726 30.229059311814126 0 30.229059311814126 -10.713424436027708 0 0 0 0 -70.889666417096606 28.718525598379948 0 28.718525598379948 17.819198766901074 0 0 0 0 -86.548744833169621 17.716958484086717 0 17.716958484086717 25.911266702076318 0 0 0 0 -187.49481501969967 32.176641929965626 0 32.176641929965626 31.994265731729683 0 0 0 0 10.897082792364927 102.6438989956489 0 102.6438989956489 49.668103681004141 0 0 0 0 -54.665718103889958 54.977874843109021 0 54.977874843109021 68.934602158285543 0 0 0 0 -136.34166845590494 15.101663774805473 0 15.101663774805473 64.604520431694255 0 0 0 0 -96.358922836840065 -0.33901411458009534 0 -0.33901411458009534 13.321664026059807 0 0 0 0 -14.63941529034474 27.193204510774645 0 27.193204510774645 31.36364150889586 0 0 0 0 -133.24982080520385 -19.064951444437611 0 -19.064951444437611 44.159243320526002 0 0 0 0 -67.181112728903827 19.369117656056005 0 19.369117656056005 25.791381605304196 0 0 0 0 -79.052266848784711 6.6621580244404868 0 6.6621580244404868 12.656030473555802 0 0 0 0 -65.489046616061387 -4.9956019747642131 0 -4.9956019747642131 21.476448041550611 0 0 0 0 -68.635197023188084 4.6778097370597607 0 4.6778097370597607 -7.779210515241175 0 0 0 0 -86.364829737729451 29.221142660254827 0 29.221142660254827 -33.346649725481257 0 0 0 0 -112.37567340021087 15.675394647745179 0 15.675394647745179 -13.970215302000724 0 0 0 0 -130.55684520917566 40.320770160496068 0 40.320770160496068 -8.9016861443724338 0 0 0 0 -68.721585770210368 27.964669938701263 0 27.964669938701263 -12.890716977606644 0 0 0 0 -61.692995212797541 13.083178729057181 0 13.083178729057181 -6.4637826025591494 0 0 0 0 -52.051740207391049 31.351656696413102 0 31.351656696413102 17.491710135509493 0 0 0 0 -61.253363931224158 10.514603041239752 0 10.514603041239752 -2.9360504754949943 0 0 0 0 -65.518086311451043 -6.6550642407019041 0 -6.6550642407019041 -19.370120441229119 0 0 0 0 -106.98119056809446 15.483842022794306 0 15.483842022794306 -23.33927092418935 0 0 0 0 -44.178571538996493 14.389958048899643 0 14.389958048899643 -46.323457188425891 0 0 0 0 -56.755845437383869 -17.667436090812089 0 -17.667436090812089 -8.400301099054559 0 0 0 0 -40.182008946318092 -31.778609848206543 0 -31.778609848206543 -19.642718302929097 0 0 0 0 -47.163722561483155 -69.752573352477157 0 -69.752573352477157 36.924939272956181 0 0 0 0 -12.48621604580876 -68.945129411857124 0 -68.945129411857124 15.511759908518798 0 0 0 0 7.3944393368642523 10.481470743178306 0 10.481470743178306 -38.277782174360254 0 0 0 0 -94.295194948759672 24.222441119318773 0 24.222441119318773 100.47122408699397 0 0 0 0 -17.544611389726679 27.838210030474805 0 27.838210030474805 29.466663710853169 0 0 0 0 -73.811265603195352 -49.865757001775364 0 -49.865757001775364 47.887985478435439 0 0 0 0 -111.22078689267437 -12.38799417158134 0 -12.38799417158134 21.420670988112761 0 0 0 0 -35.360927015506604 -84.710487018644926 0 -84.710487018644926 48.446957252465836 0 0 0 0 -200.21327720133922 -144.24525004960378 0 -144.24525004960378 120.13829505545618 0 0 0 0 -298.50729242679881 27.494734355946093 0 27.494734355946093 120.17100908551674 0 0 0 0 29.631259338422751 52.423851765643121 0 52.423851765643121 -150.7619346329875 0 0 0 0 -3.1097104641708739 -1.4877225894057986 0 -1.4877225894057986 -0.48679659529822672 0 0 0 0 -49.841834314727748 -187.53199796510125 0 -187.53199796510125 131.78952726054376 0 0 0 0 -288.09247263429927 199.53203064974005 0 199.53203064974005 104.37439492900194 0 0 0 0 -162.68165920860338 182.36441495899453 0 182.36441495899453 105.91838183654545 0 0 0 0 -245.98441429874947 132.41270485872519 0 132.41270485872519 109.57383836913436 0 0 0 0 -289.98038393340028 2.3074741623050983 0 2.3074741623050983 107.90318760915943 0 0 0 0 -113.07595080670126 4.4865050250423337 0 4.4865050250423337 107.7644509065467 0 0 0 0 -16.872673613848747 -96.759655477924753 0 -96.759655477924753 254.7043634271804 0 0 0 0 98.903271667997615 -82.118702364845376 0 -82.118702364845376 36.498883127680358 0 0 0 0 -51.718490599079814 58.987169863306917 0 58.987169863306917 79.817702091704632 0 0 0 0 -79.461043948718725 150.66069563348356 0 150.66069563348356 83.390261846304384 0 0 0 0 -313.67953655389283 -105.56343089054417 0 -105.56343089054417 483.7669141640381 0 0 0 0 -7.0922898122569364 -3.2333299463952443 0 -3.2333299463952443 -0.67024600268238643 0 0 0 0 -136.58550108480813 67.043592910040388 0 67.043592910040388 169.85184649290932 0 0 0 0 69.42570632816205 -65.310431206593876 0 -65.310431206593876 15.438775138414712 0 0 0 0 -240.03268030164691 -70.761410047890422 0 -70.761410047890422 24.173460081237863 0 0 0 0 -256.29818961292767 -15.791591959641664 0 -15.791591959641664 61.258975536124126 0 0 0 0 -353.7027130326278 -49.100619505210489 0 -49.100619505210489 248.40552935102096 0 0 0 0 -447.4200957420544 -186.23943484478332 0 -186.23943484478332 159.2902401354695 0 0 0 0 -228.98968590415097 -128.086018456087 0 -128.086018456087 -13.541481263828246 0 0 0 0 -90.309350994015404 -115.94763474465617 0 -115.94763474465617 79.479911060916493 0 0 0 0 -322.37956901024154 -125.95765602874962 0 -125.95765602874962 81.271559541992247 0 0 0 0 -322.72074728894586 -130.04737351438052 0 -130.04737351438052 184.35362781576532 0 0 0 0 1.6454803930328126 -33.59155420484467 0 -33.59155420484467 87.334191007241316 0 0 0 0 -329.39087141789787 75.019926990366002 0 75.019926990366002 53.458880102114563 0 0 0 0 -409.64674377891424 -20.715958144972319 0 -20.715958144972319 -49.332876650725666 0 0 0 0 -299.93536152700108 59.298869387715058 0 59.298869387715058 -271.91213367787168 0 0 0 0 -261.49344555205607 -59.579066736951972 0 -59.579066736951972 -119.66468074244767 0 0 0 0 -422.55336372420061 -11.677683547057313 0 -11.677683547057313 -10.618664331504192 0 0 0 0 -390.74438963033754 48.792561453954477 0 48.792561453954477 -49.590126114115264 0 0 0 0 -429.45798338805798 -17.24165317774623 0 -17.24165317774623 -140.41581335132287 0 0 0 0 -681.82571031193584 235.10122608817255 0 235.10122608817255 -165.65590057585268 0 0 0 0 -1043.0584605856975 24.850463551765642 0 24.850463551765642 42.784810654757166 0 0 0 0 -739.18655993404536 24.527900995384698 0 24.527900995384698 20.486373084630031 0 0 0 0 -618.78187419926689 -92.410493956640494 0 -92.410493956640494 -52.999173152415096 0 0 0 0 -233.70012768707056 47.567517355461405 0 47.567517355461405 -50.926641363479575 0 0 0 0 -209.51108830942758 39.378778836397032 0 39.378778836397032 -140.11703424734151 0 0 0 0 -376.51009743417671 -4.9889989468979365 0 -4.9889989468979365 -57.494113390703205 0 0 0 0 -495.88475762101007 102.76195620933686 0 102.76195620933686 -85.863266000468684 0 0 0 0 -100.63129111972739 17.816152494926428 0 17.816152494926428 -68.247700450071306 0 0 0 0 -111.33763674901638 7.336725237405517 0 7.336725237405517 -21.146518420793655 0 0 0 0 -110.64997199127538 -10.432175746136636 0 -10.432175746136636 55.381544225078414 0 0 0 0 -210.51824311289602 32.482454776285522 0 32.482454776285522 -20.923080397025842 0 0 0 0 -96.146741518959971 -16.100726971424137 0 -16.100726971424137 -87.609364590756741 0 0 0 0 -46.555326345418507 9.185665447453971 0 9.185665447453971 -1.8864835155798119 0 0 0 0 -47.561862377318903 10.398598996667829 0 10.398598996667829 -2.3317783713629865 0 0 0 0 729.56557642096595 463.21671519027052 0 463.21671519027052 -874.9145697527033 0 0 0 0 -6.517929312864716 -0.8331154085347876 0 -0.8331154085347876 2.4121373676843052 0 0 0 0 -24.128090688250069 -6.4442557686876825 0 -6.4442557686876825 9.9469158394845287 0 0 0 0 -36.455115666598431 1.3448216402629782 0 1.3448216402629782 2.4531963594781701 0 0 0 0 -18.115007772251509 7.6869260897097647 0 7.6869260897097647 -0.18450967416768815 0 0 0 0 91.980573816214019 -553.69004643799349 0 -553.69004643799349 -38.50673511792229 0 0 0 0 -15.474090096240786 6.9717274703892649 0 6.9717274703892649 -7.785058022242664 0 0 0 0 -3493.8809835251086 -641.7822782382525 0 -641.7822782382525 -91.020571871078786 0 0 0 0 -208.6101276255431 177.88361228595591 0 177.88361228595591 -1559.2054145026518 0 0 0 0 -1100.0332688786439 1888.1432913761219 0 1888.1432913761219 -1865.7936533216491 0 0 0 0 -691.76593158447577 503.88058465766255 0 503.88058465766255 68.086586673224247 0 0 0 0 -2609.6682463184552 2595.3751704982051 0 2595.3751704982051 -729.43083627056842 0 0 0 0 -3495.5106781779086 2028.5928213571701 0 2028.5928213571701 -237.17805857470893 0 0 0 0 -1924.0856838065829 1098.4570637328779 0 1098.4570637328779 -153.13827608005568 0 0 0 0 -508.24861710669393 75.941198411433845 0 75.941198411433845 -536.54616654127688 0 0 0 0 -12.978143575405831 -3.3479010462941474 0 -3.3479010462941474 -0.94796753563186575 0 0 0 0 -448.20363137063305 240.62508142810736 0 240.62508142810736 -147.21962491678619 0 0 0 0 -680.51095042102679 1439.9489120902676 0 1439.9489120902676 -634.01271292160118 0 0 0 0 -15.027952737053916 16.51630098746562 0 16.51630098746562 -0.63851802597634721 0 0 0 0 485.46255838051729 227.06290283829054 0 227.06290283829054 17.549800879447048 0 0 0 0 -54.342717871018976 3.7790966102054426 0 3.7790966102054426 -7.6427811306248259 0 0 0 0 -3.926734450809839 3.8033121744648497 0 3.8033121744648497 -5.5151367492753502 0 0 0 0 -76.535132655881171 18.926871480572174 0 18.926871480572174 -17.972883154262888 0 0 0 0 409.32787526868924 91.665595720158535 0 91.665595720158535 20.660183685073207 0 0 0 0 264.86644366799737 56.259755923756529 0 56.259755923756529 41.572605951140758 0 0 0 0 140.68399030843284 185.84086345776223 0 185.84086345776223 89.078313694230758 0 0 0 0 209.69775321400084 249.33642483456833 0 249.33642483456833 96.972535949648318 0 0 0 0 377.90926036122619 176.7856699587353 0 176.7856699587353 45.115786620632207 0 0 0 0 168.32972145829262 139.606971176971 0 139.606971176971 45.377612715401483 0 0 0 0 239.33452144363946 187.63983575073661 0 187.63983575073661 48.047460624637097 0 0 0 0 109.51346738087159 222.08513270664787 0 222.08513270664787 82.543962365726657 0 0 0 0 145.189544724999 141.87999714300213 0 141.87999714300213 52.459716196091904 0 0 0 0 67.775147881016892 85.984245868033668 0 85.984245868033668 12.207003933548549 0 0 0 0 48.715300585513432 151.93711534154568 0 151.93711534154568 163.49958373274239 0 0 0 0 -22.31339872999888 6.8987015623397951 0 6.8987015623397951 -0.35650835437900241 0 0 0 0 -3.2008671793935761 9.952535204478572 0 9.952535204478572 -5.9706631223949218 0 0 0 0 127.61663050368952 83.065270917550606 0 83.065270917550606 48.453540886505834 0 0 0 0 -19.235109242478785 -0.55741082558623134 0 -0.55741082558623134 -1.8047965875512793 0 0 0 0 -14.586449574291692 15.573080508028625 0 15.573080508028625 -2.6886393409431548 0 0 0 0 -44.96287941524497 15.65787061540766 0 15.65787061540766 -0.20419255182730467 0 0 0 0 -14.805882490698423 13.674713787225301 0 13.674713787225301 -7.127720248317587 0 0 0 0 -14.714385380137706 15.089805081312853 0 15.089805081312853 -2.4672693397425105 0 0 0 0 -44.468449091222283 12.900317855626554 0 12.900317855626554 1.8281486073958604 0 0 0 0 -22.377030951956876 1.1908653681487351 0 1.1908653681487351 0.33175678711031464 0 0 0 0 4.3527550599200708 40.380236104720581 0 40.380236104720581 -7.2981343688607767 0 0 0 0 -33.19386393967352 3.45932499393329 0 3.45932499393329 -0.90146745400899464 0 0 0 0 -3.2997246423183242 29.517805817598401 0 29.517805817598401 47.55270434298086 0 0 0 0 -19.733016947291617 126.79888439372985 0 126.79888439372985 -160.97461563175352 0 0 0 0 33.55536725589991 61.29301447511989 0 61.29301447511989 62.356790358131548 0 0 0 0 -0.85153635127727512 12.107580202261133 0 12.107580202261133 -8.8244405258454641 0 0 0 0 2.3485699675664193 6.5591012904615305 0 6.5591012904615305 -0.13947199549761358 0 0 0 0 -87.887881933951576 88.093843483158253 0 88.093843483158253 74.075844328320159 0 0 0 0 -39.825540902362263 95.045979988014892 0 95.045979988014892 -57.108741022962931 0 0 0 0 -50.941523806919577 129.08449374019392 0 129.08449374019392 3.025434547261284 0 0 0 0 -111.03745123438421 79.237986122256189 0 79.237986122256189 -91.375275896186395 0 0 0 0 -19.939280023347237 101.67853288448714 0 101.67853288448714 -85.896634425969751 0 0 0 0 60.11094999226043 127.55343062536667 0 127.55343062536667 -81.143214369063571 0 0 0 0 95.880836411233759 55.378527007016601 0 55.378527007016601 26.389136992405383 0 0 0 0 6.236744499973323 -1.0185883014041934 0 -1.0185883014041934 -0.82050952898081952 0 0 0 0 -33.556927403493319 11.196623385053499 0 11.196623385053499 11.061136478783737 0 0 0 0 -81.694379576889332 89.028318217873675 0 89.028318217873675 73.730255193123412 0 0 0 0 -107.62581488671367 25.845644053595151 0 25.845644053595151 -8.2115875959844402 0 0 0 0 -69.639980542410285 19.124734553182407 0 19.124734553182407 -7.4429532822297801 0 0 0 0 -28.392985983050593 33.57101864787959 0 33.57101864787959 -2.7146030314198746 0 0 0 0 -43.027766404595042 29.559515665482387 0 29.559515665482387 -5.4156828835317699 0 0 0 0 -13.97108849498909 27.772979044992098 0 27.772979044992098 9.2783446040202762 0 0 0 0 -47.128765911240166 25.134745694110137 0 25.134745694110137 -2.2983453164872465 0 0 0 0 -99.907408578299396 32.506663778242682 0 32.506663778242682 -3.1981535872637323 0 0 0 0 -43.872371469517553 0.28383113507556867 0 0.28383113507556867 2.2790377022072437 0 0 0 0 -105.58632210463702 5.6507964676916345 0 5.6507964676916345 0.81892822447980507 0 0 0 0 -95.994093278226501 4.45323523596835 0 4.45323523596835 0.88819296977965223 0 0 0 0 -11.255343527910554 11.89195427980701 0 11.89195427980701 21.426982496568144 0 0 0 0 -29.285140230233083 1.2401581512467601 0 1.2401581512467601 3.0204222725915315 0 0 0 0 -18.723451296202256 12.674225875986053 0 12.674225875986053 -63.444351824293335 0 0 0 0 -16.654832261693652 -15.67256120324261 0 -15.67256120324261 -12.875683668035922 0 0 0 0 -38.361524118106992 -5.6181518000803532 0 -5.6181518000803532 0.46032643507822968 0 0 0 0 -17.861666591285008 -5.092334147387195 0 -5.092334147387195 -7.645399129313148 0 0 0 0 -4.4992231645010179 -10.324667879940534 0 -10.324667879940534 2.1896505810373128 0 0 0 0 -34.024393327879807 3.5543042265294389 0 3.5543042265294389 3.7550719611755881 0 0 0 0 -39.956470743652972 4.3387168772236464 0 4.3387168772236464 -1.0419683689972317 0 0 0 0 -19.576578406591128 5.9848756262952811 0 5.9848756262952811 -8.159164533859574 0 0 0 0 -78.953490246265119 42.028277839809725 0 42.028277839809725 -41.582743383958245 0 0 0 0 -27.975951569906243 2.5897031559936572 0 2.5897031559936572 0.71885620910272507 0 0 0 0 -33.784177892671792 12.283706891011361 0 12.283706891011361 0.11586137242545691 0 0 0 0 -44.533205215931957 8.6442554682382706 0 8.6442554682382706 -5.7007216352676551 0 0 0 0 -25.175365348500193 11.02881726075454 0 11.02881726075454 -3.1947984800342697 0 0 0 0 -16.380493627208207 -6.6097517183866721 0 -6.6097517183866721 1.8640970785124442 0 0 0 0 -112.89960158224494 24.556035746571098 0 24.556035746571098 -6.1539097529935134 0 0 0 0 -2216.5031679615913 -303.54409199492756 0 -303.54409199492756 -50.371003307389401 0 0 0 0 -3500.2224633428013 943.36239635055745 0 943.36239635055745 132.57994626264727 0 0 0 0 -123.88766193954871 -102.26624838203546 0 -102.26624838203546 -33.982907900720974 0 0 0 0 -125.86776534830824 -30.223690395508513 0 -30.223690395508513 -33.072157084106188 0 0 0 0 2.4972595061349558 -2.7323190821771384 0 -2.7323190821771384 -7.7399014977172262 0 0 0 0 -25.002967927779537 -26.207907247649928 0 -26.207907247649928 -99.763765109631549 0 0 0 0 -240.31989494052527 368.17049736204115 0 368.17049736204115 -217.1204072054586 0 0 0 0 -6.201075833352153 -3.7661080600292216 0 -3.7661080600292216 1.3719545530550274 0 0 0 0 -3499.3470778760484 943.42282539463952 0 943.42282539463952 132.44998512560042 0 0 0 0 -31.376077379167555 58.304254897971589 0 58.304254897971589 237.05103994261094 0 0 0 0 -7.533820395865833 -0.5295505063685737 0 -0.5295505063685737 10.690251588003612 0 0 0 0 -13.342022642583183 -14.215282786552667 0 -14.215282786552667 -18.086528917052441 0 0 0 0 -123.45199744897619 15.651216987313418 0 15.651216987313418 3.9033964367549743 0 0 0 0 -636.76737162080144 -395.89365773543284 0 -395.89365773543284 -200.84262046651983 0 0 0 0 -124.83732993454305 165.45934694473613 0 165.45934694473613 141.96242966418504 0 0 0 0 104.32007021811546 -509.79884674246915 0 -509.79884674246915 -627.04354690446098 0 0 0 0 -3480.2890870566589 -492.96012677267777 0 -492.96012677267777 179.35773293888974 0 0 0 0 -5.0162829688464576 -4.8241018816756931 0 -4.8241018816756931 -7.3700462641467341 0 0 0 0 -409.38169965015186 -1090.0958105013735 0 -1090.0958105013735 -1047.4430050556753 0 0 0 0 -3491.8777184666155 -1416.2219623164758 0 -1416.2219623164758 -16.961089055725562 0 0 0 0 -1623.468836209257 -215.53703183559688 0 -215.53703183559688 395.05708544954803 0 0 0 0 -265.74347546719594 -262.52998575713184 0 -262.52998575713184 -717.60572779812765 0 0 0 0 -1561.3923883441078 -367.91271084732779 0 -367.91271084732779 379.87856205322481 0 0 0 0 0.48688569016606975 1.1180770146159718 0 1.1180770146159718 2.6845633142460379 0 0 0 0 -796.84362801148166 -305.08287051541856 0 -305.08287051541856 297.08456666321626 0 0 0 0 -708.07553192576256 126.60480038065549 0 126.60480038065549 77.482398495701318 0 0 0 0 -1670.7540591258999 12.949531977214754 0 12.949531977214754 291.53774003107446 0 0 0 0 -1621.2862710880686 -312.49581186924325 0 -312.49581186924325 397.70920921040681 0 0 0 0 5.4898972055307809 11.524020209622831 0 11.524020209622831 -24.610601106658279 0 0 0 0 11.769650309284771 28.707559676628989 0 28.707559676628989 -41.545121382798243 0 0 0 0 -2.3655334928965033 -28.801617452601675 0 -28.801617452601675 -90.657187914180213 0 0 0 0 -50.858040626171714 89.204224056565181 0 89.204224056565181 -67.123041139477209 0 0 0 0 -106.51341964832454 80.183047659467888 0 80.183047659467888 5.1253110948716198 0 0 0 0 4.0334571265908643 0.78845921777990557 0 0.78845921777990557 -9.4172512646479483 0 0 0 0 -201.9859830875173 -77.368791995019592 0 -77.368791995019592 -112.56116918871021 0 0 0 0 -141.84005410404873 51.966348038655283 0 51.966348038655283 12.953504080764162 0 0 0 0 -283.72983751137349 53.29825139549304 0 53.29825139549304 11.392759798080306 0 0 0 0 -144.96533758356986 78.370575006621493 0 78.370575006621493 -148.95932123090017 0 0 0 0 -16.850057404886847 36.42437985434691 0 36.42437985434691 -46.04121365217469 0 0 0 0 2.3378765694047381 16.054896627320392 0 16.054896627320392 -15.61429585664068 0 0 0 0 8.1519493644059366 -15.379061013832825 0 -15.379061013832825 -36.803767766316923 0 0 0 0 -46.651140637397077 42.016692089474986 0 42.016692089474986 -9.4218983033370023 0 0 0 0 -134.40901592255193 57.03610328357081 0 57.03610328357081 -6.3146169560096723 0 0 0 0 -19.425050194849277 28.295869663304057 0 28.295869663304057 -8.6669681878087772 0 0 0 0 -135.4518378406184 -1.5931908221792241 0 -1.5931908221792241 -11.229489775559159 0 0 0 0 -117.02162196857262 20.939586854941922 0 20.939586854941922 -1.0247460587905834 0 0 0 0 -112.01133269099068 42.304552301878971 0 42.304552301878971 5.9322198734423637 0 0 0 0 -122.96858650820639 26.883375021234656 0 26.883375021234656 3.5554223581493716 0 0 0 0 -57.668070292392983 29.546727387070103 0 29.546727387070103 -2.1511631102131599 0 0 0 0 -57.054958929158602 15.00555956884125 0 15.00555956884125 -7.5111119341036101 0 0 0 0 -41.341455096009668 22.68230763774875 0 22.68230763774875 -5.8180822329377406 0 0 0 0 -46.087555423520236 26.512854618044607 0 26.512854618044607 -3.8558184473752766 0 0 0 0 -89.769147011007846 47.341421806608821 0 47.341421806608821 -1.6635421438390949 0 0 0 0 -39.269656618865973 -3.9480059087000647 0 -3.9480059087000647 -2.4031610283841029 0 0 0 0 -98.987435137947614 68.706249448931885 0 68.706249448931885 175.73626267461259 0 0 0 0 -81.024478200600299 31.415770434566909 0 31.415770434566909 0.4674748447496988 0 0 0 0 25.441550113566336 188.39170489789376 0 188.39170489789376 102.1156877205517 0 0 0 0 -28.30009001781886 -0.19482142121432844 0 -0.19482142121432844 3.8131026038017826 0 0 0 0 134.70239499598392 148.36150060740511 0 148.36150060740511 93.214337296392841 0 0 0 0 -60.284170659913798 73.73830192131777 0 73.73830192131777 41.12358037069356 0 0 0 0 47.69362236500092 157.4961528493476 0 157.4961528493476 23.525058559379431 0 0 0 0 -71.712137310778417 14.378966913289332 0 14.378966913289332 -30.972388401612079 0 0 0 0 -161.37006113712778 -14.248733665151121 0 -14.248733665151121 4.5722158420587675 0 0 0 0 -119.99819559218213 23.404150525862462 0 23.404150525862462 9.7117912677044842 0 0 0 0 1.4657734634711623 -1.1234112834393422 0 -1.1234112834393422 -2.8370912886637409 0 0 0 0 -223.11550044015712 -2.3476702230716455 0 -2.3476702230716455 13.318044254936467 0 0 0 0 -175.08914240369086 48.250818221303234 0 48.250818221303234 -32.320783957944514 0 0 0 0 -83.961506672248106 1.3687220461708876 0 1.3687220461708876 -8.2472385195687821 0 0 0 0 -66.123899667494811 66.653782658360512 0 66.653782658360512 2.3743187768995995 0 0 0 0 -88.20629064237437 23.97089526988384 0 23.97089526988384 -78.727806729226813 0 0 0 0 -99.171854596115736 -13.987219678593192 0 -13.987219678593192 -13.733791996293803 0 0 0 0 -117.89334030025566 -42.229090040735173 0 -42.229090040735173 -40.207756642658296 0 0 0 0 -173.45682582821428 20.340741229347259 0 20.340741229347259 0.20463102357825846 0 0 0 0 -62.037348084775005 4.0707810044232193 0 4.0707810044232193 4.613666582083976 0 0 0 0 -176.26185722853256 20.821486263649149 0 20.821486263649149 57.248577939939423 0 0 0 0 -68.11511514333688 31.208865067487068 0 31.208865067487068 19.860857513654992 0 0 0 0 -50.299425536388298 -0.40333582108723931 0 -0.40333582108723931 23.30044714678661 0 0 0 0 -167.40726295434735 48.512709049587897 0 48.512709049587897 48.726468093537648 0 0 0 0 -51.654660599818875 -9.9726082874620197 0 -9.9726082874620197 6.6785349567607319 0 0 0 0 -76.130547068915348 14.01587754394825 0 14.01587754394825 18.93167655940124 0 0 0 0 -53.275073297900235 18.525282654477905 0 18.525282654477905 -9.8085603437904645 0 0 0 0 -78.479455831769883 -7.2961001500889324 0 -7.2961001500889324 -9.9717881475835384 0 0 0 0 -93.582629024236667 -3.5632901692351879 0 -3.5632901692351879 -7.7853684735010802 0 0 0 0 -205.84586909608333 104.60978916002955 0 104.60978916002955 230.51474483333845 0 0 0 0 -72.095074886963445 22.595551547067231 0 22.595551547067231 9.7265380099184426 0 0 0 0 -95.415490983301424 -53.50763917180052 0 -53.50763917180052 247.62842871567182 0 0 0 0 -427.73667863891751 169.0094645913282 0 169.0094645913282 98.637673904804615 0 0 0 0 -229.71614165692881 -0.66057295215114209 0 -0.66057295215114209 138.09563388610377 0 0 0 0 -229.94901785378238 -12.726797234036454 0 -12.726797234036454 -17.930532394801958 0 0 0 0 -22.379402696238685 105.93621886495748 0 105.93621886495748 -28.808180599375646 0 0 0 0 -59.987458018571488 155.43814963027603 0 155.43814963027603 185.12872025429715 0 0 0 0 -74.914942355246055 28.242774255920416 0 28.242774255920416 1.6118482212693408 0 0 0 0 -277.09764516090218 46.474914076300138 0 46.474914076300138 89.414116094664223 0 0 0 0 -304.31245116100763 94.923227012245547 0 94.923227012245547 27.358789572584556 0 0 0 0 -342.90383612947699 -4.6267501398034483 0 -4.6267501398034483 43.945783926754302 0 0 0 0 -241.0317372017671 117.68603894966827 0 117.68603894966827 87.912573575368697 0 0 0 0 -424.45911619812978 27.591748095183675 0 27.591748095183675 102.14792302818569 0 0 0 0 -606.30945672727466 2.6294979213864735 0 2.6294979213864735 122.85281376053899 0 0 0 0 -389.93496706492078 -0.65019143252089862 0 -0.65019143252089862 74.419102547774855 0 0 0 0 -411.0928376584634 71.031250170677822 0 71.031250170677822 127.90691419322775 0 0 0 0 -242.35066126420134 91.934238571267542 0 91.934238571267542 48.585313587467226 0 0 0 0 -246.87437410193525 105.12136734673004 0 105.12136734673004 250.79720530264126 0 0 0 0 -57.197894691365946 77.018128634754021 0 77.018128634754021 10.622360989007575 0 0 0 0 -193.04133618058768 87.397895871385344 0 87.397895871385344 16.296394789838359 0 0 0 0 -2.9811439169207006 105.62976711307329 0 105.62976711307329 7.2688332529887703 0 0 0 0 -4.553879530125414 49.263441478401546 0 49.263441478401546 -11.553436049409584 0 0 0 0 37.596760222106241 183.16263382067427 0 183.16263382067427 22.962658592487514 0 0 0 0 41.280264608431025 31.712005229627721 0 31.712005229627721 12.392464307384216 0 0 0 0 -22.701767164689954 122.44174564630612 0 122.44174564630612 156.05950805984685 0 0 0 0 1.0651285544727216 116.21665391613436 0 116.21665391613436 -65.061766597500537 0 0 0 0 -32.272392011313059 67.244121900419032 0 67.244121900419032 464.73147572784433 0 0 0 0 68.975249302035081 114.89061255210959 0 114.89061255210959 -317.27362742676632 0 0 0 0 1.5948520284533174 1.3466783163075124 0 1.3466783163075124 0.79543924112307085 0 0 0 0 -58.364412627357524 149.10059118515437 0 149.10059118515437 -72.203799616347169 0 0 0 0 -39.903128569196269 24.526136766063701 0 24.526136766063701 -136.92505107364468 0 0 0 0 -25.151299173056032 61.557616508669526 0 61.557616508669526 93.293454140374251 0 0 0 0 29.019759438837355 144.80634539088237 0 144.80634539088237 -131.9593748215384 0 0 0 0 -0.81177467919405899 204.83215901069366 0 204.83215901069366 60.344627526941622 0 0 0 0 68.3521945694838 87.367168396569298 0 87.367168396569298 59.570434840738471 0 0 0 0 -0.60674990934512607 281.01316829904135 0 281.01316829904135 262.57832169057156 0 0 0 0 44.934472383734828 175.6655050150905 0 175.6655050150905 106.37859616590003 0 0 0 0 35.977480441106309 210.68306362916132 0 210.68306362916132 119.53783662045998 0 0 0 0 -103.36885941445507 196.82226393401152 0 196.82226393401152 112.6126181875768 0 0 0 0 6.0952789539151127 183.71502243109535 0 183.71502243109535 37.124894722768204 0 0 0 0 21.457598138023059 249.8199747943126 0 249.8199747943126 90.316069172039988 0 0 0 0 -88.215254953858675 63.281565257896318 0 63.281565257896318 24.483695447201853 0 0 0 0 -322.4573152874982 83.002791634765302 0 83.002791634765302 57.568570108958966 0 0 0 0 -487.38687842690706 -20.043303005706889 0 -20.043303005706889 87.558372763249395 0 0 0 0 -243.00610477982264 17.980111150218363 0 17.980111150218363 -19.279342697671382 0 0 0 0 -490.96527452918963 -48.817553460429508 0 -48.817553460429508 -64.398704135119488 0 0 0 0 -797.66628850906272 34.536854404765791 0 34.536854404765791 62.539060683370735 0 0 0 0 -428.90956616837411 -0.43872735277284391 0 -0.43872735277284391 -37.788119684059893 0 0 0 0 -440.3615415466129 55.71396059410759 0 55.71396059410759 151.80892233172108 0 0 0 0 -247.83672737241432 92.985822328229688 0 92.985822328229688 117.27833287729618 0 0 0 0 -17.903298548467895 -33.910802437968904 0 -33.910802437968904 24.338390143591575 0 0 0 0 -68.259052760404302 -1.8844374346688255 0 -1.8844374346688255 66.791637678292773 0 0 0 0 -463.83995318574307 -167.76989687764808 0 -167.76989687764808 -66.851764156568208 0 0 0 0 -955.51630591304274 -353.00737122283317 0 -353.00737122283317 -26.939126507246442 0 0 0 0 -0.40228823655385781 0.92673976537875546 0 0.92673976537875546 -2.3684890237730727 0 0 0 0 -45.86394198968992 129.88834684892822 0 129.88834684892822 74.442800415227339 0 0 0 0 -125.11332654758007 -36.844470712283623 0 -36.844470712283623 47.728041321159139 0 0 0 0 -23.076707478621756 -75.383849730217833 0 -75.383849730217833 -0.028841913120913887 0 0 0 0 -24.21667082760311 -34.860820741870953 0 -34.860820741870953 15.203869250874105 0 0 0 0 320.57379388115078 50.054245138927513 0 50.054245138927513 -40.688781636071781 0 0 0 0 -229.7415661212035 78.223391628496273 0 78.223391628496273 68.353415389654629 0 0 0 0 -104.74943244805036 64.920703042719197 0 64.920703042719197 67.592351097316168 0 0 0 0 32.941865925616185 8.2616389119127689 0 8.2616389119127689 44.22012939655815 0 0 0 0 65.61114114918837 -55.761099625332577 0 -55.761099625332577 23.181524798997998 0 0 0 0 -7.6493623247370124 -45.958126097554668 0 -45.958126097554668 21.703151781812267 0 0 0 0 -5.2025952025314837 -35.548577367592998 0 -35.548577367592998 44.666366748375367 0 0 0 0 -116.80620702506349 19.078374097090773 0 19.078374097090773 51.177032637680895 0 0 0 0 13.770353025127804 -33.750491998485401 0 -33.750491998485401 33.184990450390927 0 0 0 0 -230.75577953056199 4.3160579793905072 0 4.3160579793905072 116.10323348236079 0 0 0 0 -202.00089727116756 12.802227397884849 0 12.802227397884849 107.73244091638844 0 0 0 0 -167.83470398874488 -33.407033779418725 0 -33.407033779418725 69.935357050570019 0 0 0 0 -462.06500815957406 -3.1578057096826342 0 -3.1578057096826342 54.255397803221058 0 0 0 0 -192.31185302290032 -43.877727260623715 0 -43.877727260623715 46.842212180477873 0 0 0 0 -156.47526667870989 -11.133997534962418 0 -11.133997534962418 66.234517068546666 0 0 0 0 4.2717289574028499 -6.8817982992087181 0 -6.8817982992087181 3.0058199202595759 0 0 0 0 -135.07892904432629 -72.826930171919003 0 -72.826930171919003 46.963215845140439 0 0 0 0 19.677783282271029 -29.650800894887674 0 -29.650800894887674 33.724952852342206 0 0 0 0 8.3674361493176548 -56.211423347162963 0 -56.211423347162963 4.7956573918736467 0 0 0 0 33.853400811327447 -74.043308782333042 0 -74.043308782333042 0.12706017906384659 0 0 0 0 -1.701842572114181 -12.310550639602916 0 -12.310550639602916 -10.252414706995195 0 0 0 0 13.097891516561504 -38.361477278338498 0 -38.361477278338498 37.705696323796019 0 0 0 0 -344.82838950357655 -39.527160348859582 0 -39.527160348859582 8.3871818755392269 0 0 0 0 -387.99468526036071 -74.441404557964347 0 -74.441404557964347 3.9697640624226551 0 0 0 0 -13.837159903035911 1.993404488332871 0 1.993404488332871 -0.36863668237626435 0 0 0 0 -428.47597423709158 10.279403481289592 0 10.279403481289592 28.656000170757125 0 0 0 0 -402.43818117077171 -19.390884641130469 0 -19.390884641130469 -52.458248489018388 0 0 0 0 -566.56091418350843 86.559279056615424 0 86.559279056615424 40.450739545580262 0 0 0 0 -3.2938453448418912 -5.1117150279201198 0 -5.1117150279201198 -6.9546888725297649 0 0 0 0 152.18813912561382 -121.35122711503641 0 -121.35122711503641 33.378532373022608 0 0 0 0 28.576100273538032 -38.910365481180747 0 -38.910365481180747 135.13378371157432 0 0 0 0 244.81656694033882 -115.79965739796376 0 -115.79965739796376 34.65103687464989 0 0 0 0 -1109.9437630275206 112.57038467139614 0 112.57038467139614 248.11153322919927 0 0 0 0 -520.1927869443025 187.8557486690006 0 187.8557486690006 -69.255338418896542 0 0 0 0 -1.0712463826414833 -1.5054030318774636 0 -1.5054030318774636 -2.2359050300343455 0 0 0 0 319.72640418023366 -460.25856329660019 0 -460.25856329660019 233.84237375212069 0 0 0 0 -278.95166979801434 -625.55407963587049 0 -625.55407963587049 249.85570145804195 0 0 0 0 -58.855772228864225 37.606091206794048 0 37.606091206794048 29.536005894404752 0 0 0 0 -29.608934788735784 1.8181545996518054 0 1.8181545996518054 3.3579351362315348 0 0 0 0 -456.32908751421928 -56.675175178731251 0 -56.675175178731251 115.80914040488278 0 0 0 0 -141.68488622324367 247.91497850093901 0 247.91497850093901 68.054349045786751 0 0 0 0 -441.08323216063582 -147.04899329720979 0 -147.04899329720979 360.59545190049266 0 0 0 0 -37.167647438265703 -12.074381161882911 0 -12.074381161882911 18.868641769811802 0 0 0 0 -102.63104476427543 -90.610614968457412 0 -90.610614968457412 242.09530686928838 0 0 0 0 -127.65773802207514 45.770394797690187 0 45.770394797690187 24.504853536265273 0 0 0 0 -82.381534390922752 0.76646406090094388 0 0.76646406090094388 18.863674242807065 0 0 0 0 -192.98925023475022 -70.287584620549296 0 -70.287584620549296 2.857940394211596 0 0 0 0 -143.85868590317841 -0.68466556882395935 0 -0.68466556882395935 19.708200363680874 0 0 0 0 -93.261318777163979 -11.569086067989758 0 -11.569086067989758 -12.657601392354763 0 0 0 0 -164.34328281851049 -25.722237702526854 0 -25.722237702526854 -7.6588592267426066 0 0 0 0 -116.848252856817 12.533792796097259 0 12.533792796097259 71.113635684119799 0 0 0 0 -118.21436651531793 25.659316545357179 0 25.659316545357179 10.799979028038949 0 0 0 0 -184.49676383380574 50.689901726832318 0 50.689901726832318 18.912379612394261 0 0 0 0 -162.44611796287541 37.464626044945362 0 37.464626044945362 63.939299580226816 0 0 0 0 -146.58222292285564 28.001537188929433 0 28.001537188929433 -36.733209491387242 0 0 0 0 -140.94273516858811 -23.017715296631195 0 -23.017715296631195 119.30588084969918 0 0 0 0 -23.885034822453576 11.203948945532709 0 11.203948945532709 6.9355718673396884 0 0 0 0 -329.13510537661205 66.59574611796927 0 66.59574611796927 22.493141128027673 0 0 0 0 -98.565377376216929 57.634060963193406 0 57.634060963193406 16.025885595763611 0 0 0 0 5.2176196725195041 14.826805221791801 0 14.826805221791801 28.403637618264838 0 0 0 0 -113.08668374965055 -4.1111386980537645 0 -4.1111386980537645 -18.237731916384291 0 0 0 0 -260.5152774307644 -14.08081149771715 0 -14.08081149771715 -7.7962259043670201 0 0 0 0 -210.35518781164137 50.54552651056656 0 50.54552651056656 -26.72297717517722 0 0 0 0 -268.93345919670537 54.166078889584242 0 54.166078889584242 24.725508748223547 0 0 0 0 -245.23933071828651 21.767679150185359 0 21.767679150185359 63.292619444848242 0 0 0 0 -129.98751071438164 110.44894487521788 0 110.44894487521788 92.514629376048106 0 0 0 0 -110.19850800756831 28.522625132973189 0 28.522625132973189 12.075037070644612 0 0 0 0 -53.314142342627747 36.25608101546095 0 36.25608101546095 157.90000952585433 0 0 0 0 -30.212164057459312 -11.044604536663158 0 -11.044604536663158 37.042065021899518 0 0 0 0 -15.359671326248645 29.930303389792243 0 29.930303389792243 54.546724058243854 0 0 0 0 -180.86214143151665 19.66625170696625 0 19.66625170696625 17.522047033519129 0 0 0 0 -6.7909099648888969 14.86598965320519 0 14.86598965320519 5.8369265068374006 0 0 0 0 0.13670476997504011 140.49380826198467 0 140.49380826198467 260.77309077048994 0 0 0 0 -9.2262948412899277 96.177189878570061 0 96.177189878570061 117.22327937981754 0 0 0 0 69.300396521277435 131.49914035231268 0 131.49914035231268 95.091289911666536 0 0 0 0 -79.719642486240915 -28.083534342987761 0 -28.083534342987761 13.744746088260205 0 0 0 0 -92.249077235566801 -33.278078316096071 0 -33.278078316096071 12.444440125553228 0 0 0 0 -17.240672513908706 -4.8492604866755222 0 -4.8492604866755222 7.3184914768102409 0 0 0 0 -14.308926188212354 60.152098647591629 0 60.152098647591629 29.915900101734223 0 0 0 0 -27.059366325745941 41.947384128294289 0 41.947384128294289 59.719888197150794 0 0 0 0 -3.1792333202029113 107.53979263490874 0 107.53979263490874 119.38022218661126 0 0 0 0 42.031028618610435 -59.99554150089125 0 -59.99554150089125 -50.197156071183599 0 0 0 0 -65.672871305774606 -24.617302124794151 0 -24.617302124794151 42.70188099309712 0 0 0 0 -186.17376760861589 1.151607654746158 0 1.151607654746158 126.4283907835952 0 0 0 0 -18.474317241845711 63.388791639652027 0 63.388791639652027 28.032766355325293 0 0 0 0 -7.8257705422402637 -13.938445489606636 0 -13.938445489606636 35.676556895509364 0 0 0 0 -131.24476130371477 -72.0466482499005 0 -72.0466482499005 -23.673725938854659 0 0 0 0 -168.1020486956877 2.2195397637487986 0 2.2195397637487986 -67.598226944792259 0 0 0 0 -63.265564816763799 -21.44962150559877 0 -21.44962150559877 -84.804407831672506 0 0 0 0 -171.25503602622302 -35.194392166151829 0 -35.194392166151829 -68.445467038593051 0 0 0 0 -56.42312705756558 2.7021233120494799 0 2.7021233120494799 -29.389304206706583 0 0 0 0 -153.71118218041374 17.471397986719239 0 17.471397986719239 -2.1039025824175042 0 0 0 0 -314.88706575232936 47.637264028631762 0 47.637264028631762 -69.91216850060664 0 0 0 0 -251.04944664581853 21.832767807707569 0 21.832767807707569 -70.996658367472264 0 0 0 0 -326.94618606949371 -76.117990221194304 0 -76.117990221194304 -114.65553287717194 0 0 0 0 -549.8930054648954 -55.686347330643912 0 -55.686347330643912 29.153943074548806 0 0 0 0 -348.74374526177417 -48.926307324107256 0 -48.926307324107256 -58.052373470367456 0 0 0 0 -326.62666167938005 -90.230079504672176 0 -90.230079504672176 -51.206143067303401 0 0 0 0 -276.12785577563045 -61.945218087619651 0 -61.945218087619651 10.062726684282097 0 0 0 0 -340.41618108695548 29.858357027561851 0 29.858357027561851 -14.34348828038128 0 0 0 0 -134.97221742516558 -23.429195201748371 0 -23.429195201748371 -1.6291664262234917 0 0 0 0 -135.22415858293471 -21.188975527368797 0 -21.188975527368797 99.579020461862456 0 0 0 0 -291.15717140375637 -15.475864899573025 0 -15.475864899573025 113.31225223999354 0 0 0 0 -301.18249149730855 -57.661462060660824 0 -57.661462060660824 33.051768657822322 0 0 0 0 21.672964168825274 -68.48897421234085 0 -68.48897421234085 11.822193220269583 0 0 0 0 -33.00147477700375 34.051998253220063 0 34.051998253220063 -28.956213248979111 0 0 0 0 -91.558596953993401 -41.257346097924483 0 -41.257346097924483 87.703415411023343 0 0 0 0 -3.6384634897230086 -17.739329967913385 0 -17.739329967913385 35.881108845084967 0 0 0 0 -19.207757698586647 -42.379486112260565 0 -42.379486112260565 70.797707730166167 0 0 0 0 -13.500624538355623 -84.810147552716444 0 -84.810147552716444 29.65623072631297 0 0 0 0 -62.312677364407136 53.807749583794703 0 53.807749583794703 126.97987867884831 0 0 0 0 -416.05442509358915 -239.31523602973823 0 -239.31523602973823 -7.1185110689802968 0 0 0 0 -7.7586784932161166 1.4078857131571851 0 1.4078857131571851 8.0828487434493574 0 0 0 0 -416.68317666652729 -70.583110166634469 0 -70.583110166634469 -30.761254905324677 0 0 0 0 -207.70257566793589 -119.96911136760434 0 -119.96911136760434 -19.158174662388774 0 0 0 0 -6.1810876956496941 32.589942898348681 0 32.589942898348681 64.777522600889824 0 0 0 0 0.022487283710280082 1.7104656842302575 0 1.7104656842302575 0.061839877495643236 0 0 0 0 -673.85148477004623 -146.97752605910432 0 -146.97752605910432 90.699617298013436 0 0 0 0 -124.08600175785432 -53.938221886909332 0 -53.938221886909332 102.6242567775098 0 0 0 0 -166.89639661261026 6.9565310019861499 0 6.9565310019861499 112.80677172163519 0 0 0 0 -179.81321667218435 47.727092909321982 0 47.727092909321982 99.51423549852143 0 0 0 0 -161.76796070452838 42.191779795800358 0 42.191779795800358 82.47093523534204 0 0 0 0 -260.23091391475828 150.17961890807146 0 150.17961890807146 -11.157825178174789 0 0 0 0 -16.21236627685591 -19.331272923760825 0 -19.331272923760825 11.995521219691469 0 0 0 0 -52.286394648057467 -212.63813701776417 0 -212.63813701776417 -131.9159336554294 0 0 0 0 -133.03029582288036 92.493057137937285 0 92.493057137937285 -161.30645564955012 0 0 0 0 -129.20627225736189 -568.05252257494976 0 -568.05252257494976 721.84399833449788 0 0 0 0 -12.870207299256727 2.9487669874087175 0 2.9487669874087175 -1.0610829934501318 0 0 0 0 -94.846196324502671 -15.202472893832692 0 -15.202472893832692 -50.119625772958898 0 0 0 0 -655.06156077524975 -32.160973332223875 0 -32.160973332223875 91.071961706900765 0 0 0 0 -469.90093525232078 111.64150170480843 0 111.64150170480843 -61.218567135273247 0 0 0 0 -329.34868832515349 5.3443894815945896 0 5.3443894815945896 142.25516016722804 0 0 0 0 -340.32387735709199 426.31207709530645 0 426.31207709530645 -818.234278179385 0 0 0 0 -600.46348042231693 -12.968350459370868 0 -12.968350459370868 -89.090977178555477 0 0 0 0 -546.08813296424614 -78.102889866023929 0 -78.102889866023929 -28.573572610952397 0 0 0 0 -511.15021134931885 -153.48499122658905 0 -153.48499122658905 -96.840642469960585 0 0 0 0 -458.44340624822507 -145.61742952914938 0 -145.61742952914938 -254.30955719541453 0 0 0 0 -356.55472745330189 -35.916485021662083 0 -35.916485021662083 -162.11953769210413 0 0 0 0 -619.31944137420942 -315.62117460993068 0 -315.62117460993068 -59.905524743640854 0 0 0 0 -1000.8097261380681 6.0835962050296075 0 6.0835962050296075 -89.525276458731241 0 0 0 0 10.393237081921498 -7.3092280441294974 0 -7.3092280441294974 -7.7957114259043241 0 0 0 0 -492.13610705111205 52.924794662925706 0 52.924794662925706 -136.1609985866271 0 0 0 0 -148.41865059941665 -72.550877778980976 0 -72.550877778980976 36.1633717393197 0 0 0 0 -74.628576462872118 -35.498444936378178 0 -35.498444936378178 7.8477304771517122 0 0 0 0 -34.497364781685789 -18.434898064735926 0 -18.434898064735926 19.468766735006589 0 0 0 0 -81.449970407390538 -44.663498873944263 0 -44.663498873944263 -9.872682050903677 0 0 0 0 -95.183680321687916 3.5084702426399872 0 3.5084702426399872 75.467626193429169 0 0 0 0 -26.295528747993558 -82.03112857571341 0 -82.03112857571341 -35.053168843661297 0 0 0 0 -83.014504783747569 -13.501901725771951 0 -13.501901725771951 10.947278162690328 0 0 0 0 -118.22358615875692 -30.173627049958668 0 -30.173627049958668 32.961884452468439 0 0 0 0 -387.64793545091197 -101.15774168814823 0 -101.15774168814823 -5.1861733465084399 0 0 0 0 1.979255797108868 -43.690266768060965 0 -43.690266768060965 5.5537622180224986 0 0 0 0 -162.28970262926123 -55.430662893086037 0 -55.430662893086037 51.973502972628921 0 0 0 0 -415.92328572762199 -95.157812074173307 0 -95.157812074173307 59.790226633451311 0 0 0 0 -275.11325197446058 -6.3405041706585052 0 -6.3405041706585052 -2.7695272982855386 0 0 0 0 -407.13962728521074 -50.068277172666967 0 -50.068277172666967 -11.383590592373366 0 0 0 0 -5.7338584142955753 -1.3015884956662447 0 -1.3015884956662447 6.1587692824083184 0 0 0 0 -28.674035843121601 88.229060098455193 0 88.229060098455193 125.35969534685046 0 0 0 0 29.761940908196266 -164.96030355659423 0 -164.96030355659423 -189.8310032405825 0 0 0 0 -14.633135006324665 -25.396847299258297 0 -25.396847299258297 25.051690279143259 0 0 0 0 -103.32732810538801 -54.794100952632562 0 -54.794100952632562 70.271600872116323 0 0 0 0 -183.03046529718995 -65.592012837007132 0 -65.592012837007132 169.11149377123002 0 0 0 0 -20.253374719872824 -7.7071595007978679 0 -7.7071595007978679 8.7038488312496085 0 0 0 0 -21.964312917794558 -11.467774885605362 0 -11.467774885605362 6.9061820203077389 0 0 0 0 -43.142468770897153 -123.89417045221296 0 -123.89417045221296 98.938888516850056 0 0 0 0 -86.997990516633308 -21.444134850506543 0 -21.444134850506543 32.2221932625298 0 0 0 0 -1.7672803614468648 -97.114829883863422 0 -97.114829883863422 -13.693458596359051 0 0 0 0 -73.70057223998522 -8.9388799660310809 0 -8.9388799660310809 9.6275146127539237 0 0 0 0 -90.493981045598048 3.1089741920827692 0 3.1089741920827692 13.663134825407724 0 0 0 0 -104.83866767451218 4.5455989686558951 0 4.5455989686558951 53.337021732683752 0 0 0 0 -150.43758070851982 51.419098171680389 0 51.419098171680389 11.899283660791298 0 0 0 0 -109.83748761750758 -31.415664566302667 0 -31.415664566302667 66.831861339317129 0 0 0 0 32.278512846022522 -143.96513785304796 0 -143.96513785304796 92.707613685190154 0 0 0 0 -77.153610541082372 -15.07247050406357 0 -15.07247050406357 8.4596302770195582 0 0 0 0 -75.353589911521567 -34.076582900646031 0 -34.076582900646031 51.718392969934939 0 0 0 0 -130.52969529322218 -37.651728935240499 0 -37.651728935240499 54.942962774415264 0 0 0 0 -165.80711343448638 -40.538153587289344 0 -40.538153587289344 53.136729614963542 0 0 0 0 -130.36871459097529 -37.865936706020648 0 -37.865936706020648 53.275106607568887 0 0 0 0 -221.35211233118753 -27.403074040582396 0 -27.403074040582396 79.244270883843171 0 0 0 0 -173.25224129443268 -49.760165734592874 0 -49.760165734592874 44.322967243916537 0 0 0 0 -178.29600672159359 -12.988499770145609 0 -12.988499770145609 82.351113449221884 0 0 0 0 -163.85385377472994 -5.3867222439716897 0 -5.3867222439716897 77.779817008735336 0 0 0 0 -174.36171312996885 4.6377028396527749 0 4.6377028396527749 72.626391875375703 0 0 0 0 -169.99510978848411 15.681059752688725 0 15.681059752688725 94.368529939730251 0 0 0 0 -201.14839518222288 2.1873483524809672 0 2.1873483524809672 93.577545117830368 0 0 0 0 -286.23749374395993 -13.627509548005719 0 -13.627509548005719 104.8647597916065 0 0 0 0 -255.16103222536913 46.986466259212648 0 46.986466259212648 113.61395422124701 0 0 0 0 -142.89046358226187 73.372068738739927 0 73.372068738739927 119.13597912434761 0 0 0 0 -207.7109165197835 1.1376014546458464 0 1.1376014546458464 89.720772857221164 0 0 0 0 -194.13537434039426 3.2509851816782884 0 3.2509851816782884 87.525795416793699 0 0 0 0 -238.20663866856557 -19.243693301715439 0 -19.243693301715439 67.00078416229303 0 0 0 0 -252.98374015051377 -24.016417035807535 0 -24.016417035807535 75.753740075378573 0 0 0 0 -234.55281670014665 13.260370611729172 0 13.260370611729172 95.587753397691358 0 0 0 0 -275.70128921248761 -4.7287601652719786 0 -4.7287601652719786 108.29748672007076 0 0 0 0 -203.6836915231097 -8.7012290763245801 0 -8.7012290763245801 78.968889016322009 0 0 0 0 -287.89641917361473 -90.296262798647675 0 -90.296262798647675 4.678880825644228 0 0 0 0 -307.01610486754362 5.9705827962675357 0 5.9705827962675357 -63.519388771171407 0 0 0 0 -182.48184402243714 -67.801329037005758 0 -67.801329037005758 -9.5993112877245039 0 0 0 0 -116.57187170845646 -67.808783389661812 0 -67.808783389661812 -12.948423884473868 0 0 0 0 -175.89037943758012 -101.29822087966772 0 -101.29822087966772 -26.871332894544594 0 0 0 0 -122.38962442138836 -57.935922257807988 0 -57.935922257807988 24.104161513583222 0 0 0 0 -168.19341076884575 -80.542122423211993 0 -80.542122423211993 12.965205371362572 0 0 0 0 -181.47183646354461 -49.775993804432801 0 -49.775993804432801 44.419803372690694 0 0 0 0 -243.36122446871843 -91.295182834480499 0 -91.295182834480499 18.273859749313942 0 0 0 0 -313.85381056040933 301.73163273245655 0 301.73163273245655 -195.48320855154759 0 0 0 0 -3.7007228506689387 -3.2592915389746491 0 -3.2592915389746491 -2.6178590829264534 0 0 0 0 -84.493172113583569 -81.346130119419286 0 -81.346130119419286 -73.987026367250564 0 0 0 0 7.2996461566508515 -3.8899432223304302 0 -3.8899432223304302 -32.011059978437288 0 0 0 0 -494.06100690525636 -33.302320111885706 0 -33.302320111885706 -20.464375144081401 0 0 0 0 -145.99788195718793 -176.16186363912675 0 -176.16186363912675 -78.143453219987578 0 0 0 0 -244.52773419172809 -105.1797039378373 0 -105.1797039378373 -21.290528999016715 0 0 0 0 -68.489463151810924 -18.204020508513622 0 -18.204020508513622 -155.67829752130501 0 0 0 0 -285.83389494264338 165.84626425588328 0 165.84626425588328 -311.39645439195351 0 0 0 0 -164.64463641721795 -304.58438165601433 0 -304.58438165601433 -193.41073641429216 0 0 0 0 -648.58659267480834 -168.22436631900507 0 -168.22436631900507 50.943510708894053 0 0 0 0 -962.18830506495942 602.99161900879835 0 602.99161900879835 -135.76919028959003 0 0 0 0 370.58482115874904 -372.60119101428489 0 -372.60119101428489 -202.87391511693977 0 0 0 0 -6.4081551838466524 -4.2414313598141078 0 -4.2414313598141078 -1.9717234752053674 0 0 0 0 -953.03672228268988 210.94651021822665 0 210.94651021822665 -11.946698945755543 0 0 0 0 -534.17558792100499 -78.662765575933463 0 -78.662765575933463 205.90128319025234 0 0 0 0 -217.10030948777421 -326.29296707003186 0 -326.29296707003186 -130.2775699029005 0 0 0 0 178.74828036116378 66.64505561802963 0 66.64505561802963 -96.718540304940234 0 0 0 0 122.68565209207009 -83.436414347632308 0 -83.436414347632308 -444.01883385721476 0 0 0 0 -126.43309469552332 -107.18226764420933 0 -107.18226764420933 378.2025993709176 0 0 0 0 96.962108414564682 -86.433200117618156 0 -86.433200117618156 87.479047675467882 0 0 0 0 -12.702060381787568 -11.47510693197323 0 -11.47510693197323 -7.8135367280748644 0 0 0 0 42.061974502150406 -442.78087920667235 0 -442.78087920667235 300.64040708719176 0 0 0 0 -222.14920725558113 168.65160425527392 0 168.65160425527392 -83.594367468051132 0 0 0 0 294.06660673714214 142.26010549900457 0 142.26010549900457 -261.45644617401194 0 0 0 0 -525.55474266020974 101.83847882243253 0 101.83847882243253 -640.12245695476213 0 0 0 0 -435.71024506683898 -120.37978315129703 0 -120.37978315129703 114.1270324254383 0 0 0 0 -840.84040408556757 819.30369902998427 0 819.30369902998427 -109.63948434736994 0 0 0 0 -6.1729623614010194 -1.515430107965642 0 -1.515430107965642 1.0233863807445296 0 0 0 0 -88.121204427410703 -193.13793244299268 0 -193.13793244299268 30.392694674548693 0 0 0 0 233.21483268470183 -75.220602655355378 0 -75.220602655355378 -158.70763683213045 0 0 0 0 -921.75910983875474 -92.645413973792074 0 -92.645413973792074 146.81436327705524 0 0 0 0 -89.862962166866055 4.799407226502808 0 4.799407226502808 15.98210904658481 0 0 0 0 -78.218452048837591 2.7736863007778823 0 2.7736863007778823 4.9121636483699191 0 0 0 0 -230.2017226160533 317.57025344675276 0 317.57025344675276 -131.41113499533412 0 0 0 0 199.27975977017195 -501.41754279412635 0 -501.41754279412635 1112.119556058904 0 0 0 0 -107.40678067976569 132.79521548512685 0 132.79521548512685 436.53481239499888 0 0 0 0 -17.818472916574947 -0.43282456186739182 0 -0.43282456186739182 1.3436817493329514 0 0 0 0 -521.84235808745871 -109.16747022300569 0 -109.16747022300569 401.09677854467463 0 0 0 0 -242.15701162902769 -41.060252702543494 0 -41.060252702543494 148.92753797856585 0 0 0 0 -206.85502822973649 493.94451260958795 0 493.94451260958795 -46.21960544722242 0 0 0 0 -29.665289396626065 0.91226741140550871 0 0.91226741140550871 4.0876902535883559 0 0 0 0 -33.130407553704572 751.88916728789991 0 751.88916728789991 312.24305613944307 0 0 0 0 -308.55747340712696 -1003.4299513384285 0 -1003.4299513384285 243.24835929018082 0 0 0 0 -328.55968883723835 -645.57410739471015 0 -645.57410739471015 769.71352503709204 0 0 0 0 -96.888814435706848 -21.751558593445637 0 -21.751558593445637 -2.9353677600473063 0 0 0 0 -439.41140647549764 99.601401100053863 0 99.601401100053863 -326.71287338415277 0 0 0 0 -17.317675058496981 0.61313855621040858 0 0.61313855621040858 3.1966764395384644 0 0 0 0 2.4051030187401921 -256.02197663226252 0 -256.02197663226252 311.00931900005889 0 0 0 0 -1.9057128623244353 -99.519048575421039 0 -99.519048575421039 -20.765141387350013 0 0 0 0 -37.475050591676336 -23.417317742250361 0 -23.417317742250361 40.391998277875246 0 0 0 0 -72.254491047442059 -16.756254264422552 0 -16.756254264422552 -5.3389760050392212 0 0 0 0 -38.502471872495462 -23.237357854857983 0 -23.237357854857983 -15.401397423554856 0 0 0 0 -106.45151853978314 22.176436691195249 0 22.176436691195249 -45.483718015822433 0 0 0 0 -44.750811658659245 -6.6360407322949158 0 -6.6360407322949158 -5.3564335072469582 0 0 0 0 -60.456113656911072 -31.953647991017569 0 -31.953647991017569 -7.6979348538130807 0 0 0 0 -31.11505805636989 11.463413610115822 0 11.463413610115822 43.542430049836184 0 0 0 0 -76.26650535640411 7.0444933404563841 0 7.0444933404563841 23.812158004777881 0 0 0 0 -37.582678968803521 -21.436102155627168 0 -21.436102155627168 42.110814857849618 0 0 0 0 -79.507540335829503 14.144977583090153 0 14.144977583090153 33.078850627016813 0 0 0 0 -77.436266687789612 -41.272092701335623 0 -41.272092701335623 84.408914580990313 0 0 0 0 -75.684781082585687 57.362272473852499 0 57.362272473852499 -19.298048656441097 0 0 0 0 -103.69725255282538 -95.041732473167031 0 -95.041732473167031 177.7382389302029 0 0 0 0 -36.623079222788078 -13.397714141628626 0 -13.397714141628626 -6.4838362147856987 0 0 0 0 -117.22932231637969 45.267760988961982 0 45.267760988961982 20.525648490414824 0 0 0 0 -190.0844697003995 -2.4645460310803173 0 -2.4645460310803173 227.08787025234381 0 0 0 0 -178.88735215799534 61.581818559686099 0 61.581818559686099 96.367208464026362 0 0 0 0 -124.84297175089887 -14.998247648021561 0 -14.998247648021561 171.90473764526996 0 0 0 0 -135.94131397482761 23.477136208631634 0 23.477136208631634 67.662736721649253 0 0 0 0 -74.653687355301372 77.203224531689557 0 77.203224531689557 20.008785667208372 0 0 0 0 -106.38506079442232 23.551504968626773 0 23.551504968626773 64.00570387284597 0 0 0 0 29.363191675620328 105.38054369255497 0 105.38054369255497 4.2479913531606144 0 0 0 0 8.2075825419960893 -11.639344081461786 0 -11.639344081461786 -6.6313409514214072 0 0 0 0 -110.35460777777894 -11.486148435266117 0 -11.486148435266117 86.998421561570467 0 0 0 0 -4.8996887747581184 8.9639661150190122 0 8.9639661150190122 2.4881629122244284 0 0 0 0 -78.649631538185076 10.630663168631944 0 10.630663168631944 19.772508619883073 0 0 0 0 -66.243594190338627 24.141707245882571 0 24.141707245882571 39.568899243153282 0 0 0 0 13.544757717783796 50.622566097092204 0 50.622566097092204 -58.209633913960715 0 0 0 0 -74.751916524895933 45.567714396511292 0 45.567714396511292 -56.798412409141747 0 0 0 0 150.81158574127767 -208.90683665111828 0 -208.90683665111828 -18.111929556414907 0 0 0 0 119.65095005144394 -241.78393842643163 0 -241.78393842643163 -29.395858956722805 0 0 0 0 -518.38944948742574 269.69437862091945 0 269.69437862091945 -120.52287918246611 0 0 0 0 -2.809216448935274 -4.2363463989241126 0 -4.2363463989241126 -5.8198931554439355 0 0 0 0 -71.164143952861195 -143.30313056423438 0 -143.30313056423438 156.02196599600211 0 0 0 0 -20.161230406508139 -10.381430575267203 0 -10.381430575267203 3.9425024914195177 0 0 0 0 20.971728832810186 -15.288866708950081 0 -15.288866708950081 -76.017222030823177 0 0 0 0 -32.767838560699602 40.253074806452787 0 40.253074806452787 -13.047592717979569 0 0 0 0 -33.923953247132886 8.7402965570763627 0 8.7402965570763627 -4.0263819750653056 0 0 0 0 -33.093127009030468 -9.1166103676712709 0 -9.1166103676712709 -1.6167667925599076 0 0 0 0 -17.747673519887982 7.1257577805707228 0 7.1257577805707228 -0.4686258212837231 0 0 0 0 179.67911293057841 -127.40203015461066 0 -127.40203015461066 -62.249134152415536 0 0 0 0 -119.94467805073873 51.62966034267987 0 51.62966034267987 -50.002630310573295 0 0 0 0 -258.82980347696866 31.982049436255693 0 31.982049436255693 -3.5732692109314712 0 0 0 0 -47.560743172070943 -235.91423233275964 0 -235.91423233275964 97.368690711424279 0 0 0 0 -84.628758603677852 -48.650076813231863 0 -48.650076813231863 -34.057170647625753 0 0 0 0 27.872512929687218 40.41246350369056 0 40.41246350369056 197.85657933641232 0 0 0 0 -1.6541282810715217 1.4676221906329943 0 1.4676221906329943 -3.0442046068589264 0 0 0 0 -12.264582998521973 -11.562123315156001 0 -11.562123315156001 -10.517360767787601 0 0 0 0 -9.5499465335588525 -8.3986924926164193 0 -8.3986924926164193 -10.30989460421679 0 0 0 0 141.50150212264361 -226.25271530668613 0 -226.25271530668613 57.063662215252407 0 0 0 0 -82.372830670195981 33.957885821120726 0 33.957885821120726 0.6405824413859591 0 0 0 0 -117.21912587096449 13.633890557942323 0 13.633890557942323 -8.0170011287646048 0 0 0 0 -236.81632666382939 -3.3695539702657697 0 -3.3695539702657697 37.390129470157262 0 0 0 0 -148.64530274408753 39.601166420929076 0 39.601166420929076 -3.279436615055829 0 0 0 0 -161.95031734798977 12.989733407921449 0 12.989733407921449 40.119146411107067 0 0 0 0 -150.51862025998707 -7.5028098552274969 0 -7.5028098552274969 73.663746547816118 0 0 0 0 -120.85578309548146 35.782556175427089 0 35.782556175427089 50.607266012966647 0 0 0 0 -125.55987710777845 11.161597158472432 0 11.161597158472432 31.521781109706353 0 0 0 0 31.13001463211549 -86.373827453584454 0 -86.373827453584454 73.616716939490288 0 0 0 0 -103.8596336057235 9.9661617813144403 0 9.9661617813144403 79.958909433289591 0 0 0 0 -132.37183298245145 -78.158220016537598 0 -78.158220016537598 132.91575551459027 0 0 0 0 7.0904022889153566 5.8955795396013855 0 5.8955795396013855 61.525232118529857 0 0 0 0 -110.36497268121457 -6.454228334920117 0 -6.454228334920117 104.8573138671527 0 0 0 0 -108.75047610466891 23.791062922472747 0 23.791062922472747 96.911435972775507 0 0 0 0 -65.672571221657563 -3.8660634383850265 0 -3.8660634383850265 86.966607761895375 0 0 0 0 -107.90811265631055 3.3295030802437395 0 3.3295030802437395 85.890349833322034 0 0 0 0 -22.184711359192988 -12.229970462768108 0 -12.229970462768108 28.951622120726825 0 0 0 0 -107.52575291060202 8.3429763847743743 0 8.3429763847743743 76.207942747329071 0 0 0 0 -67.890350257483078 -17.257431519373313 0 -17.257431519373313 6.4538454601333797 0 0 0 0 -12.259121809394856 -17.852508110865074 0 -17.852508110865074 -14.664047161426424 0 0 0 0 -3.6050902125013593 2.453694919384958 0 2.453694919384958 -0.58981214928500236 0 0 0 0 -572.97611060572672 270.40533798815159 0 270.40533798815159 6.2211043749471173 0 0 0 0 -51.07495214237133 6.8396739099425758 0 6.8396739099425758 -11.576578237672948 0 0 0 0 -24.909612114919582 -2.5038207997295103 0 -2.5038207997295103 -20.247559978337449 0 0 0 0 -62.090187967347447 -226.14312728582627 0 -226.14312728582627 179.42410949380428 0 0 0 0 -693.35080627526622 195.66805661307262 0 195.66805661307262 -83.675466194474211 0 0 0 0 -778.09096597706957 285.6827290155702 0 285.6827290155702 -65.9731133876885 0 0 0 0 -3.0322575073076052 -2.1732996922041963 0 -2.1732996922041963 1.0680120616097284 0 0 0 0 -0.75963461429498125 -0.7050085603437708 0 -0.7050085603437708 -1.533959595868513 0 0 0 0 -205.9422565640416 -105.41509954999492 0 -105.41509954999492 111.06556870192435 0 0 0 0 -185.56520680623362 -31.137553938779092 0 -31.137553938779092 91.36975952350258 0 0 0 0 -373.48264245045721 -143.19551900529041 0 -143.19551900529041 232.10875373349154 0 0 0 0 -937.5206570889568 77.820329948617655 0 77.820329948617655 33.028012412665703 0 0 0 0 -379.33245014725253 -59.816058808039088 0 -59.816058808039088 164.91686507485792 0 0 0 0 -552.24143537308009 -33.80767376127119 0 -33.80767376127119 183.05286599497776 0 0 0 0 -346.07546981271298 -42.210829117195317 0 -42.210829117195317 83.523353752920229 0 0 0 0 -407.03353016651818 -16.96831962318538 0 -16.96831962318538 99.749024285738415 0 0 0 0 -217.83758133969968 -51.960830487423664 0 -51.960830487423664 79.754356341058156 0 0 0 0 -315.40169299690751 -81.93292736649164 0 -81.93292736649164 106.16319461956118 0 0 0 0 -238.10076814802596 -25.526617169734891 0 -25.526617169734891 45.276594052265864 0 0 0 0 -229.66699641344894 -4.7349448711283912 0 -4.7349448711283912 9.6168658185633831 0 0 0 0 -290.26197350682924 -26.414802878217415 0 -26.414802878217415 -0.45457933317811694 0 0 0 0 -286.34021960865357 -40.228303900992614 0 -40.228303900992614 46.079558364918057 0 0 0 0 -355.85836120846216 -32.461972030527249 0 -32.461972030527249 58.474065962982422 0 0 0 0 -401.46625617187237 1.5512095614758437 0 1.5512095614758437 33.669462809550168 0 0 0 0 -354.09590382190072 -39.048060456894746 0 -39.048060456894746 82.658491549342216 0 0 0 0 -312.82260559606948 -29.586089131422341 0 -29.586089131422341 -65.294765107049898 0 0 0 0 -310.08644360897597 -45.056817423042958 0 -45.056817423042958 14.194071101874215 0 0 0 0 -2.6801271818350756 10.145220860115117 0 10.145220860115117 2.6427806106412275 0 0 0 0 -13.286340633238694 11.38640216262732 0 11.38640216262732 12.754310632394457 0 0 0 0 0.56216715439950349 14.206135570641436 0 14.206135570641436 9.2729374130176438 0 0 0 0 -81.057669798421557 13.308280345351704 0 13.308280345351704 1.438490114553133 0 0 0 0 -274.21571932613733 -13.274510228141935 0 -13.274510228141935 10.405518584550009 0 0 0 0 -381.86026827056048 -90.105261114492123 0 -90.105261114492123 -26.53206559264072 0 0 0 0 -11.377090820500911 5.7224084718820336 0 5.7224084718820336 2.3180879634619984 0 0 0 0 -27.855872656297407 3.238586249285845 0 3.238586249285845 5.0899538520087475 0 0 0 0 -16.877750449057203 0.12614262312490609 0 0.12614262312490609 6.65415886053961 0 0 0 0 -27.758720968146605 -7.293092801424649 0 -7.293092801424649 18.179117106358124 0 0 0 0 -12.299227619479041 -7.9570861955926375 0 -7.9570861955926375 0.59378137291596289 0 0 0 0 -349.51159259522683 109.59162923786607 0 109.59162923786607 77.754785694778548 0 0 0 0 0.89010498058996745 4.89508858504405 0 4.89508858504405 16.619069872283944 0 0 0 0 -12.309265938902797 6.2852626009828612 0 6.2852626009828612 8.5311538795736297 0 0 0 0 -261.42309076666425 10.477743626490337 0 10.477743626490337 -16.630242711482424 0 0 0 0 -135.93692865862977 5.4289562610256326 0 5.4289562610256326 3.8377258063301269 0 0 0 0 -17.94594093590441 -8.1179543467275437 0 -8.1179543467275437 -0.81415232243091396 0 0 0 0 -18.023633912445554 -21.503630228358304 0 -21.503630228358304 4.5553093385886001 0 0 0 0 -23.534794371957261 23.644537974688191 0 23.644537974688191 8.2626866788311446 0 0 0 0 -119.04650213734567 24.590118144927146 0 24.590118144927146 1.4484660710913886 0 0 0 0 -119.17265820152534 16.798032306193818 0 16.798032306193818 -4.9999853480851471 0 0 0 0 -381.97347631558659 14.528145762807981 0 14.528145762807981 39.816682360417872 0 0 0 0 -305.30816599490936 -56.947058767655108 0 -56.947058767655108 -24.9551734132192 0 0 0 0 -298.87869143017451 -57.821345023498907 0 -57.821345023498907 -28.71202687035111 0 0 0 0 -312.5377311258344 -31.679208745552387 0 -31.679208745552387 8.1094020684788575 0 0 0 0 -310.25596211611992 -62.653716935059492 0 -62.653716935059492 -29.195113687099365 0 0 0 0 -285.54596909618704 -35.349177261290606 0 -35.349177261290606 -29.896796075226121 0 0 0 0 -713.97094112430932 -47.822825417159038 0 -47.822825417159038 263.139783840159 0 0 0 0 -37.385642037486477 13.382480509566037 0 13.382480509566037 17.497926076258864 0 0 0 0 -630.51781605725409 143.85799953385867 0 143.85799953385867 -885.21208015992306 0 0 0 0 -74.164732038938382 6.0370616228055951 0 6.0370616228055951 7.8168738148015109 0 0 0 0 63.192216370109236 -513.95257531637617 0 -513.95257531637617 -136.5856349185342 0 0 0 0 -107.26242089910374 -10.375171090793629 0 -10.375171090793629 -5.668163407004613 0 0 0 0 -25.734419100503374 -6.1112080686998098 0 -6.1112080686998098 11.053579010878643 0 0 0 0 -100.73848301014368 -0.068911968541442548 0 -0.068911968541442548 16.732651550140872 0 0 0 0 -84.395376003027195 -9.4221235692020855 0 -9.4221235692020855 0.77169654410363364 0 0 0 0 -34.985145834255178 -25.251055912131207 0 -25.251055912131207 1.478199921857378 0 0 0 0 91.744232421988272 -98.819738143613904 0 -98.819738143613904 -7.9323605078880064 0 0 0 0 -57.415199068564107 -64.070301927043602 0 -64.070301927043602 34.219486506591238 0 0 0 0 298.8317312906147 -177.19937295938007 0 -177.19937295938007 -84.287583742792776 0 0 0 0 142.7669086472888 -66.108175591554755 0 -66.108175591554755 -89.293185978362089 0 0 0 0 84.735511630482506 -14.706421620206129 0 -14.706421620206129 -134.78575069406907 0 0 0 0 -7.1711327752839509 8.3123637201143339 0 8.3123637201143339 2.4699234687531488 0 0 0 0 83.358994948277541 30.080627129999357 0 30.080627129999357 -117.16540881969922 0 0 0 0 -65.399064243916655 95.192603980938657 0 95.192603980938657 -143.14568906601198 0 0 0 0 168.89402793925547 24.508337682998899 0 24.508337682998899 -138.30475171764192 0 0 0 0 9.2450123085173459 4.1305227145894143 0 4.1305227145894143 2.6464197463918828 0 0 0 0 18.174874207245011 -36.426669005016493 0 -36.426669005016493 -43.368767047595611 0 0 0 0 -10.912912408311968 -14.52476582440795 0 -14.52476582440795 -53.202889637376757 0 0 0 0 -1.5965782113489695 8.2422010599138957 0 8.2422010599138957 12.820795899428276 0 0 0 0 -7.2842963419097941 17.889208033251634 0 17.889208033251634 4.8899012029111475 0 0 0 0 -0.53881816267676186 6.7694923838703289 0 6.7694923838703289 4.3788462704051199 0 0 0 0 -26.489622783163213 12.134355146532471 0 12.134355146532471 6.1504071222989296 0 0 0 0 -12.004130268855079 17.893418076219405 0 17.893418076219405 -1.7188042464767932 0 0 0 0 -14.739734002403566 24.079725697826234 0 24.079725697826234 2.3441844561875769 0 0 0 0 -10.933041738117026 11.151910475622799 0 11.151910475622799 -1.7048867393887122 0 0 0 0 -1.4986687610398803 11.943188005299589 0 11.943188005299589 9.9501955502264536 0 0 0 0 -3.8899732513964409 22.581998164065226 0 22.581998164065226 10.139286420848748 0 0 0 0 -651.05153963169141 -26.306614248837377 0 -26.306614248837377 143.21804048434728 0 0 0 0 77.957691060397337 102.04815022379626 0 102.04815022379626 -180.50704078698436 0 0 0 0 -3.94261078179332 19.363593472929594 0 19.363593472929594 -1.4498846699656092 0 0 0 0 -399.96195969785913 -103.0339410233255 0 -103.0339410233255 86.918803326736452 0 0 0 0 -836.94931625832396 24.994552294890127 0 24.994552294890127 148.17873084899475 0 0 0 0 -1038.1113997884531 -3.1324987216494264 0 -3.1324987216494264 144.24726354619565 0 0 0 0 -474.27942923314549 274.42336814145347 0 274.42336814145347 -108.46758638855408 0 0 0 0 9.3990956202216864 4.644932272892639 0 4.644932272892639 -1.369508507513773 0 0 0 0 -298.64901386614656 228.50059395718654 0 228.50059395718654 338.57628951116772 0 0 0 0 310.30296086331145 148.90718194595047 0 148.90718194595047 -424.74359169950185 0 0 0 0 346.62095969899019 243.22392731715172 0 243.22392731715172 -207.28327317807998 0 0 0 0 0.60736996019379674 2.6890988877566429 0 2.6890988877566429 0.65187476099190889 0 0 0 0 291.21687815577025 -105.14247728018017 0 -105.14247728018017 -234.57337726573951 0 0 0 0 162.25823666402721 85.391880223959561 0 85.391880223959561 -315.28777115943012 0 0 0 0 280.64760192116773 -31.193912475363277 0 -31.193912475363277 -474.52839872632467 0 0 0 0 135.74129415974312 -246.870407638291 0 -246.870407638291 -134.9841998597858 0 0 0 0 -1298.9652310574675 1388.1552930920752 0 1388.1552930920752 -889.37467635334269 0 0 0 0 287.72344742901623 -209.70695996916652 0 -209.70695996916652 -1873.1573229489495 0 0 0 0 -2799.0469782031723 -591.9813419172915 0 -591.9813419172915 -233.03315386295662 0 0 0 0 1065.0150732634211 166.58969417521121 0 166.58969417521121 -84.320731646338572 0 0 0 0 -102.20240600952638 -28.650090480799356 0 -28.650090480799356 -116.07640199670533 0 0 0 0 -163.30629380221217 1.4562320617617956 0 1.4562320617617956 30.33469405704065 0 0 0 0 -66.607410175405676 -42.833030210159492 0 -42.833030210159492 49.11017901568588 0 0 0 0 190.80884958694514 -15.08975980931973 0 -15.08975980931973 31.140092989634013 0 0 0 0 -56.078094197827653 -5.9880493092934213 0 -5.9880493092934213 0.17508472999812064 0 0 0 0 -530.50350602388426 -915.22715203364601 0 -915.22715203364601 1140.8656276945221 0 0 0 0 -64.952045638808727 -17.016049460882837 0 -17.016049460882837 0.51147755553262564 0 0 0 0 74.615333415247733 -208.29303271110803 0 -208.29303271110803 186.74311108393067 0 0 0 0 -109.41599395245976 -4.6062808620204123 0 -4.6062808620204123 9.5484184319702763 0 0 0 0 -96.553961880394937 -15.702774028432774 0 -15.702774028432774 15.266038303737631 0 0 0 0 0.2221520845341729 -205.68280671109642 0 -205.68280671109642 656.41504493105549 0 0 0 0 -46.469874199462637 -34.603536237023455 0 -34.603536237023455 21.347055409668581 0 0 0 0 321.7052859478099 -516.2525221852751 0 -516.2525221852751 -99.359379835856089 0 0 0 0 -346.5229082334763 -524.71293512302236 0 -524.71293512302236 432.0421748818444 0 0 0 0 -72.809165191196371 27.154114568926737 0 27.154114568926737 -19.961320454810902 0 0 0 0 -46.755796472760267 -11.520900328287404 0 -11.520900328287404 34.826020030385301 0 0 0 0 -11.62246968234831 -52.611236331260159 0 -52.611236331260159 9.7506169809557548 0 0 0 0 -22.185588816169592 -37.830546433564038 0 -37.830546433564038 12.427462265115263 0 0 0 0 -996.99858820182635 324.41898847694961 0 324.41898847694961 243.63137700613575 0 0 0 0 435.3283697291663 -489.98612369605576 0 -489.98612369605576 -428.90125720979267 0 0 0 0 -417.59735875683873 352.58391225290541 0 352.58391225290541 -22.334033036190021 0 0 0 0 -191.24767537692242 -49.966744689011833 0 -49.966744689011833 40.489361805406688 0 0 0 0 -195.61283962365269 -29.746176679057982 0 -29.746176679057982 8.4109120112673281 0 0 0 0 -561.90859646466561 23.760203842049805 0 23.760203842049805 86.617913119747527 0 0 0 0 -496.5556103988929 -206.87772552486578 0 -206.87772552486578 -36.474930101626796 0 0 0 0 -25.363539229761955 -17.509864855013902 0 -17.509864855013902 -79.510319758314722 0 0 0 0 -953.38594646543788 183.83983325211344 0 183.83983325211344 159.12737726083003 0 0 0 0 -79.648311098379963 743.41402872945332 0 743.41402872945332 194.00513429207828 0 0 0 0 -833.0149451774414 -2.6818350808884759 0 -2.6818350808884759 447.4074354134633 0 0 0 0 -520.94340774126431 -146.05772380720234 0 -146.05772380720234 157.58398529785472 0 0 0 0 -948.40074942976207 -329.19833606532319 0 -329.19833606532319 85.881207609397336 0 0 0 0 -628.23114412916038 -103.17660056853504 0 -103.17660056853504 142.890912772967 0 0 0 0 -588.60990467167721 -129.90255433393034 0 -129.90255433393034 102.47191539059395 0 0 0 0 -639.35379936216987 2.1495027093388828 0 2.1495027093388828 123.64991753038476 0 0 0 0 -409.86981590332289 137.66392969224034 0 137.66392969224034 161.69491334381851 0 0 0 0 -333.47683321165823 18.426583126989726 0 18.426583126989726 71.357580175879775 0 0 0 0 -168.82488633170215 138.8855961371911 0 138.8855961371911 -123.63754832117104 0 0 0 0 -305.73459575415109 63.658554126087324 0 63.658554126087324 40.90300161264895 0 0 0 0 -82.600836607038218 262.272714705966 0 262.272714705966 65.528069836613213 0 0 0 0 -175.19672587254172 99.677539726484611 0 99.677539726484611 59.397852498413741 0 0 0 0 64.670760313863866 155.76881116130949 0 155.76881116130949 64.970212701544369 0 0 0 0 117.87053975480376 203.12417533835892 0 203.12417533835892 -83.441035861706041 0 0 0 0 369.96174710800551 201.01957374146792 0 201.01957374146792 -100.96207912094184 0 0 0 0 9.9969349264501943 227.29718995435596 0 227.29718995435596 -107.88832749326552 0 0 0 0 124.25572787512647 134.56027915896084 0 134.56027915896084 -30.078715286933573 0 0 0 0 -0.061195724350994851 0.58337500882659299 0 0.58337500882659299 -2.0361431035380955 0 0 0 0 -355.8760111285228 58.522313160009418 0 58.522313160009418 15.149897313313033 0 0 0 0 -215.36900080352279 -48.716050622820973 0 -48.716050622820973 30.665313936572602 0 0 0 0 -44.52588415635546 129.077121336461 0 129.077121336461 10.280360076329089 0 0 0 0 2.477462931767116 -3.8015484601571643 0 -3.8015484601571643 13.740558228998667 0 0 0 0 130.13518337844289 18.515940613729299 0 18.515940613729299 -10.920942789433866 0 0 0 0 253.44571762545092 67.901957649103963 0 67.901957649103963 -79.895008145158727 0 0 0 0 -1537.6100754694999 369.17009255046082 0 369.17009255046082 324.5952294506842 0 0 0 0 376.45718574570128 -324.51470391173234 0 -324.51470391173234 -1659.1226246999568 0 0 0 0 -2023.0411288602627 893.25187270288609 0 893.25187270288609 816.11642311659432 0 0 0 0 -2145.9323809346693 -529.39252471333339 0 -529.39252471333339 277.34829116157357 0 0 0 0 -194.49584994738507 -345.72705242621174 0 -345.72705242621174 -346.18414694843659 0 0 0 0 -789.18804273966089 -833.05851949592568 0 -833.05851949592568 -712.72339164528455 0 0 0 0 -25.004916927234319 -0.23491520817585076 0 -0.23491520817585076 0.37252418370530749 0 0 0 0 -1224.7117625124738 1021.7539289959977 0 1021.7539289959977 431.26646701887239 0 0 0 0 -1873.4076788317616 1060.5193738074195 0 1060.5193738074195 780.40146197270587 0 0 0 0 -16.961217561179609 10.786428739151525 0 10.786428739151525 -9.3564980924840242 0 0 0 0 -1676.1666757755156 1519.8610483087787 0 1519.8610483087787 95.414925590013809 0 0 0 0 -358.79701989230671 961.0902033061102 0 961.0902033061102 -567.26801939047891 0 0 0 0 -282.96110435693663 -129.6109491183451 0 -129.6109491183451 425.84269114979725 0 0 0 0 -51.426504413647905 35.415640169742332 0 35.415640169742332 -8.9994179974906956 0 0 0 0 -958.62387204157494 -326.31502069913586 0 -326.31502069913586 -127.64601904569099 0 0 0 0 -40.074599157753255 -91.886130290711662 0 -91.886130290711662 279.02219100548245 0 0 0 0 -1023.9697801735238 -160.86220005945643 0 -160.86220005945643 138.95908242865153 0 0 0 0 -2851.4460986176928 -1580.0059852737818 0 -1580.0059852737818 -371.3832987170772 0 0 0 0 -999.08123801260081 -143.29949419747663 0 -143.29949419747663 135.88375064805086 0 0 0 0 -994.49458821194276 -143.02104623677224 0 -143.02104623677224 132.7119622494356 0 0 0 0 -981.21731300423562 -130.00210940375564 0 -130.00210940375564 142.39725306663422 0 0 0 0 -896.45006832577019 -157.06174352389212 0 -157.06174352389212 138.98631031599689 0 0 0 0 -973.93020400788373 -162.23833742781039 0 -162.23833742781039 126.96841033370038 0 0 0 0 -506.01290220089868 -82.041689910437526 0 -82.041689910437526 0.56384127057572186 0 0 0 0 -975.92271646395966 -146.07061730099304 0 -146.07061730099304 145.53783743868462 0 0 0 0 -946.5126972075268 88.30413179852988 0 88.30413179852988 226.57893118331231 0 0 0 0 -1271.1826079024177 -33.432462140863663 0 -33.432462140863663 263.62343185589623 0 0 0 0 -1149.008630912329 -309.00112475813012 0 -309.00112475813012 -0.335238718716937 0 0 0 0 -648.82067251102126 -138.60784469508008 0 -138.60784469508008 -33.472016027420068 0 0 0 0 -915.61963267698047 -174.31041564571376 0 -174.31041564571376 9.4290961525530292 0 0 0 0 -967.87842363629898 -140.72312911741847 0 -140.72312911741847 154.97507321755211 0 0 0 0 -967.74740893777926 -137.87615571380047 0 -137.87615571380047 126.77421341989884 0 0 0 0 -72.695649738197972 17.297875272617361 0 17.297875272617361 25.560327110941543 0 0 0 0 -81.349697333655058 7.0133994920516898 0 7.0133994920516898 13.473014592868822 0 0 0 0 -84.933768598020833 9.2740804676443531 0 9.2740804676443531 26.695057006464992 0 0 0 0 -15.612419347627736 1.3907299752302578 0 1.3907299752302578 9.3035010668154143 0 0 0 0 -78.665331878357392 13.81471211214739 0 13.81471211214739 0.48433670560643804 0 0 0 0 -84.845471021311823 19.884837190885264 0 19.884837190885264 18.281671243301389 0 0 0 0 -16.406680439501038 16.112891349253346 0 16.112891349253346 8.4384422043009053 0 0 0 0 -49.634716051448606 15.619761040702095 0 15.619761040702095 18.595012701310598 0 0 0 0 71.438542782947479 148.23569726488054 0 148.23569726488054 88.000645736064087 0 0 0 0 -61.035477335721453 18.302109299013019 0 18.302109299013019 5.9553923444565182 0 0 0 0 -1.6507366014302534 180.54434065648542 0 180.54434065648542 237.76378370465318 0 0 0 0 232.83547240468033 89.388582328988718 0 89.388582328988718 -14.481220917550672 0 0 0 0 -18.588082212439815 0.66587004202065714 0 0.66587004202065714 3.3278060284331876 0 0 0 0 -64.190343160924385 -26.177274483061126 0 -26.177274483061126 40.626566602185449 0 0 0 0 -34.920495078367821 98.109697240744538 0 98.109697240744538 158.5447571799026 0 0 0 0 -15.874520215045967 -2.9871111163951269 0 -2.9871111163951269 47.720718211562378 0 0 0 0 96.389694017787406 127.03406896573722 0 127.03406896573722 18.611675014935713 0 0 0 0 126.47233173039876 -16.029700019959918 0 -16.029700019959918 -90.322989371823496 0 0 0 0 -1012.947119969278 -118.93471430884063 0 -118.93471430884063 160.73724359954804 0 0 0 0 -1562.6625405434461 382.86548529653419 0 382.86548529653419 257.84064255377734 0 0 0 0 -1542.4178725237944 -291.42076983319294 0 -291.42076983319294 69.508757456812873 0 0 0 0 -73.896577992911261 31.746460510415915 0 31.746460510415915 84.939496260598389 0 0 0 0 -1123.2625253202277 24.422178088149167 0 24.422178088149167 79.969617236382049 0 0 0 0 -1.7385532646276971 1.5805359752357333 0 1.5805359752357333 -0.36538491642447379 0 0 0 0 39.460147586120002 235.94189554254382 0 235.94189554254382 -54.270494143216126 0 0 0 0 -551.32640582647582 -89.771575766690205 0 -89.771575766690205 189.42337972008193 0 0 0 0 -1152.1676363345032 -141.3282919504336 0 -141.3282919504336 124.61813309315716 0 0 0 0 -1195.4381383706386 -365.18239281665922 0 -365.18239281665922 158.99405414462706 0 0 0 0 -1439.5575115481261 -600.92213991086294 0 -600.92213991086294 94.269660514077941 0 0 0 0 -493.90996898798039 -198.77395385036391 0 -198.77395385036391 -77.888639325472809 0 0 0 0 -894.56249040929106 -614.28441058691601 0 -614.28441058691601 -332.02924116259567 0 0 0 0 -392.10937574643685 7.7811751437223791 0 7.7811751437223791 43.090555537632099 0 0 0 0 -842.58341675740667 -704.94835172500348 0 -704.94835172500348 -246.99854969587903 0 0 0 0 -428.3215971935133 -70.008514154407976 0 -70.008514154407976 302.65945405266393 0 0 0 0 -17.694611224501664 1.5726383711594707 0 1.5726383711594707 0.45694660610545235 0 0 0 0 -65.094222457016059 18.727722314279518 0 18.727722314279518 6.1615337421384764 0 0 0 0 -74.628273258659192 37.088740670270774 0 37.088740670270774 25.99628776894383 0 0 0 0 -55.918857188720722 96.676875188594295 0 96.676875188594295 191.7302057487899 0 0 0 0 -515.43522645064513 75.817420799061665 0 75.817420799061665 279.03850491276012 0 0 0 0 -2660.9925258970252 -1212.5950558316217 0 -1212.5950558316217 -204.76831928702865 0 0 0 0 -3500.4161124090642 -1072.7717044261631 0 -1072.7717044261631 519.73521851109922 0 0 0 0 -1765.2821282600489 -773.42073280683439 0 -773.42073280683439 -31.750250007715294 0 0 0 0 -1735.0316130279753 -637.26595329937595 0 -637.26595329937595 155.80896005438177 0 0 0 0 -2315.1675534482965 -335.76203201782863 0 -335.76203201782863 352.30580219659021 0 0 0 0 -2476.07531241588 -508.80119808595947 0 -508.80119808595947 664.33874717691992 0 0 0 0 -3070.2742087433435 -753.34554035248607 0 -753.34554035248607 566.50770789657713 0 0 0 0 -3499.0461876655645 -257.5061349991326 0 -257.5061349991326 919.46744736203209 0 0 0 0 -1604.6145880130816 -104.7346687578834 0 -104.7346687578834 386.15961128552635 0 0 0 0 -2379.0850825899106 -121.09953511506092 0 -121.09953511506092 439.18376357044616 0 0 0 0 -1716.5378880551798 106.51180828386578 0 106.51180828386578 453.30992535826954 0 0 0 0 -2648.3861334613102 210.22541593482867 0 210.22541593482867 833.72544815545871 0 0 0 0 -2618.5401007767432 141.04864245956838 0 141.04864245956838 826.89801741074052 0 0 0 0 -3499.2317810740155 569.83149993790471 0 569.83149993790471 878.3520599357538 0 0 0 0 -2625.0350548935385 672.40644972167274 0 672.40644972167274 568.39455864239289 0 0 0 0 -3219.0499771770774 767.04242548270543 0 767.04242548270543 554.38897426598589 0 0 0 0 -2641.4473875589683 823.38101950096939 0 823.38101950096939 440.29365923365151 0 0 0 0 -1805.0073793265256 918.06901146638552 0 918.06901146638552 269.21668913021006 0 0 0 0 -1758.9752382255247 498.85481453758109 0 498.85481453758109 400.42707619179384 0 0 0 0 -2501.9865666570022 524.92687193309541 0 524.92687193309541 549.18540458630741 0 0 0 0 -825.59557526702702 216.55593606761124 0 216.55593606761124 216.02630696495049 0 0 0 0 -1734.9304858564624 687.98374365762675 0 687.98374365762675 211.02048632024298 0 0 0 0 -1.6329184634470764 2.5888657033664515 0 2.5888657033664515 -2.1671041460611002 0 0 0 0 -767.37565107933915 378.36622576236948 0 378.36622576236948 125.24145618838577 0 0 0 0 -145.23990062929079 282.36880121180639 0 282.36880121180639 -75.783612461795883 0 0 0 0 267.69980657281121 61.042312613085073 0 61.042312613085073 -174.65710577516251 0 0 0 0 -253.85472887293872 70.728620064841039 0 70.728620064841039 93.893702724201034 0 0 0 0 -1092.7198165678856 537.86169689150393 0 537.86169689150393 162.63925331670654 0 0 0 0 -596.10028533087825 739.27451306599323 0 739.27451306599323 -117.74275188223328 0 0 0 0 -915.82679714118422 662.7172095678568 0 662.7172095678568 -39.388007324211095 0 0 0 0 -1806.1415706843181 902.15265308740425 0 902.15265308740425 122.942230796697 0 0 0 0 -813.02506763591373 865.02584839499616 0 865.02584839499616 -127.83082480032935 0 0 0 0 -817.87389365864965 974.63712546224565 0 974.63712546224565 86.639814529270552 0 0 0 0 0.35479275618618544 0.85591653301587201 0 0.85591653301587201 -2.7494791868857393 0 0 0 0 914.07669868597441 443.20239035572718 0 443.20239035572718 -206.69156841941958 0 0 0 0 -1671.7121027987887 1372.9661331527595 0 1372.9661331527595 -302.37009420986271 0 0 0 0 -814.39854815016156 1731.3870783411733 0 1731.3870783411733 -178.55833520091406 0 0 0 0 177.56506242798059 708.53230914989399 0 708.53230914989399 -241.77932047654338 0 0 0 0 -43.919302017391601 124.30087460417789 0 124.30087460417789 19.846722763357889 0 0 0 0 287.26137793863018 207.71457242502493 0 207.71457242502493 40.833106754430332 0 0 0 0 190.53381360226194 98.67822040515 0 98.67822040515 47.874599819303967 0 0 0 0 282.30084607811659 167.02107188433308 0 167.02107188433308 66.271270421384543 0 0 0 0 154.30569851078326 256.12367468205935 0 256.12367468205935 85.165198504117939 0 0 0 0 -357.12567244750244 -50.425580417087232 0 -50.425580417087232 19.784955144822106 0 0 0 0 457.00687955077228 44.367852657220624 0 44.367852657220624 105.07429669232761 0 0 0 0 326.74215762265885 249.43915598216893 0 249.43915598216893 215.69388287442416 0 0 0 0 -3176.0838293596244 265.37581384031506 0 265.37581384031506 291.7935924402758 0 0 0 0 -841.88334774903706 1071.5693905985556 0 1071.5693905985556 -1341.8126343382517 0 0 0 0 -6.0164823303939556 4.2691364345607994 0 4.2691364345607994 5.9043890049824315 0 0 0 0 -3.225042706772598 4.2051946524515458 0 4.2051946524515458 -6.0964325453796055 0 0 0 0 -2752.9740019456913 1779.0858054411606 0 1779.0858054411606 -531.98675893382449 0 0 0 0 -2710.6979221449619 1703.0452867885115 0 1703.0452867885115 -805.43618330542949 0 0 0 0 -2825.8291777801933 1022.0489603402352 0 1022.0489603402352 -920.59699640563611 0 0 0 0 -3500.1576229234997 1137.9624493726531 0 1137.9624493726531 65.428294788579237 0 0 0 0 -2618.6698286483515 1178.5082310703581 0 1178.5082310703581 -13.710543388097307 0 0 0 0 -2549.0134950935535 1024.6873878724646 0 1024.6873878724646 285.22407913752249 0 0 0 0 -1694.3135513634188 1268.8995005007801 0 1268.8995005007801 23.284781305542708 0 0 0 0 -2765.2410300964038 1028.5769674284425 0 1028.5769674284425 29.834233993609274 0 0 0 0 -2255.5820128445921 1433.8952933643891 0 1433.8952933643891 58.526560380907284 0 0 0 0 -2824.8402033281891 708.33895325145181 0 708.33895325145181 -175.74587359984463 0 0 0 0 -2037.8743516676623 235.63797324255307 0 235.63797324255307 336.49496956783213 0 0 0 0 -1913.0313307549623 12.49723636368077 0 12.49723636368077 242.31673094263135 0 0 0 0 -3108.9657435113622 298.72333051586827 0 298.72333051586827 394.377748217896 0 0 0 0 -2162.7793362464581 200.78659734099716 0 200.78659734099716 326.77500516809266 0 0 0 0 -2130.7842469895695 -33.429504098949394 0 -33.429504098949394 232.94590185189708 0 0 0 0 0.24677195207914338 -91.652322402595019 0 -91.652322402595019 15.032091760612662 0 0 0 0 36.469562656857306 9.0548448017379997 0 9.0548448017379997 13.943512736787874 0 0 0 0 19.357491084112553 -94.046748364081395 0 -94.046748364081395 34.79883581815011 0 0 0 0 -66.547374402769492 -86.890011170441994 0 -86.890011170441994 2.0650418608456675 0 0 0 0 -67.973695741675328 30.570298106643349 0 30.570298106643349 -46.985448810903108 0 0 0 0 230.85552411434037 -55.741275435283569 0 -55.741275435283569 -70.82301979823842 0 0 0 0 -33.39538046906091 30.358493273456162 0 30.358493273456162 -45.795398111894656 0 0 0 0 -8.5359487689162563 4.1515936748827187 0 4.1515936748827187 -3.9307038314604128 0 0 0 0 -0.93728384738455617 15.071115851996439 0 15.071115851996439 -28.104798382938721 0 0 0 0 -639.68398221289681 -19.795925149371953 0 -19.795925149371953 46.201334650071573 0 0 0 0 44.092183209643963 -19.813118954101267 0 -19.813118954101267 -120.32762179859984 0 0 0 0 -5.3441320284234948 14.802390867968512 0 14.802390867968512 -29.82567530262688 0 0 0 0 5.385135720628341 -5.2107577745226337 0 -5.2107577745226337 -5.1117934543503942 0 0 0 0 -18.340324858727399 29.92842051135267 0 29.92842051135267 9.3803259712551608 0 0 0 0 359.16929246974905 -70.714244311423499 0 -70.714244311423499 -120.70991919446442 0 0 0 0 -37.451454912556073 -185.04736485439707 0 -185.04736485439707 -105.23441686927617 0 0 0 0 624.30077123612864 489.18579057972602 0 489.18579057972602 -141.34145825991527 0 0 0 0 93.335212860889442 30.302144557038559 0 30.302144557038559 70.611503389682184 0 0 0 0 167.41846445523697 -195.58619794727974 0 -195.58619794727974 -421.40537622538614 0 0 0 0 -69.029449081237544 29.214831163572399 0 29.214831163572399 28.096388617499997 0 0 0 0 -241.12834796742391 -58.243610511947821 0 -58.243610511947821 -11.360685723794617 0 0 0 0 -2986.6812500727319 -846.11292313652916 0 -846.11292313652916 239.89358608344929 0 0 0 0 -146.01696532228289 563.42914484673008 0 563.42914484673008 -974.39031634269747 0 0 0 0 -3500.0948156583327 399.06762903113946 0 399.06762903113946 -580.10554502100661 0 0 0 0 -10.353583003022607 6.8119011349203049 0 6.8119011349203049 -5.8724797154080903 0 0 0 0 -3045.1528552607197 1166.6760763012826 0 1166.6760763012826 234.86926795201632 0 0 0 0 -1087.7264058318397 914.90620818494313 0 914.90620818494313 136.24936954912005 0 0 0 0 -3729.9624699342676 379.03740180718353 0 379.03740180718353 742.60687098735002 0 0 0 0 -3397.8655109288884 794.27918596408313 0 794.27918596408313 354.08550605888547 0 0 0 0 -3494.4743861982752 496.99040207654087 0 496.99040207654087 681.79900244213127 0 0 0 0 -466.3850647588115 127.53334536619914 0 127.53334536619914 -269.71876850605707 0 0 0 0 -210.9979544724556 326.1382477128567 0 326.1382477128567 -438.62604610034828 0 0 0 0 -1164.6609575118346 -123.18323233824944 0 -123.18323233824944 116.12731536726528 0 0 0 0 -2176.2953931472111 1321.6018318304104 0 1321.6018318304104 -248.13681009757724 0 0 0 0 -20.432319858835228 5.1636487480890807 0 5.1636487480890807 -3.5035927033599736 0 0 0 0 -255.37202624353813 784.26811779439208 0 784.26811779439208 -786.53076184916006 0 0 0 0 -266.28721092143428 -233.36460360321354 0 -233.36460360321354 70.047619064846572 0 0 0 0 -1609.9837249732045 -736.68612338826279 0 -736.68612338826279 -352.74085143661478 0 0 0 0 -3494.99487492556 -2251.2044991035323 0 -2251.2044991035323 -1248.2980738064796 0 0 0 0 -1544.6981351026006 -883.99280290627303 0 -883.99280290627303 -291.80640647693929 0 0 0 0 -35.260444873594679 26.225536115504951 0 26.225536115504951 -1.055021538183496 0 0 0 0 -47.058441202439667 20.357371023793313 0 20.357371023793313 -3.6286733856889248 0 0 0 0 -48.162710348973633 -61.790234462605895 0 -61.790234462605895 194.44957949614854 0 0 0 0 -13.276298861437066 3.080741651341782 0 3.080741651341782 8.940388705535451 0 0 0 0 -52.870131004674477 46.958487207234839 0 46.958487207234839 -24.844040578002023 0 0 0 0 -13.231715099536814 -13.433658069114927 0 -13.433658069114927 -10.964622214973133 0 0 0 0 -52.926573869806816 62.326155842455869 0 62.326155842455869 -28.198351123632165 0 0 0 0 -13.862880733577185 -5.7909474987079648 0 -5.7909474987079648 3.1522174816702773 0 0 0 0 -8.9133068124209558 2.7380089881508098 0 2.7380089881508098 -3.0485618689484664 0 0 0 0 297.52609521009435 -116.0840958128401 0 -116.0840958128401 -318.85509326669035 0 0 0 0 -3.1781341814380788 4.9331830894626307 0 4.9331830894626307 -7.1730341253355867 0 0 0 0 -12.012358520466055 -6.5448110890845044 0 -6.5448110890845044 -9.1563158746539575 0 0 0 0 -526.38291536119505 306.86400703594836 0 306.86400703594836 262.79476396599898 0 0 0 0 -24.669299506412699 16.925047456803398 0 16.925047456803398 -13.806132256242311 0 0 0 0 -33.879721821560679 21.427278804581064 0 21.427278804581064 -6.0242193583050216 0 0 0 0 -54.362748304318984 -12.481230071353078 0 -12.481230071353078 -21.854118438180194 0 0 0 0 -84.418581756588537 -35.653075732952402 0 -35.653075732952402 -22.186212038720441 0 0 0 0 531.91603900500922 -57.61334858661462 0 -57.61334858661462 -522.7674756891829 0 0 0 0 -356.39179126867384 623.5454112130401 0 623.5454112130401 -962.65305625862675 0 0 0 0 -92.896142272336874 -41.121267950949914 0 -41.121267950949914 281.86920218343221 0 0 0 0 -873.90201127047476 -276.44817503806507 0 -276.44817503806507 128.19521479294053 0 0 0 0 -1592.5145710809447 165.30509172750135 0 165.30509172750135 275.79138336160759 0 0 0 0 -348.69863727781922 215.7314096133814 0 215.7314096133814 68.373873629765512 0 0 0 0 -2655.2420264551183 -243.95456622544953 0 -243.95456622544953 1603.7223666742138 0 0 0 0 -535.8843378094025 539.67613205153339 0 539.67613205153339 605.11140256406634 0 0 0 0 342.11012344309711 -95.96847959578281 0 -95.96847959578281 -229.39737260595757 0 0 0 0 151.81224398287304 -384.75799629541234 0 -384.75799629541234 -507.28324296333813 0 0 0 0 35.650593851256417 -214.16901842534571 0 -214.16901842534571 -142.51820533708815 0 0 0 0 -122.46970416192198 25.636049711750275 0 25.636049711750275 246.91785946093296 0 0 0 0 -191.27192023965836 -129.92731552008286 0 -129.92731552008286 217.02188043471142 0 0 0 0 -40.580607657229848 -85.70779702548316 0 -85.70779702548316 229.9708826459273 0 0 0 0 -51.955109744201764 -57.907580627607274 0 -57.907580627607274 199.33321315954561 0 0 0 0 -11.843886130906917 -3.4601459702582673 0 -3.4601459702582673 7.0917127800902247 0 0 0 0 -84.906060708125779 24.960505856302582 0 24.960505856302582 -82.3801107454874 0 0 0 0 -94.120637205094681 693.48767794264677 0 693.48767794264677 463.91639546087117 0 0 0 0 -42.66084265049156 26.869353213342748 0 26.869353213342748 -3.6281685840543254 0 0 0 0 79.024852648522938 -1.2622792254724118 0 -1.2622792254724118 212.44652242847769 0 0 0 0 -3.9507471360425654 1.0343788931812981 0 1.0343788931812981 0.93906795107348806 0 0 0 0 -128.32358870882308 -344.45762394340863 0 -344.45762394340863 149.17128876565744 0 0 0 0 -114.98245384568872 112.04413752947664 0 112.04413752947664 -67.934798933832326 0 0 0 0 -23.873461960705754 43.110038660860852 0 43.110038660860852 -96.351506596643958 0 0 0 0 -197.55301502588554 90.918131924845142 0 90.918131924845142 17.938935767475073 0 0 0 0 -1027.5173281896859 152.83972003989743 0 152.83972003989743 22.68840413375483 0 0 0 0 -43.136296064782158 25.662707598472551 0 25.662707598472551 -0.23783907155297701 0 0 0 0 -119.65244876750552 267.79985906514565 0 267.79985906514565 -298.89510217782856 0 0 0 0 -5.5410451864033998 2.4786831345763574 0 2.4786831345763574 0.40234137138183534 0 0 0 0 -84.719684528448852 82.649017418784297 0 82.649017418784297 -189.3173522150073 0 0 0 0 -32.820291538705874 19.134731872760995 0 19.134731872760995 11.004516465112093 0 0 0 0 -178.60540955500619 -24.260781437383049 0 -24.260781437383049 84.8599704552811 0 0 0 0 -108.75285487380461 18.862253180587004 0 18.862253180587004 10.423899166084766 0 0 0 0 -4.9897522131986722 15.5995817147233 0 15.5995817147233 5.6519104711566861 0 0 0 0 -109.81131369216018 15.806720818985923 0 15.806720818985923 2.5746083776593878 0 0 0 0 -12.96321577283679 3.1090051276383832 0 3.1090051276383832 8.1187821865171994 0 0 0 0 -26.270682706428488 -54.789064407214269 0 -54.789064407214269 42.983945724042897 0 0 0 0 -93.283606172117288 7.4759407158762095 0 7.4759407158762095 27.098486088740984 0 0 0 0 -87.966590676463966 18.239944238397594 0 18.239944238397594 43.153030117751136 0 0 0 0 -139.09442093149119 45.699233002526725 0 45.699233002526725 52.903791939031592 0 0 0 0 -1043.7756881937385 -100.66063268487414 0 -100.66063268487414 32.196944262386069 0 0 0 0 -756.1595945701265 17.477304359565323 0 17.477304359565323 -159.7175397933006 0 0 0 0 -948.42402985663648 -46.548770933662695 0 -46.548770933662695 -370.48184685980323 0 0 0 0 -184.65464134182781 211.63411796879265 0 211.63411796879265 -206.81380834473293 0 0 0 0 -1576.3043382209435 100.25141457721611 0 100.25141457721611 -94.718676012713331 0 0 0 0 -3.3168465432659673 4.2767649897122766 0 4.2767649897122766 0.38456204698267804 0 0 0 0 -1639.3116983425134 -431.09744848773016 0 -431.09744848773016 -60.11011481092919 0 0 0 0 -1158.7489031564619 -348.36031508017777 0 -348.36031508017777 -147.72147929286325 0 0 0 0 -1487.3073724087735 -52.007560574387071 0 -52.007560574387071 59.950962821605117 0 0 0 0 -1080.9577344250793 -30.737350674310392 0 -30.737350674310392 -86.609276451398728 0 0 0 0 -1114.3149384719291 -109.41455647328107 0 -109.41455647328107 59.088087865496334 0 0 0 0 -1184.9466420806712 -148.06255161582055 0 -148.06255161582055 6.6710216252559462 0 0 0 0 -471.50790289543511 -80.355935403243066 0 -80.355935403243066 -43.537478489318801 0 0 0 0 -1171.6719319170224 -83.080171617873361 0 -83.080171617873361 126.48113701395891 0 0 0 0 -943.28583713740227 9.1875448683445029 0 9.1875448683445029 98.65493709039697 0 0 0 0 -1082.2838849550462 34.845706695825214 0 34.845706695825214 53.772851895497006 0 0 0 0 -863.44248507240263 -66.840384904135306 0 -66.840384904135306 37.491219686468298 0 0 0 0 -867.62068618076046 -38.176548712541717 0 -38.176548712541717 108.18707860603581 0 0 0 0 -633.78713398432592 -98.949576403444098 0 -98.949576403444098 46.605445538071876 0 0 0 0 -594.59815745733795 -135.0190798256059 0 -135.0190798256059 22.029799358846162 0 0 0 0 -1241.2094039754302 3.9590880948508129 0 3.9590880948508129 156.35564167702705 0 0 0 0 -898.10886893557836 -90.347424891415017 0 -90.347424891415017 87.424720214586614 0 0 0 0 -1042.7909748221136 -88.251112238887004 0 -88.251112238887004 66.446755593144644 0 0 0 0 -776.51611721476365 -61.266035647219041 0 -61.266035647219041 65.266052962319009 0 0 0 0 -1093.1075305783961 -56.38937666248512 0 -56.38937666248512 93.583665354010918 0 0 0 0 -1131.5756907268442 52.549466537619082 0 52.549466537619082 -210.28251263584389 0 0 0 0 -2322.0576390404531 266.96035089998713 0 266.96035089998713 258.41053018161256 0 0 0 0 -0.053621685825106624 0.16674138686254025 0 0.16674138686254025 1.4676668213502424 0 0 0 0 -1010.0848202960988 -289.87957521952944 0 -289.87957521952944 37.290655749403413 0 0 0 0 -1001.1571599947056 15.584628909244202 0 15.584628909244202 -170.97411372855731 0 0 0 0 -1440.8023013525526 -121.28183819058631 0 -121.28183819058631 118.83833397361923 0 0 0 0 -349.05918596376569 310.18792148399575 0 310.18792148399575 17.94702051899003 0 0 0 0 -377.14531358284876 -532.68861829302932 0 -532.68861829302932 -461.72276997744484 0 0 0 0 -1577.8160413804726 -676.28512191227401 0 -676.28512191227401 87.351339706408908 0 0 0 0 -1272.6112014945684 -1085.3657981906072 0 -1085.3657981906072 -557.53316941833509 0 0 0 0 -455.21036032271513 741.17938042508376 0 741.17938042508376 -928.63718977790995 0 0 0 0 -25.552558335397748 5.6084967759861968 0 5.6084967759861968 -2.7756442784590014 0 0 0 0 91.554103981441585 83.397982390492871 0 83.397982390492871 -251.50394516742381 0 0 0 0 -3292.27713583273 -1168.1053514714604 0 -1168.1053514714604 -435.75754246375982 0 0 0 0 -1594.515584022447 1296.1131859468805 0 1296.1131859468805 -290.47922968030252 0 0 0 0 -2498.9847556298919 -681.82207392503733 0 -681.82207392503733 130.084334466992 0 0 0 0 -546.59506911529752 68.184129912275239 0 68.184129912275239 -2871.3604453973403 0 0 0 0 -2811.6796542573138 318.30971280229642 0 318.30971280229642 712.08499019765804 0 0 0 0 -389.64688583964016 -12.838468118327 0 -12.838468118327 680.84724541489504 0 0 0 0 469.03893241207334 -332.76045748428805 0 -332.76045748428805 -114.86611197758612 0 0 0 0 -3.5998545387937497 -5.704904499231958 0 -5.704904499231958 -10.487683994600758 0 0 0 0 750.63068215677049 -106.04100302647748 0 -106.04100302647748 -581.30392851030774 0 0 0 0 -703.78822269535158 -742.14175814342161 0 -742.14175814342161 -517.75344582565594 0 0 0 0 395.19479470487568 -138.5573066434481 0 -138.5573066434481 -781.53569517060259 0 0 0 0 -60.973008293134626 -628.70426182310257 0 -628.70426182310257 -873.48557088511734 0 0 0 0 348.10950706456788 -6.9788808647444966 0 -6.9788808647444966 -231.71518718080006 0 0 0 0 1001.6979845715832 422.09197730449705 0 422.09197730449705 -438.84936562258736 0 0 0 0 382.17670501183602 185.12164097214554 0 185.12164097214554 -437.04563222222168 0 0 0 0 123.95279588479025 659.68974240052285 0 659.68974240052285 -184.87188041309128 0 0 0 0 -955.82873993071553 -492.9436503547995 0 -492.9436503547995 -231.3581482034806 0 0 0 0 -1079.5952601237368 -130.77469615787072 0 -130.77469615787072 95.677152804910293 0 0 0 0 -1224.3666704035568 -225.78110320036012 0 -225.78110320036012 -1282.7776165050454 0 0 0 0 -1.70947674042079 -0.27820091769686428 0 -0.27820091769686428 -0.9182650626732709 0 0 0 0 -214.06233110406902 -440.54308672361913 0 -440.54308672361913 -1076.9273450141552 0 0 0 0 -97.661939011828508 76.964528509925003 0 76.964528509925003 -245.89596155577237 0 0 0 0 -1329.3074361586187 -1481.2579667278915 0 -1481.2579667278915 -995.27924872384756 0 0 0 0 -420.68446876549569 -19.112199250101185 0 -19.112199250101185 -133.74254398532867 0 0 0 0 -657.95867510492099 173.51277499522166 0 173.51277499522166 -89.547046671090357 0 0 0 0 -1.0024813676118214 -0.38139861696441812 0 -0.38139861696441812 -0.47722136072192711 0 0 0 0 -307.3883587908349 -122.33097661691136 0 -122.33097661691136 42.886794597945482 0 0 0 0 116.31421002218849 -1649.5125395917457 0 -1649.5125395917457 -1265.3708792376801 0 0 0 0 -1105.2484361510178 508.36411213279098 0 508.36411213279098 -200.87585714602392 0 0 0 0 771.27933358676091 849.22095757115494 0 849.22095757115494 -185.82142473717249 0 0 0 0 -631.11662641742078 339.86251658487072 0 339.86251658487072 1240.2894378069468 0 0 0 0 -631.91671281147865 52.448836862457028 0 52.448836862457028 120.5383123834672 0 0 0 0 -537.01257368428924 25.947542647035334 0 25.947542647035334 6.5670614269674843 0 0 0 0 -1.5592204350118521 -0.6928695482284013 0 -0.6928695482284013 -0.79993790904768858 0 0 0 0 -12.026468596212226 -16.075446963574706 0 -16.075446963574706 -16.798878379992829 0 0 0 0 -560.59317034489504 116.25731351877346 0 116.25731351877346 -30.436264056686923 0 0 0 0 -626.85377310231161 125.43235992899389 0 125.43235992899389 45.965991647652118 0 0 0 0 -539.23331312459777 37.643692241726967 0 37.643692241726967 52.377609080112961 0 0 0 0 -521.00161245292111 7.8293616616660984 0 7.8293616616660984 -25.634993177955039 0 0 0 0 -423.37745322025148 115.86639699813895 0 115.86639699813895 -38.755711179730497 0 0 0 0 -420.5017401464429 55.821044080460752 0 55.821044080460752 45.712068323276981 0 0 0 0 -639.43674855094287 59.704974151649026 0 59.704974151649026 -49.70025969440394 0 0 0 0 -124.3189385921869 -13.571623478649599 0 -13.571623478649599 -115.6280796002311 0 0 0 0 10.789023300138069 -14.235145021355493 0 -14.235145021355493 -17.154614531327752 0 0 0 0 -1.1297783930182845 -0.19230399369587303 0 -0.19230399369587303 -3.3560321298715721 0 0 0 0 -266.76133590174868 16.525907772441769 0 16.525907772441769 70.984540577116604 0 0 0 0 -176.99370052997256 -56.157408385367489 0 -56.157408385367489 26.21360039242245 0 0 0 0 -118.066281906722 6.9495343905141453 0 6.9495343905141453 -48.325682590773795 0 0 0 0 -181.2983354015596 -73.279245748290123 0 -73.279245748290123 -40.544721658116032 0 0 0 0 -615.34039367568039 109.71737935223791 0 109.71737935223791 41.439265356792021 0 0 0 0 -279.46662775016011 117.36579742650702 0 117.36579742650702 -93.406468848634177 0 0 0 0 -377.50936063005793 3.0907641737471749 0 3.0907641737471749 -85.247512839247065 0 0 0 0 -441.65144583719666 155.75320110219673 0 155.75320110219673 -26.265897568890978 0 0 0 0 -366.90897379355738 63.603276079749776 0 63.603276079749776 60.356227715939895 0 0 0 0 -1119.9851336427382 77.089420197765321 0 77.089420197765321 523.38459525572034 0 0 0 0 -13.99644220693483 -14.622361437744075 0 -14.622361437744075 -9.48081085026773 0 0 0 0 -151.51221842094674 -60.158159887842885 0 -60.158159887842885 10.57907581139807 0 0 0 0 -368.06106117990566 43.761801196355009 0 43.761801196355009 174.57045305349129 0 0 0 0 -1039.0704045276525 -24.213787750010624 0 -24.213787750010624 104.82064662714947 0 0 0 0 -1124.8726875140419 354.98182911845288 0 354.98182911845288 -350.81805960913243 0 0 0 0 -1109.0285706291761 83.638796805387756 0 83.638796805387756 -20.018204917421826 0 0 0 0 -924.03608762883232 406.59298823237941 0 406.59298823237941 331.22592440987137 0 0 0 0 -1277.1303882421053 580.62975394462956 0 580.62975394462956 256.26535806496031 0 0 0 0 -862.26278818746505 540.10731224705796 0 540.10731224705796 -221.85419599778834 0 0 0 0 -847.58230479634221 635.88952997347042 0 635.88952997347042 222.6958926802763 0 0 0 0 33.746540483349236 539.16654922906218 0 539.16654922906218 68.220807071596937 0 0 0 0 -1417.7873587971262 487.785789356235 0 487.785789356235 880.85408266862032 0 0 0 0 -18.294759147701825 8.7744661501815102 0 8.7744661501815102 33.467216859887323 0 0 0 0 -52.172932360103005 -13.275181927609992 0 -13.275181927609992 21.83000270886032 0 0 0 0 -75.585190503317904 12.611995248068091 0 12.611995248068091 95.885633765654347 0 0 0 0 -246.23834650420758 56.446603441572734 0 56.446603441572734 -14.978862782243596 0 0 0 0 -192.77959681490574 98.847392905905963 0 98.847392905905963 -48.707474842045485 0 0 0 0 -3.0571490097166389 -8.0722444727541074 0 -8.0722444727541074 20.260919136705159 0 0 0 0 -1254.9836863600212 63.853686823861608 0 63.853686823861608 75.682292094459626 0 0 0 0 2.9648091558359226 2.9483425055531285 0 2.9483425055531285 3.3419841127211427 0 0 0 0 -8.8980215067127375 10.622955450990702 0 10.622955450990702 32.374598098576719 0 0 0 0 -35.238950942308293 46.616284618220931 0 46.616284618220931 99.238702237535762 0 0 0 0 -76.010266860248521 -16.664279483834719 0 -16.664279483834719 34.385146579285674 0 0 0 0 -103.77028373793291 -3.969689870572779 0 -3.969689870572779 186.09916876924098 0 0 0 0 -102.9779924966715 8.7572433157499177 0 8.7572433157499177 119.30466713219232 0 0 0 0 -15.609247797470744 -140.80594562998681 0 -140.80594562998681 216.868248182461 0 0 0 0 -116.03507271748094 -75.220363619800551 0 -75.220363619800551 222.8873528638658 0 0 0 0 -36.517153357036875 -28.509330366337238 0 -28.509330366337238 -20.34834232798055 0 0 0 0 -49.019218005938455 -14.574660954280716 0 -14.574660954280716 46.7900636228851 0 0 0 0 -31.876790637352315 -60.169240975030334 0 -60.169240975030334 96.348778451046655 0 0 0 0 -49.796766454004683 -27.583992002529612 0 -27.583992002529612 8.9535447100952297 0 0 0 0 -45.054045027776738 -51.054707643149015 0 -51.054707643149015 -2.2319671407078658 0 0 0 0 -36.723165511516129 -26.945490947935497 0 -26.945490947935497 -14.082908882940185 0 0 0 0 -57.94685114324966 -44.071672307048175 0 -44.071672307048175 36.522936242108131 0 0 0 0 -77.4151826497 26.2080552720318 0 26.2080552720318 -44.528727264561894 0 0 0 0 -35.88176955828385 -31.202064712713479 0 -31.202064712713479 -10.731747390374949 0 0 0 0 -171.62859664196731 -12.321258749946281 0 -12.321258749946281 3.12459475394175 0 0 0 0 -122.96735635102232 43.598525598649303 0 43.598525598649303 -1.922290816504642 0 0 0 0 -40.965432751312619 -75.855622648934684 0 -75.855622648934684 -18.486455979685161 0 0 0 0 189.03815403417684 -76.243786243729119 0 -76.243786243729119 -84.733824832824212 0 0 0 0 -24.075732961820904 55.858061132032162 0 55.858061132032162 -124.53512253791314 0 0 0 0 -216.80224485564577 -92.760736705093194 0 -92.760736705093194 -0.68460965604595003 0 0 0 0 -2.6491893091394445 -0.85887490562058133 0 -0.85887490562058133 0.83162937002888571 0 0 0 0 -265.99989644755988 85.684345081988653 0 85.684345081988653 -10.826739713246297 0 0 0 0 -12.759634688125715 -3.1174151150396199 0 -3.1174151150396199 3.8784037894588774 0 0 0 0 -24.732180603692541 -14.238774463184576 0 -14.238774463184576 12.743695572673715 0 0 0 0 -151.3471927412902 102.32352117138612 0 102.32352117138612 39.48456014085059 0 0 0 0 11.903858789912192 -6.9163295319708595 0 -6.9163295319708595 -3.9961759737601525 0 0 0 0 19.218524228854221 5.0688397244721273 0 5.0688397244721273 -66.126712917826808 0 0 0 0 4.0434097204124555 -3.1803780074924362 0 -3.1803780074924362 28.959137379471713 0 0 0 0 -6.2262490517168771 12.541849065004726 0 12.541849065004726 40.978123114389632 0 0 0 0 -7.2954967357720761 -0.014959943536801745 0 -0.014959943536801745 6.7580783801389455 0 0 0 0 0.11644463078118861 15.810675229578919 0 15.810675229578919 30.227195183691947 0 0 0 0 -4.1967111024569022 19.236038403777684 0 19.236038403777684 41.390512429623868 0 0 0 0 -26.074059973333561 28.082511760896722 0 28.082511760896722 20.852936521076849 0 0 0 0 -11.123117964941969 19.318761001099958 0 19.318761001099958 21.678909203400824 0 0 0 0 -31.882232139985717 17.035354985419303 0 17.035354985419303 23.198363173823964 0 0 0 0 -30.628398514556466 8.8444896213604807 0 8.8444896213604807 29.946923640560271 0 0 0 0 -27.784217297601629 11.242157201746522 0 11.242157201746522 24.253754174707836 0 0 0 0 -29.008650176721858 -3.2638214055277786 0 -3.2638214055277786 30.546753582539168 0 0 0 0 -19.360213892691718 3.5546035881357199 0 3.5546035881357199 13.089889499925606 0 0 0 0 -61.564560810496914 -57.645111728123084 0 -57.645111728123084 10.164061304995258 0 0 0 0 -27.626498409414751 1.708354711334124 0 1.708354711334124 28.570845855139805 0 0 0 0 -56.780753999086301 -0.28559883795696805 0 -0.28559883795696805 33.808878468831608 0 0 0 0 -35.393688781361561 4.1613982957442204 0 4.1613982957442204 27.85679575838185 0 0 0 0 -35.196101003384683 -1.0725705476943403 0 -1.0725705476943403 31.840374535036972 0 0 0 0 -43.300847919716034 9.2140732354846477 0 9.2140732354846477 32.11356939280995 0 0 0 0 -35.664330582760158 -5.669730747936228 0 -5.669730747936228 24.937115392992382 0 0 0 0 -15.657864409792033 -4.4108969302384651 0 -4.4108969302384651 41.744496450046768 0 0 0 0 -30.607591388910805 -10.479564027872584 0 -10.479564027872584 105.10604531248828 0 0 0 0 -140.51214573066682 -15.101203880789399 0 -15.101203880789399 263.29053805609874 0 0 0 0 -65.561136986143083 22.863211279025997 0 22.863211279025997 6.0724084947104124 0 0 0 0 -41.280490485733026 -95.444116012391532 0 -95.444116012391532 -79.137647859726712 0 0 0 0 -149.42012388887815 -125.93533213309274 0 -125.93533213309274 168.34368875714608 0 0 0 0 -114.22898332176555 99.249475047506166 0 99.249475047506166 150.23785095898893 0 0 0 0 66.257602772546306 102.6466192172511 0 102.6466192172511 -46.077499959021225 0 0 0 0 -851.97159181016832 -320.54975889704633 0 -320.54975889704633 -35.276783342884301 0 0 0 0 -27.988513527685427 59.863561674691482 0 59.863561674691482 91.516340336861958 0 0 0 0 -5.792366542173454 -0.11408165766965794 0 -0.11408165766965794 4.96204975737826 0 0 0 0 -4.423542505785008 21.637140840715801 0 21.637140840715801 -54.034681572812588 0 0 0 0 -24.820605142165732 208.88193474846048 0 208.88193474846048 398.83962212140614 0 0 0 0 164.2724306036398 -26.118577977109453 0 -26.118577977109453 6.2378551109427463 0 0 0 0 -17.023977786217586 3.9888232505366688 0 3.9888232505366688 11.495454819404145 0 0 0 0 -158.75078606556053 134.15747565770062 0 134.15747565770062 80.81425880990264 0 0 0 0 3.0089355988526165 8.7471626873055044 0 8.7471626873055044 9.3265580824840679 0 0 0 0 228.30411994575115 10.047823985704099 0 10.047823985704099 -227.95621429206813 0 0 0 0 -125.97474492181209 -192.0685176135753 0 -192.0685176135753 -148.12656736575809 0 0 0 0 -12.537361973463224 31.299598716782171 0 31.299598716782171 33.011558443977449 0 0 0 0 13.921642813569633 39.211214852300373 0 39.211214852300373 25.539129269086516 0 0 0 0 6.8645531140791718 42.066532298470065 0 42.066532298470065 28.255747201297254 0 0 0 0 -2.2238560221303487 43.39176148086608 0 43.39176148086608 54.804163801090908 0 0 0 0 -19.297786062321393 65.733073307560517 0 65.733073307560517 52.070153539704734 0 0 0 0 -3.0990923885765369 -0.061389873223106406 0 -0.061389873223106406 -110.00807210647918 0 0 0 0 -18.637051895666332 14.727669102550777 0 14.727669102550777 9.0753900818635351 0 0 0 0 -290.27657022830681 -94.00298382069991 0 -94.00298382069991 -51.490151937232895 0 0 0 0 -621.17322860701097 -250.53626878120212 0 -250.53626878120212 47.53553594292498 0 0 0 0 -294.71931016611052 -105.16152774733951 0 -105.16152774733951 110.22055209071394 0 0 0 0 -576.18010249428335 -34.426997394311343 0 -34.426997394311343 38.944858377064293 0 0 0 0 -595.14522913397013 37.844864080911464 0 37.844864080911464 19.630610887275679 0 0 0 0 -264.45633815877773 136.62683958683752 0 136.62683958683752 4.9717197909840252 0 0 0 0 -448.72259957746428 -57.887286452902572 0 -57.887286452902572 -5.8423433434151093 0 0 0 0 -614.71273812432628 60.916754527172543 0 60.916754527172543 -35.926831234857218 0 0 0 0 -447.54182879031578 54.411300500052221 0 54.411300500052221 118.69680074917869 0 0 0 0 -325.74491100378509 -87.578878662434022 0 -87.578878662434022 -19.114037044788233 0 0 0 0 -10.486211964625909 29.744294667931513 0 29.744294667931513 26.389633225254329 0 0 0 0 -8.464331095300011 17.42186732865342 0 17.42186732865342 17.480541167651964 0 0 0 0 -4.3623857508692723 18.750698223511478 0 18.750698223511478 6.0017948767390621 0 0 0 0 -29.706728561914133 18.481142296172834 0 18.481142296172834 14.772003957072229 0 0 0 0 -60.754953234763889 -69.947512696180212 0 -69.947512696180212 -48.389371820241649 0 0 0 0 -340.28062915055489 100.23548217318194 0 100.23548217318194 -14.207552900871178 0 0 0 0 -659.72787645481003 -139.63853101595237 0 -139.63853101595237 58.982526265298475 0 0 0 0 -3.1161849900818197 21.497186499876989 0 21.497186499876989 11.605655424031283 0 0 0 0 -89.131083958811359 -33.11967057127913 0 -33.11967057127913 11.653770104236173 0 0 0 0 -13.919490508410462 11.232201185303168 0 11.232201185303168 9.4845296092167395 0 0 0 0 -2.9298675195896067 19.805123866170106 0 19.805123866170106 18.137087891020201 0 0 0 0 -10.649360351875657 25.43448713980888 0 25.43448713980888 28.704301755642518 0 0 0 0 -5.8721745233633555 23.697936406522786 0 23.697936406522786 22.388440973119941 0 0 0 0 -4.238055264839204 23.69911609825067 0 23.69911609825067 18.308879792308289 0 0 0 0 -6.6901879368233494 20.366412978076369 0 20.366412978076369 26.996514219510573 0 0 0 0 -4.2513992742460687 18.999831082917808 0 18.999831082917808 22.933059531071194 0 0 0 0 -54.374654824525351 -32.656194720344502 0 -32.656194720344502 -10.997798293010419 0 0 0 0 -7.0402031236590119 21.625150322483933 0 21.625150322483933 11.549122995396829 0 0 0 0 -2.2353470932284836 19.703237212369004 0 19.703237212369004 12.18502873144098 0 0 0 0 -15.40800218404911 16.026445839338976 0 16.026445839338976 10.03284700576296 0 0 0 0 -8.1443760722468141 16.755008794316382 0 16.755008794316382 9.8797400336352439 0 0 0 0 -6.8765914180257823 28.569908387544274 0 28.569908387544274 19.419189783939146 0 0 0 0 -5.6192852884432796 22.850195558108339 0 22.850195558108339 10.623713329634484 0 0 0 0 -8.201040040657972 34.784086921838025 0 34.784086921838025 22.815773036013979 0 0 0 0 2.8527389976370614 25.756016822874244 0 25.756016822874244 10.374994880090767 0 0 0 0 -23.523376691206238 8.0850697944500922 0 8.0850697944500922 6.3140107920110697 0 0 0 0 -41.46580169587105 -10.380753422038651 0 -10.380753422038651 36.855069879085022 0 0 0 0 -42.418477650840941 33.475573142145095 0 33.475573142145095 50.962306563986203 0 0 0 0 -5.9200095268763988 0.2255542248420852 0 0.2255542248420852 1.4938127398174004 0 0 0 0 -46.405431966937613 5.9968692422307868 0 5.9968692422307868 -19.819607041339623 0 0 0 0 -69.628448977267908 25.194141526891826 0 25.194141526891826 95.512986071900741 0 0 0 0 -101.85154048672121 14.135168147156946 0 14.135168147156946 105.54302518449822 0 0 0 0 -60.279434114170726 -4.9476789289174121 0 -4.9476789289174121 85.928809072452168 0 0 0 0 -91.04646824883821 19.568945902723954 0 19.568945902723954 66.414354594186079 0 0 0 0 -16.194065987190697 61.365298149714363 0 61.365298149714363 50.445961057251225 0 0 0 0 -27.896528998040594 47.424596411180573 0 47.424596411180573 92.417511707172252 0 0 0 0 -40.375120795742987 77.190046875622556 0 77.190046875622556 51.459669705825945 0 0 0 0 -21.268334736363613 57.830168434552888 0 57.830168434552888 26.2622085627263 0 0 0 0 -29.062298192206072 66.465294051795354 0 66.465294051795354 48.448299723470427 0 0 0 0 -13.548423012078274 65.822124882579374 0 65.822124882579374 10.980540733912676 0 0 0 0 -70.983328715024982 79.962618004225533 0 79.962618004225533 16.540675471372651 0 0 0 0 -52.483054968561191 66.840558877212288 0 66.840558877212288 -32.50695479091064 0 0 0 0 -2.3293888695188798 51.205958705584635 0 51.205958705584635 -29.702128486267156 0 0 0 0 -3.2027731061971281 50.418451661416157 0 50.418451661416157 -6.3382931025435028 0 0 0 0 5.9279774894093862 7.6834570331707255 0 7.6834570331707255 2.1122928486611272 0 0 0 0 3.336126251888345 36.036783870740464 0 36.036783870740464 20.597912609686318 0 0 0 0 -184.70797900727484 14.865071620030903 0 14.865071620030903 66.233964821901054 0 0 0 0 -118.81420061324025 -4.5616179429614476 0 -4.5616179429614476 23.21615634863565 0 0 0 0 -62.384786554241145 64.107160449379649 0 64.107160449379649 1.5980067578739181 0 0 0 0 -227.17497937619919 119.37570785162461 0 119.37570785162461 -16.88972586930322 0 0 0 0 -61.468139338423498 107.19980541583436 0 107.19980541583436 -111.85146863183718 0 0 0 0 -276.00642092827184 -46.595242927080733 0 -46.595242927080733 13.384845297199718 0 0 0 0 -115.38517050578957 38.27052101107455 0 38.27052101107455 30.040513895963556 0 0 0 0 -58.917113841285754 -74.687451601733187 0 -74.687451601733187 2.7884611133913495 0 0 0 0 -150.38993230760389 -35.96633004019327 0 -35.96633004019327 57.129835936549171 0 0 0 0 2.3348448897631897 -19.780309426052554 0 -19.780309426052554 32.878910393754722 0 0 0 0 127.05015882192311 -153.41979098665553 0 -153.41979098665553 75.074051288708915 0 0 0 0 -18.725094297900796 -46.556053328522466 0 -46.556053328522466 71.103959703857072 0 0 0 0 -63.856847460338031 -35.292275785317088 0 -35.292275785317088 72.552083786233652 0 0 0 0 -63.561595792896696 -36.407350015780594 0 -36.407350015780594 56.023975609524996 0 0 0 0 -124.48648509094346 -14.059379439814848 0 -14.059379439814848 90.005856671530637 0 0 0 0 -80.945945400948403 -5.6039564481563957 0 -5.6039564481563957 83.446241674750127 0 0 0 0 -64.133361770262127 -5.8701243450850598 0 -5.8701243450850598 77.834927414481172 0 0 0 0 -72.148656597382796 11.785670576905773 0 11.785670576905773 51.131755740590961 0 0 0 0 -50.404806998209096 3.4132354832890996 0 3.4132354832890996 34.756395423595677 0 0 0 0 -52.309995295596309 -4.2032513236645173 0 -4.2032513236645173 47.243545270217965 0 0 0 0 -43.54614149115514 -4.0371716402041784 0 -4.0371716402041784 29.975352069552173 0 0 0 0 -13.542539801201201 -28.2051044847085 0 -28.2051044847085 47.715071039376198 0 0 0 0 -43.450118567270692 -4.6538409829045122 0 -4.6538409829045122 29.385813541157404 0 0 0 0 -66.511214191472391 -19.190072884452661 0 -19.190072884452661 62.408701168795233 0 0 0 0 -547.34465710350923 229.31286302612898 0 229.31286302612898 22.548414785393106 0 0 0 0 -0.90412314328735022 -0.29241307562146801 0 -0.29241307562146801 1.6489938176294565 0 0 0 0 34.907064312734292 -49.511416775689668 0 -49.511416775689668 32.201458047720735 0 0 0 0 10.600967906706501 -4.7401380525220702 0 -4.7401380525220702 12.772912702692338 0 0 0 0 -22.363960608490743 4.0351857972254948 0 4.0351857972254948 8.8693500289227813 0 0 0 0 -33.478929180302657 -5.4012695892906777 0 -5.4012695892906777 7.7434835659296368 0 0 0 0 -246.34719032190333 237.43115703816511 0 237.43115703816511 -160.54617008579908 0 0 0 0 -702.45130525479635 285.03030161811597 0 285.03030161811597 -100.98996369329143 0 0 0 0 -34.665364001499256 -19.086909500947513 0 -19.086909500947513 9.1204758277599467 0 0 0 0 -44.81981760400231 -3.890799813592821 0 -3.890799813592821 17.768474017228073 0 0 0 0 -20.806350417638896 1.7701264723182248 0 1.7701264723182248 8.6532183393919695 0 0 0 0 -83.177199617392034 -2.4959620953395643 0 -2.4959620953395643 12.303318412017688 0 0 0 0 -49.892852582248452 -17.082956214124806 0 -17.082956214124806 8.7484947301272769 0 0 0 0 -49.859575581212994 -6.7198465018591378 0 -6.7198465018591378 9.8082927528384971 0 0 0 0 -35.689482038229471 -8.9842061804702098 0 -8.9842061804702098 1.394483356634737 0 0 0 0 -61.606398565403651 -15.717737973303883 0 -15.717737973303883 9.995817466682638 0 0 0 0 -43.980269189560204 5.6428642348801077 0 5.6428642348801077 12.898253751678567 0 0 0 0 -45.66050544558675 -17.216697521806054 0 -17.216697521806054 2.5984919876336789 0 0 0 0 -13.97244094099733 6.2954658945363917 0 6.2954658945363917 9.2443739226673642 0 0 0 0 -37.427603729986004 -3.9163146266639615 0 -3.9163146266639615 12.999259932748828 0 0 0 0 -12.585943080397556 -11.504671339958804 0 -11.504671339958804 13.634907200395901 0 0 0 0 -119.70116168207642 -11.346562212639242 0 -11.346562212639242 103.49253710069206 0 0 0 0 -163.31515340265469 42.350904055409046 0 42.350904055409046 90.42867753138853 0 0 0 0 -131.90461746217625 21.85886536693306 0 21.85886536693306 101.40391123560039 0 0 0 0 -76.452339529882011 49.131109056657351 0 49.131109056657351 49.084082060804576 0 0 0 0 -142.0351699374587 61.093645511163231 0 61.093645511163231 56.551590193783568 0 0 0 0 -2.4724611500981553 -1.9516190803144866 0 -1.9516190803144866 -1.8149678748164426 0 0 0 0 -248.48407961764684 -14.029552625638413 0 -14.029552625638413 -13.302243203746002 0 0 0 0 -459.10973378017661 71.381527387500682 0 71.381527387500682 39.713635922230424 0 0 0 0 -226.31384859584796 173.48987747132833 0 173.48987747132833 -68.274230669873873 0 0 0 0 -137.52096045150529 5.7490044429947886 0 5.7490044429947886 8.0955712556569779 0 0 0 0 -1.4242397853249713 -1.4891587675017774 0 -1.4891587675017774 -2.2881651514951535 0 0 0 0 -85.191958341953978 -77.698930711073444 0 -77.698930711073444 33.559211852029875 0 0 0 0 -133.47977176800487 122.29855649083356 0 122.29855649083356 -126.10656231307939 0 0 0 0 -501.9732984598013 226.4465548518798 0 226.4465548518798 37.276889674025256 0 0 0 0 0.44467431853895789 1.2737010881501618 0 1.2737010881501618 0.086065914451676662 0 0 0 0 -292.49684175750735 24.847130230525295 0 24.847130230525295 74.813106105106726 0 0 0 0 -195.84313008798927 96.308248360403013 0 96.308248360403013 40.791481458479211 0 0 0 0 -141.09078775365197 -6.8187585552490191 0 -6.8187585552490191 -28.98255814701497 0 0 0 0 -268.4715439920983 -42.128518171998842 0 -42.128518171998842 -4.7185600188086596 0 0 0 0 -254.70919523254997 -68.091967838160826 0 -68.091967838160826 -38.841813368736496 0 0 0 0 -238.93239423799241 -78.233672386331079 0 -78.233672386331079 -49.404765100299755 0 0 0 0 -276.50368487599917 -50.844894501361068 0 -50.844894501361068 -44.506590762283849 0 0 0 0 -195.80723676571506 37.209959848118302 0 37.209959848118302 -42.387101296058319 0 0 0 0 -174.06116003150964 11.538093325421848 0 11.538093325421848 -12.392363036863571 0 0 0 0 -180.95663777091249 7.8978795065016527 0 7.8978795065016527 77.380530624343521 0 0 0 0 -95.17057333336561 54.583335040341254 0 54.583335040341254 -8.2095415423372629 0 0 0 0 -62.093790539300244 39.591554379815193 0 39.591554379815193 -35.954680117394332 0 0 0 0 -117.68232253470342 9.4894811264891246 0 9.4894811264891246 134.76605570006515 0 0 0 0 -110.2537186529662 34.913401559652698 0 34.913401559652698 -181.54384444738849 0 0 0 0 -97.990301597506914 66.509499134885118 0 66.509499134885118 -23.278326228369053 0 0 0 0 -116.37658963393915 42.108903039268966 0 42.108903039268966 -9.788151778476049 0 0 0 0 -90.893839590768039 72.137436757029832 0 72.137436757029832 -55.130459651137244 0 0 0 0 -55.923430471708343 56.610592664114449 0 56.610592664114449 -108.56862849860045 0 0 0 0 -153.58511142978386 37.825878534880758 0 37.825878534880758 -49.749975297216849 0 0 0 0 -32.650973027069995 -17.375175522348854 0 -17.375175522348854 -23.332383675708343 0 0 0 0 19.45640491614904 -69.10103143474862 0 -69.10103143474862 -39.059148508032422 0 0 0 0 -418.83123159664683 -16.146831243822817 0 -16.146831243822817 -52.027306306723119 0 0 0 0 -69.672651875800511 212.22600479486437 0 212.22600479486437 -147.01002413258993 0 0 0 0 -503.32345044131762 66.902155075188489 0 66.902155075188489 -72.847324664711778 0 0 0 0 -535.67340208121459 -233.03959637122989 0 -233.03959637122989 -153.65850597471604 0 0 0 0 -531.80921629589284 -227.44941262281736 0 -227.44941262281736 -161.06226572606465 0 0 0 0 -532.06116934974852 -167.55343209661805 0 -167.55343209661805 -67.88913432953359 0 0 0 0 -582.48323611459637 -215.07660607497428 0 -215.07660607497428 -110.02419632679266 0 0 0 0 -389.21776752782171 -104.65383976974996 0 -104.65383976974996 -72.621092206908543 0 0 0 0 -375.13886514818478 32.420105887141517 0 32.420105887141517 -25.597061926787319 0 0 0 0 -395.64273392768519 -96.104164109324756 0 -96.104164109324756 -83.564563889450255 0 0 0 0 -395.24294044973794 -85.062774831234947 0 -85.062774831234947 -39.070898494023368 0 0 0 0 -250.88012568259728 -7.4411571629593709 0 -7.4411571629593709 -54.196602574591452 0 0 0 0 -253.41376829351066 66.198140090197285 0 66.198140090197285 -61.385434640788446 0 0 0 0 -153.45762002720585 40.822332676375254 0 40.822332676375254 -97.291677666895339 0 0 0 0 -34.638048464561194 -29.124220492687499 0 -29.124220492687499 -21.427908642758304 0 0 0 0 -188.1706263322485 -477.31143157064093 0 -477.31143157064093 -135.2068813134847 0 0 0 0 254.68450184862013 -558.56145692504276 0 -558.56145692504276 427.70396308841941 0 0 0 0 21.820143318538612 -262.06412710220093 0 -262.06412710220093 -947.72652728803223 0 0 0 0 -1037.9205184216262 586.74477481625399 0 586.74477481625399 259.98762861556679 0 0 0 0 -576.5356981511577 513.28989061829452 0 513.28989061829452 228.10071717761275 0 0 0 0 -109.11082673167402 707.54613658364087 0 707.54613658364087 -44.606638529950942 0 0 0 0 -521.19912744243629 866.91291416065542 0 866.91291416065542 -8.0364056467751652 0 0 0 0 -157.91216879911372 327.33453489313615 0 327.33453489313615 -2.5288141026504363 0 0 0 0 -5.4432400199402196 4.8805357974787569 0 4.8805357974787569 -4.9439980033360413 0 0 0 0 -1188.3429595843008 -146.00601723152397 0 -146.00601723152397 21.632415010484692 0 0 0 0 -1055.8823399307366 -545.81278873119788 0 -545.81278873119788 -265.47101957602354 0 0 0 0 -665.64439935270639 347.28640873437325 0 347.28640873437325 -263.62289113352017 0 0 0 0 -638.64935799882278 77.429250519804668 0 77.429250519804668 251.80885274772845 0 0 0 0 -37.620903577521915 -30.530241963972713 0 -30.530241963972713 -22.125516460942617 0 0 0 0 30.681481143627025 -335.07390834813975 0 -335.07390834813975 382.59212318964512 0 0 0 0 -24.70612133062059 -119.7614642939769 0 -119.7614642939769 233.37852509398337 0 0 0 0 -231.70486009542947 -304.74256258912123 0 -304.74256258912123 259.57422950353634 0 0 0 0 15.134768317409907 -171.77096572543246 0 -171.77096572543246 281.52204203826091 0 0 0 0 298.67459318785404 -378.47733311545574 0 -378.47733311545574 205.47647237160413 0 0 0 0 180.77974321515649 -137.70572116867197 0 -137.70572116867197 29.951716395249605 0 0 0 0 169.35937875826494 -366.9482916870079 0 -366.9482916870079 133.03506991035874 0 0 0 0 -71.808579954769812 -224.36771980336243 0 -224.36771980336243 230.86992309631012 0 0 0 0 -30.693292561903945 -204.74202512167983 0 -204.74202512167983 37.72444627338291 0 0 0 0 -287.02252999092161 -256.44855440504398 0 -256.44855440504398 29.508020512156691 0 0 0 0 -65.166064230783377 -27.823204934369187 0 -27.823204934369187 -330.59308943702763 0 0 0 0 -66.682753727502131 -74.801291508606994 0 -74.801291508606994 -896.50264585684545 0 0 0 0 2.5045222950702737 -223.54951072801322 0 -223.54951072801322 -9.5922380193378558 0 0 0 0 22.101759138749912 -109.35028083785028 0 -109.35028083785028 -378.29002142932131 0 0 0 0 -68.046641020860989 -244.33470378242237 0 -244.33470378242237 71.807211845672555 0 0 0 0 -33.799807418210548 93.69931599903839 0 93.69931599903839 -265.11299512915912 0 0 0 0 306.45845560885209 -260.59036564611415 0 -260.59036564611415 -38.248443008856611 0 0 0 0 468.92094756038387 -261.16466606134634 0 -261.16466606134634 164.13639187120316 0 0 0 0 165.99006655812263 -252.91290648064842 0 -252.91290648064842 419.24897577076928 0 0 0 0 141.8174626363616 -386.59268184865982 0 -386.59268184865982 142.50267025534208 0 0 0 0 406.22523803372678 -545.03392598894288 0 -545.03392598894288 221.15157452244239 0 0 0 0 -24.398720718540687 -20.055992970832691 0 -20.055992970832691 -15.028649355073373 0 0 0 0 -328.13543836274766 339.58265634265808 0 339.58265634265808 126.48369821479491 0 0 0 0 220.8049273480683 -361.19325947401933 0 -361.19325947401933 272.96786479904222 0 0 0 0 421.92588721089123 -245.15918273866237 0 -245.15918273866237 -24.028839179643001 0 0 0 0 -116.85140756177861 -146.15299424732035 0 -146.15299424732035 531.10354167768071 0 0 0 0 -69.864132640437163 -16.754548090080501 0 -16.754548090080501 -1.0979197745425091 0 0 0 0 285.67819660942769 -353.22555301063403 0 -353.22555301063403 -107.87287358055346 0 0 0 0 62.192070049590257 -219.8661608440537 0 -219.8661608440537 143.56436886295319 0 0 0 0 -30.842209546259255 31.811089732474557 0 31.811089732474557 161.42366711730915 0 0 0 0 37.499680132226786 -214.97066537204728 0 -214.97066537204728 -19.796430670503696 0 0 0 0 93.95893017617891 -215.18624979706377 0 -215.18624979706377 -419.21509070199954 0 0 0 0 -94.24092194410332 -42.972269909096951 0 -42.972269909096951 -174.62261438415123 0 0 0 0 98.945849002135219 -184.57521932718043 0 -184.57521932718043 -247.4145197265359 0 0 0 0 40.84155855703284 -216.57100718754441 0 -216.57100718754441 -104.8572783460441 0 0 0 0 16.207871424325276 -256.59237198725179 0 -256.59237198725179 -142.74621919452346 0 0 0 0 17.802604526727009 -78.279435051241776 0 -78.279435051241776 -1.1529991144489031 0 0 0 0 25.690124142587592 -257.24885082971838 0 -257.24885082971838 -142.75042153785813 0 0 0 0 72.657999807954184 -345.41741400251794 0 -345.41741400251794 -241.49024091464958 0 0 0 0 14.157919670273259 -288.25048861828537 0 -288.25048861828537 88.607202500793164 0 0 0 0 219.4269711754896 -277.29241206787447 0 -277.29241206787447 0.50043097112889245 0 0 0 0 17.281261665702914 6.6170106958544448 0 6.6170106958544448 71.313895362106067 0 0 0 0 0.57485587082891243 -0.97480907483205215 0 -0.97480907483205215 0.44563773128222017 0 0 0 0 87.388124327218975 -334.5130305975614 0 -334.5130305975614 -407.48449082505317 0 0 0 0 -2.1656824262508394 -0.9937156630974755 0 -0.9937156630974755 0.97568796461111895 0 0 0 0 -213.59959858546063 -373.60826067172508 0 -373.60826067172508 -3.1506352863731268 0 0 0 0 -880.29264650374535 134.17669591463712 0 134.17669591463712 -18.569595894648842 0 0 0 0 -275.90280418601469 -262.82477632057328 0 -262.82477632057328 -0.50731510664249968 0 0 0 0 -247.41200057538663 -168.83688298415251 0 -168.83688298415251 111.41607828983138 0 0 0 0 -507.11538155129529 235.36080329689321 0 235.36080329689321 9.5419505790998755 0 0 0 0 -86.94337492880004 -20.73808348205489 0 -20.73808348205489 -139.3743224855881 0 0 0 0 184.38113904477359 14.920430053374901 0 14.920430053374901 -36.874634964317238 0 0 0 0 21.123775076655875 -21.177560191602979 0 -21.177560191602979 171.15364161007847 0 0 0 0 -45.683000117780921 -11.796907469984184 0 -11.796907469984184 -0.96156168260707908 0 0 0 0 -119.18900570573896 -295.02772620716473 0 -295.02772620716473 734.89072456639497 0 0 0 0 69.040472442444297 4.3551518103527087 0 4.3551518103527087 -510.11690674504734 0 0 0 0 -362.58547275455203 -486.35836551597185 0 -486.35836551597185 -1284.181427964774 0 0 0 0 -1039.8773246272467 43.418865483454283 0 43.418865483454283 889.89618204792362 0 0 0 0 -493.64046223046898 166.18005921965437 0 166.18005921965437 883.2526957786107 0 0 0 0 -17.153120002675564 -4.277362073607577 0 -4.277362073607577 -0.65002845130608489 0 0 0 0 -1350.0745539020427 -822.62552031151972 0 -822.62552031151972 -678.39263289062637 0 0 0 0 -865.86942158138845 124.98684803864967 0 124.98684803864967 -266.99648293881364 0 0 0 0 -1017.9764420807187 -315.11212938696917 0 -315.11212938696917 -1522.2638560012119 0 0 0 0 -2336.276946770522 283.54447925036129 0 283.54447925036129 -329.82564099840511 0 0 0 0 -1797.7939993746695 -372.83600843074646 0 -372.83600843074646 -12.169063218784686 0 0 0 0 -1721.2610334836645 117.9708068249297 0 117.9708068249297 1005.0389121186654 0 0 0 0 -817.84968062874395 -296.46080948505823 0 -296.46080948505823 -550.00106676546602 0 0 0 0 -1472.6217761002772 -136.10963718964649 0 -136.10963718964649 134.46671602813421 0 0 0 0 -1246.0598515269376 239.01543229497906 0 239.01543229497906 61.848325244720094 0 0 0 0 -1318.8479164282362 286.71910133664016 0 286.71910133664016 59.956676233971848 0 0 0 0 -1001.6561864867981 81.367080442002589 0 81.367080442002589 -54.426680236893844 0 0 0 0 -1132.1739088626055 19.453727019798862 0 19.453727019798862 99.379017562139268 0 0 0 0 -634.66279868890706 88.442247133470119 0 88.442247133470119 -66.254619574363005 0 0 0 0 -3.4557981928423942 -1.0979563019061231 0 -1.0979563019061231 3.3296983406069991 0 0 0 0 -1546.8999182852713 310.74202799891987 0 310.74202799891987 190.1928422643573 0 0 0 0 -675.45316172363528 -87.031134871520351 0 -87.031134871520351 107.58166742324238 0 0 0 0 -3.8695373599674383 -1.5782309272094324 0 -1.5782309272094324 3.3346304381975349 0 0 0 0 -630.4358974614297 332.78666780889853 0 332.78666780889853 -163.08007996761171 0 0 0 0 -1135.5863112590159 320.16854236431868 0 320.16854236431868 -72.510027235583948 0 0 0 0 -1392.0998258744257 909.10493973226744 0 909.10493973226744 -423.7460042566762 0 0 0 0 -9.1215942486256836 -2.1984781827107724 0 -2.1984781827107724 -0.47993959905145184 0 0 0 0 -95.278473621408921 71.009023422443704 0 71.009023422443704 -0.25267677579551723 0 0 0 0 -1669.1584311226616 233.74138230610606 0 233.74138230610606 286.32930557444126 0 0 0 0 -328.24744255449332 109.74564903662143 0 109.74564903662143 0.10791000501367738 0 0 0 0 -138.65291939341114 169.40062088828284 0 169.40062088828284 -60.270846471358382 0 0 0 0 -319.88203836311004 172.74348242931228 0 172.74348242931228 -272.28394379886731 0 0 0 0 -421.84131976783101 72.393651884463679 0 72.393651884463679 -238.84990645693506 0 0 0 0 321.18752988154301 -82.78112334045845 0 -82.78112334045845 -297.33882263857964 0 0 0 0 -20.283647503153531 -8.7695116615358586 0 -8.7695116615358586 -2.6161279960115174 0 0 0 0 -285.6529161579092 178.05967310038966 0 178.05967310038966 -55.626423879916146 0 0 0 0 -234.33345191836997 338.4299614853652 0 338.4299614853652 111.3011476970226 0 0 0 0 -2055.1186435054115 699.03392222744901 0 699.03392222744901 49.533521934114674 0 0 0 0 1498.5212062766659 2340.4043073867747 0 2340.4043073867747 -1590.0697635502113 0 0 0 0 46.469537805882283 250.07740572446164 0 250.07740572446164 -261.89801711578457 0 0 0 0 -4.0095644491084386 248.77402825576701 0 248.77402825576701 -254.37329788567286 0 0 0 0 -145.94532821033499 300.86515921212936 0 300.86515921212936 -76.483178639118705 0 0 0 0 185.52728801575722 357.02572910708841 0 357.02572910708841 -217.26122432566262 0 0 0 0 50.080588591736159 513.71091534115294 0 513.71091534115294 126.48800135560577 0 0 0 0 81.786283663794165 188.53834931919096 0 188.53834931919096 -270.1741033358112 0 0 0 0 381.92534401227022 334.09621340718786 0 334.09621340718786 -208.5279799648456 0 0 0 0 -138.96794417535421 306.54815980951389 0 306.54815980951389 38.740395404188803 0 0 0 0 -20.81075323704863 406.29624725164012 0 406.29624725164012 -13.767376387553213 0 0 0 0 -595.52410486365261 97.275899018608015 0 97.275899018608015 -210.64082995622357 0 0 0 0 -291.84663320917753 -27.524605547073406 0 -27.524605547073406 -230.04457932464902 0 0 0 0 -217.79002508069971 189.67251537100265 0 189.67251537100265 -212.41635883219442 0 0 0 0 -313.61826427915366 100.99048814850721 0 100.99048814850721 -143.34738651980206 0 0 0 0 4.9093369664624333 -107.36822200590768 0 -107.36822200590768 -229.26617089090814 0 0 0 0 -506.16796651440382 -140.81306365456294 0 -140.81306365456294 -208.47643527817581 0 0 0 0 -703.72131967562018 -35.875137805558211 0 -35.875137805558211 -153.65086735813384 0 0 0 0 -191.58434640313499 -86.808847963061453 0 -86.808847963061453 -378.1320654767751 0 0 0 0 407.50301529662102 -43.860163111907696 0 -43.860163111907696 -126.65014012263146 0 0 0 0 -145.75448338360729 118.18804190090862 0 118.18804190090862 -82.380051087127868 0 0 0 0 -172.1126152703946 175.56652100532483 0 175.56652100532483 43.147148432597533 0 0 0 0 -254.04938299331116 323.87520209576815 0 323.87520209576815 -221.77643208300492 0 0 0 0 -515.80522605359147 -96.149020650086641 0 -96.149020650086641 -653.57724805163161 0 0 0 0 -1.0332241748700284 3.6287447087055966 0 3.6287447087055966 1.2288644455289486 0 0 0 0 1904.0560007727108 462.75440009746421 0 462.75440009746421 -509.9377900198906 0 0 0 0 931.72451698395889 766.05223447553851 0 766.05223447553851 -93.536339525671792 0 0 0 0 565.86970621190267 58.623077378001426 0 58.623077378001426 471.99264148714792 0 0 0 0 -3.3314926787129835 11.603259300082158 0 11.603259300082158 6.8247516990515109 0 0 0 0 378.36713603019598 131.35062381874059 0 131.35062381874059 155.21373217172413 0 0 0 0 954.50737925810972 527.64830988203425 0 527.64830988203425 -94.024936292294342 0 0 0 0 133.06625980361423 517.37467982799092 0 517.37467982799092 81.006051388799278 0 0 0 0 -309.62018995569088 248.66703277945567 0 248.66703277945567 252.35120669216258 0 0 0 0 -348.14155228394884 282.30573643346906 0 282.30573643346906 -165.95289293635142 0 0 0 0 429.42870175247299 444.63520072586891 0 444.63520072586891 -305.70453972791711 0 0 0 0 -369.35516884086246 313.46964987166075 0 313.46964987166075 267.49254112429435 0 0 0 0 -1200.6156905250682 405.49520010123206 0 405.49520010123206 -87.221657642036917 0 0 0 0 -775.06462321229628 -38.677661171213913 0 -38.677661171213913 -336.41979107660518 0 0 0 0 -738.14455833518878 -131.42018599656058 0 -131.42018599656058 -10.761153158803154 0 0 0 0 -1370.1614732476446 -20.259004719565382 0 -20.259004719565382 15.275410324577024 0 0 0 0 -873.41461174520373 247.84793310977602 0 247.84793310977602 249.40668772529898 0 0 0 0 -654.19820687772881 -386.81013594172236 0 -386.81013594172236 -278.14342346583908 0 0 0 0 -639.00070386516745 -419.19563085051459 0 -419.19563085051459 -595.20436025604215 0 0 0 0 -264.04444570303167 -172.59013251879645 0 -172.59013251879645 -195.42497556761919 0 0 0 0 -569.19678900427243 81.477654373849873 0 81.477654373849873 180.01904930501905 0 0 0 0 -632.81464718304051 -237.76036906999764 0 -237.76036906999764 163.62407372421308 0 0 0 0 -641.61016805135296 86.293494091024627 0 86.293494091024627 300.43133693129516 0 0 0 0 -323.78720095934113 278.05824267864659 0 278.05824267864659 193.4207787566429 0 0 0 0 -350.96857503787032 77.220758646803574 0 77.220758646803574 285.86484935571951 0 0 0 0 -291.1937151404818 103.05467936015413 0 103.05467936015413 280.69816346617881 0 0 0 0 -335.55593864395632 207.75548168657025 0 207.75548168657025 268.27876751805707 0 0 0 0 -257.44717796104669 -80.959526563510565 0 -80.959526563510565 229.12286471423863 0 0 0 0 -296.57419175060932 -139.08102839213058 0 -139.08102839213058 323.96766144386629 0 0 0 0 -103.26172187243174 -20.8593875354779 0 -20.8593875354779 209.28048797657118 0 0 0 0 -189.06535980724311 119.58402306683297 0 119.58402306683297 192.72465646292602 0 0 0 0 -185.32668479804124 31.546826623396782 0 31.546826623396782 278.67266437130411 0 0 0 0 -59.721464741945965 87.332301456500943 0 87.332301456500943 175.22897055995836 0 0 0 0 104.43781098315958 109.22199780327855 0 109.22199780327855 92.718749336643612 0 0 0 0 -61.923970800250572 64.01663843362897 0 64.01663843362897 92.461380072101178 0 0 0 0 -11.111413934626398 52.773065824693163 0 52.773065824693163 58.761281486822554 0 0 0 0 -1385.1604682773177 210.04392389774512 0 210.04392389774512 406.34623706467028 0 0 0 0 -711.8339467570222 309.41850912834798 0 309.41850912834798 -374.90722818556242 0 0 0 0 -3.7166447544367003 15.097567433404606 0 15.097567433404606 17.12126844627679 0 0 0 0 310.96168304107414 247.96922377005342 0 247.96922377005342 64.402769808910762 0 0 0 0 100.86055120456149 295.64766787860162 0 295.64766787860162 170.65069319288131 0 0 0 0 38.396530885467655 207.27050052653738 0 207.27050052653738 173.28846193591062 0 0 0 0 -81.947852276149206 324.90653151490528 0 324.90653151490528 237.08629054080529 0 0 0 0 -84.447839024011046 178.61492687810392 0 178.61492687810392 225.95870150564178 0 0 0 0 -69.634783830111701 234.20076510596857 0 234.20076510596857 187.00341606118627 0 0 0 0 -470.51565419946564 -66.254138302263073 0 -66.254138302263073 62.953011528275965 0 0 0 0 -457.706360549083 146.51311346181657 0 146.51311346181657 -0.062236941719675087 0 0 0 0 -687.76489641489752 51.727262244435224 0 51.727262244435224 61.681295710884115 0 0 0 0 -1128.7317729476054 -336.41719807842492 0 -336.41719807842492 130.2917435800473 0 0 0 0 -1426.8357099852001 63.47047289178181 0 63.47047289178181 196.25476550389976 0 0 0 0 -824.14995944430848 103.43076105598266 0 103.43076105598266 -420.83989725158972 0 0 0 0 -2511.7530341922611 739.3766375380219 0 739.3766375380219 247.86701474840083 0 0 0 0 -6.8478573140147603 -5.1637934109165116 0 -5.1637934109165116 -1.840887183359559 0 0 0 0 -74.921196647680929 -467.49083641149406 0 -467.49083641149406 146.14750038368948 0 0 0 0 -1637.5384751990496 -298.82101623205654 0 -298.82101623205654 -185.71623408623236 0 0 0 0 -74.813049439376755 34.713538911455025 0 34.713538911455025 -28.538467170214062 0 0 0 0 -398.07023112135357 86.705483174478104 0 86.705483174478104 59.819582563532094 0 0 0 0 -267.81823938922025 54.628650314080005 0 54.628650314080005 8.3605202990329417 0 0 0 0 -422.63480520874145 96.903067836282389 0 96.903067836282389 130.88144741643009 0 0 0 0 -237.58128956926521 157.32911996194889 0 157.32911996194889 80.508640039970487 0 0 0 0 -324.42090072380961 141.46060146812761 0 141.46060146812761 145.22049405713187 0 0 0 0 -535.13356173914508 122.85046337272979 0 122.85046337272979 106.7178839496537 0 0 0 0 -606.5427850118358 -40.352845795768644 0 -40.352845795768644 -143.91479731117579 0 0 0 0 -1.0436398048646041 -0.48601115630899017 0 -0.48601115630899017 0.15965242054483042 0 0 0 0 -524.74006167087646 91.786557385839842 0 91.786557385839842 119.02359354319515 0 0 0 0 -437.73549112383625 32.686113275124626 0 32.686113275124626 37.630576534433203 0 0 0 0 -147.39421861259689 84.440530190132449 0 84.440530190132449 52.010049883783722 0 0 0 0 -153.46760874138272 63.748258270948554 0 63.748258270948554 -4.5108791109814774 0 0 0 0 -1.587676730598389 -1.5079586847381137 0 -1.5079586847381137 0.77898941096103336 0 0 0 0 -28.70450609170075 11.085969744913655 0 11.085969744913655 -97.649092362443241 0 0 0 0 -184.11168073661975 7.5963276505649446 0 7.5963276505649446 18.297303722929996 0 0 0 0 -176.43853323289659 19.572524216508327 0 19.572524216508327 30.560797764062045 0 0 0 0 -185.18578341428656 -35.975282581859574 0 -35.975282581859574 -189.79625182057498 0 0 0 0 -437.83919117324695 191.94544393876504 0 191.94544393876504 26.445278937269904 0 0 0 0 0.98670753537113853 0.17996299363372259 0 0.17996299363372259 -9.4760618496888256 0 0 0 0 -433.34601172702969 210.29888948538428 0 210.29888948538428 90.870105765032349 0 0 0 0 -443.0147198139457 188.77679402132708 0 188.77679402132708 -3.1294795799985877 0 0 0 0 -407.66569134910242 148.54074221962037 0 148.54074221962037 -71.966794638085958 0 0 0 0 -441.38893334270688 161.06624047250716 0 161.06624047250716 -10.202283770467602 0 0 0 0 -394.34668751881691 311.93993600006434 0 311.93993600006434 299.36390663041311 0 0 0 0 -497.77424835634883 141.61851106921313 0 141.61851106921313 -6.5729898743056197 0 0 0 0 -435.52443699356809 155.63072272752424 0 155.63072272752424 -6.1945654925530107 0 0 0 0 -515.42641792175709 192.30900597432537 0 192.30900597432537 78.568310596774609 0 0 0 0 -436.9994812420482 190.10305184122853 0 190.10305184122853 14.541006810683029 0 0 0 0 -260.74726123983419 -51.888420198412177 0 -51.888420198412177 105.99596458305723 0 0 0 0 -92.953984620224219 35.034167478394011 0 35.034167478394011 72.35036486581123 0 0 0 0 -447.71256225135585 -11.297233912845513 0 -11.297233912845513 110.25800167047873 0 0 0 0 -51.099941460226546 -40.912107868626322 0 -40.912107868626322 -21.403658874201483 0 0 0 0 -109.89608806101023 -111.33627473064985 0 -111.33627473064985 -94.656045296228967 0 0 0 0 -77.867201056462363 11.902685209318278 0 11.902685209318278 24.705971835050441 0 0 0 0 -119.47258139595215 -2.0446885919857891 0 -2.0446885919857891 36.457699051183226 0 0 0 0 132.99492361342709 121.15121968765811 0 121.15121968765811 -309.87130961365347 0 0 0 0 -9.2888778325387591 -0.83289050555544009 0 -0.83289050555544009 -13.222888374957538 0 0 0 0 -65.530072125584411 22.463091487478138 0 22.463091487478138 26.85699010238389 0 0 0 0 -131.63786064338638 524.58532615141007 0 524.58532615141007 -281.90475469657122 0 0 0 0 -831.95984881226468 324.42335251861709 0 324.42335251861709 -32.654575206959635 0 0 0 0 -728.06800113611098 156.22474182670749 0 156.22474182670749 -7.9010344831458497 0 0 0 0 -530.5139517338539 249.40868122547454 0 249.40868122547454 -73.875726566272988 0 0 0 0 -844.5733692839276 54.882517288285271 0 54.882517288285271 58.345479135043206 0 0 0 0 -876.27452552132308 136.83245512522763 0 136.83245512522763 46.625639586767647 0 0 0 0 -829.25305703305639 -14.63081580145672 0 -14.63081580145672 38.245223358331714 0 0 0 0 -606.52971258662728 172.86215018426628 0 172.86215018426628 25.356734256660275 0 0 0 0 -594.2735690526606 141.21273726953495 0 141.21273726953495 54.54550505100633 0 0 0 0 -1256.0208409292536 -35.704618884161391 0 -35.704618884161391 176.52367462602297 0 0 0 0 -1487.4687750361172 60.594780593669384 0 60.594780593669384 170.11425599842369 0 0 0 0 -1198.0596827082773 120.09204879066601 0 120.09204879066601 147.20203864294945 0 0 0 0 -1249.0948936575587 16.417966173596142 0 16.417966173596142 -101.0793492712537 0 0 0 0 -1318.7130474911246 142.11426152760987 0 142.11426152760987 120.82263775414458 0 0 0 0 -1798.3551382984151 -160.48704111741063 0 -160.48704111741063 0.18170727663482467 0 0 0 0 -2121.7428867060225 -61.815994924056213 0 -61.815994924056213 153.77708446482347 0 0 0 0 -1794.4461026492208 176.67587688354979 0 176.67587688354979 -13.898792853294481 0 0 0 0 -1271.6394392154471 141.87504603624416 0 141.87504603624416 -91.424540821596565 0 0 0 0 -41.731767416932087 -16.320041639112659 0 -16.320041639112659 -6.5988695297314202 0 0 0 0 -1040.0131880071567 -1190.4068438150441 0 -1190.4068438150441 -303.27160985419232 0 0 0 0 -712.53846450378478 652.86898430076258 0 652.86898430076258 -61.351684749140077 0 0 0 0 -1307.0515659114753 154.60640693404184 0 154.60640693404184 13.738536757128372 0 0 0 0 -54.5624799727957 26.105347708706404 0 26.105347708706404 41.002298553236983 0 0 0 0 -51.924893401745067 72.120967332414409 0 72.120967332414409 171.64323683060593 0 0 0 0 124.13121533386584 82.273251331919994 0 82.273251331919994 -69.874297712587577 0 0 0 0 -165.42889439198188 -104.64646221602581 0 -104.64646221602581 -151.70554005638812 0 0 0 0 7.561950994466315 66.00244672127161 0 66.00244672127161 -13.360263009435926 0 0 0 0 -19.377468190767559 -5.2186114629396911 0 -5.2186114629396911 -1.1425477030849951 0 0 0 0 -239.73321212676092 130.16227195605484 0 130.16227195605484 -257.88365123387484 0 0 0 0 -318.92281685670605 16.126043661513904 0 16.126043661513904 -361.65630791285366 0 0 0 0 -3271.459121628548 786.57933829899753 0 786.57933829899753 -674.6916685542617 0 0 0 0 -1085.2310977364709 1961.6002899167211 0 1961.6002899167211 -706.56680324961417 0 0 0 0 -256.77335358403798 -363.19040069585742 0 -363.19040069585742 -121.62968039094858 0 0 0 0 -16.551794016970717 -4.1577529040494738 0 -4.1577529040494738 0.41297476990480853 0 0 0 0 -819.48512522183591 -488.54015934852691 0 -488.54015934852691 -127.95151875201761 0 0 0 0 -1301.857014942987 -538.97129243010011 0 -538.97129243010011 59.144838205786186 0 0 0 0 -383.11077770603879 -67.440484391220664 0 -67.440484391220664 -37.036674087894802 0 0 0 0 -900.47995847312268 -204.86545586420871 0 -204.86545586420871 -44.271617064445991 0 0 0 0 -141.646990097448 -130.47904993580599 0 -130.47904993580599 -161.51547118443324 0 0 0 0 3.0140535500540864 -48.835418188430623 0 -48.835418188430623 -158.29579508924189 0 0 0 0 1.1698399461444637 0.83096710200132406 0 0.83096710200132406 1.0268088252136043 0 0 0 0 -101.19409155040921 -111.13635995486146 0 -111.13635995486146 -136.93503980839557 0 0 0 0 -189.01438178711396 52.891055978282672 0 52.891055978282672 16.948261957533848 0 0 0 0 -383.0356883926288 -65.974582707172814 0 -65.974582707172814 -10.507801988831968 0 0 0 0 -353.12417678144993 14.424786646850913 0 14.424786646850913 0.14696835124646984 0 0 0 0 -48.98984666733304 -143.71964351555422 0 -143.71964351555422 36.255336236204599 0 0 0 0 -610.83750409670756 211.1429716471439 0 211.1429716471439 90.581013980295722 0 0 0 0 -632.08708639755787 -89.313851485508934 0 -89.313851485508934 114.08721549299163 0 0 0 0 -91.519025983121537 13.596857855497312 0 13.596857855497312 -1.0220374882576344 0 0 0 0 -78.455511331765592 -17.66024212332939 0 -17.66024212332939 33.692559390173969 0 0 0 0 -58.392341578583 -18.311920111444071 0 -18.311920111444071 -0.087325775407905135 0 0 0 0 40.593729058746248 -39.802553780974364 0 -39.802553780974364 -8.1169036455268824 0 0 0 0 -108.73764435386693 -23.089642901811434 0 -23.089642901811434 14.915219272322176 0 0 0 0 -47.360418767090778 -8.3023681935335887 0 -8.3023681935335887 -14.767892571836484 0 0 0 0 -17.457448939836468 -31.812419600262587 0 -31.812419600262587 -4.7185533791971466 0 0 0 0 -48.245661706926512 -17.088742306261253 0 -17.088742306261253 24.420130110930558 0 0 0 0 -14.410088428199813 0.15069630909425769 0 0.15069630909425769 4.7808530236502804 0 0 0 0 -49.410271290405888 -14.600448910307492 0 -14.600448910307492 -1.013316419194735 0 0 0 0 -53.549702060729032 -25.066755537570145 0 -25.066755537570145 14.028172083631887 0 0 0 0 -66.302898611051205 -40.939419858215764 0 -40.939419858215764 5.0389578931892345 0 0 0 0 -3498.5561048251584 508.73120129643183 0 508.73120129643183 395.52819108926354 0 0 0 0 -84.102145463642955 10.062120839431593 0 10.062120839431593 -16.228418309832804 0 0 0 0 -1.1947697987089354 10.497221965432971 0 10.497221965432971 -2.4800266481891615 0 0 0 0 -2384.445183418376 318.61710992076945 0 318.61710992076945 37.989419561961085 0 0 0 0 -171.80704664837685 -9.8946378354058595 0 -9.8946378354058595 16.618268157091883 0 0 0 0 -117.33363755252503 7.3049280950298821 0 7.3049280950298821 -20.435334943342966 0 0 0 0 -2909.6824129660204 166.46144059167162 0 166.46144059167162 29.607661849101987 0 0 0 0 -3.3105769880146361 3.9207203606896712 0 3.9207203606896712 -0.88714377529749866 0 0 0 0 -197.80901582961815 4.5362122613935654 0 4.5362122613935654 18.785279532788724 0 0 0 0 -135.05581125723256 -17.674250860476402 0 -17.674250860476402 0.0097798099303120344 0 0 0 0 -2964.7571257893142 121.76295029197847 0 121.76295029197847 -1.1088390331359392 0 0 0 0 -3033.1896513183092 102.45083394708541 0 102.45083394708541 56.911863026937709 0 0 0 0 -3014.3535814706338 148.96087680758134 0 148.96087680758134 97.159219188367359 0 0 0 0 -2536.2169583144205 216.19752196137901 0 216.19752196137901 223.55427197408505 0 0 0 0 -2831.5579022684324 1122.2199840757621 0 1122.2199840757621 13.96317424758179 0 0 0 0 -5088.2902482400677 1902.1643107198418 0 1902.1643107198418 -775.42267182589728 0 0 0 0 -1910.7663057553923 593.84504713796025 0 593.84504713796025 -158.72952449425702 0 0 0 0 -1903.4448719912471 901.91720345769431 0 901.91720345769431 -463.59902734420223 0 0 0 0 -13.577823603439265 13.466722888726196 0 13.466722888726196 -1.7326020273971594 0 0 0 0 -1290.7631111458832 524.64034097061267 0 524.64034097061267 -356.26978956341338 0 0 0 0 -123.84647991563543 -11.41796440976475 0 -11.41796440976475 20.159122650937206 0 0 0 0 -57.281201524790561 -14.366652007612984 0 -14.366652007612984 -0.40749311622622475 0 0 0 0 -50.477303758048947 -35.07686552343381 0 -35.07686552343381 16.729323897732684 0 0 0 0 -47.041034493746594 -11.432678439182773 0 -11.432678439182773 -4.1457840130245724 0 0 0 0 -13.846587495289725 12.813898555873664 0 12.813898555873664 -2.4472948593867674 0 0 0 0 -23.916739275940927 106.79897686908285 0 106.79897686908285 141.43139380574704 0 0 0 0 -29.969444185808243 15.008885846407111 0 15.008885846407111 -9.6631310584411949 0 0 0 0 -15.703693407951505 2.8011341633643951 0 2.8011341633643951 -41.53442835452006 0 0 0 0 -33.395154183969794 25.005524824365384 0 25.005524824365384 -15.074552537845193 0 0 0 0 -7.2959297105982444 1.4556728674006791 0 1.4556728674006791 -4.398684400421546 0 0 0 0 0.19719329412009445 13.588850924085705 0 13.588850924085705 -16.939761577652583 0 0 0 0 -292.02057529156286 -187.52831485208463 0 -187.52831485208463 -299.92318177797449 0 0 0 0 -1703.9969141624897 -1614.540930359741 0 -1614.540930359741 -544.75243832865328 0 0 0 0 -1480.3318192051229 -380.36104261332838 0 -380.36104261332838 -43.522645954017094 0 0 0 0 -3764.4971275193457 -471.04259219255272 0 -471.04259219255272 717.54039026567034 0 0 0 0 -3501.145895641353 104.47180286641454 0 104.47180286641454 -1228.3974650718858 0 0 0 0 -104.09002708425396 327.28413302453453 0 327.28413302453453 -213.11184252688167 0 0 0 0 -461.1357251934387 -1070.9452968725909 0 -1070.9452968725909 -1043.5463236444859 0 0 0 0 -16.359872445022859 -5.8616882839348534 0 -5.8616882839348534 -3.9208297245455865 0 0 0 0 -10.589789360645227 42.700715653659586 0 42.700715653659586 8.5106411419971835 0 0 0 0 -42.241257103269163 21.274007309312765 0 21.274007309312765 13.878452384643651 0 0 0 0 -82.976720728649525 28.958565246453418 0 28.958565246453418 3.6829049250263779 0 0 0 0 -115.27708549013187 48.58633592072664 0 48.58633592072664 10.337080680097571 0 0 0 0 -57.149130576451796 15.32716630200612 0 15.32716630200612 7.0660566989995353 0 0 0 0 -60.368069693329744 -9.2684274718517372 0 -9.2684274718517372 17.048066414253071 0 0 0 0 -123.78524620709504 18.041283127037033 0 18.041283127037033 15.540469075631563 0 0 0 0 -72.159138912213791 19.750104795819098 0 19.750104795819098 25.189916631721935 0 0 0 0 -33.392011443356751 18.956898852805352 0 18.956898852805352 23.185977874329183 0 0 0 0 -52.118927882166027 35.451327767327797 0 35.451327767327797 10.184006546882751 0 0 0 0 -63.950950591535374 7.1343277953377005 0 7.1343277953377005 4.1945952943708669 0 0 0 0 -105.42619424463919 34.90082429667109 0 34.90082429667109 78.271863182449351 0 0 0 0 -0.028019856621540384 37.566787812489906 0 37.566787812489906 19.001294559460803 0 0 0 0 -19.31446348465397 27.544407256724298 0 27.544407256724298 15.669662883210819 0 0 0 0 -20.001221486326628 0.83158867826551841 0 0.83158867826551841 3.2822890934777127 0 0 0 0 -77.579689591591887 24.121981315752009 0 24.121981315752009 41.016528707756379 0 0 0 0 -46.206711557664676 -4.3574368324356101 0 -4.3574368324356101 -11.826189059096691 0 0 0 0 -74.204721383721335 -10.540586113062091 0 -10.540586113062091 10.413899567141925 0 0 0 0 -7.0264549516352162 2.2973556701061284 0 2.2973556701061284 -3.0055127493020457 0 0 0 0 -42.868392274249345 3.1824038121252443 0 3.1824038121252443 2.1728589542931047 0 0 0 0 -25.535861549062247 0.36726764580248528 0 0.36726764580248528 -29.496127350779261 0 0 0 0 -53.572040306695271 -2.1385574029254713 0 -2.1385574029254713 3.1881091440405953 0 0 0 0 -54.066506672243122 22.505477219481008 0 22.505477219481008 -3.4005434687077951 0 0 0 0 -47.901201052394754 -4.8135562433416226 0 -4.8135562433416226 -5.4249708762586124 0 0 0 0 -33.109866902865178 14.067722717241622 0 14.067722717241622 13.787704789813546 0 0 0 0 -23.786913369038302 5.7791571278276876 0 5.7791571278276876 -3.188741382977696 0 0 0 0 -208.84599153201998 94.665857712740944 0 94.665857712740944 9.3469941756989101 0 0 0 0 -50.939316729756683 50.278600389716601 0 50.278600389716601 -83.551285395954892 0 0 0 0 -79.370270635004999 32.751670169014915 0 32.751670169014915 35.782580866943135 0 0 0 0 -86.788318958722812 60.199766448670857 0 60.199766448670857 35.264675439566247 0 0 0 0 -86.786765747121535 0.57318166509048751 0 0.57318166509048751 -3.4774680888731382 0 0 0 0 -46.070111414941493 -22.238095044582224 0 -22.238095044582224 -5.107984089007914 0 0 0 0 -50.600408747246234 19.30003547905028 0 19.30003547905028 7.7583120278797466 0 0 0 0 -81.881659904851404 -0.0049884910271771332 0 -0.0049884910271771332 31.598311758345972 0 0 0 0 -33.058754453111362 3.5945587504348424 0 3.5945587504348424 5.0403634307991929 0 0 0 0 -42.772009159333038 10.462488731880846 0 10.462488731880846 4.5087674187360403 0 0 0 0 -59.989765310529037 6.5117058889741202 0 6.5117058889741202 18.778829926291564 0 0 0 0 -44.947000575324637 -15.306418851512603 0 -15.306418851512603 -19.795805812610524 0 0 0 0 -37.029831081963493 32.396952575821075 0 32.396952575821075 15.574814372121068 0 0 0 0 -38.531271107501823 17.911668798650616 0 17.911668798650616 9.1803457366589072 0 0 0 0 -14.688550964121532 19.033298634814912 0 19.033298634814912 -32.487819520487847 0 0 0 0 -14.921157524225592 6.0520486398495592 0 6.0520486398495592 4.972974421346656 0 0 0 0 -118.06351206965337 98.615684764918115 0 98.615684764918115 -38.310137707867398 0 0 0 0 -56.55693588363647 1.2834300956504876 0 1.2834300956504876 7.6515305189886931 0 0 0 0 -4.5948716205363951 -2.8004298116884243 0 -2.8004298116884243 2.683579972036779 0 0 0 0 -27.886010633650429 -14.262207348467655 0 -14.262207348467655 12.129115738719253 0 0 0 0 -63.021119534059835 13.360596315289683 0 13.360596315289683 9.8044022374356246 0 0 0 0 -131.09333505218819 29.150889453398577 0 29.150889453398577 7.7651566692257887 0 0 0 0 -71.358983053094562 46.82406708535575 0 46.82406708535575 -2.9692012695622907 0 0 0 0 -16.959215075036674 38.925056498431587 0 38.925056498431587 -4.1538548088063187 0 0 0 0 -12.635225000728653 24.963241456374419 0 24.963241456374419 9.2168006569407943 0 0 0 0 -123.49546376505168 50.625279761080037 0 50.625279761080037 7.4901592333899316 0 0 0 0 -171.08454365914804 30.493800285366888 0 30.493800285366888 17.493177305985228 0 0 0 0 -192.67398811165185 72.044685914345337 0 72.044685914345337 24.930934038220585 0 0 0 0 -147.96743634354789 45.773169423689524 0 45.773169423689524 27.997327474830854 0 0 0 0 -280.30575774470344 13.235637708848117 0 13.235637708848117 7.8969882575938755 0 0 0 0 -143.50294067373034 18.573737254539537 0 18.573737254539537 -10.590562251422853 0 0 0 0 -40.794516137788833 32.375046585704638 0 32.375046585704638 9.6068303036567357 0 0 0 0 -31.529528581741033 1.1039792386336558 0 1.1039792386336558 3.5500663901111693 0 0 0 0 -25.820350072524747 43.027287846767024 0 43.027287846767024 12.451405217484517 0 0 0 0 -204.17618836682232 -53.878930595495603 0 -53.878930595495603 -27.696078463562117 0 0 0 0 48.135433475894388 83.469988888548869 0 83.469988888548869 -9.8333534550156401 0 0 0 0 -109.15463887300575 66.726431531170419 0 66.726431531170419 -5.9985200101873488 0 0 0 0 -62.723597834732914 21.262688805910571 0 21.262688805910571 7.1225790618932852 0 0 0 0 -15.901596739022352 102.15805708435687 0 102.15805708435687 24.280123735866709 0 0 0 0 -3.0501831415267731 4.1341762619689177 0 4.1341762619689177 -1.9422410531738521 0 0 0 0 -124.19327404473825 29.867027172782656 0 29.867027172782656 43.457823962197835 0 0 0 0 -68.499018196671386 55.125846549278776 0 55.125846549278776 -13.800297919843615 0 0 0 0 -86.703512301101 -1.5770570618929014 0 -1.5770570618929014 31.755784308181319 0 0 0 0 -3.0149075423671547 3.9383967088257918 0 3.9383967088257918 -1.5998717226738215 0 0 0 0 8.2155398523973417 73.611071087633036 0 73.611071087633036 25.098835086269901 0 0 0 0 -80.55582447408986 30.834219844310681 0 30.834219844310681 9.1868788665183452 0 0 0 0 -107.99617343724822 51.811090929371403 0 51.811090929371403 54.864443564784779 0 0 0 0 0.37669584958348423 -24.814204599691038 0 -24.814204599691038 5.6988256089603055 0 0 0 0 -143.04735504171913 21.038100480805952 0 21.038100480805952 2.5687267297616927 0 0 0 0 -35.710327191320253 23.404293585861879 0 23.404293585861879 4.6859034380069833 0 0 0 0 -142.47240536235859 12.117400717939915 0 12.117400717939915 1.421739584646275 0 0 0 0 -120.92507434557047 12.483666491676217 0 12.483666491676217 10.601393998247772 0 0 0 0 -28.500565920212622 -9.6103080006061248 0 -9.6103080006061248 8.3021905268004215 0 0 0 0 -150.05815773799259 25.714989098621118 0 25.714989098621118 1.5935372576705049 0 0 0 0 -96.817717197278398 34.949511361086024 0 34.949511361086024 15.309059170250293 0 0 0 0 -90.647745638154447 35.558057513933363 0 35.558057513933363 23.290471964141034 0 0 0 0 -69.791355450139946 37.418590760356921 0 37.418590760356921 11.685320248904457 0 0 0 0 -86.593124977378466 30.779244147008967 0 30.779244147008967 1.0364382955012843 0 0 0 0 -122.52673485318519 -13.182906172502499 0 -13.182906172502499 11.101259438812122 0 0 0 0 -12.517826313536375 26.486343522238386 0 26.486343522238386 1.9833253743175838 0 0 0 0 -96.506671817998722 -0.27021300109049662 0 -0.27021300109049662 -6.2976362514236826 0 0 0 0 -101.77393291139742 9.008257914780188 0 9.008257914780188 16.339317030258826 0 0 0 0 -128.7202824880369 -9.6326290552069622 0 -9.6326290552069622 4.0649798738413665 0 0 0 0 -114.04892222202034 5.6149080921495624 0 5.6149080921495624 19.874486944206183 0 0 0 0 -104.75000960123725 -8.8903755627679857 0 -8.8903755627679857 -15.311102371677407 0 0 0 0 -152.59469751811412 75.025145784689357 0 75.025145784689357 7.3508963725762442 0 0 0 0 -164.36521176173119 0.43333195894092569 0 0.43333195894092569 9.9390225766419462 0 0 0 0 -3.4086243428137664 6.0486879335734187 0 6.0486879335734187 3.9674481222259299 0 0 0 0 -42.664683613986966 25.677881913927294 0 25.677881913927294 16.237837899924351 0 0 0 0 -56.826867699623108 27.152007397104171 0 27.152007397104171 21.570456237949202 0 0 0 0 -77.876939877518453 56.870890608029185 0 56.870890608029185 14.404121213839289 0 0 0 0 -85.821147623024444 47.089268405037615 0 47.089268405037615 35.947977237428859 0 0 0 0 -63.789296334882238 77.924687846103097 0 77.924687846103097 25.091922389578031 0 0 0 0 -82.122674732106603 34.880223141429425 0 34.880223141429425 12.645760225026283 0 0 0 0 -101.28591642639367 -10.708891573945948 0 -10.708891573945948 -0.046859595158821321 0 0 0 0 -68.205146593580139 -1.7873543083539971 0 -1.7873543083539971 0.33182158366253134 0 0 0 0 -246.73432028043317 114.13643793475785 0 114.13643793475785 8.739288457800285 0 0 0 0 -111.541015446659 -14.849459634103368 0 -14.849459634103368 10.40523670532275 0 0 0 0 -132.3788635962992 35.589116439717145 0 35.589116439717145 -5.5972648946096797 0 0 0 0 -20.940030460683822 0.010274091333045021 0 0.010274091333045021 0.063581538933501491 0 0 0 0 41.245027011907951 -61.920007948749117 0 -61.920007948749117 16.399435779108757 0 0 0 0 -66.671954315108536 40.176043622728983 0 40.176043622728983 11.745094987111731 0 0 0 0 -63.604085050501453 25.50444826777948 0 25.50444826777948 -9.1188644265057519 0 0 0 0 -144.56009587802328 -13.765934269614263 0 -13.765934269614263 16.425261123644304 0 0 0 0 49.614522901060809 44.41991482762495 0 44.41991482762495 -7.9912596435460728 0 0 0 0 -18.555654793766649 25.725613111717323 0 25.725613111717323 0.031898451572178743 0 0 0 0 16.423983335914642 28.94366710816201 0 28.94366710816201 5.0275941642227053 0 0 0 0 -90.63157589534967 77.892942332613984 0 77.892942332613984 25.726569133046496 0 0 0 0 -74.454585188563215 15.765367752785096 0 15.765367752785096 -5.0018445687455824 0 0 0 0 -92.154302927763638 18.216837095463916 0 18.216837095463916 -15.274249414123005 0 0 0 0 -144.13577445242117 -26.064939893421524 0 -26.064939893421524 -24.386117301171907 0 0 0 0 -166.02464244469411 54.822133161782972 0 54.822133161782972 -0.50452208887872985 0 0 0 0 -67.495274556511504 87.408388790657824 0 87.408388790657824 13.487919587334545 0 0 0 0 -98.159225168510602 72.36525130110067 0 72.36525130110067 -32.884225392670487 0 0 0 0 -132.87461827383959 5.6933189306482745 0 5.6933189306482745 -32.645763248050116 0 0 0 0 -147.8252238570567 -12.119372383979794 0 -12.119372383979794 3.0578313959977095 0 0 0 0 -27.644140563632867 40.384107489243377 0 40.384107489243377 4.7855634273109189 0 0 0 0 95.282020716345869 108.29721853987667 0 108.29721853987667 -108.2323429774824 0 0 0 0 -212.43734888147446 -70.479696509482892 0 -70.479696509482892 -77.092095893217447 0 0 0 0 -140.40928328514565 18.867808294657152 0 18.867808294657152 28.930244263690838 0 0 0 0 -231.01267067705339 93.830568153008244 0 93.830568153008244 -92.019735430716537 0 0 0 0 -264.65068255772348 -50.880209733171796 0 -50.880209733171796 -19.776806882061692 0 0 0 0 15.565513066278129 7.7440548710804649 0 7.7440548710804649 -1.6269577439907827 0 0 0 0 -263.06063812335196 24.495772308668165 0 24.495772308668165 106.22854327428286 0 0 0 0 -136.57613833260257 93.241943139591513 0 93.241943139591513 66.149332698791113 0 0 0 0 -77.712889761030965 25.311250009987816 0 25.311250009987816 14.197857358254218 0 0 0 0 -158.30935802754902 29.9554012301478 0 29.9554012301478 22.066831103511504 0 0 0 0 -45.288687440692954 42.377164443886713 0 42.377164443886713 2.7198842666584611 0 0 0 0 -128.52607850215281 44.423818551322256 0 44.423818551322256 8.2498163805927049 0 0 0 0 -112.46603880794282 0.5043139281576714 0 0.5043139281576714 5.7625288558101602 0 0 0 0 -74.80872722849017 29.092683825519998 0 29.092683825519998 23.446780844036766 0 0 0 0 -21.127663506193585 3.3514356013066049 0 3.3514356013066049 7.5627367568261121 0 0 0 0 -60.096212694697897 48.231169601735019 0 48.231169601735019 -7.534628444158443 0 0 0 0 -96.547353314341308 64.342436606945739 0 64.342436606945739 -5.5240623270919968 0 0 0 0 -46.556577668041427 63.718896642537857 0 63.718896642537857 1.8053678866090195 0 0 0 0 -68.009023500115291 12.828597655064641 0 12.828597655064641 13.075150111708354 0 0 0 0 -32.49131850007538 33.117175267293561 0 33.117175267293561 4.7559377545972303 0 0 0 0 -42.787772588886583 22.583193851648502 0 22.583193851648502 -0.54541551158405355 0 0 0 0 -8.7316207409267008 44.440761760943815 0 44.440761760943815 -9.2747553020562918 0 0 0 0 -74.381524574924697 34.079743685372023 0 34.079743685372023 -6.2860585510679812 0 0 0 0 -9.2888940449938673 43.866570075110758 0 43.866570075110758 10.867869962072291 0 0 0 0 -18.762670632593636 35.27580751055595 0 35.27580751055595 6.5912237148727613 0 0 0 0 -40.429091256140964 22.552652768567896 0 22.552652768567896 21.401918595434836 0 0 0 0 -74.365112377845435 17.370876741672419 0 17.370876741672419 -1.2050287120782741 0 0 0 0 -64.720790692417722 53.856464000727556 0 53.856464000727556 5.2243049856788275 0 0 0 0 -87.540757075814327 19.589151356927232 0 19.589151356927232 -29.00767556044957 0 0 0 0 -171.05258326896728 -26.617097783735971 0 -26.617097783735971 -54.96141548399828 0 0 0 0 -123.38419808337858 35.419197909604918 0 35.419197909604918 1.625010344859561 0 0 0 0 -265.37519205478202 -8.7840685644669065 0 -8.7840685644669065 20.783271051852353 0 0 0 0 -272.00606612484648 54.160353711986033 0 54.160353711986033 37.631591899000341 0 0 0 0 -107.54193841835149 28.083136490516154 0 28.083136490516154 -86.189053357572902 0 0 0 0 -113.51139063163646 47.886472514169782 0 47.886472514169782 36.717638316536977 0 0 0 0 -145.78253439202308 95.702572729298254 0 95.702572729298254 -32.915642667195016 0 0 0 0 -233.20485482508775 28.796684078469752 0 28.796684078469752 58.402079117146059 0 0 0 0 -86.900008419223013 31.348566507615487 0 31.348566507615487 51.371536108728378 0 0 0 0 -102.7278789784832 52.565920547847782 0 52.565920547847782 43.272035161165149 0 0 0 0 -109.83595802964737 42.6727185398031 0 42.6727185398031 30.580062602342423 0 0 0 0 -129.53758153883973 18.55797110984804 0 18.55797110984804 68.00382747070762 0 0 0 0 -16.222344435813284 -30.536007537737532 0 -30.536007537737532 46.282041486385879 0 0 0 0 -79.17121453423897 -59.091288148620606 0 -59.091288148620606 73.483976343005452 0 0 0 0 -33.543674978849594 -36.383366047252593 0 -36.383366047252593 58.464055977477983 0 0 0 0 -163.09477782616887 -26.438287294603469 0 -26.438287294603469 59.77365484013535 0 0 0 0 -49.98544865189578 -2.0209501366153866 0 -2.0209501366153866 5.3147326039052389 0 0 0 0 -149.42471344296155 -77.961830816519068 0 -77.961830816519068 17.990226877871009 0 0 0 0 -51.509990306629334 -63.075762061955857 0 -63.075762061955857 18.397715224679359 0 0 0 0 -0.33542068504477385 -20.43597176169957 0 -20.43597176169957 16.7549114756705 0 0 0 0 20.986055903849774 -2.629131077490797 0 -2.629131077490797 -45.723093437505554 0 0 0 0 -18.457511075353978 -31.844990867413884 0 -31.844990867413884 18.488287143499747 0 0 0 0 0.22308183092612666 -23.334407203118708 0 -23.334407203118708 18.790102466823416 0 0 0 0 -3.8822722885743133 -45.216248141635333 0 -45.216248141635333 -43.330947248957727 0 0 0 0 -0.20805874338039132 -5.0006752968377377 0 -5.0006752968377377 3.8322501461080636 0 0 0 0 -53.510987624074914 44.958025076684862 0 44.958025076684862 -31.466836002699893 0 0 0 0 -172.45538345235946 94.644642143100555 0 94.644642143100555 -41.014574302805158 0 0 0 0 -6.6859290188283325 -1.8386040782891016 0 -1.8386040782891016 27.618481591173115 0 0 0 0 -35.528716859282582 -18.897191827273005 0 -18.897191827273005 2.7766766816517112 0 0 0 0 -83.92269844484963 -69.98678857550604 0 -69.98678857550604 -12.283862032327193 0 0 0 0 -64.332267972000409 -59.928947886402057 0 -59.928947886402057 60.053982049588512 0 0 0 0 -156.68857990342804 29.666379587042456 0 29.666379587042456 2.3337990772593002 0 0 0 0 -33.373135777201242 -47.340233091384505 0 -47.340233091384505 5.6473021354440789 0 0 0 0 -5.587873961088917 -19.120152661661848 0 -19.120152661661848 -4.5427368011819453 0 0 0 0 -240.18032284129731 117.87610111065828 0 117.87610111065828 34.765496263689101 0 0 0 0 -200.9913973230141 11.648338948802689 0 11.648338948802689 18.018666802342068 0 0 0 0 46.951425194638432 -40.119008807544276 0 -40.119008807544276 -238.2886311094876 0 0 0 0 -173.68481388596774 28.60475778535249 0 28.60475778535249 51.96445340071341 0 0 0 0 -23.384085993136296 -9.3561695272408496 0 -9.3561695272408496 -4.3618031342791168 0 0 0 0 -79.839164436558349 102.78663310207696 0 102.78663310207696 -95.824254619042222 0 0 0 0 -506.61749768746813 410.68317988576632 0 410.68317988576632 -291.01949421870393 0 0 0 0 -942.45339637240613 44.083907171957549 0 44.083907171957549 -8.1457880408438541 0 0 0 0 -299.71532996637688 -225.25619021817204 0 -225.25619021817204 -985.16037611977629 0 0 0 0 -390.20843259363755 125.41083692065808 0 125.41083692065808 1.2533564881621544 0 0 0 0 -522.49552783511899 74.133084498057997 0 74.133084498057997 132.07540037074114 0 0 0 0 -438.66774707635341 172.51056195650165 0 172.51056195650165 203.980055057767 0 0 0 0 -416.8130901986442 119.61375231870875 0 119.61375231870875 186.0353398346931 0 0 0 0 165.60801625848399 118.60060536334538 0 118.60060536334538 17.82411662686377 0 0 0 0 -74.056120721361367 38.630477402547058 0 38.630477402547058 123.40963412378153 0 0 0 0 -428.04406030604878 200.57992879255721 0 200.57992879255721 0.71296046550992287 0 0 0 0 -491.1863102270072 143.24942207711899 0 143.24942207711899 141.02258965134638 0 0 0 0 -488.80553621114814 112.17907003212167 0 112.17907003212167 131.54632257430376 0 0 0 0 -452.39361717444899 59.805172192845944 0 59.805172192845944 43.042715027395843 0 0 0 0 -450.9597004885004 80.942497345736967 0 80.942497345736967 157.09744181218821 0 0 0 0 -561.98159739344192 97.129330644410857 0 97.129330644410857 209.45942385412764 0 0 0 0 -532.58936067725881 32.444174969566461 0 32.444174969566461 128.30733991316015 0 0 0 0 -488.92030156987857 -111.41479766173165 0 -111.41479766173165 -49.256391660871031 0 0 0 0 -519.65549421694595 0.46647723973251232 0 0.46647723973251232 149.15130393742771 0 0 0 0 -644.21488874202623 138.85445342830636 0 138.85445342830636 144.12202549938766 0 0 0 0 -7.5558362481170747 -9.0367227382287965 0 -9.0367227382287965 -9.5129783147567633 0 0 0 0 -9.2022660796064883 212.53060864395866 0 212.53060864395866 128.88677050059096 0 0 0 0 -347.82175269861182 221.65705101649246 0 221.65705101649246 167.18932139387505 0 0 0 0 763.82964243398328 -110.82114443868144 0 -110.82114443868144 -771.62717592680929 0 0 0 0 770.10767957060079 -300.91531743927607 0 -300.91531743927607 -460.57534756664973 0 0 0 0 469.5297301512328 -529.00575343983701 0 -529.00575343983701 -16.421484951168978 0 0 0 0 74.609091033838922 -90.005344189875814 0 -90.005344189875814 -3.2419617788368669 0 0 0 0 342.22417409351328 -135.91786214118702 0 -135.91786214118702 2.9303176232770056 0 0 0 0 96.068492727248668 -424.48204216566694 0 -424.48204216566694 196.57360514223365 0 0 0 0 -550.71188276395696 -12.313351956581073 0 -12.313351956581073 -28.800074715933079 0 0 0 0 -39.873857025871985 -355.44624206674962 0 -355.44624206674962 195.67446155895448 0 0 0 0 189.08861370276281 -198.39364010500444 0 -198.39364010500444 80.052968385312397 0 0 0 0 -71.899456980347168 -77.260347827384976 0 -77.260347827384976 32.808284986645049 0 0 0 0 -588.03447854016122 -505.95667471929607 0 -505.95667471929607 -308.27345741651015 0 0 0 0 -96.360154635658546 -70.781007881191556 0 -70.781007881191556 -85.313270651644871 0 0 0 0 261.88145704800263 -410.01088201610105 0 -410.01088201610105 124.00193133990354 0 0 0 0 -847.12593263793678 -146.68835037272947 0 -146.68835037272947 94.541025730736976 0 0 0 0 -14.928903538360149 1.7718520567927669 0 1.7718520567927669 1.3884180339507974 0 0 0 0 430.97004222874239 -1090.4440315333354 0 -1090.4440315333354 310.84592427518191 0 0 0 0 -984.72962467992329 475.19565791509126 0 475.19565791509126 938.37539659316894 0 0 0 0 467.61575453754631 -327.59929358861552 0 -327.59929358861552 -687.73981711871272 0 0 0 0 -180.30195588472998 -66.49854026525486 0 -66.49854026525486 241.07125583457838 0 0 0 0 97.917776072659763 327.79428043577229 0 327.79428043577229 58.993980923782942 0 0 0 0 -183.30516917802743 31.994914652610646 0 31.994914652610646 -146.40363395530221 0 0 0 0 -215.02610076773999 149.68229151535022 0 149.68229151535022 -105.45318302945452 0 0 0 0 -159.66000499953225 75.72911295351409 0 75.72911295351409 -67.014002586823722 0 0 0 0 -347.92583600986109 -26.333226037848135 0 -26.333226037848135 13.145023711318856 0 0 0 0 0.64255194078197064 -4.4326040314037805 0 -4.4326040314037805 -0.20615969342914459 0 0 0 0 -278.44422797631705 129.92614686744639 0 129.92614686744639 -64.08162357596234 0 0 0 0 -120.33299167867517 -95.767624130743968 0 -95.767624130743968 2.7034694836884228 0 0 0 0 -340.88380727467302 51.703963170214479 0 51.703963170214479 16.846936275338635 0 0 0 0 -158.27796086420858 -18.751349986494319 0 -18.751349986494319 12.317389332448329 0 0 0 0 -144.4688489442342 1.5436581053562008 0 1.5436581053562008 37.378302423724705 0 0 0 0 -221.4483086005348 65.819666605120403 0 65.819666605120403 -5.1200850900053467 0 0 0 0 -273.66847637077444 37.093498559472607 0 37.093498559472607 38.299041457449391 0 0 0 0 -252.81671125781941 22.925990759876342 0 22.925990759876342 -63.63161771927912 0 0 0 0 -101.59069628652651 -35.107831938443724 0 -35.107831938443724 50.913632014278846 0 0 0 0 -231.07224435751414 63.286522287434309 0 63.286522287434309 67.077994569106238 0 0 0 0 -149.41217254650837 -30.253715633818501 0 -30.253715633818501 170.38898373967095 0 0 0 0 35.902757350552747 -239.78957215015032 0 -239.78957215015032 243.6895934790482 0 0 0 0 63.045138142959331 -72.281487664882661 0 -72.281487664882661 104.51480069098307 0 0 0 0 5.9065867923054611 -89.015393674174902 0 -89.015393674174902 101.77532590440569 0 0 0 0 -209.51648009646306 -4.3174828338019324 0 -4.3174828338019324 164.26055674026725 0 0 0 0 -52.912582633085549 -80.896773380486593 0 -80.896773380486593 285.6431288324377 0 0 0 0 376.34358095788048 -188.47498769310778 0 -188.47498769310778 122.7037113248789 0 0 0 0 -22.596147802663751 -20.424829822061575 0 -20.424829822061575 -16.95333529351803 0 0 0 0 166.16236627668695 -261.21476767248532 0 -261.21476767248532 55.409308409882044 0 0 0 0 62.712263769521087 163.13057691298002 0 163.13057691298002 -120.48464963923425 0 0 0 0 1.1475912656381695 -1.0382288380003715 0 -1.0382288380003715 -2.9361978852621426 0 0 0 0 13.830045307098771 -541.3259320134066 0 -541.3259320134066 519.72221535388053 0 0 0 0 -21.232530343273311 -19.895583148604615 0 -19.895583148604615 -16.319606386268141 0 0 0 0 88.923661832996913 -471.05703427860425 0 -471.05703427860425 71.672853314230906 0 0 0 0 -282.0588443260458 -438.49101105843988 0 -438.49101105843988 143.58832973635049 0 0 0 0 -350.71560411740211 -128.6800447191963 0 -128.6800447191963 790.70833772957485 0 0 0 0 41.086485006111616 -270.94488194219412 0 -270.94488194219412 102.33643848442443 0 0 0 0 217.04937915389019 65.280233574384738 0 65.280233574384738 -246.89753015436872 0 0 0 0 -272.77689918625401 400.33128744443002 0 400.33128744443002 557.14203001262194 0 0 0 0 116.82911932116258 26.591123359259655 0 26.591123359259655 -433.70329364510872 0 0 0 0 155.77586135703314 66.981644336783575 0 66.981644336783575 38.328811108725517 0 0 0 0 -158.91471001630271 -352.80854777955994 0 -352.80854777955994 -277.95045935984581 0 0 0 0 -5.6008855887679942 4.3080983737220748 0 4.3080983737220748 -1.9000416079461813 0 0 0 0 219.12150741461664 88.020799607870686 0 88.020799607870686 -20.100539244603169 0 0 0 0 -118.84204792998207 -170.42344204095434 0 -170.42344204095434 -109.09853412624943 0 0 0 0 -170.64973677645207 -125.28407075542975 0 -125.28407075542975 -148.39792133675519 0 0 0 0 -85.343111112844781 -175.67909176085732 0 -175.67909176085732 161.98515191789556 0 0 0 0 -43.330393050800922 -42.433652630171764 0 -42.433652630171764 -32.707416564408959 0 0 0 0 -14.247502138048731 -80.295456308906978 0 -80.295456308906978 -61.637568670716973 0 0 0 0 -298.42407679333701 -108.34268789161274 0 -108.34268789161274 -136.791426192156 0 0 0 0 -207.15901747154203 -11.796836521154319 0 -11.796836521154319 -74.010105468934853 0 0 0 0 0.75728106000931916 -0.18910815352296595 0 -0.18910815352296595 -2.3955404456738112 0 0 0 0 -485.88328853772691 211.9951142675618 0 211.9951142675618 -87.430300278280086 0 0 0 0 80.182735590955417 -94.887430011276024 0 -94.887430011276024 2.4253412582274905 0 0 0 0 -155.17354881516076 60.327063312635573 0 60.327063312635573 -65.870195561476976 0 0 0 0 -353.80991084883135 -166.5299895610583 0 -166.5299895610583 -89.4559732984726 0 0 0 0 -350.63715370545833 -112.70108351173792 0 -112.70108351173792 -47.133850668217747 0 0 0 0 -328.84832767707121 -130.85312060198908 0 -130.85312060198908 -65.824648063067286 0 0 0 0 -363.05308939271345 -163.02020765268333 0 -163.02020765268333 -71.942205311238467 0 0 0 0 -320.90896726369101 -111.32513328336586 0 -111.32513328336586 -70.153927715747159 0 0 0 0 -248.23392101839636 -104.5027607361161 0 -104.5027607361161 13.434102373856604 0 0 0 0 -312.12400648625044 -130.40183915043363 0 -130.40183915043363 -35.359195583538735 0 0 0 0 -333.04738422344963 -60.971079125410597 0 -60.971079125410597 -8.8916778857685586 0 0 0 0 -313.23658554830399 -128.76172223899241 0 -128.76172223899241 -194.01408077185596 0 0 0 0 -331.56333759981499 -38.608647883120739 0 -38.608647883120739 -120.18495072234055 0 0 0 0 -217.5485188799139 -61.062281592896539 0 -61.062281592896539 -196.5339684828831 0 0 0 0 -332.65981796410051 -121.05608553466232 0 -121.05608553466232 -71.768310719636474 0 0 0 0 -320.45044500241056 -38.997045006558665 0 -38.997045006558665 -171.7141150794132 0 0 0 0 -252.57617918291362 -40.928322093410543 0 -40.928322093410543 -183.36294781699212 0 0 0 0 -250.73868731147377 -72.209018070900584 0 -72.209018070900584 -170.98383828897079 0 0 0 0 -11.799161483166401 13.454691156985845 0 13.454691156985845 -21.158688432496984 0 0 0 0 -104.92112067221751 -37.133247300613675 0 -37.133247300613675 130.38362075708937 0 0 0 0 -5.8718406223377997 3.3138548421654264 0 3.3138548421654264 2.460603149449879 0 0 0 0 40.674010593822459 56.9993501530912 0 56.9993501530912 -149.35891354806699 0 0 0 0 -359.47154365937604 -185.38197239186684 0 -185.38197239186684 -118.20820230562117 0 0 0 0 -102.31601837965354 -81.753046210529646 0 -81.753046210529646 102.62709172334598 0 0 0 0 67.470329435484018 125.77867034819519 0 125.77867034819519 -90.322950179079271 0 0 0 0 -9.5187087210482417 10.700968564417536 0 10.700968564417536 -11.078607004233101 0 0 0 0 -217.75512568359409 -96.435484103140368 0 -96.435484103140368 -136.5459218592043 0 0 0 0 -47.181496284916648 -23.146719231148325 0 -23.146719231148325 -379.68528330227957 0 0 0 0 77.349719327487037 51.764397239133416 0 51.764397239133416 -148.75025902766538 0 0 0 0 -130.43092040497868 -14.441530092858102 0 -14.441530092858102 71.750550772012048 0 0 0 0 -40.993898427283909 6.9088480228437845 0 6.9088480228437845 7.5784004333405335 0 0 0 0 11.355671652079764 -119.38055156044038 0 -119.38055156044038 -236.2057900229338 0 0 0 0 -64.52925274320296 127.73289344146633 0 127.73289344146633 115.14987334759644 0 0 0 0 -53.437469528889778 128.32721764079383 0 128.32721764079383 -26.17084075011735 0 0 0 0 -41.791783157956615 -22.982887810825346 0 -22.982887810825346 -143.57431025669212 0 0 0 0 -39.479480546582181 19.829944009832786 0 19.829944009832786 52.807903873173927 0 0 0 0 -90.666425952258578 -52.096468219179542 0 -52.096468219179542 35.751617911555513 0 0 0 0 -78.78400901401983 -73.717372730017814 0 -73.717372730017814 51.155482195428704 0 0 0 0 -7.0178679095406551 -10.015634240302461 0 -10.015634240302461 4.1492689239648826 0 0 0 0 -23.492008251720108 5.0413046399899031 0 5.0413046399899031 71.941496462419309 0 0 0 0 -56.048421655010316 -49.194679959900895 0 -49.194679959900895 77.257228819355078 0 0 0 0 -73.106113109883154 -25.897863140845402 0 -25.897863140845402 116.96113050383519 0 0 0 0 -2.5498381997604156 19.272216922025109 0 19.272216922025109 75.581433519639177 0 0 0 0 -0.64469093906518538 0.48115719210727548 0 0.48115719210727548 58.409548477105545 0 0 0 0 36.109237817359826 70.229790553881003 0 70.229790553881003 78.590580769721782 0 0 0 0 48.317409228002361 36.626865627217285 0 36.626865627217285 44.651741121095256 0 0 0 0 -25.960432990861591 -55.96708185557145 0 -55.96708185557145 -55.430568889099959 0 0 0 0 -22.529862903872072 -3.6953694103290644 0 -3.6953694103290644 12.306813638028327 0 0 0 0 36.551510684745153 67.216232894449604 0 67.216232894449604 86.539241219643372 0 0 0 0 12.160902404750232 24.007330577638641 0 24.007330577638641 9.0011631439992925 0 0 0 0 -13.117563452780047 8.8268449549913726 0 8.8268449549913726 -8.8226501953278671 0 0 0 0 -20.640700512928774 10.023109181212689 0 10.023109181212689 -13.523667715225926 0 0 0 0 16.897159682877827 70.148527164961251 0 70.148527164961251 134.43002759896444 0 0 0 0 -16.290572492951469 34.2343076178704 0 34.2343076178704 103.41401612403934 0 0 0 0 -76.458020543155726 15.385854141997697 0 15.385854141997697 161.39892672821452 0 0 0 0 15.153793355770176 62.662627146677551 0 62.662627146677551 182.42934026300554 0 0 0 0 62.223037632793421 101.11854756075263 0 101.11854756075263 150.81122636699365 0 0 0 0 12.131574272803846 74.279262533254951 0 74.279262533254951 139.8658430218311 0 0 0 0 92.346513738564681 79.932072449547377 0 79.932072449547377 88.582973326499996 0 0 0 0 -4.3374635988353418 -4.1961818803743114 0 -4.1961818803743114 8.8835379242873422 0 0 0 0 -16.180471745258018 13.84773609869886 0 13.84773609869886 -13.694394779250686 0 0 0 0 -511.95956929490785 -270.01265186854835 0 -270.01265186854835 -191.098324142813 0 0 0 0 -4.0104802403657231 -17.616155574864024 0 -17.616155574864024 12.921504290832672 0 0 0 0 100.56804862950048 138.05528590477184 0 138.05528590477184 143.02424575983241 0 0 0 0 -115.53366695216391 144.26873367581902 0 144.26873367581902 -9.3544739048702468 0 0 0 0 6.4884628678810543 2.6539437516244107 0 2.6539437516244107 -8.2947166553164156 0 0 0 0 49.733369426496211 123.65587513622586 0 123.65587513622586 204.3834337248627 0 0 0 0 -523.0544397723279 -267.27163384346932 0 -267.27163384346932 -168.80870438977672 0 0 0 0 -455.75845338919316 -199.3764682683277 0 -199.3764682683277 -161.224163417108 0 0 0 0 -458.63980159565108 -251.20575398478286 0 -251.20575398478286 -212.04515722993165 0 0 0 0 -415.71073965524556 -190.00771303008696 0 -190.00771303008696 -152.86916406842556 0 0 0 0 -468.16268702186062 -148.06514870074625 0 -148.06514870074625 -81.809961833916532 0 0 0 0 -452.42556238570251 -178.04909241991845 0 -178.04909241991845 -156.73742138862872 0 0 0 0 -505.62375773915846 -313.65951392230136 0 -313.65951392230136 -224.29640637995544 0 0 0 0 -326.36317389241594 -176.19952591808669 0 -176.19952591808669 -129.58780144893717 0 0 0 0 -346.95222989405738 -228.10910568339386 0 -228.10910568339386 -178.2487157484793 0 0 0 0 -3.4194438422744611 11.485434572182925 0 11.485434572182925 -22.552656023174876 0 0 0 0 -434.28450998770131 -196.90226905666759 0 -196.90226905666759 -104.17904048772289 0 0 0 0 -366.40332465132815 -191.61140353645533 0 -191.61140353645533 -121.36611901841752 0 0 0 0 -364.14714290914526 -175.35393650545018 0 -175.35393650545018 -98.210124123706919 0 0 0 0 -403.67130935762543 -160.21571809117631 0 -160.21571809117631 -69.089912560693961 0 0 0 0 -349.48636428335885 -122.98338688803369 0 -122.98338688803369 -83.191188417277772 0 0 0 0 -154.81567529998574 23.590442911812261 0 23.590442911812261 -33.361500728615852 0 0 0 0 -80.488595858059853 -2.5458476044587997 0 -2.5458476044587997 11.522184632311109 0 0 0 0 -134.78714854016471 -43.812841420186771 0 -43.812841420186771 19.160185981649192 0 0 0 0 -0.22902419232091376 0.45258616370247751 0 0.45258616370247751 -1.1834606888316159 0 0 0 0 -375.12277094505407 10.095611136325033 0 10.095611136325033 38.557899077986349 0 0 0 0 -268.02886997562746 62.193020044557898 0 62.193020044557898 -31.194685449908093 0 0 0 0 -164.27453800966396 52.199271758715767 0 52.199271758715767 -11.176563262714581 0 0 0 0 -278.39328616564671 0.45184686123283768 0 0.45184686123283768 71.056686094181259 0 0 0 0 -279.48939440877439 9.8529307195650517 0 9.8529307195650517 10.278952262705275 0 0 0 0 -232.74315849829873 10.61143371378779 0 10.61143371378779 127.98364149962913 0 0 0 0 -221.9983087419605 24.323786915321307 0 24.323786915321307 19.263418945057765 0 0 0 0 -109.65362773519882 -9.7962923768902783 0 -9.7962923768902783 17.797983292192839 0 0 0 0 -36.516972639103187 -40.854973976955307 0 -40.854973976955307 -1.4849632436023512 0 0 0 0 -17.690312695498925 -40.412325771186005 0 -40.412325771186005 17.767568321713476 0 0 0 0 -54.637536530227408 -72.682682962676779 0 -72.682682962676779 12.87389556103858 0 0 0 0 -64.395006683989777 -36.895371189080379 0 -36.895371189080379 15.023884976107368 0 0 0 0 -14.003573130380829 -12.925232372995296 0 -12.925232372995296 9.4923468523617007 0 0 0 0 -51.746457967106835 -95.085614234043533 0 -95.085614234043533 65.148108964952371 0 0 0 0 -76.303944332641549 -49.838639459057504 0 -49.838639459057504 60.715293393958802 0 0 0 0 -65.057354050725223 15.72537534044325 0 15.72537534044325 5.6307522408493931 0 0 0 0 -49.51505172938414 -207.01790566022157 0 -207.01790566022157 -107.77187334312293 0 0 0 0 -22.400849874597043 -209.46030750923273 0 -209.46030750923273 -149.91874344672124 0 0 0 0 -148.07437935911003 24.089449688472996 0 24.089449688472996 121.16854784946372 0 0 0 0 -195.8428548121301 -74.524405408808889 0 -74.524405408808889 50.698036506255448 0 0 0 0 -217.74753050937579 -11.414455307938624 0 -11.414455307938624 109.89612609071401 0 0 0 0 -103.15215344386525 -18.793516331930277 0 -18.793516331930277 83.409745415940051 0 0 0 0 3.6672878996453164 -8.0958449333042211 0 -8.0958449333042211 0.57427971967573477 0 0 0 0 -39.107863087599981 -101.64609952713181 0 -101.64609952713181 -72.970785527589214 0 0 0 0 -25.08791409298734 -39.263285600149317 0 -39.263285600149317 19.337009044756535 0 0 0 0 -55.145106376243348 -60.719748938978228 0 -60.719748938978228 -3.0528122671397284 0 0 0 0 -194.99367922492092 -117.97072614384615 0 -117.97072614384615 -3.5841121690391446 0 0 0 0 -277.44762266740508 98.245589423349998 0 98.245589423349998 -28.924532114697286 0 0 0 0 -161.90592751953591 45.902053947862441 0 45.902053947862441 26.327756497483279 0 0 0 0 -13.900867243643418 2.3305394686157541 0 2.3305394686157541 9.1192360792371545 0 0 0 0 -127.93529292884341 12.817594526722132 0 12.817594526722132 19.453440983826113 0 0 0 0 -90.369154618034372 -93.038445326369356 0 -93.038445326369356 69.347316967772258 0 0 0 0 -100.34552041185088 -14.018244259403218 0 -14.018244259403218 43.992211690820113 0 0 0 0 -80.495001454667374 -19.702949480424618 0 -19.702949480424618 7.519045268883696 0 0 0 0 -96.290276894098497 -27.236756597658314 0 -27.236756597658314 6.6484001447079208 0 0 0 0 -53.860773602151312 -15.699288132335369 0 -15.699288132335369 8.204755521070183 0 0 0 0 -122.73225924571307 -32.236328707560119 0 -32.236328707560119 39.595296700995277 0 0 0 0 -95.390221357381961 -25.287792043555783 0 -25.287792043555783 -75.810904046412588 0 0 0 0 -203.75046836693218 -48.109245763162107 0 -48.109245763162107 19.940862822590589 0 0 0 0 -82.2621989065305 -8.05546899073655 0 -8.05546899073655 6.3096408768763759 0 0 0 0 -138.99150338734034 -9.7833391854276215 0 -9.7833391854276215 96.921172837000086 0 0 0 0 -81.450384093019238 4.8784453983255389 0 4.8784453983255389 42.1522326381521 0 0 0 0 -84.99168576305965 -14.026081896578489 0 -14.026081896578489 36.637123665583204 0 0 0 0 -86.347236105924821 -44.423044679643908 0 -44.423044679643908 47.552381228880222 0 0 0 0 -82.788514666361152 -36.243544219062642 0 -36.243544219062642 3.1341422608002176 0 0 0 0 -69.051513680547941 -30.292499626833887 0 -30.292499626833887 -28.028610657089303 0 0 0 0 -83.556611486768816 -8.5682339906776974 0 -8.5682339906776974 5.5113919977502519 0 0 0 0 -86.615826718386415 -37.825206356593355 0 -37.825206356593355 -1.096235169126885 0 0 0 0 -176.4147902833065 -20.686747942694637 0 -20.686747942694637 0.64975139167472662 0 0 0 0 7.1425143674456422 5.6100558933146658 0 5.6100558933146658 -3.3050001089496508 0 0 0 0 -104.79538809100632 -32.822087471964551 0 -32.822087471964551 -24.544312274179902 0 0 0 0 -62.400002165843034 2.0718105842433943 0 2.0718105842433943 27.897040796278816 0 0 0 0 -35.16431272423236 8.8831855236000195 0 8.8831855236000195 12.579415963772529 0 0 0 0 -70.950381171136542 -72.197700909209061 0 -72.197700909209061 19.592498782225448 0 0 0 0 -73.775541142691509 -56.513963676257845 0 -56.513963676257845 -14.225134249988514 0 0 0 0 -54.321730152703822 -5.7887795191293208 0 -5.7887795191293208 28.582121874253971 0 0 0 0 32.301125199664966 3.1300365272654744 0 3.1300365272654744 -288.00461987100971 0 0 0 0 1.1875503252667841 -115.1204280814818 0 -115.1204280814818 -53.131678401969111 0 0 0 0 -34.781332926919276 37.05034865536345 0 37.05034865536345 -472.75028772886435 0 0 0 0 15.190515202426468 22.873040519022652 0 22.873040519022652 -54.549773899333331 0 0 0 0 -73.433506753732217 -133.37956096760354 0 -133.37956096760354 35.010197988933214 0 0 0 0 -62.951069908012869 -96.607823369942707 0 -96.607823369942707 -66.13163055242876 0 0 0 0 -82.961161588464165 -189.94450051791637 0 -189.94450051791637 -99.446725028312358 0 0 0 0 66.7255606072722 -485.7575551609898 0 -485.7575551609898 -328.10423866583369 0 0 0 0 -107.80861867664498 -334.75280727122845 0 -334.75280727122845 357.12432116688069 0 0 0 0 -189.39633240448893 33.963830761035297 0 33.963830761035297 87.856238717847191 0 0 0 0 -150.82555207557743 -38.131699119887344 0 -38.131699119887344 217.9000047126442 0 0 0 0 -105.60321934183594 -47.55819381722722 0 -47.55819381722722 2.6449707424580993 0 0 0 0 -137.22970671307121 -15.440897806402972 0 -15.440897806402972 33.580535524204606 0 0 0 0 -105.12719983488205 -53.766510998361809 0 -53.766510998361809 77.454953188371292 0 0 0 0 -91.186401002662024 -4.675593287231095 0 -4.675593287231095 35.265147494191524 0 0 0 0 -92.347557927147136 -11.409437881596205 0 -11.409437881596205 14.284553052760202 0 0 0 0 -107.07082297789748 29.204613792571536 0 29.204613792571536 -1.6263377895502344 0 0 0 0 0.16833300158177167 1.5050752195189432 0 1.5050752195189432 2.9523213713498002 0 0 0 0 -119.06400811625645 -103.9860502717911 0 -103.9860502717911 278.08678037401114 0 0 0 0 -142.50310703118157 -26.402316950981003 0 -26.402316950981003 44.219096453426801 0 0 0 0 -140.53194371358404 2.7581527250999898 0 2.7581527250999898 176.46824527515128 0 0 0 0 -159.9267726550097 -43.511727565187584 0 -43.511727565187584 85.214456866398905 0 0 0 0 -124.72075861522171 28.680082365849557 0 28.680082365849557 38.22157864512883 0 0 0 0 -102.97788459253206 17.630270146624753 0 17.630270146624753 145.72022825219938 0 0 0 0 -104.89399210902047 -12.100641928054756 0 -12.100641928054756 69.407518877833354 0 0 0 0 -35.090326644422021 -57.885415630284569 0 -57.885415630284569 85.939615539535225 0 0 0 0 39.181456621343386 79.500233016256971 0 79.500233016256971 156.21825809928896 0 0 0 0 -120.64054796620621 27.214402988416623 0 27.214402988416623 140.70110800081238 0 0 0 0 -436.89880897977855 -272.03864767716004 0 -272.03864767716004 51.407780437531983 0 0 0 0 -5.3962585820302138 -0.20246633577651352 0 -0.20246633577651352 0.44066636957076266 0 0 0 0 -130.43317306390963 111.71313328735687 0 111.71313328735687 222.33321114678529 0 0 0 0 -502.10168768111907 73.071519561925925 0 73.071519561925925 393.28337376719355 0 0 0 0 -254.14808829282993 105.93377617073202 0 105.93377617073202 226.55199678775898 0 0 0 0 -92.623276437130698 81.539658015012265 0 81.539658015012265 218.55306232775365 0 0 0 0 -290.54711893218337 -277.00902127318841 0 -277.00902127318841 -114.0316129547391 0 0 0 0 -270.13910294449306 -142.12666072240609 0 -142.12666072240609 -130.04131138983212 0 0 0 0 -283.48857449079514 -98.720338747446476 0 -98.720338747446476 -255.52902881507543 0 0 0 0 -128.79411385404092 94.384107713283356 0 94.384107713283356 -91.101918306869266 0 0 0 0 -133.59893900532916 -141.93291421450249 0 -141.93291421450249 -304.69591577897882 0 0 0 0 -9.4924367431617895 0.98667649542170111 0 0.98667649542170111 4.259140820222715 0 0 0 0 35.113298225565813 -2.2908437989608501 0 -2.2908437989608501 -39.775280889771238 0 0 0 0 -174.50841471340391 -280.2304555452356 0 -280.2304555452356 -397.78241446206721 0 0 0 0 268.40651366113161 231.77947972596348 0 231.77947972596348 -796.1299922081962 0 0 0 0 -349.02281869534636 -422.35366744328076 0 -422.35366744328076 -275.580310918951 0 0 0 0 -483.33877868854324 -509.40566182562907 0 -509.40566182562907 -26.480383585978871 0 0 0 0 -461.51866625944967 20.209617143280411 0 20.209617143280411 1.7588146631132986 0 0 0 0 -544.23385711912852 -196.10591445037335 0 -196.10591445037335 -68.151816086723557 0 0 0 0 -239.82905420806492 -360.24325002298337 0 -360.24325002298337 -484.52890217220011 0 0 0 0 -209.99370034466119 -103.81254617990044 0 -103.81254617990044 -57.926020472752498 0 0 0 0 -192.11452014290262 -97.535950178683379 0 -97.535950178683379 -86.780285084233356 0 0 0 0 -243.02733488012746 117.70238068945491 0 117.70238068945491 -5.6355833327961591 0 0 0 0 -218.49462309150113 23.403070029930404 0 23.403070029930404 124.55707026911841 0 0 0 0 -184.28636715165339 -22.38326728535867 0 -22.38326728535867 85.226172192718877 0 0 0 0 -156.78134175983723 95.865496686293227 0 95.865496686293227 93.496934098224074 0 0 0 0 -157.93100731490267 33.129640769079742 0 33.129640769079742 78.28908894923552 0 0 0 0 58.014311778824776 118.85407276605974 0 118.85407276605974 -82.265779081148139 0 0 0 0 -170.01094197729253 49.15963176246828 0 49.15963176246828 87.47810883474034 0 0 0 0 -46.728234571841313 69.91443866940017 0 69.91443866940017 37.925847151000767 0 0 0 0 -49.863219368249474 25.528476105620001 0 25.528476105620001 21.052373351264148 0 0 0 0 -176.44040427035361 -2.6862049610486736 0 -2.6862049610486736 55.239446496684678 0 0 0 0 -4.717467682872666 -61.580598817733573 0 -61.580598817733573 45.739279551274194 0 0 0 0 -148.17841634301658 -8.617455671667944 0 -8.617455671667944 43.146071740016453 0 0 0 0 -0.79853675667067137 -0.55425256518230981 0 -0.55425256518230981 -0.10926612934814406 0 0 0 0 -63.415098784364545 2.4555515336030913 0 2.4555515336030913 8.4315893827474948 0 0 0 0 -47.546601367273979 15.419066264542181 0 15.419066264542181 62.808974578222092 0 0 0 0 -167.39414675123408 -42.555268369828013 0 -42.555268369828013 44.143461810137637 0 0 0 0 -42.014330140023958 11.984115837521813 0 11.984115837521813 51.678409594486311 0 0 0 0 58.200947919307509 102.49470804221164 0 102.49470804221164 40.905504423029925 0 0 0 0 -27.284201736036806 6.3671517011919434 0 6.3671517011919434 21.865739002870853 0 0 0 0 14.606477647043903 48.629067804357206 0 48.629067804357206 6.4123968653679704 0 0 0 0 -12.528574701747857 -59.738707332871854 0 -59.738707332871854 -255.81968393855891 0 0 0 0 38.73100728483405 64.79782775566855 0 64.79782775566855 77.502393507316356 0 0 0 0 -2.0933211069379638 1.7754374268028386 0 1.7754374268028386 5.1753454875922849 0 0 0 0 -9.9137454780284315 -63.420090860284404 0 -63.420090860284404 -39.373107806253302 0 0 0 0 -588.54970130155561 248.91715844146756 0 248.91715844146756 194.00231703046666 0 0 0 0 -56.317463037352354 229.94923744546008 0 229.94923744546008 76.153000224698189 0 0 0 0 -55.739335823989677 107.16684055147903 0 107.16684055147903 166.10452213977987 0 0 0 0 -192.20611091835599 453.67747108193998 0 453.67747108193998 345.54633528883369 0 0 0 0 -30.527446829761175 -238.28698742868596 0 -238.28698742868596 97.930410115161067 0 0 0 0 1.1375273794533598 -0.99874737783760281 0 -0.99874737783760281 2.8422879681433102 0 0 0 0 400.91641122113651 500.02669542882586 0 500.02669542882586 184.78549412973734 0 0 0 0 206.98203674843535 71.473002570741073 0 71.473002570741073 161.83492027729881 0 0 0 0 21.615092267311411 90.294773778650779 0 90.294773778650779 227.31083751518418 0 0 0 0 -78.375396149989683 221.18856214118568 0 221.18856214118568 270.9009694394972 0 0 0 0 -170.22806176822633 -19.480576544134237 0 -19.480576544134237 207.19552703404884 0 0 0 0 -17.187195905615226 84.382173687203249 0 84.382173687203249 215.7492302057035 0 0 0 0 -115.03191058187076 -38.611724408982354 0 -38.611724408982354 135.96950809987175 0 0 0 0 -144.08374591270695 -231.59473339188776 0 -231.59473339188776 -237.08602830344898 0 0 0 0 -497.9182847453776 -202.21729596420482 0 -202.21729596420482 122.03454947134691 0 0 0 0 -40.372820423377561 -49.856364522313925 0 -49.856364522313925 77.141810453124322 0 0 0 0 -79.757743944312097 -110.78650057120467 0 -110.78650057120467 69.383890060013982 0 0 0 0 -146.41712890486087 -57.020927756708261 0 -57.020927756708261 160.31058902102995 0 0 0 0 -53.599289980214962 -7.0637713522473859 0 -7.0637713522473859 130.27547513012178 0 0 0 0 -87.989839067173307 -91.077826362482483 0 -91.077826362482483 103.39610268056003 0 0 0 0 -120.07159098572447 -112.0115132061303 0 -112.0115132061303 90.083366263976131 0 0 0 0 -88.866131749877241 -92.12386828914714 0 -92.12386828914714 53.92895287977899 0 0 0 0 -48.675507095307694 -80.757375571447483 0 -80.757375571447483 77.548145083305599 0 0 0 0 -90.178091377121746 -83.350334996142465 0 -83.350334996142465 77.939183227168542 0 0 0 0 -78.793587746287812 -69.163904183090381 0 -69.163904183090381 114.25496384971848 0 0 0 0 20.080241485011356 -64.364080245330058 0 -64.364080245330058 109.27800014806417 0 0 0 0 -8.5100709978095779 0.70951476077667763 0 0.70951476077667763 0.18464024724252148 0 0 0 0 -65.872821279343043 -59.907004686953314 0 -59.907004686953314 143.11320278021958 0 0 0 0 13.327039758965839 180.16222628910327 0 180.16222628910327 5.6128914522469131 0 0 0 0 71.439657819297281 -80.994501407873258 0 -80.994501407873258 -203.24713843070276 0 0 0 0 63.356030808281503 -69.35990758337357 0 -69.35990758337357 -209.37973509610401 0 0 0 0 -28.91228479349229 20.341896191942396 0 20.341896191942396 -29.155733258040527 0 0 0 0 89.83746035938384 -16.663839408235617 0 -16.663839408235617 -231.86462274461155 0 0 0 0 38.451107994405902 104.34679622649492 0 104.34679622649492 75.370637113079283 0 0 0 0 78.161891507894325 -75.691284100440043 0 -75.691284100440043 -204.10677662969488 0 0 0 0 123.17033176870245 -165.3767087188437 0 -165.3767087188437 -254.06354593970536 0 0 0 0 -707.24291098743561 43.525285604801866 0 43.525285604801866 50.128470816802746 0 0 0 0 -3.3776357494428453 0.24627089914958589 0 0.24627089914958589 -0.14044077649064235 0 0 0 0 -1169.7719611637003 -282.8533661242891 0 -282.8533661242891 -149.05071524064124 0 0 0 0 -7.8562176464595552 -6.4178910574224375 0 -6.4178910574224375 -6.1917844443368395 0 0 0 0 483.31526971272069 -33.511266208424331 0 -33.511266208424331 83.057762819644267 0 0 0 0 -1384.9920190024131 484.25322188751488 0 484.25322188751488 -183.46978926480415 0 0 0 0 -575.36363132526094 200.70822474386819 0 200.70822474386819 -324.34541781577991 0 0 0 0 -412.63255567343731 115.83163124290968 0 115.83163124290968 -281.54468882142737 0 0 0 0 -199.17468357505277 426.14461516500978 0 426.14461516500978 -144.14100502219117 0 0 0 0 -10.850427828096144 -199.39832088136552 0 -199.39832088136552 56.960465528658005 0 0 0 0 -88.24504038085712 -17.889905538463182 0 -17.889905538463182 -0.80065373186051858 0 0 0 0 514.17617846908979 -472.00626573208592 0 -472.00626573208592 -390.62187939244723 0 0 0 0 -1875.1124986790819 -166.76953486687216 0 -166.76953486687216 752.58962600344876 0 0 0 0 -229.25353386743518 -88.677916925894579 0 -88.677916925894579 317.6450320372316 0 0 0 0 -95.040960296420963 -10.528800938885638 0 -10.528800938885638 -68.560727693034664 0 0 0 0 -170.94229805207578 -256.57842100459629 0 -256.57842100459629 -124.28541437261563 0 0 0 0 -1.4237955801116868 -0.94960581544231104 0 -0.94960581544231104 2.8242207584606294 0 0 0 0 78.043588734930381 -6.0060072315815773 0 -6.0060072315815773 -71.886710511766282 0 0 0 0 321.26824969790323 334.15107521563237 0 334.15107521563237 65.94065900390342 0 0 0 0 -90.357674729559221 104.48723188514396 0 104.48723188514396 400.93738132707131 0 0 0 0 -88.624764416832306 -14.03554885494842 0 -14.03554885494842 -0.20039313175969753 0 0 0 0 -81.827776314341463 22.848403782178138 0 22.848403782178138 165.69948969293455 0 0 0 0 -61.706086604332086 -23.152690614962921 0 -23.152690614962921 139.83263134829576 0 0 0 0 -161.68978658696869 -110.45939395053864 0 -110.45939395053864 70.42644840609313 0 0 0 0 -115.94846355760819 7.2881964985488139 0 7.2881964985488139 47.116478480660049 0 0 0 0 -16.104675698620156 -11.328757433702819 0 -11.328757433702819 -1.0228690436372754 0 0 0 0 -104.17175795076764 -5.8782024793923 0 -5.8782024793923 49.816740541175051 0 0 0 0 8.9588959716929821 -51.933265595798829 0 -51.933265595798829 -54.375894238043728 0 0 0 0 -171.85399409764796 -118.86807254091323 0 -118.86807254091323 -8.6307581195544856 0 0 0 0 0.44654557116029991 0.74873561913943831 0 0.74873561913943831 -0.35280508104809782 0 0 0 0 -1.955004653411379 13.318652122013953 0 13.318652122013953 2.4290424597001525 0 0 0 0 -106.37937165855692 -30.401805345760284 0 -30.401805345760284 0.052808909290470427 0 0 0 0 -20.587768554207287 5.3428685257648034 0 5.3428685257648034 12.099083681053083 0 0 0 0 -47.503193277821993 2.1876183308472568 0 2.1876183308472568 4.6917094123031262 0 0 0 0 -111.12001790617069 28.627428816480126 0 28.627428816480126 18.382469799014487 0 0 0 0 -53.169114413292846 -20.64828202056448 0 -20.64828202056448 -71.736095472658647 0 0 0 0 -41.087681754957885 -19.055079820172118 0 -19.055079820172118 33.668586158574087 0 0 0 0 -36.119617695079796 63.942620880043762 0 63.942620880043762 71.47140699845734 0 0 0 0 35.421759167071286 47.629148320555416 0 47.629148320555416 32.025641470621323 0 0 0 0 42.62632232940814 23.963800752529338 0 23.963800752529338 -7.6794852955848292 0 0 0 0 14.710183063594741 17.981068904449568 0 17.981068904449568 -0.12942431260656007 0 0 0 0 23.26365544134751 5.5804887010589308 0 5.5804887010589308 14.63921650165778 0 0 0 0 -0.64376250204395546 -2.4964023141555884 0 -2.4964023141555884 2.3963090982373116 0 0 0 0 -120.50542535413115 -318.2402697830131 0 -318.2402697830131 -280.39656910169401 0 0 0 0 -201.06849754335417 -31.173364824440167 0 -31.173364824440167 11.211715790350684 0 0 0 0 -153.00128263793886 76.475792348142519 0 76.475792348142519 -21.523272302441754 0 0 0 0 -218.02567733493197 -31.198572374934173 0 -31.198572374934173 47.751913711592096 0 0 0 0 -15.559299418790033 7.8334374395441131 0 7.8334374395441131 -109.19441496257515 0 0 0 0 -95.716456489972188 103.80929081011051 0 103.80929081011051 -53.808028284253631 0 0 0 0 -3.030766070266111 5.0923449254716875 0 5.0923449254716875 0.77222282018668786 0 0 0 0 -60.194756573468737 21.364933240988307 0 21.364933240988307 17.542210317237668 0 0 0 0 11.859576896378712 48.541312614980214 0 48.541312614980214 -25.661411207592707 0 0 0 0 -75.149825088024954 91.91638091848381 0 91.91638091848381 76.002334867042919 0 0 0 0 -188.15266665705713 16.141123652599163 0 16.141123652599163 140.29423007266996 0 0 0 0 -79.787101530164364 16.890519705793849 0 16.890519705793849 99.148644986606087 0 0 0 0 -189.34902018142748 10.572481329259972 0 10.572481329259972 123.28463525064751 0 0 0 0 -93.681885126439738 -24.705873642358483 0 -24.705873642358483 63.941934178721567 0 0 0 0 -41.501107665448217 64.703538667272369 0 64.703538667272369 131.5982929434831 0 0 0 0 -89.766467545455896 -7.9157480489693874 0 -7.9157480489693874 7.1437711445690537 0 0 0 0 -214.13234592901426 -46.960775928853764 0 -46.960775928853764 75.649919528786995 0 0 0 0 -22.588211407298957 -17.895190483375686 0 -17.895190483375686 4.6677721386788864 0 0 0 0 -19.348232494172407 13.789086316499576 0 13.789086316499576 -5.302472211963245 0 0 0 0 -126.5920730464386 -43.443262701194854 0 -43.443262701194854 20.814371621647069 0 0 0 0 -9.4920058801088771 -1.4729090975588122 0 -1.4729090975588122 -1.3759780410804348 0 0 0 0 -37.090975448605604 -23.487703915640395 0 -23.487703915640395 -18.349928160334798 0 0 0 0 -25.660695458005648 -14.282617470477909 0 -14.282617470477909 -36.584033019659842 0 0 0 0 -83.183251562615624 -44.796476281318398 0 -44.796476281318398 -48.215555741960571 0 0 0 0 -105.26353411094169 -39.085507181558711 0 -39.085507181558711 -8.1485938609943283 0 0 0 0 -46.671603954077 -13.608259901694405 0 -13.608259901694405 1.0042390082577493 0 0 0 0 -5.6339783300845738 -9.5211049055542816 0 -9.5211049055542816 -1.6808589438747248 0 0 0 0 -45.545323276790441 -17.956857505426846 0 -17.956857505426846 7.0825999570600953 0 0 0 0 -45.815734016039642 -19.631956464105222 0 -19.631956464105222 3.6892186520276193 0 0 0 0 -97.362955768941902 -11.179614552065098 0 -11.179614552065098 12.244494247092218 0 0 0 0 -58.270927626901539 -6.217454944392693 0 -6.217454944392693 -0.017192461311220507 0 0 0 0 -93.662768292211695 -5.5492956276526844 0 -5.5492956276526844 13.719148844325305 0 0 0 0 -116.28311757901429 -3.4198865526302402 0 -3.4198865526302402 13.551669339961457 0 0 0 0 -59.221401599890669 18.021948406384325 0 18.021948406384325 -1.1916167764945733 0 0 0 0 -102.45003340533731 6.4272479672175766 0 6.4272479672175766 0.045188107931612674 0 0 0 0 -34.099289505829802 9.9171631147688704 0 9.9171631147688704 4.4341937558297566 0 0 0 0 -61.160845465674356 36.695132266336884 0 36.695132266336884 4.1665550238561035 0 0 0 0 -19.038718235271517 16.433588004710835 0 16.433588004710835 2.2870861191448171 0 0 0 0 -26.485139137366787 11.905308730435188 0 11.905308730435188 0.0055185683325739664 0 0 0 0 19.81649546942208 -16.255799000718607 0 -16.255799000718607 6.3250239115705371 0 0 0 0 -0.61878908416926492 -0.43397431360099858 0 -0.43397431360099858 -0.1838380909080897 0 0 0 0 -27.774265788400953 15.207032724580095 0 15.207032724580095 7.6914172865036914 0 0 0 0 -151.73029409834635 -2.8093369805048223 0 -2.8093369805048223 6.3206661541158837 0 0 0 0 -9.0877753569220658 2.2642228600690331 0 2.2642228600690331 32.448866974402463 0 0 0 0 41.703726162770181 28.762969250770961 0 28.762969250770961 -0.042008167985504129 0 0 0 0 34.258600781511632 18.365154191850294 0 18.365154191850294 17.195180199815447 0 0 0 0 -53.733639100813889 120.3323761093869 0 120.3323761093869 48.747066143951656 0 0 0 0 -0.16783182735105129 0.23145698750511201 0 0.23145698750511201 1.1669760675244543 0 0 0 0 236.15490970764949 111.87137940768625 0 111.87137940768625 -25.337118688391854 0 0 0 0 -145.96339577771869 -10.549291226084655 0 -10.549291226084655 7.8279254565596261 0 0 0 0 -150.80613521242049 -10.0650986731494 0 -10.0650986731494 58.373115066725447 0 0 0 0 91.152215616151807 95.237395528070721 0 95.237395528070721 78.796839845481088 0 0 0 0 81.526527330862336 -2.5583630936778849 0 -2.5583630936778849 -33.197735522738299 0 0 0 0 123.29394303529989 8.5299447017145553 0 8.5299447017145553 44.225910698167354 0 0 0 0 41.096093406275031 84.933002045119594 0 84.933002045119594 28.315343828581689 0 0 0 0 -144.25192457828962 -7.3280130925913056 0 -7.3280130925913056 -0.67571468524258194 0 0 0 0 -108.39030206060124 -11.907497495406027 0 -11.907497495406027 12.968753204275572 0 0 0 0 112.28973452832724 98.347842563163226 0 98.347842563163226 0.85482849301405395 0 0 0 0 42.855037680215901 46.410166166804515 0 46.410166166804515 40.446640732383457 0 0 0 0 0.39415617367237132 0.22776981098547822 0 0.22776981098547822 3.6465930800739406 0 0 0 0 -3.1211800762248458 -47.126870117330128 0 -47.126870117330128 0.56228831947466418 0 0 0 0 -12.258866114651028 42.124954904037502 0 42.124954904037502 -22.140825920382142 0 0 0 0 -30.559387288041762 -16.248418898049209 0 -16.248418898049209 17.678245503695734 0 0 0 0 -50.781945686103427 12.07971677112053 0 12.07971677112053 -1.0301526840185593 0 0 0 0 -1.1771300331658381 -0.96865748855336165 0 -0.96865748855336165 -0.46878846385201078 0 0 0 0 0.40405422200274188 9.7216623084712523 0 9.7216623084712523 0.45841101586870536 0 0 0 0 -32.904291892860783 13.577184435280913 0 13.577184435280913 20.330639352483473 0 0 0 0 -24.484654929110548 -2.17378903710744 0 -2.17378903710744 -0.23665306233186811 0 0 0 0 -56.616319116517104 -0.84254718391720296 0 -0.84254718391720296 -0.54353549481364483 0 0 0 0 -65.395238808763679 2.7689781981919168 0 2.7689781981919168 50.091608898169369 0 0 0 0 -58.082355080288835 -0.45383059011456339 0 -0.45383059011456339 18.342195917989955 0 0 0 0 -59.11529490884277 5.4804580832116585 0 5.4804580832116585 10.798174608832063 0 0 0 0 -69.585488055294263 1.5190094968284313 0 1.5190094968284313 13.525938644048949 0 0 0 0 -10.09410614414027 -1.0435163210006237 0 -1.0435163210006237 6.7762546889907291 0 0 0 0 -11.16748506102158 43.759751545667939 0 43.759751545667939 40.624006543097266 0 0 0 0 -50.557725060338271 3.4823380373011332 0 3.4823380373011332 20.874441743135776 0 0 0 0 -26.023258789257582 1.615545878951707 0 1.615545878951707 11.892313931889285 0 0 0 0 -49.612029205917338 1.0578956220767006 0 1.0578956220767006 1.83708614559032 0 0 0 0 -51.364003647075151 6.0735688261879659 0 6.0735688261879659 26.428959843388995 0 0 0 0 -51.043577564010775 9.3758324594190299 0 9.3758324594190299 21.218977036043498 0 0 0 0 -48.101005590709974 5.2012591022319157 0 5.2012591022319157 18.468533591821256 0 0 0 0 -49.622411666481639 9.9062099784209749 0 9.9062099784209749 6.1865298460261329 0 0 0 0 -48.262862038012827 5.2395631496799524 0 5.2395631496799524 19.876935188525295 0 0 0 0 -44.882119272947335 1.5004892676774162 0 1.5004892676774162 11.807957144490032 0 0 0 0 -61.653785124675778 5.9162348955852622 0 5.9162348955852622 5.0497918123805903 0 0 0 0 -54.610406803054502 11.955806981166006 0 11.955806981166006 -0.79279856958737582 0 0 0 0 -41.533793749775214 1.9881157723539218 0 1.9881157723539218 5.163306356674866 0 0 0 0 -38.277123143448989 14.117864576762997 0 14.117864576762997 4.1223027277337678 0 0 0 0 -60.529501100128982 10.076877447640072 0 10.076877447640072 8.4904257188909469 0 0 0 0 -37.686116444566636 -3.8520678387922302 0 -3.8520678387922302 4.2777837193812154 0 0 0 0 -37.153128927360001 4.2547347882142077 0 4.2547347882142077 7.7248101361400074 0 0 0 0 -20.259021098002194 10.262596964316529 0 10.262596964316529 5.4988353797036398 0 0 0 0 -38.457101106594791 17.209047157164523 0 17.209047157164523 21.584301464898999 0 0 0 0 -59.483241050693323 18.958173277680089 0 18.958173277680089 -3.3237370530331418 0 0 0 0 -18.637486120918766 5.8220365741435671 0 5.8220365741435671 6.8570545595257499 0 0 0 0 -48.039989040873479 7.2563292493709923 0 7.2563292493709923 0.92266365448722354 0 0 0 0 -27.241578898392618 96.557301222114347 0 96.557301222114347 -15.515552175771973 0 0 0 0 -9.9606315381734589 8.0151237441084859 0 8.0151237441084859 7.6990972853328863 0 0 0 0 -51.717860530953772 -11.010906427026654 0 -11.010906427026654 18.319950731770099 0 0 0 0 -230.77363611513283 -31.248815025661543 0 -31.248815025661543 103.7564508599944 0 0 0 0 -44.958601987993603 39.370527014582294 0 39.370527014582294 8.1272402889186672 0 0 0 0 -34.500772987021847 -11.65214862258351 0 -11.65214862258351 14.986285259125401 0 0 0 0 -35.760167431173613 26.449778812523391 0 26.449778812523391 40.852492827042624 0 0 0 0 -47.314194199853432 13.219837275295276 0 13.219837275295276 10.547808954560717 0 0 0 0 -69.890675093454774 -4.9845710589611372 0 -4.9845710589611372 -0.63976739585132236 0 0 0 0 -78.161615980818169 10.911165306310522 0 10.911165306310522 10.464113628572704 0 0 0 0 -56.929288238752633 7.4975604424928406 0 7.4975604424928406 10.55044260418159 0 0 0 0 -53.85648104590382 9.8266790924853193 0 9.8266790924853193 27.990650240913737 0 0 0 0 -70.430058596961317 5.3530765772674158 0 5.3530765772674158 27.462989875855328 0 0 0 0 -58.680941035010619 8.1445892610229293 0 8.1445892610229293 6.960533737391529 0 0 0 0 -49.024316090653883 2.8936063625836823 0 2.8936063625836823 22.943020061718016 0 0 0 0 -57.097519406379433 5.2787277827701473 0 5.2787277827701473 23.201242485310729 0 0 0 0 -61.958868669054937 16.315204208093519 0 16.315204208093519 11.487849784874015 0 0 0 0 163.50331356034019 223.72517089072946 0 223.72517089072946 -117.55575514685279 0 0 0 0 164.50444172399875 121.35414199659112 0 121.35414199659112 -112.85902897897148 0 0 0 0 -1.7685722631684371 2.1827491785542747 0 2.1827491785542747 -0.58468930869166691 0 0 0 0 9.8644144490826875 99.867973825399531 0 99.867973825399531 -113.40223433995627 0 0 0 0 -359.45704971703526 -15.315750097277487 0 -15.315750097277487 31.522292753547845 0 0 0 0 -249.53802748351882 48.264506634174722 0 48.264506634174722 6.9523558395807186 0 0 0 0 -120.56734231887822 -70.353146024960665 0 -70.353146024960665 62.172326260523278 0 0 0 0 13.211935732756928 19.247234023587708 0 19.247234023587708 -1.8281383983023929 0 0 0 0 -252.36168407204968 87.083630640805268 0 87.083630640805268 -11.144633227524764 0 0 0 0 -191.49176060434547 -14.236443681975061 0 -14.236443681975061 -6.1378267410968874 0 0 0 0 -85.616474655631464 38.594720294790022 0 38.594720294790022 7.6471570538328706 0 0 0 0 -19.521094524257904 13.625674760132881 0 13.625674760132881 0.68061311879907649 0 0 0 0 -57.234270172164543 32.149328479318683 0 32.149328479318683 -17.265946716090184 0 0 0 0 -11.164396379256161 9.3317501342646381 0 9.3317501342646381 6.3959532830911634 0 0 0 0 -53.848384247412469 17.716074922963116 0 17.716074922963116 4.3425001115492705 0 0 0 0 -32.267593923831782 3.8121960405501341 0 3.8121960405501341 10.010399643511228 0 0 0 0 6.6119167465718363 17.193567926089202 0 17.193567926089202 -11.820107468769638 0 0 0 0 -468.14890626804845 20.912820512779035 0 20.912820512779035 83.401035970098292 0 0 0 0 -67.709628426971904 38.513115808033035 0 38.513115808033035 -3.678981568123163 0 0 0 0 -187.92050532466965 150.61509285052398 0 150.61509285052398 -409.7308845188436 0 0 0 0 -26.88358015833677 6.0473486540501824 0 6.0473486540501824 4.3370124884522401 0 0 0 0 -21.220453050089418 9.9289787156862985 0 9.9289787156862985 -3.7565731845224946 0 0 0 0 -19.842620370459287 9.0438860057219017 0 9.0438860057219017 2.326999960327452 0 0 0 0 -6.4994655180185248 2.89127059152176 0 2.89127059152176 -0.72021118482054014 0 0 0 0 -19.189561297442935 5.7842450747530503 0 5.7842450747530503 3.1386122031585577 0 0 0 0 -0.1959147869492881 34.014765914911095 0 34.014765914911095 42.899093783935655 0 0 0 0 -12.804106970084831 6.8238023292087746 0 6.8238023292087746 -2.6359486385229047 0 0 0 0 -95.910488217705279 7.7588162375418506 0 7.7588162375418506 277.49060483101221 0 0 0 0 -2.125653031207321 2.6721050628491128 0 2.6721050628491128 -1.2820152681456474 0 0 0 0 12.952618674695259 32.558736815095017 0 32.558736815095017 -4.5040737502895354 0 0 0 0 -0.39187514587968053 3.9100307544000081 0 3.9100307544000081 -1.229406227903445 0 0 0 0 96.080907172930893 -65.975071632992695 0 -65.975071632992695 48.946951057141632 0 0 0 0 -11.169609194874241 10.792474343143908 0 10.792474343143908 -10.797216226832564 0 0 0 0 -39.150396108540008 5.2077262202910788 0 5.2077262202910788 13.26976549330027 0 0 0 0 -46.785789880974335 7.4393469029657808 0 7.4393469029657808 12.834631266600354 0 0 0 0 -22.641242922312813 26.652464387684404 0 26.652464387684404 50.706566686610159 0 0 0 0 -31.659220328031552 2.9932747977744327 0 2.9932747977744327 3.8125895596359451 0 0 0 0 -40.285651579906698 9.4614665639455779 0 9.4614665639455779 7.5604269157624913 0 0 0 0 -25.272570040790015 5.0763384625489607 0 5.0763384625489607 8.8323199577343985 0 0 0 0 -12.496159846472437 48.69271436639292 0 48.69271436639292 77.110495738032114 0 0 0 0 -54.755223095940892 -2.5612130370845989 0 -2.5612130370845989 116.55076118758188 0 0 0 0 -33.588723273540381 68.935942444351383 0 68.935942444351383 68.194075405262993 0 0 0 0 -46.038551959209144 85.61506478655906 0 85.61506478655906 133.29148103846319 0 0 0 0 5.6240148603974376 -2.1697627921612366 0 -2.1697627921612366 214.37254688540474 0 0 0 0 -77.352640120894648 58.264204395825573 0 58.264204395825573 216.92036757610822 0 0 0 0 -70.368030522076879 70.762865080948359 0 70.762865080948359 234.309942158583 0 0 0 0 -43.526621383789461 46.378985373118212 0 46.378985373118212 220.84338684694103 0 0 0 0 -89.444446499896003 52.465244249567832 0 52.465244249567832 266.04112226970847 0 0 0 0 17.46380528435111 124.51499657800423 0 124.51499657800423 160.22761933257607 0 0 0 0 -64.645926042139763 -4.1119431829180257 0 -4.1119431829180257 279.83193079754119 0 0 0 0 15.107605416182196 102.77608719137743 0 102.77608719137743 139.62874525200823 0 0 0 0 -37.617265383771155 109.8335632516812 0 109.8335632516812 76.233764563761611 0 0 0 0 -34.732046273828018 68.652715382627775 0 68.652715382627775 116.28141081315744 0 0 0 0 -58.264937870320864 39.383043021559843 0 39.383043021559843 115.93720739955006 0 0 0 0 -35.675276275054784 65.657711687047595 0 65.657711687047595 123.76967886100238 0 0 0 0 -47.218007780553307 64.470077264903239 0 64.470077264903239 129.38846957471037 0 0 0 0 -145.18107960716588 8.0006624300552858 0 8.0006624300552858 104.04947574937046 0 0 0 0 -68.479251258337172 -10.08108645691641 0 -10.08108645691641 74.940207458955342 0 0 0 0 -13.241731306035945 72.942354944979002 0 72.942354944979002 182.22286527190317 0 0 0 0 -58.079923113196855 42.716694715734775 0 42.716694715734775 233.68132860824517 0 0 0 0 -98.557409406930674 20.822247683911655 0 20.822247683911655 277.72195440834321 0 0 0 0 -71.71763362706406 33.933501875260845 0 33.933501875260845 229.04079483994428 0 0 0 0 -57.714240833302028 47.158715859968197 0 47.158715859968197 285.7668521880496 0 0 0 0 -97.797494728176389 112.71786253933487 0 112.71786253933487 72.991089561473927 0 0 0 0 -28.728777043055743 -53.216899208515315 0 -53.216899208515315 219.46662564126746 0 0 0 0 -7.8819992009489397 3.891958973208645 0 3.891958973208645 -3.1336163765253078 0 0 0 0 -64.625133096807986 90.713825912941729 0 90.713825912941729 -136.77343690311727 0 0 0 0 -12.625580985011766 260.20289677172286 0 260.20289677172286 -89.603907217207507 0 0 0 0 -239.30543783841131 299.06132653550827 0 299.06132653550827 8.4288739340181564 0 0 0 0 -649.59192950784927 62.368551215484104 0 62.368551215484104 -27.821407944966722 0 0 0 0 -291.83742247460395 -15.998974517637691 0 -15.998974517637691 -10.669961891244839 0 0 0 0 -206.75222201700672 187.13560876407792 0 187.13560876407792 -79.628776631407163 0 0 0 0 -1.0836364167664669 -0.96699763552298634 0 -0.96699763552298634 -0.71533882503489554 0 0 0 0 -415.51213989463577 304.5970459629649 0 304.5970459629649 -266.6708763761153 0 0 0 0 -131.88700798565333 -279.16048697809708 0 -279.16048697809708 281.01108870415555 0 0 0 0 -519.76764523264137 -105.36638534423423 0 -105.36638534423423 203.19800194650907 0 0 0 0 -540.4100768318749 -92.101623326486902 0 -92.101623326486902 58.479130080703726 0 0 0 0 -571.07038517696492 -1.0225985582866883 0 -1.0225985582866883 14.558385683261349 0 0 0 0 -484.49353930808138 -124.87091246980728 0 -124.87091246980728 -167.76292809007469 0 0 0 0 -459.77204331275425 -170.25274173118945 0 -170.25274173118945 -105.02038665153316 0 0 0 0 -447.99320553490543 -66.903407197557328 0 -66.903407197557328 -34.737196630628887 0 0 0 0 -218.35939758724999 -149.21683243025836 0 -149.21683243025836 -36.094071981159686 0 0 0 0 -112.92005181559944 -45.275652927183501 0 -45.275652927183501 66.28283959406383 0 0 0 0 -228.90797541456413 23.240575622573317 0 23.240575622573317 27.289204509966339 0 0 0 0 -163.14953267680175 63.556430750360299 0 63.556430750360299 -31.841982151392472 0 0 0 0 -200.26555214734981 -72.229605203542405 0 -72.229605203542405 -86.998770789763171 0 0 0 0 -324.08668277115794 -17.689649046834774 0 -17.689649046834774 -79.567232306063318 0 0 0 0 -246.47514436679194 11.339235157475329 0 11.339235157475329 -102.07968754362717 0 0 0 0 -366.2917461564648 -131.06648852176966 0 -131.06648852176966 -151.3054410146986 0 0 0 0 -513.46548598230584 -67.060869101678634 0 -67.060869101678634 -119.04460288381625 0 0 0 0 -664.24151398535469 -246.90136606803048 0 -246.90136606803048 -147.67393677847332 0 0 0 0 -668.21762275861693 -318.38923146913163 0 -318.38923146913163 -228.17373523937675 0 0 0 0 -500.03636765724514 -123.46218144802594 0 -123.46218144802594 -123.6524740599081 0 0 0 0 -409.0036420856195 -173.72031257420247 0 -173.72031257420247 -134.98013102310688 0 0 0 0 25.368647995936044 91.442426059911696 0 91.442426059911696 9.8828316847889255 0 0 0 0 -35.165958833851619 96.199366750032709 0 96.199366750032709 59.909647134135071 0 0 0 0 -75.571243149286602 101.94278991721654 0 101.94278991721654 14.671621872823152 0 0 0 0 -29.69138172285966 72.859995473827951 0 72.859995473827951 33.101909307966253 0 0 0 0 -74.381327391914965 88.391103886201506 0 88.391103886201506 33.572258682076836 0 0 0 0 -97.616982335428474 16.325177381068841 0 16.325177381068841 -1.4905184038652237 0 0 0 0 -125.77625564938717 60.145117677260359 0 60.145117677260359 -26.166186658467666 0 0 0 0 -164.08941166363365 -39.456869592015238 0 -39.456869592015238 -102.01168232090778 0 0 0 0 -34.400384713779204 48.370185220467363 0 48.370185220467363 -46.803436814468085 0 0 0 0 23.838872293126769 21.750206847148604 0 21.750206847148604 -45.981197033234423 0 0 0 0 -43.850528019072954 87.712168445453642 0 87.712168445453642 32.071276696555458 0 0 0 0 -71.82631011155172 62.418597782937589 0 62.418597782937589 5.0598361132157432 0 0 0 0 -205.90055361798295 1.8159696845945135 0 1.8159696845945135 -97.092877445242308 0 0 0 0 -126.64678118469601 -46.294935521071011 0 -46.294935521071011 -105.76273719315247 0 0 0 0 -296.10861580495111 -144.61071147406886 0 -144.61071147406886 -91.384633647131125 0 0 0 0 -2.7968065221375582 -23.020472362211098 0 -23.020472362211098 -74.157929915693288 0 0 0 0 -155.07244098187948 3.6024508828052393 0 3.6024508828052393 -0.060120828501921048 0 0 0 0 -778.3972439680656 -75.617766277070388 0 -75.617766277070388 -97.262843961068683 0 0 0 0 -1099.6024812939286 -232.59477569889168 0 -232.59477569889168 -22.34502256679707 0 0 0 0 -711.98711210089095 -202.46611392655981 0 -202.46611392655981 -110.21344966497679 0 0 0 0 -400.09098993030784 -122.67905970853533 0 -122.67905970853533 -191.96123117331595 0 0 0 0 -399.73430939363607 -97.646368945262509 0 -97.646368945262509 -107.46385214410569 0 0 0 0 -500.01478094829508 -61.188225741954618 0 -61.188225741954618 -0.10452842258837691 0 0 0 0 -686.03438280468981 -232.31372859139972 0 -232.31372859139972 -139.75442831237879 0 0 0 0 -840.49567573878448 -99.39694710976778 0 -99.39694710976778 48.196639435559661 0 0 0 0 -652.49556565642706 -121.40875978066735 0 -121.40875978066735 0.052540301585362714 0 0 0 0 -408.69948637623747 -44.744507367558441 0 -44.744507367558441 -15.489059216945805 0 0 0 0 -1127.9263071424066 -437.95078148679397 0 -437.95078148679397 -27.299076141589751 0 0 0 0 -1085.7839803341922 -495.80134429793623 0 -495.80134429793623 -27.375820655478179 0 0 0 0 -3.0862321009708751 1.3146854493826083 0 1.3146854493826083 -0.68269767679409177 0 0 0 0 -608.72591213753913 -52.387463281716094 0 -52.387463281716094 57.015769194989446 0 0 0 0 -558.90868382285407 -138.80661526583711 0 -138.80661526583711 38.967533181143949 0 0 0 0 -695.86686916067811 -203.49053103633349 0 -203.49053103633349 26.770931079111392 0 0 0 0 -615.32494117724127 -137.31933173124139 0 -137.31933173124139 42.198275839278551 0 0 0 0 -621.38511036864656 -98.079392696438077 0 -98.079392696438077 13.350043964594924 0 0 0 0 -566.84856572405261 -67.616501109689551 0 -67.616501109689551 46.91872774987317 0 0 0 0 -611.08048177049204 -113.56582996076804 0 -113.56582996076804 0.085222646722982964 0 0 0 0 -530.8838182527943 27.013939591859177 0 27.013939591859177 70.028164112829188 0 0 0 0 -592.59741291125829 -32.824774191505 0 -32.824774191505 79.544242567955393 0 0 0 0 -702.5879129699897 -108.72365140347344 0 -108.72365140347344 60.748266216593265 0 0 0 0 -725.87116264279757 -136.75762195823819 0 -136.75762195823819 31.984509410063879 0 0 0 0 -778.32317057320324 -249.96411008444235 0 -249.96411008444235 -88.527706843992974 0 0 0 0 -911.94195244007278 -153.47011788873277 0 -153.47011788873277 61.916121009640449 0 0 0 0 -654.02805011087912 9.4051144501716948 0 9.4051144501716948 87.456625630983808 0 0 0 0 -760.29757928232721 -82.490695435365865 0 -82.490695435365865 21.960843046987634 0 0 0 0 -621.07204109098529 121.26997869843061 0 121.26997869843061 44.216020354433908 0 0 0 0 -722.91911336964404 -22.740201163702523 0 -22.740201163702523 -19.188347196590769 0 0 0 0 -819.3146595565122 98.306237258521719 0 98.306237258521719 -37.656839655435306 0 0 0 0 -933.73552623020078 -239.61662404257544 0 -239.61662404257544 -70.828354991921458 0 0 0 0 -779.55370016157394 -69.84025184550012 0 -69.84025184550012 25.268179217554462 0 0 0 0 -1130.1891395698476 -171.31071591102045 0 -171.31071591102045 29.303774034564199 0 0 0 0 -917.07203120401391 -268.20209025040759 0 -268.20209025040759 -270.53745237168982 0 0 0 0 -892.58907319368154 -370.39225168154746 0 -370.39225168154746 -97.928981037331596 0 0 0 0 -736.86993600533606 -571.42094888059546 0 -571.42094888059546 -729.34738740266835 0 0 0 0 -4.1089682052144099 0.51084767023297672 0 0.51084767023297672 0.90151902701602449 0 0 0 0 -0.7889885454234502 0.056747922729272204 0 0.056747922729272204 -9.0193644644366699 0 0 0 0 -864.6439612610593 -642.51699177233331 0 -642.51699177233331 -305.13087618932423 0 0 0 0 -510.45090036530746 -63.505374342069445 0 -63.505374342069445 -81.837023956326334 0 0 0 0 -442.07657417943119 -31.011027196028181 0 -31.011027196028181 -73.291121732294584 0 0 0 0 -268.28369169889993 -47.955479399870057 0 -47.955479399870057 -214.13774606629249 0 0 0 0 -514.60740464502305 -79.205141435412656 0 -79.205141435412656 -127.66337007342497 0 0 0 0 -558.3254838665016 -201.71796730613227 0 -201.71796730613227 -175.28955632508146 0 0 0 0 -306.19635139612365 -199.57345163990652 0 -199.57345163990652 -379.58279543285244 0 0 0 0 -592.54177978367079 -552.14255607174982 0 -552.14255607174982 -812.69491260199027 0 0 0 0 -852.27800686645787 -760.764313356966 0 -760.764313356966 -456.94227115728614 0 0 0 0 -1198.7206653100438 -1106.5139691317806 0 -1106.5139691317806 -765.93431479411902 0 0 0 0 -1968.9764253473841 -908.91045088278111 0 -908.91045088278111 57.5597670058566 0 0 0 0 -1409.2746889860719 -537.48895812289061 0 -537.48895812289061 114.73973407024278 0 0 0 0 -629.66731801419519 -357.5694727358096 0 -357.5694727358096 -191.52767370471875 0 0 0 0 -484.55620338027074 -189.09720965331005 0 -189.09720965331005 -322.76194455533016 0 0 0 0 -833.74726639030268 -613.23570341749235 0 -613.23570341749235 -511.49418917993574 0 0 0 0 -872.43494284216285 -458.87007726437173 0 -458.87007726437173 -197.35802259563798 0 0 0 0 -423.42998954775976 -216.85377905637279 0 -216.85377905637279 -101.29004199397264 0 0 0 0 -573.39070701931632 -322.29989724913929 0 -322.29989724913929 -132.88327657696584 0 0 0 0 -636.66530530882301 -189.79741158427407 0 -189.79741158427407 -10.261650751505954 0 0 0 0 -795.70065782379243 -270.08481248097689 0 -270.08481248097689 -46.292658841777154 0 0 0 0 -682.59021678294812 -376.49866048330853 0 -376.49866048330853 -148.92950177644252 0 0 0 0 -15.900912810189766 6.9507722398590079 0 6.9507722398590079 4.5540233441118865 0 0 0 0 -27.902935728543525 -23.29885218950805 0 -23.29885218950805 -28.556005951624378 0 0 0 0 -0.0030064348896914339 -0.058734834290277149 0 -0.058734834290277149 0.39167897473895352 0 0 0 0 -154.18454081237724 -61.073746682277097 0 -61.073746682277097 0.015205252386338249 0 0 0 0 33.062560342024881 4.9996262259899051 0 4.9996262259899051 -30.010051879674094 0 0 0 0 -90.803754941996885 -57.625848259192594 0 -57.625848259192594 16.575683590175913 0 0 0 0 -224.31181642836964 85.539600335358926 0 85.539600335358926 7.5262208798792471 0 0 0 0 -397.45538387449051 -64.248142653336302 0 -64.248142653336302 0.022831515913174154 0 0 0 0 -397.33506319692242 113.48898224810441 0 113.48898224810441 29.656615606040191 0 0 0 0 -435.02241713693365 -12.557697605239184 0 -12.557697605239184 -5.3828596446219308 0 0 0 0 -342.574342581378 -46.384000550937216 0 -46.384000550937216 22.585803157669829 0 0 0 0 -543.61517868455121 203.52338000184795 0 203.52338000184795 -23.735250631448025 0 0 0 0 -128.05861334498331 21.285566338069202 0 21.285566338069202 17.591639802971258 0 0 0 0 -130.12152176794189 3.1841969400219341 0 3.1841969400219341 -90.990157002369415 0 0 0 0 -178.34010572865373 -20.685195050197336 0 -20.685195050197336 -29.906963759930093 0 0 0 0 -169.72925829983433 13.781165916655119 0 13.781165916655119 47.577987763909732 0 0 0 0 -42.277986197979772 41.993007803902117 0 41.993007803902117 10.86311165117138 0 0 0 0 30.815881636444828 -28.203168686677486 0 -28.203168686677486 -22.566155087858135 0 0 0 0 -8.3084941559209256 -0.48906802462765053 0 -0.48906802462765053 11.243258090655583 0 0 0 0 -0.21754465987653759 -0.31322810959278513 0 -0.31322810959278513 1.912101583215867 0 0 0 0 0.7013129115878769 -0.10056544508218934 0 -0.10056544508218934 0.14890415820821246 0 0 0 0 -82.33252994932991 -8.5465262334641352 0 -8.5465262334641352 14.884250654749621 0 0 0 0 56.555869267031085 -2.2467218984197643 0 -2.2467218984197643 2.8638099997386917 0 0 0 0 -98.02785178355407 -2.586874803207138 0 -2.586874803207138 6.4770347293742816 0 0 0 0 -1.0974106881185435 -2.6180691578092592 0 -2.6180691578092592 1.5616175470451026 0 0 0 0 99.096869520668406 1.1556405712490232 0 1.1556405712490232 -37.011844166940591 0 0 0 0 -1.8417601690045302 -2.8039993005120891 0 -2.8039993005120891 1.0262834684818691 0 0 0 0 -2.1160915332578156 -3.2084269334265514 0 -3.2084269334265514 -0.85217666112113744 0 0 0 0 -1.7866484352065868 -2.4794909511901295 0 -2.4794909511901295 0.61797878285093999 0 0 0 0 -2.5866172381356591 -1.0264600289337173 0 -1.0264600289337173 -2.7798300833909599 0 0 0 0 -7.3579966560500907 -5.4468453335358049 0 -5.4468453335358049 0.98422194754357406 0 0 0 0 -8.7091800087946467 2.0330633212176963 0 2.0330633212176963 4.8329115578364963 0 0 0 0 -1.7221402166417192 -1.3040852851164431 0 -1.3040852851164431 -0.055422985631255965 0 0 0 0 -2.9755143085175746 -2.5681493850872599 0 -2.5681493850872599 1.4134226269183685 0 0 0 0 -7.5565511184104253 -1.9181509009299544 0 -1.9181509009299544 12.550123417744516 0 0 0 0 -3.7970652013427753 -5.4070491729231041 0 -5.4070491729231041 11.638132091410146 0 0 0 0 -69.022514338898873 -19.706950841303794 0 -19.706950841303794 180.80276247784877 0 0 0 0 -34.229953267524252 -125.77137789287031 0 -125.77137789287031 299.1136805927581 0 0 0 0 -12.713983459012525 -34.671271400160492 0 -34.671271400160492 195.9746512334616 0 0 0 0 -65.378780058610573 -76.181674086747648 0 -76.181674086747648 220.19843666998531 0 0 0 0 0.22330096233054064 -29.481035443594237 0 -29.481035443594237 109.5474576971219 0 0 0 0 32.747818287782138 -118.46728379817068 0 -118.46728379817068 183.62473494910159 0 0 0 0 -84.968707602994982 16.009503099118319 0 16.009503099118319 -7.6508610031137323 0 0 0 0 41.460879853257211 -108.70979283229826 0 -108.70979283229826 132.46675083675927 0 0 0 0 24.064326275882195 -7.8689429871194534 0 -7.8689429871194534 42.703333408865547 0 0 0 0 13.60898414242547 -62.857715353388926 0 -62.857715353388926 63.240582067959622 0 0 0 0 51.12928753894812 43.631827465847437 0 43.631827465847437 -13.711447953250627 0 0 0 0 59.433565216055285 -160.8657154479414 0 -160.8657154479414 234.89272335512214 0 0 0 0 -18.453128963607014 -139.6165493626736 0 -139.6165493626736 309.92116108232517 0 0 0 0 -155.73430534043291 -13.762177880116724 0 -13.762177880116724 240.97198719149793 0 0 0 0 -73.529507959008356 -12.104953083279929 0 -12.104953083279929 -0.80908449449574382 0 0 0 0 -119.88037661311682 -16.751317504301824 0 -16.751317504301824 157.01957019773687 0 0 0 0 -54.801949097572617 -10.386148090041583 0 -10.386148090041583 -0.37280692344541955 0 0 0 0 -568.50765053654322 -296.23934177543242 0 -296.23934177543242 618.14626294177242 0 0 0 0 123.84863363064505 -33.339950669674295 0 -33.339950669674295 450.03992998116519 0 0 0 0 -2.1594960696469627 -1.6218620609561469 0 -1.6218620609561469 0.087805707912341546 0 0 0 0 -189.92459174312535 -1.4985634560771359 0 -1.4985634560771359 -7.5526995807254025 0 0 0 0 -98.191293452397531 1.9414417617068054 0 1.9414417617068054 -16.301261436372897 0 0 0 0 -197.90346330910688 -44.004060861724383 0 -44.004060861724383 -11.3325533772163 0 0 0 0 -161.4265134441448 -79.479110937528162 0 -79.479110937528162 1.8156539551869173 0 0 0 0 -235.15850157285604 -81.366203579492776 0 -81.366203579492776 5.6770098328734093 0 0 0 0 -145.51483444916084 -91.275614172547193 0 -91.275614172547193 -38.891867047219307 0 0 0 0 -219.68335794101222 116.24881434244355 0 116.24881434244355 -147.32319201486121 0 0 0 0 -697.82634209477692 127.52552193908514 0 127.52552193908514 -20.627906569030529 0 0 0 0 419.79357318736584 245.60655756354225 0 245.60655756354225 -74.746921009056678 0 0 0 0 180.13091816162341 -490.97831351067407 0 -490.97831351067407 401.31753845529511 0 0 0 0 -407.19431903382065 -768.69626217922087 0 -768.69626217922087 -1357.9875917317331 0 0 0 0 72.674762681883294 -363.26894114613606 0 -363.26894114613606 -1016.3845169192655 0 0 0 0 232.03166501703527 82.457926324936693 0 82.457926324936693 -456.37564119491435 0 0 0 0 -369.48000477390087 -487.56289500052247 0 -487.56289500052247 -432.84428211005343 0 0 0 0 -940.67517629670328 -910.52650811015246 0 -910.52650811015246 -660.12883577095363 0 0 0 0 -356.80371418218783 -546.03189776671513 0 -546.03189776671513 -435.55368728924213 0 0 0 0 -586.1074369653652 -441.03331465198426 0 -441.03331465198426 -95.772818632681378 0 0 0 0 -570.04662143543101 -372.91562511313077 0 -372.91562511313077 -105.17956477722691 0 0 0 0 -392.37640966832987 -422.08235459511206 0 -422.08235459511206 -244.0528702999656 0 0 0 0 -89.578885869806982 -278.43708259380901 0 -278.43708259380901 -304.48667270919157 0 0 0 0 -201.0007583280094 -236.99968901204602 0 -236.99968901204602 -128.89353484536514 0 0 0 0 -7.3224317303393036 -137.17014097129595 0 -137.17014097129595 -151.3286556119956 0 0 0 0 -6.2180728308740072 33.866149039574793 0 33.866149039574793 18.544416813584576 0 0 0 0 -89.64790476492999 -22.931815618263386 0 -22.931815618263386 -36.147865425288273 0 0 0 0 -132.85590094358486 -129.83444276111754 0 -129.83444276111754 -75.843997071673357 0 0 0 0 -118.42834176371252 -107.24866878072152 0 -107.24866878072152 -143.15002804721871 0 0 0 0 -158.97750415466726 -176.60616801938431 0 -176.60616801938431 -192.77967830561067 0 0 0 0 -226.56865004447172 -73.54007068112719 0 -73.54007068112719 -134.9462791909059 0 0 0 0 -191.4894234391104 -118.82562671202368 0 -118.82562671202368 -91.685283226270712 0 0 0 0 -215.73869909091445 -61.47639245727828 0 -61.47639245727828 -129.74375734405521 0 0 0 0 -276.30488996789791 7.93827268631685 0 7.93827268631685 -181.42702397278765 0 0 0 0 -146.53175961726811 -64.60014552533903 0 -64.60014552533903 -160.28193379544575 0 0 0 0 -112.31433115970867 -94.313050356657413 0 -94.313050356657413 68.179107530811962 0 0 0 0 -242.60640392205823 -31.988507644521405 0 -31.988507644521405 12.208266350727172 0 0 0 0 -84.85721055655813 50.804922269958979 0 50.804922269958979 47.23819646031825 0 0 0 0 -0.62953554474732698 2.362582330451545 0 2.362582330451545 -19.720181795017922 0 0 0 0 278.600389441679 -113.55662939431886 0 -113.55662939431886 -474.87371117526754 0 0 0 0 -405.51472227986233 -110.41824865312367 0 -110.41824865312367 -28.856881961758972 0 0 0 0 -212.49821398768836 -627.18340713460486 0 -627.18340713460486 -433.30169771140982 0 0 0 0 -477.38425405646558 -110.49214258480481 0 -110.49214258480481 -69.927488051055207 0 0 0 0 -477.89941967950654 -100.77769978904516 0 -100.77769978904516 71.452848370558513 0 0 0 0 -516.66088711627526 29.92668176110783 0 29.92668176110783 -39.695450842520131 0 0 0 0 -396.11652176910138 36.81071409509218 0 36.81071409509218 -22.200799610577633 0 0 0 0 -840.39554962223337 -17.042693580713603 0 -17.042693580713603 252.78310537200787 0 0 0 0 -1947.6221330604749 -869.37142573627307 0 -869.37142573627307 -82.097720702242441 0 0 0 0 -1221.9154481090955 -162.97575519281634 0 -162.97575519281634 -60.700218655224489 0 0 0 0 -1368.8879830163496 -661.0578295454693 0 -661.0578295454693 -421.52182352084526 0 0 0 0 -1353.4704340028693 -82.434379497811278 0 -82.434379497811278 97.491332953823985 0 0 0 0 -1426.7834463121835 -183.97624051819321 0 -183.97624051819321 26.144843428507784 0 0 0 0 -1378.9863565576088 -309.20542077101391 0 -309.20542077101391 -155.71119381397125 0 0 0 0 -806.02066008329712 353.37951712357022 0 353.37951712357022 164.14721808509512 0 0 0 0 -22.090925831601339 -4.849459381510286 0 -4.849459381510286 -0.82044106740202083 0 0 0 0 -1707.2874394831015 76.082817173931289 0 76.082817173931289 652.89076251400752 0 0 0 0 -669.87101813222398 575.81832823553327 0 575.81832823553327 408.75947494895217 0 0 0 0 -1067.9338641289505 -1036.7230906407376 0 -1036.7230906407376 -1464.923817619617 0 0 0 0 -1775.6207932708203 -5.8326383107719266 0 -5.8326383107719266 225.97795430503618 0 0 0 0 -2371.4557979491874 -14.087128881226477 0 -14.087128881226477 365.90239060034219 0 0 0 0 -2026.5303914989345 -362.99292625902399 0 -362.99292625902399 210.05253208130125 0 0 0 0 -1789.9356738236675 27.338759644316951 0 27.338759644316951 168.93357189856033 0 0 0 0 -3152.411592321354 -1077.260375714417 0 -1077.260375714417 -828.33208569334056 0 0 0 0 -2627.3122433981916 -763.00904592698316 0 -763.00904592698316 -108.78391095430743 0 0 0 0 -2500.7484143377951 -550.27029755002604 0 -550.27029755002604 -137.51009021003847 0 0 0 0 -2945.0563713627635 -805.62504480988355 0 -805.62504480988355 -141.82674917803888 0 0 0 0 -2780.1599108689697 -1296.1761286612636 0 -1296.1761286612636 -1784.5577761139866 0 0 0 0 -3995.2195932653558 83.488163851583067 0 83.488163851583067 -1250.3555858800682 0 0 0 0 -2203.3381879908848 -730.13896273208411 0 -730.13896273208411 -4.3926148222544725 0 0 0 0 -2.75709728591454 -1.2413835532590838 0 -1.2413835532590838 1.6545407449579876 0 0 0 0 -833.7713337139935 -561.6449182801565 0 -561.6449182801565 -244.05829574921972 0 0 0 0 -2032.1320969912922 -290.38142633991629 0 -290.38142633991629 354.79521941706207 0 0 0 0 -2552.4769824284012 -446.0411871334536 0 -446.0411871334536 216.40090791450666 0 0 0 0 -2218.8882057199371 -997.89273937024609 0 -997.89273937024609 -2559.7449290310469 0 0 0 0 -2189.9294986689347 -701.12756950652783 0 -701.12756950652783 -994.05543905511877 0 0 0 0 -2162.4919662374305 -1547.5072907716294 0 -1547.5072907716294 -4845.0168312160822 0 0 0 0 -3534.707973945624 1162.2222374431735 0 1162.2222374431735 -3273.9016465884633 0 0 0 0 -2611.539471619355 5.7648488904451369 0 5.7648488904451369 -1826.1374487750873 0 0 0 0 -596.70029258096474 -120.81023374604956 0 -120.81023374604956 -846.85078993105799 0 0 0 0 -929.80996788170887 192.90537348438284 0 192.90537348438284 -765.08454722270017 0 0 0 0 -854.84358049735602 -119.11685567499876 0 -119.11685567499876 268.39699499893186 0 0 0 0 -945.82536410937428 482.41217975811503 0 482.41217975811503 146.32381563905801 0 0 0 0 -1721.7391553382622 322.51349116368601 0 322.51349116368601 -631.15784708575575 0 0 0 0 -1889.9530680528696 46.530966066036399 0 46.530966066036399 -14.787061744812036 0 0 0 0 -1825.7397780198953 96.989341526665157 0 96.989341526665157 -295.79717345527934 0 0 0 0 -2593.6397435456747 -288.46287952297553 0 -288.46287952297553 -609.25630605559491 0 0 0 0 -2950.8988043589052 69.048605404982482 0 69.048605404982482 -252.09462980880289 0 0 0 0 -830.35565390373813 33.870405284558274 0 33.870405284558274 -133.69352284016367 0 0 0 0 -1619.6759468180826 -1066.5669192176792 0 -1066.5669192176792 -736.1534630141341 0 0 0 0 -1502.6049140584437 -730.58145937431368 0 -730.58145937431368 -572.0358322469383 0 0 0 0 -2594.8764614656102 -1235.9541787498893 0 -1235.9541787498893 -801.95358831210569 0 0 0 0 -3586.6231671207352 -471.11334753424671 0 -471.11334753424671 -641.26600304746898 0 0 0 0 -2327.2451121976483 -125.31133779679294 0 -125.31133779679294 -548.80994733194484 0 0 0 0 -2067.6403685747064 -898.10993634786018 0 -898.10993634786018 -334.05873918351699 0 0 0 0 -1624.9427537469601 -573.89967017507388 0 -573.89967017507388 -98.386358085116626 0 0 0 0 -902.67592639612849 -830.95515793874665 0 -830.95515793874665 -658.76298501678184 0 0 0 0 -1473.2297017278761 -227.53375779541761 0 -227.53375779541761 154.65653662139903 0 0 0 0 -785.21563637026702 -118.77344737157659 0 -118.77344737157659 107.16287991049762 0 0 0 0 -1093.6627361866558 -637.52027974507416 0 -637.52027974507416 -171.61679288384732 0 0 0 0 -1005.5866158179415 -509.42561122165961 0 -509.42561122165961 -132.71940754791092 0 0 0 0 -82.652593611885095 235.68909762945748 0 235.68909762945748 -150.12957622899739 0 0 0 0 -1.5710137916810609 4.8142845521255424 0 4.8142845521255424 -15.710944580252271 0 0 0 0 -450.11287019112206 -80.931688909776767 0 -80.931688909776767 53.524485701458616 0 0 0 0 -270.33584012251231 -42.856623544214926 0 -42.856623544214926 -42.717777676030778 0 0 0 0 -361.88364305011055 -115.43549314544725 0 -115.43549314544725 -49.381823911819538 0 0 0 0 -220.20383801734715 -56.483393136336872 0 -56.483393136336872 41.593777963110369 0 0 0 0 -262.48256188478263 19.334984626288133 0 19.334984626288133 -41.192636069486298 0 0 0 0 -421.75486999066197 -39.973056521128228 0 -39.973056521128228 51.963959771345799 0 0 0 0 -2.5074807386435083 3.7318650202287529 0 3.7318650202287529 -4.0397205863803052 0 0 0 0 -145.4360583571688 47.789087479174896 0 47.789087479174896 -0.83779431727725751 0 0 0 0 -264.14141374686733 -15.752107909515871 0 -15.752107909515871 0.42773655597170546 0 0 0 0 -259.9098990715429 -45.724838869663472 0 -45.724838869663472 -7.249777049444674 0 0 0 0 -410.39994048020162 -42.453644843972143 0 -42.453644843972143 22.223902107721187 0 0 0 0 -279.02390411241504 -18.660787666744227 0 -18.660787666744227 -3.7365954062761375 0 0 0 0 26.984884506513481 -118.22142922434068 0 -118.22142922434068 -22.150731052428 0 0 0 0 -646.04685917758616 285.21170156371045 0 285.21170156371045 88.975388230745011 0 0 0 0 -275.94728406660579 -84.088438983738683 0 -84.088438983738683 4.2758396712688409 0 0 0 0 2.3582072998128183 0.37945777196924269 0 0.37945777196924269 -3.2971977590520858 0 0 0 0 118.52534012348769 153.55015454968907 0 153.55015454968907 -7.4995797285409935 0 0 0 0 -1.8398347040179601 2.0905830304791664 0 2.0905830304791664 -0.13897368712377656 0 0 0 0 -432.94458043434133 -23.488516179405451 0 -23.488516179405451 76.214181428554184 0 0 0 0 -402.11336826355262 -162.23262067418102 0 -162.23262067418102 -7.5523735239494272 0 0 0 0 -399.66831483930582 35.416571126269446 0 35.416571126269446 -48.462175303460754 0 0 0 0 279.99746323464205 97.722495219043594 0 97.722495219043594 -27.654451142963808 0 0 0 0 -407.01552462718973 -106.51853724418879 0 -106.51853724418879 -186.42343673505275 0 0 0 0 -786.92013316293014 211.53781296593752 0 211.53781296593752 60.932265619970167 0 0 0 0 -1009.6848916852032 -9.1105890533763159 0 -9.1105890533763159 155.67546140034756 0 0 0 0 -694.70855538645992 75.645298904485571 0 75.645298904485571 384.54460193626801 0 0 0 0 0.68142179052620833 0.96201909876131708 0 0.96201909876131708 6.3534454468742325 0 0 0 0 -800.28112687691464 -109.27321364918225 0 -109.27321364918225 -0.73651768008130603 0 0 0 0 -596.19781339436304 -74.057459052582089 0 -74.057459052582089 -70.857298500086472 0 0 0 0 -422.89209234397276 -64.719909544121492 0 -64.719909544121492 -47.322835581722757 0 0 0 0 -660.91298886697041 -107.98927828132742 0 -107.98927828132742 -10.76257660998931 0 0 0 0 -562.23955491112429 -151.01060425068454 0 -151.01060425068454 -28.107907110408632 0 0 0 0 -661.29013275882971 7.6151195795640092 0 7.6151195795640092 68.802440003136326 0 0 0 0 -665.66915486297512 -36.998961640969355 0 -36.998961640969355 -44.367558659725773 0 0 0 0 -830.42776221437089 -69.942285531555171 0 -69.942285531555171 155.56981231813006 0 0 0 0 -916.16260420945036 -291.46287782249658 0 -291.46287782249658 15.005730197327011 0 0 0 0 -521.46081070420769 -198.40514918583108 0 -198.40514918583108 36.444445709843876 0 0 0 0 -497.26375453784021 -270.27073515390629 0 -270.27073515390629 -95.505259973327156 0 0 0 0 -241.19732043352997 -269.25667518321836 0 -269.25667518321836 -175.95137757751263 0 0 0 0 -478.30767887656839 -355.01211753167399 0 -355.01211753167399 -102.33435048278488 0 0 0 0 -584.68204149758822 -317.24487077981235 0 -317.24487077981235 -73.462754459187636 0 0 0 0 -324.42522411777463 -81.05824251523245 0 -81.05824251523245 -114.63906691924331 0 0 0 0 -314.93448215539684 -56.546017783501156 0 -56.546017783501156 -62.324081465636482 0 0 0 0 -302.3144939329577 -170.79056620143433 0 -170.79056620143433 -139.0963172903887 0 0 0 0 -302.58333332849725 -168.26683584057491 0 -168.26683584057491 -135.53258852364615 0 0 0 0 -471.41617440117989 -187.73824181367127 0 -187.73824181367127 -52.630837013619839 0 0 0 0 -404.39541950704734 -188.28070871888895 0 -188.28070871888895 -55.997337126714228 0 0 0 0 -413.34940357549203 -43.367936725465825 0 -43.367936725465825 -82.297144763016149 0 0 0 0 -254.61791322659701 -108.38838034169476 0 -108.38838034169476 -95.366060331976769 0 0 0 0 -180.6894395348063 -78.548966141146593 0 -78.548966141146593 -150.76876791671521 0 0 0 0 -933.46515622712468 -346.53487964421129 0 -346.53487964421129 5.6495067840933189 0 0 0 0 -485.11605184906966 -260.05729756433209 0 -260.05729756433209 -320.17422213156169 0 0 0 0 -466.75159143693327 -124.67048057005456 0 -124.67048057005456 6.7622853411721735 0 0 0 0 -444.43031519847864 -296.19938302384344 0 -296.19938302384344 -99.323791399119727 0 0 0 0 -275.17283475471777 -327.79355424061487 0 -327.79355424061487 -73.782721311287645 0 0 0 0 -737.41998376043921 -67.205640601899177 0 -67.205640601899177 -85.072824254796615 0 0 0 0 -645.62743722063169 -456.68618329462788 0 -456.68618329462788 52.696983171675129 0 0 0 0 -1.0059031326925094 -4.1598747850575677 0 -4.1598747850575677 -4.1056544345935109 0 0 0 0 186.96289068972692 -705.0962145433441 0 -705.0962145433441 117.20167008463773 0 0 0 0 -945.71383547337609 235.05568191212296 0 235.05568191212296 -63.045279124671652 0 0 0 0 -527.23093638435239 -152.0095104570255 0 -152.0095104570255 -91.452650981762417 0 0 0 0 -488.7099499327087 8.2749927773265881 0 8.2749927773265881 113.22584520842611 0 0 0 0 -168.50237984076375 24.475535761426727 0 24.475535761426727 -31.521740447099546 0 0 0 0 -202.66435203338187 -51.480911898458544 0 -51.480911898458544 22.064747130684736 0 0 0 0 -640.06548451512208 -133.53202246203546 0 -133.53202246203546 85.81953575559055 0 0 0 0 -602.2498084242543 -192.41165951283801 0 -192.41165951283801 75.941714131406798 0 0 0 0 -494.02338937071909 -135.21010530517378 0 -135.21010530517378 -104.21884919474542 0 0 0 0 -386.33949882516026 -267.25298911572008 0 -267.25298911572008 -19.601199888829797 0 0 0 0 -663.89899111588602 -54.946843500698378 0 -54.946843500698378 -133.50587692309455 0 0 0 0 -448.47586035067798 -573.0927193329353 0 -573.0927193329353 -323.88505800872008 0 0 0 0 -276.95141934986168 -259.06788433487418 0 -259.06788433487418 47.383380966472032 0 0 0 0 -98.182922618569805 -40.504753511313936 0 -40.504753511313936 -5.8012994193451917 0 0 0 0 -114.97597180188936 3.0884421405962339 0 3.0884421405962339 9.4620550178402389 0 0 0 0 -607.23750302854933 -240.26717595829496 0 -240.26717595829496 -167.52624842756632 0 0 0 0 -24.465987950170984 -639.6681526182299 0 -639.6681526182299 372.62646421359932 0 0 0 0 -11.799146386704109 4.6320343632479108 0 4.6320343632479108 1.9808437604006244 0 0 0 0 -15.823427388599328 -19.219375632584573 0 -19.219375632584573 6.3776368246113471 0 0 0 0 81.762873162856522 200.78567123428979 0 200.78567123428979 1049.6492088725354 0 0 0 0 -419.3030394603702 -372.34152282716059 0 -372.34152282716059 478.91836242998033 0 0 0 0 -397.43216357802157 -149.10235014025602 0 -149.10235014025602 205.34075607190971 0 0 0 0 -530.54015611176146 -94.885716659364334 0 -94.885716659364334 229.2155384699945 0 0 0 0 -299.71745362482761 -5.4255460361928272 0 -5.4255460361928272 12.387309151386944 0 0 0 0 -108.05862123430722 10.932784271976312 0 10.932784271976312 9.4891178881216476 0 0 0 0 -212.76380895707553 281.47071054531716 0 281.47071054531716 -143.55349296362692 0 0 0 0 -1067.7064827092399 271.32385860016075 0 271.32385860016075 -121.43893553388079 0 0 0 0 -369.82563873470644 -210.25835710575666 0 -210.25835710575666 -206.82711205145733 0 0 0 0 -789.78662713504673 -258.78606348582525 0 -258.78606348582525 -109.30873937193428 0 0 0 0 -110.38304807361055 60.388738998519329 0 60.388738998519329 1.033404947611416 0 0 0 0 -366.7620878909147 -260.79345749780532 0 -260.79345749780532 -187.31007004477806 0 0 0 0 -49.240354597624787 18.511447689975427 0 18.511447689975427 -1.832908249987959 0 0 0 0 -26.739505536177603 -43.700272175416103 0 -43.700272175416103 -6.163052614647313 0 0 0 0 -294.78807802269222 -360.79938729826944 0 -360.79938729826944 -323.26842298377233 0 0 0 0 -528.29081700116512 -420.30887716026518 0 -420.30887716026518 -337.31170197112988 0 0 0 0 -550.35198197117279 -306.9181294242253 0 -306.9181294242253 -196.55759824719462 0 0 0 0 -627.63128128859898 -400.26266754474318 0 -400.26266754474318 -229.78518882591925 0 0 0 0 -31.510025857813666 -16.825998134188296 0 -16.825998134188296 -4.7714691391245481 0 0 0 0 -100.22919675899902 -17.00948673484163 0 -17.00948673484163 3.7935681175977152 0 0 0 0 -50.738324787722064 -0.72557192276888571 0 -0.72557192276888571 10.326435588385372 0 0 0 0 -77.516717795297154 -23.457976695252 0 -23.457976695252 14.082697385114443 0 0 0 0 -76.845742149856562 -22.48934111084273 0 -22.48934111084273 0.95036272400585275 0 0 0 0 -89.769044017812121 -17.296636574895274 0 -17.296636574895274 69.106062408538492 0 0 0 0 -30.087051794413128 -11.46689963816425 0 -11.46689963816425 8.4605989854326253 0 0 0 0 -16.845493417836558 -28.583676375435907 0 -28.583676375435907 14.637871077096406 0 0 0 0 -148.73901537044731 -46.699547267397065 0 -46.699547267397065 100.94292299364497 0 0 0 0 -233.91894232286722 37.294537465817484 0 37.294537465817484 13.939686136461205 0 0 0 0 10.984570045693545 0.22952887117207865 0 0.22952887117207865 19.530586390679218 0 0 0 0 -113.12663992297894 -79.921586868171289 0 -79.921586868171289 -5.5631076473036956 0 0 0 0 -107.04624935738684 63.893373031660303 0 63.893373031660303 66.416626824848208 0 0 0 0 -55.372910483580199 53.120072194914428 0 53.120072194914428 -48.305997585997829 0 0 0 0 -128.4942773668372 -4.5368808468128918 0 -4.5368808468128918 -35.472591813898589 0 0 0 0 -30.267298559976339 0.57340973746481438 0 0.57340973746481438 7.9452689707393773 0 0 0 0 -170.33850281620835 49.84825784727127 0 49.84825784727127 5.987208846953763 0 0 0 0 -26.944444130883483 11.906458385498269 0 11.906458385498269 6.6824774005618686 0 0 0 0 -82.105208129694802 -3.0929532609661692 0 -3.0929532609661692 -74.556211855943729 0 0 0 0 -221.0661419328826 42.582348598449244 0 42.582348598449244 6.4979281425206636 0 0 0 0 -98.413580979618871 40.204742035831984 0 40.204742035831984 2.8423769230989926 0 0 0 0 -158.99605545141094 63.384107656330571 0 63.384107656330571 8.411498217148619 0 0 0 0 -134.70528580321115 1.9579839295183774 0 1.9579839295183774 10.313951199790608 0 0 0 0 -226.09326650717412 30.352259861074344 0 30.352259861074344 1.9670156318679801 0 0 0 0 -53.102734634943772 24.08068219968186 0 24.08068219968186 -6.0261225495323743 0 0 0 0 -81.318084521923652 30.789892122646265 0 30.789892122646265 8.2451243901627222 0 0 0 0 -61.181400580924674 -97.385359116408608 0 -97.385359116408608 -8.700834249768377 0 0 0 0 -137.77310694087646 89.629226725489389 0 89.629226725489389 30.371850109821025 0 0 0 0 -205.7429682936563 14.120883787715229 0 14.120883787715229 -68.245022801136656 0 0 0 0 -30.184036145335881 4.2756049499444089 0 4.2756049499444089 0.94003402194930175 0 0 0 0 -203.5970549031772 168.12716489496688 0 168.12716489496688 26.861653365915117 0 0 0 0 -301.76308571739355 99.072032022344501 0 99.072032022344501 -132.6837317721529 0 0 0 0 -234.76432459196076 -42.1461879856206 0 -42.1461879856206 -40.072839961187128 0 0 0 0 -221.58693411143395 -10.229849503503374 0 -10.229849503503374 -40.721206888316374 0 0 0 0 -939.86557072885626 -437.00580089770756 0 -437.00580089770756 391.24295005959721 0 0 0 0 -18.495618128042963 -5.2637735414758993 0 -5.2637735414758993 12.302255294423638 0 0 0 0 -601.9139205096435 -309.69998242104884 0 -309.69998242104884 -215.57024070429634 0 0 0 0 -18.077086479259322 -0.48816981498477219 0 -0.48816981498477219 0.76436253717093194 0 0 0 0 -587.55621189759404 -508.92693943714403 0 -508.92693943714403 448.81342082555238 0 0 0 0 -552.29564000264509 -102.79842444022233 0 -102.79842444022233 639.34823589903317 0 0 0 0 -110.02520219975534 0.095740320621015229 0 0.095740320621015229 8.5417890848874265 0 0 0 0 -161.69855037940351 87.170019682950738 0 87.170019682950738 13.310602526215007 0 0 0 0 -1126.7801646878943 73.360553443126264 0 73.360553443126264 161.46346465992974 0 0 0 0 -618.24282586332993 -356.40869152162668 0 -356.40869152162668 -324.01755932255037 0 0 0 0 -11.302383511633423 -11.058573343529794 0 -11.058573343529794 6.7108106931082929 0 0 0 0 -1811.268036227033 -2602.5288530355901 0 -2602.5288530355901 -2024.9911266074996 0 0 0 0 -91.374715092222971 -51.647875779493617 0 -51.647875779493617 7.1460053808954314 0 0 0 0 -165.04574956497527 -45.872316131377374 0 -45.872316131377374 40.260810550316819 0 0 0 0 -231.43706753259175 -17.340374569233973 0 -17.340374569233973 28.009131675440585 0 0 0 0 106.3969846079126 752.97149035633993 0 752.97149035633993 170.76156099804211 0 0 0 0 -29.613586862844386 8.9171416416847933 0 8.9171416416847933 -7.9303848328490858 0 0 0 0 -1113.9513230921366 -264.07757253062846 0 -264.07757253062846 -76.83228353944105 0 0 0 0 -29.364717445518181 7.5255963901727227 0 7.5255963901727227 -3.9207295125124801 0 0 0 0 -30.714817270447384 6.7214734802710154 0 6.7214734802710154 -10.979889803928017 0 0 0 0 -12.94301386690961 9.902302920280377 0 9.902302920280377 -4.7496240329478923 0 0 0 0 -42.511425999968196 2.1208481085104722 0 2.1208481085104722 -5.7993266454541299 0 0 0 0 -36.575347082900407 3.61038400293819 0 3.61038400293819 -10.613849799406125 0 0 0 0 -24.099777023004378 -3.8797684828325103 0 -3.8797684828325103 -0.33533656205457163 0 0 0 0 -11.36690856091875 1.8649994976614011 0 1.8649994976614011 -0.25272003575663149 0 0 0 0 -48.678003639171948 3.2579209189716494 0 3.2579209189716494 -8.6939889982404566 0 0 0 0 -12.437449624135153 -0.2473146861566704 0 -0.2473146861566704 -4.1131434433247449 0 0 0 0 -17.661784677574516 2.3474010796637756 0 2.3474010796637756 0.54832617136226247 0 0 0 0 -31.987257123886138 -0.82623223742308483 0 -0.82623223742308483 -1.8322099800370779 0 0 0 0 -35.069198440782202 2.4369899284956773 0 2.4369899284956773 -2.0098691236100592 0 0 0 0 -20.556342727417359 0.89020872847322607 0 0.89020872847322607 -5.4279984254717419 0 0 0 0 -8.0390235105077892 -0.6504336962977959 0 -0.6504336962977959 -3.2961474135400657 0 0 0 0 -589.28964246824034 -335.81259415305021 0 -335.81259415305021 46.001742056374496 0 0 0 0 -8.0788591977598543 3.6430272356108304 0 3.6430272356108304 -0.56905143209862885 0 0 0 0 -25.4379974471005 2.9105988599665622 0 2.9105988599665622 3.7849973597498696 0 0 0 0 -2.6777434777252722 1.1921033006862345 0 1.1921033006862345 -4.2698362996942123 0 0 0 0 -503.76673075888539 -335.79578079743806 0 -335.79578079743806 -236.93991621280202 0 0 0 0 -661.61341339419596 -695.34151998320476 0 -695.34151998320476 -548.43177131001221 0 0 0 0 -461.21492205885443 -184.34200602483997 0 -184.34200602483997 338.76472061976528 0 0 0 0 -384.8924753936808 -135.4794465381965 0 -135.4794465381965 -501.63971615016453 0 0 0 0 -1026.4805496096233 30.607821729377974 0 30.607821729377974 147.2699840604937 0 0 0 0 -24.65727908939192 17.332538827483141 0 17.332538827483141 -0.12471983591814961 0 0 0 0 441.74318197621324 420.50937498771555 0 420.50937498771555 100.8971998772995 0 0 0 0 -656.20499433698205 -31.663529347641088 0 -31.663529347641088 453.97580761873542 0 0 0 0 -1019.9504176613627 -482.43959108935451 0 -482.43959108935451 171.24435845210792 0 0 0 0 -423.4971097471971 -90.542620400429769 0 -90.542620400429769 -255.42002616277023 0 0 0 0 -1319.4946273848909 -622.3249339787053 0 -622.3249339787053 -18.507260028530254 0 0 0 0 -13.535867732596671 5.108795528992232 0 5.108795528992232 2.7840064140582399 0 0 0 0 -10.647270162894173 2.0915419512416165 0 2.0915419512416165 4.156598602337958 0 0 0 0 -1238.1658786028602 -777.32312128577814 0 -777.32312128577814 -368.71367923919024 0 0 0 0 -1324.611210275245 -894.08138722596323 0 -894.08138722596323 -233.69854823901869 0 0 0 0 -735.22318005440866 62.489517585888279 0 62.489517585888279 48.575777727794048 0 0 0 0 -16.418171257531938 -3.3752310939746195 0 -3.3752310939746195 6.0157153682059814 0 0 0 0 -22.31847509293948 -2.1046301874371238 0 -2.1046301874371238 28.61429812582719 0 0 0 0 -12.58738579772691 11.188792909154706 0 11.188792909154706 -3.9773069303448949 0 0 0 0 -22.656129515919019 -9.2819597516181602 0 -9.2819597516181602 6.0618595428452409 0 0 0 0 -20.096255583492166 -5.1214472606061463 0 -5.1214472606061463 -5.9110312776792853 0 0 0 0 -36.919784791200073 3.5768880204814195 0 3.5768880204814195 0.48574605911744584 0 0 0 0 -34.33218602145098 1.4510374821941241 0 1.4510374821941241 -3.4504574820530252 0 0 0 0 -26.108585630827292 3.7721134237453953 0 3.7721134237453953 -7.0971529018424917 0 0 0 0 -24.933678929977759 -3.032534509213292 0 -3.032534509213292 0.54461322521456168 0 0 0 0 -42.731748842343222 0.022344775647070492 0 0.022344775647070492 -12.980470325182978 0 0 0 0 -63.897937618690776 -1.1246530117041402 0 -1.1246530117041402 -3.8701635558172711 0 0 0 0 -34.879865675215115 5.1539439511027467 0 5.1539439511027467 -7.0539721552777337 0 0 0 0 -42.370801615528762 -2.3700902916552877 0 -2.3700902916552877 -4.4902757533945987 0 0 0 0 -43.789579874464835 2.3404907734256994 0 2.3404907734256994 -4.7539544733754155 0 0 0 0 -40.525277128892412 10.508765370348556 0 10.508765370348556 2.9135950193413009 0 0 0 0 -65.649299270306074 6.1303203700190352 0 6.1303203700190352 1.1541105710566626 0 0 0 0 -44.88988385751145 1.5675543113702588 0 1.5675543113702588 -8.5035388219566812 0 0 0 0 -217.76019103774888 11.163599886216616 0 11.163599886216616 22.905357635128894 0 0 0 0 -232.4507827617781 -8.4627443719309667 0 -8.4627443719309667 118.44431043873374 0 0 0 0 -160.60563367475697 -60.143983363283951 0 -60.143983363283951 72.224695672648522 0 0 0 0 -98.984047036141931 -25.615609895841857 0 -25.615609895841857 1.0043911915006554 0 0 0 0 -204.0525723643841 -14.625757313153372 0 -14.625757313153372 24.867027145515749 0 0 0 0 -212.15762330285725 -15.879916616990158 0 -15.879916616990158 53.185253171346631 0 0 0 0 -23.849324049601524 16.818964951812092 0 16.818964951812092 2.2271002668625499 0 0 0 0 -71.73242017121629 -1.6152260937801657 0 -1.6152260937801657 0.7107564460075082 0 0 0 0 -63.925960602308237 0.42721619128195698 0 0.42721619128195698 -7.6865892430214444 0 0 0 0 -530.13297328574117 -228.63750028125287 0 -228.63750028125287 217.11440942748868 0 0 0 0 -476.46585956671333 -186.41082415227356 0 -186.41082415227356 13.561081509433279 0 0 0 0 -676.74242950137705 -157.03116773194415 0 -157.03116773194415 175.36895997182 0 0 0 0 -596.09769186731864 -149.18190680957377 0 -149.18190680957377 252.49169525175967 0 0 0 0 -676.84647975309053 -58.864684188520187 0 -58.864684188520187 164.81526804094756 0 0 0 0 -774.72977398945659 -217.40479249545024 0 -217.40479249545024 253.98371976966791 0 0 0 0 -475.53203569319157 -215.76444584628553 0 -215.76444584628553 250.77447914093045 0 0 0 0 -26.817275417281824 4.5036878544018109 0 4.5036878544018109 0.067261819927011857 0 0 0 0 -561.15141849844076 -13.3557589948432 0 -13.3557589948432 -52.131646604681009 0 0 0 0 -1111.0132295321528 -36.390397990116981 0 -36.390397990116981 251.59134968156286 0 0 0 0 -782.16518773019925 61.663366560224858 0 61.663366560224858 34.05865375456051 0 0 0 0 13.947340272551628 -176.25057045593212 0 -176.25057045593212 137.24262806674233 0 0 0 0 -359.72063251751388 -111.02002279739463 0 -111.02002279739463 251.2325535566888 0 0 0 0 -234.18523094284319 4.4508332391660588 0 4.4508332391660588 95.565056830404501 0 0 0 0 -272.83375659234753 2.0517021039187284 0 2.0517021039187284 39.577589128959517 0 0 0 0 -185.61076003732887 -95.520569574782712 0 -95.520569574782712 104.909549714268 0 0 0 0 -102.56446226205172 -22.484654463192172 0 -22.484654463192172 3.2592805204307567 0 0 0 0 -290.27589814369276 1.519630114091342 0 1.519630114091342 85.418784751314888 0 0 0 0 -388.84617256658021 -142.3235352520378 0 -142.3235352520378 -73.859021162668796 0 0 0 0 -351.41117223845504 -86.993582801223965 0 -86.993582801223965 -27.363865313745009 0 0 0 0 -8.4581212314863397 53.715216018689816 0 53.715216018689816 -0.61903125884533949 0 0 0 0 -270.98292037121428 -24.554391212534028 0 -24.554391212534028 69.694989790899854 0 0 0 0 -95.33618195285959 -38.654458482908353 0 -38.654458482908353 -5.4982463436418669 0 0 0 0 -139.50222479082004 -102.35573071148247 0 -102.35573071148247 -29.038784829434007 0 0 0 0 -609.90806288244494 145.189968975792 0 145.189968975792 -7.3327018031195621 0 0 0 0 -17.918609220781065 8.5768117127085617 0 8.5768117127085617 3.2783434545339674 0 0 0 0 -335.19476335563377 -136.06620027083409 0 -136.06620027083409 5.8691314082607278 0 0 0 0 -343.56534789867874 -166.2310356910757 0 -166.2310356910757 -100.52828252792096 0 0 0 0 -543.23553511128557 -112.59680687769924 0 -112.59680687769924 -45.722648323198882 0 0 0 0 -578.01446097312146 -61.08360088334075 0 -61.08360088334075 -5.2053394723770907 0 0 0 0 -19.542506617907087 -0.10431044919101851 0 -0.10431044919101851 -4.676027493611727 0 0 0 0 -510.06554549728753 38.436672520013417 0 38.436672520013417 13.696454455399362 0 0 0 0 -267.70032844584784 -53.240176202811199 0 -53.240176202811199 -184.72218287371015 0 0 0 0 -283.75645526350127 -72.003673932368656 0 -72.003673932368656 -73.322043778331135 0 0 0 0 -183.56470075085235 -130.35977495253019 0 -130.35977495253019 124.65626964965213 0 0 0 0 97.804312848937116 -109.37061886981223 0 -109.37061886981223 -74.227126848865737 0 0 0 0 -76.142394539579982 -7.242405273490931 0 -7.242405273490931 -0.90905472585245661 0 0 0 0 -52.465283523019934 -8.8867238622308378 0 -8.8867238622308378 -6.1038155506576004 0 0 0 0 -42.358986410865526 -10.320186751313585 0 -10.320186751313585 -2.672230256498775 0 0 0 0 -163.33116248078295 -134.98831889639587 0 -134.98831889639587 73.823891873180401 0 0 0 0 -16.369045466755978 -9.9257862870807969 0 -9.9257862870807969 1.0607617520615378 0 0 0 0 -23.44966124027269 -76.095688782567777 0 -76.095688782567777 -64.986804944096548 0 0 0 0 -258.76247856939153 -21.170638460551345 0 -21.170638460551345 -71.739290742493722 0 0 0 0 -145.8223189671844 -168.46867467726042 0 -168.46867467726042 5.4148134198148909 0 0 0 0 -233.7151995466993 43.616365424282776 0 43.616365424282776 107.47242819936037 0 0 0 0 -51.083427092948114 -4.9915513466630728 0 -4.9915513466630728 -5.773381303492954 0 0 0 0 -58.913584480675581 -11.248542936474621 0 -11.248542936474621 -5.4090033889588085 0 0 0 0 -42.44611780125706 -8.6138863102623873 0 -8.6138863102623873 -8.816388106726663 0 0 0 0 -25.043343504513103 7.4314944872348363 0 7.4314944872348363 2.5826943989698687 0 0 0 0 -42.432001818282515 -2.0668152878110959 0 -2.0668152878110959 -9.341885948961135 0 0 0 0 -62.022655252472759 -16.72630742862998 0 -16.72630742862998 -7.0604253644050914 0 0 0 0 65.452471748751123 72.697914168681564 0 72.697914168681564 -219.73647019042437 0 0 0 0 5.5151153190517164 -5.9860845146183834 0 -5.9860845146183834 -7.9853445872823556 0 0 0 0 -23.320335716103727 -51.816392499360063 0 -51.816392499360063 146.99303954902643 0 0 0 0 -0.61778826417307897 1.6343536397043295 0 1.6343536397043295 0.3411512527545284 0 0 0 0 -39.24314832649543 -14.725009020011839 0 -14.725009020011839 -17.182880690218099 0 0 0 0 -47.103039600107877 -14.318832547590546 0 -14.318832547590546 -13.255792706420948 0 0 0 0 0.038221866042206898 -3.238205666156972 0 -3.238205666156972 -13.22509322031549 0 0 0 0 -21.229259734168153 5.8604040766697949 0 5.8604040766697949 2.4386021759615115 0 0 0 0 16.373164002972771 46.333398848113575 0 46.333398848113575 -73.128891745270266 0 0 0 0 -50.751613938617083 36.05684310491614 0 36.05684310491614 -107.48086553190842 0 0 0 0 -33.860102444441509 -51.403156011042768 0 -51.403156011042768 -3.012265836624465 0 0 0 0 -46.334679141858942 -5.2927420988335143 0 -5.2927420988335143 -11.255838827470598 0 0 0 0 349.2835943268874 -134.51133181829346 0 -134.51133181829346 -168.13528203422084 0 0 0 0 0.82478082899252669 0.90697136751893481 0 0.90697136751893481 -1.8820346977957314 0 0 0 0 -989.73812706999888 -161.08625144157668 0 -161.08625144157668 73.455090854546143 0 0 0 0 -181.82239703727828 -102.85760027363904 0 -102.85760027363904 -231.25612652535528 0 0 0 0 -525.77923101259512 53.044649616233983 0 53.044649616233983 -68.899214030777785 0 0 0 0 -523.22392519790446 -49.627908328114245 0 -49.627908328114245 10.957685885590763 0 0 0 0 -463.81652541198127 -384.73393607995149 0 -384.73393607995149 -122.68989136281198 0 0 0 0 -179.02101046359167 35.336101642965332 0 35.336101642965332 -11.230042946623598 0 0 0 0 -301.85687913641596 -136.53033800595131 0 -136.53033800595131 -38.059313214718713 0 0 0 0 -181.91713279884425 -207.6340924725173 0 -207.6340924725173 -63.237137805839666 0 0 0 0 -153.48450146441974 -185.73702400573552 0 -185.73702400573552 -95.162260751741997 0 0 0 0 -218.64974132373754 -191.52373180011728 0 -191.52373180011728 -68.51253019226715 0 0 0 0 -178.51721700801863 -165.58340601355849 0 -165.58340601355849 -110.93085592470914 0 0 0 0 -253.82247574718895 -98.168384798813804 0 -98.168384798813804 -52.93132172247897 0 0 0 0 -243.71717078890651 -102.60975913145876 0 -102.60975913145876 -56.700854209862882 0 0 0 0 -226.00268313543347 -100.21786595957474 0 -100.21786595957474 -114.14340182944363 0 0 0 0 -225.00857112565427 -125.34536110712361 0 -125.34536110712361 -28.148168548428657 0 0 0 0 -153.26499094869359 -96.001652373921388 0 -96.001652373921388 -59.284382268640911 0 0 0 0 4.9760857630390092 -5.01624604586641 0 -5.01624604586641 16.978304906246194 0 0 0 0 -38.965058103800402 -7.4634990675826884 0 -7.4634990675826884 -73.295651152301616 0 0 0 0 -3.4924488607935587 3.8212789066704858 0 3.8212789066704858 2.1963861798066233 0 0 0 0 0.27977736680114162 0.87494075243648695 0 0.87494075243648695 -4.5783584457596014 0 0 0 0 -70.664832243375713 -76.000031138430131 0 -76.000031138430131 -31.088238254595126 0 0 0 0 -108.22732428942618 -56.835089305942347 0 -56.835089305942347 -7.6654403294887743 0 0 0 0 -149.90627988414781 -81.414693015353805 0 -81.414693015353805 -22.994509968686543 0 0 0 0 -157.84528163081268 -95.268692473977353 0 -95.268692473977353 -4.3910208869156122 0 0 0 0 -100.1738872762362 -87.343872652727441 0 -87.343872652727441 -42.346756839939189 0 0 0 0 -53.642711176085868 17.412096844224152 0 17.412096844224152 19.372410068870977 0 0 0 0 -14.692825489682861 0.24963974597123695 0 0.24963974597123695 -13.220573860789967 0 0 0 0 3.7303581181040499 41.82535595955278 0 41.82535595955278 57.870550670584635 0 0 0 0 -12.26305201483774 9.1112168133495288 0 9.1112168133495288 2.6144808941517113 0 0 0 0 -18.498454251405626 4.2734363880398831 0 4.2734363880398831 -3.6493222735872717 0 0 0 0 -11.436618089848793 5.5100807808748868 0 5.5100807808748868 -0.6399874702904178 0 0 0 0 43.076234621694311 21.371805558677238 0 21.371805558677238 -65.592450708043515 0 0 0 0 -44.27284748837701 19.460458097988607 0 19.460458097988607 -4.7589509677595743 0 0 0 0 -7.4843310891404542 18.519898854409931 0 18.519898854409931 -6.9730557694423521 0 0 0 0 19.423012316408858 13.614580122486018 0 13.614580122486018 -30.682861851959842 0 0 0 0 -5.2357217178177677 12.3782604318775 0 12.3782604318775 -17.426620870449749 0 0 0 0 -2.1393466956651537 -4.3686611865640543 0 -4.3686611865640543 -0.62612609327163682 0 0 0 0 -147.09324262049631 -21.177747450568518 0 -21.177747450568518 -14.419361187761751 0 0 0 0 -4.3981858381937116 1.1827807712338085 0 1.1827807712338085 0.018171135830256979 0 0 0 0 -363.76718290234203 -72.928811867835975 0 -72.928811867835975 -60.797292917915456 0 0 0 0 -253.19261057741096 -127.92692147007284 0 -127.92692147007284 -59.91045144513464 0 0 0 0 -118.10699764864694 -79.102603929940642 0 -79.102603929940642 -84.722314846635527 0 0 0 0 -7.2982698229772467 -0.20347523491530239 0 -0.20347523491530239 -10.262023489470426 0 0 0 0 -18.068852724667522 -18.647409987882611 0 -18.647409987882611 -49.234768500161408 0 0 0 0 -100.63735307261231 1.3821019946598199 0 1.3821019946598199 -4.9022898786106452 0 0 0 0 -0.51580452942930322 1.8524055683909211 0 1.8524055683909211 -2.579849035788274 0 0 0 0 -124.37440530624008 5.3429067803181169 0 5.3429067803181169 4.0993677034207394 0 0 0 0 -60.692246573496959 24.234422122364776 0 24.234422122364776 -21.015022154158942 0 0 0 0 -116.93316056493131 -19.891491201839983 0 -19.891491201839983 0.89910908458114136 0 0 0 0 -32.108447187987622 -39.018910271730874 0 -39.018910271730874 -4.4190232700191245 0 0 0 0 -6.1385058368301415 3.8486655021487763 0 3.8486655021487763 2.0776706882016365 0 0 0 0 -20.050389099371387 -22.70590664383144 0 -22.70590664383144 -12.568813856040151 0 0 0 0 17.184378071811807 -30.75399109119121 0 -30.75399109119121 -20.613256591644131 0 0 0 0 -69.314799730287632 -15.13936919204491 0 -15.13936919204491 -8.2512059211584301 0 0 0 0 -70.466158457595157 -25.479357262637905 0 -25.479357262637905 2.3021080727428398 0 0 0 0 -60.333143848256441 0.48482880568542441 0 0.48482880568542441 -2.9989015799324079 0 0 0 0 -55.12874136325263 -12.638905626778296 0 -12.638905626778296 -14.320649713607253 0 0 0 0 -36.887500073109493 -7.0223342431206035 0 -7.0223342431206035 -2.4258317043390019 0 0 0 0 -54.247188930057746 -5.7600042550986927 0 -5.7600042550986927 -3.1401922855021667 0 0 0 0 -25.760861469010706 -5.6808888657931504 0 -5.6808888657931504 -1.0253696494124824 0 0 0 0 -18.517481336908531 -11.564006037281843 0 -11.564006037281843 0.70571435221296497 0 0 0 0 -51.869721014256356 -3.7444164973339866 0 -3.7444164973339866 -4.470783840002639 0 0 0 0 -22.54912509549267 4.5017409224890059 0 4.5017409224890059 1.7155658480985558 0 0 0 0 -11.858770634143909 -8.8239338934578342 0 -8.8239338934578342 -5.8715908069291913 0 0 0 0 -16.154724431842624 -21.423940593628629 0 -21.423940593628629 -18.60529990705777 0 0 0 0 -11.336983585843988 -12.042535326720582 0 -12.042535326720582 -7.5168454221589114 0 0 0 0 -10.922768308006695 -9.8620875732197959 0 -9.8620875732197959 -3.2516322341168244 0 0 0 0 -44.429352042388928 -2.3660383728184797 0 -2.3660383728184797 2.3828728234261689 0 0 0 0 229.57118854993314 -334.57354642284633 0 -334.57354642284633 -36.037353560697511 0 0 0 0 -204.94337283512141 131.65785516801213 0 131.65785516801213 44.633937752235624 0 0 0 0 -739.65929277220857 -569.23215601020183 0 -569.23215601020183 701.29379773641267 0 0 0 0 -590.39712752668129 -57.145688132324722 0 -57.145688132324722 41.879233975156239 0 0 0 0 -647.69373370501853 253.89784482776531 0 253.89784482776531 85.69261081077002 0 0 0 0 -502.60624760750216 240.47252306583687 0 240.47252306583687 6.314413293481266 0 0 0 0 -574.5855020355084 194.25283501409922 0 194.25283501409922 50.942212047966677 0 0 0 0 -631.07072813887498 -48.40593062424432 0 -48.40593062424432 226.29925897609428 0 0 0 0 -868.32795668655308 123.80465545095285 0 123.80465545095285 130.75659166025116 0 0 0 0 -846.6318943802471 153.65230301153497 0 153.65230301153497 170.39666172797661 0 0 0 0 -1229.4725639474054 387.45215124803326 0 387.45215124803326 -45.467556673454965 0 0 0 0 -1198.2834092166031 -87.944391914077642 0 -87.944391914077642 381.00843407968932 0 0 0 0 -1228.8840735243284 301.73548514500362 0 301.73548514500362 134.19867920416391 0 0 0 0 -1109.0361092794337 552.17181985394473 0 552.17181985394473 -149.41920327551634 0 0 0 0 -941.33505604428501 594.71776595206893 0 594.71776595206893 -264.68895179938409 0 0 0 0 -981.18004993814975 397.11351041044145 0 397.11351041044145 28.974165647967311 0 0 0 0 -920.30279454233823 371.52085558094404 0 371.52085558094404 -30.602873112522502 0 0 0 0 -832.80004609160824 239.91455156717711 0 239.91455156717711 131.80455865971817 0 0 0 0 -435.17102100694683 347.841744918448 0 347.841744918448 -169.8042598261236 0 0 0 0 -722.24208480943344 381.12744397683218 0 381.12744397683218 -107.92694501966616 0 0 0 0 -739.65598929481348 384.2588879004943 0 384.2588879004943 -47.060317094455968 0 0 0 0 -446.95212354429532 385.97186567351309 0 385.97186567351309 -273.85305669004083 0 0 0 0 -798.8963545980514 421.13480907781923 0 421.13480907781923 -65.354941597941433 0 0 0 0 -662.70458087600127 596.292800948474 0 596.292800948474 -455.83086610956525 0 0 0 0 -836.1130809300812 738.41163367981972 0 738.41163367981972 -407.99805334763005 0 0 0 0 -858.23829566146014 623.06527917879794 0 623.06527917879794 -269.36446091929975 0 0 0 0 -446.95212354429532 385.97186567360404 0 385.97186567360404 -273.8530566899899 0 0 0 0 -446.9521235441789 385.97186567355675 0 385.97186567355675 -273.85305669005902 0 0 0 0 -40.189561032173515 -12.770953677972784 0 -12.770953677972784 45.913194238653887 0 0 0 0 -33.766004262778395 0.53635089070724007 0 0.53635089070724007 33.10065650057259 0 0 0 0 -891.74371317902114 687.69254423277016 0 687.69254423277016 -454.03990102589887 0 0 0 0 -1187.3006746967731 1813.4430584446791 0 1813.4430584446791 -1655.0056378969603 0 0 0 0 -9.2812328435457374 2.3307617486221659 0 2.3307617486221659 6.7073476865407962 0 0 0 0 -1151.5691342067439 836.11424337365315 0 836.11424337365315 -445.59784473512264 0 0 0 0 -863.37381150061265 656.6102377305906 0 656.6102377305906 -633.37683260543781 0 0 0 0 -1057.3112146044732 822.77464416881776 0 822.77464416881776 -458.30474945195601 0 0 0 0 -1552.3106300681247 836.16369979809315 0 836.16369979809315 -283.70410948210338 0 0 0 0 -1227.0708883830812 603.06873054137395 0 603.06873054137395 -120.05779903083021 0 0 0 0 -2120.9679482043721 425.30937660815835 0 425.30937660815835 22.169827161431385 0 0 0 0 -1433.4773446034887 339.07143866276283 0 339.07143866276283 2.4415846550473361 0 0 0 0 -1437.4719522370433 26.381113379698945 0 26.381113379698945 -744.61077384949749 0 0 0 0 -1125.9083197120635 997.74545548688548 0 997.74545548688548 -1229.6090316017953 0 0 0 0 -2541.7546874309774 670.9525050903685 0 670.9525050903685 -734.9056651006922 0 0 0 0 -1.1037981597521274 -7.5320058764637992 0 -7.5320058764637992 -16.595943729369953 0 0 0 0 -904.68266122188652 1278.6998148751868 0 1278.6998148751868 -286.73513475125219 0 0 0 0 -30.846570549467287 0.76618732237196241 0 0.76618732237196241 -11.337459104274579 0 0 0 0 -922.17546368710464 1110.6150934616489 0 1110.6150934616489 295.86567213891249 0 0 0 0 -1179.4595013176731 363.43482718712403 0 363.43482718712403 1166.9983717568912 0 0 0 0 -1258.631537126319 423.42870564468831 0 423.42870564468831 -2.1785208841538406 0 0 0 0 -1076.9698754239362 336.32415259382378 0 336.32415259382378 -421.6794183600723 0 0 0 0 -1134.5289550483285 1024.3232037180132 0 1024.3232037180132 -16.264176690867316 0 0 0 0 -1024.2552707000723 1183.2773808837219 0 1183.2773808837219 -562.10043827280242 0 0 0 0 -4.2091692659789572 -11.955257373642553 0 -11.955257373642553 -2.2269881679725252 0 0 0 0 -869.88000857348379 1360.4561355944788 0 1360.4561355944788 -498.03811171518646 0 0 0 0 -887.70276226591523 1096.1970124824943 0 1096.1970124824943 -652.68463845837687 0 0 0 0 -130.19482432700715 -864.04627496866431 0 -864.04627496866431 -1988.7246262335357 0 0 0 0 -806.20265540486434 -955.79281508046961 0 -955.79281508046961 -434.01216620754985 0 0 0 0 -2324.6356005132402 -331.06932701333881 0 -331.06932701333881 1955.0896707309639 0 0 0 0 -25.891201774162319 4.4400388757420366 0 4.4400388757420366 -93.251391284152987 0 0 0 0 -417.70645900985619 -399.16314804911173 0 -399.16314804911173 332.55722139545742 0 0 0 0 -11.312640587827318 -11.693444789556224 0 -11.693444789556224 40.724147135542154 0 0 0 0 -26.435019843695045 -289.67631392238764 0 -289.67631392238764 -602.21295284484677 0 0 0 0 -535.05816587194204 -277.65023994504361 0 -277.65023994504361 354.00896230756621 0 0 0 0 -425.23815478359757 -203.78342117110242 0 -203.78342117110242 -13.596579230421412 0 0 0 0 -10.606153752561809 3.8253706724917578 0 3.8253706724917578 -7.0401146367795624 0 0 0 0 -266.03390368292457 462.1139806707215 0 462.1139806707215 872.49946249656841 0 0 0 0 -25.964582980690466 -2.8395781113636076 0 -2.8395781113636076 -9.5273562669026433 0 0 0 0 -25.580540077688056 -6.2238044003665891 0 -6.2238044003665891 -7.7076841614707519 0 0 0 0 -8.5356183005939457 -1.7067123501907986 0 -1.7067123501907986 -12.444881616682803 0 0 0 0 -32.642800319270464 -59.361878086090428 0 -59.361878086090428 7.9645538471700092 0 0 0 0 -17.409272016807762 5.7142849912341092 0 5.7142849912341092 18.247243754388506 0 0 0 0 -100.96702858823846 -31.046272047001253 0 -31.046272047001253 68.37162986274376 0 0 0 0 -150.52360383168707 473.81357795157294 0 473.81357795157294 200.2133954908692 0 0 0 0 -65.99435442770482 -41.816934918901097 0 -41.816934918901097 60.536487721110461 0 0 0 0 -56.875427682964983 -18.198251681213321 0 -18.198251681213321 23.324719540179103 0 0 0 0 -66.819520155742794 -55.053430505390452 0 -55.053430505390452 63.911376559180098 0 0 0 0 -81.123687920284283 -17.090214765545397 0 -17.090214765545397 128.37045764969662 0 0 0 0 -2.3824961403681755 10.889493673078434 0 10.889493673078434 9.6448510577260205 0 0 0 0 -439.85659073538261 170.69357330096776 0 170.69357330096776 7.0408099227095136 0 0 0 0 -65.308140501235471 11.744058192788129 0 11.744058192788129 3.1362766387294632 0 0 0 0 -63.828101250794134 66.826734541951566 0 66.826734541951566 45.363477610439404 0 0 0 0 -33.490084658336855 52.650768090710685 0 52.650768090710685 -13.230122560755035 0 0 0 0 61.949080309273995 120.29971766638164 0 120.29971766638164 -20.107788411646141 0 0 0 0 0.7280823160891714 1.528008375888092 0 1.528008375888092 4.8711091006133653 0 0 0 0 -52.976446659667999 -94.237878973698798 0 -94.237878973698798 -7.4717061410148062 0 0 0 0 -264.92015687881212 127.257322359505 0 127.257322359505 113.98611283238756 0 0 0 0 -141.69315859227208 173.39896804729096 0 173.39896804729096 -194.49000367044695 0 0 0 0 -197.37871067828382 182.44457781537437 0 182.44457781537437 -133.84278990994608 0 0 0 0 -462.45437280806073 -79.407384573496813 0 -79.407384573496813 -203.02693728324314 0 0 0 0 -769.15340328527236 200.60761928704227 0 200.60761928704227 46.704034332314677 0 0 0 0 -75.882944851909997 142.96388308049427 0 142.96388308049427 -153.74991346310344 0 0 0 0 -539.00715884880628 170.02267207611862 0 170.02267207611862 51.931481523263528 0 0 0 0 -514.00853667734191 177.86896674712011 0 177.86896674712011 52.347007899161781 0 0 0 0 -536.9846540002618 187.6481817683532 0 187.6481817683532 118.13168289435021 0 0 0 0 -438.35847907559946 179.88422919485924 0 179.88422919485924 32.699012280662828 0 0 0 0 -432.04360214169719 152.4751742201463 0 152.4751742201463 96.665998341476552 0 0 0 0 -363.46399387200654 192.25355479052803 0 192.25355479052803 -162.58239574301274 0 0 0 0 -619.88552903261734 226.0454706111185 0 226.0454706111185 27.522564509648532 0 0 0 0 -527.78523410869821 156.79679334465123 0 156.79679334465123 22.193444997223651 0 0 0 0 -101.71302445055335 0.63266738596234973 0 0.63266738596234973 -64.514119394085355 0 0 0 0 79.332814847672125 -125.11543864990858 0 -125.11543864990858 28.375794824973639 0 0 0 0 -146.24630695149972 -12.152270756602547 0 -12.152270756602547 22.748609254393159 0 0 0 0 -12.917270227895969 1.4997787227464414 0 1.4997787227464414 -0.22492527322257327 0 0 0 0 -18.235106280035382 -17.455449522493836 0 -17.455449522493836 -0.38145811195340584 0 0 0 0 -16.162742962318674 -32.663998840621545 0 -32.663998840621545 0.11266042056552616 0 0 0 0 14.609546523308381 -23.664563714876266 0 -23.664563714876266 4.1608286735076945 0 0 0 0 -53.203086616556924 -8.2890442690747506 0 -8.2890442690747506 5.8940184207337865 0 0 0 0 -67.124575512934825 -20.109603468121804 0 -20.109603468121804 -25.030268869879819 0 0 0 0 -65.06666249364207 6.8953102653973559 0 6.8953102653973559 -19.6212322359479 0 0 0 0 -103.0668066972903 -1.7086333680057066 0 -1.7086333680057066 -6.2473336598761762 0 0 0 0 -98.421523012744728 5.6259536140830733 0 5.6259536140830733 1.2622461452851894 0 0 0 0 -67.949740211217431 -14.027254316301423 0 -14.027254316301423 -7.5154838210685 0 0 0 0 -106.20894072286319 -15.126207329683439 0 -15.126207329683439 -7.468260170117901 0 0 0 0 -45.712343131641433 -28.294364477556456 0 -28.294364477556456 8.3560088513850239 0 0 0 0 -1387.0487539383757 1239.1880607670009 0 1239.1880607670009 869.15863660343257 0 0 0 0 1.0745403009513552 -5.142808706348255 0 -5.142808706348255 2.3983943435275656 0 0 0 0 -546.41469954494823 323.48072062649618 0 323.48072062649618 -137.56173853553014 0 0 0 0 907.38298000847863 -747.77306786278382 0 -747.77306786278382 -1297.3787050933743 0 0 0 0 -439.08267723032623 -494.51390088005701 0 -494.51390088005701 319.81929025712998 0 0 0 0 -404.7255388420017 -61.068627808193014 0 -61.068627808193014 376.14349341773465 0 0 0 0 -10.343678097048553 -3.9040237755263405 0 -3.9040237755263405 -0.59369819179154693 0 0 0 0 -116.15179566138249 -12.073023861824822 0 -12.073023861824822 -287.3858153620622 0 0 0 0 -88.760688117203244 0.28858520307474578 0 0.28858520307474578 36.864911642761399 0 0 0 0 -68.563449394606437 -5.0581029496469219 0 -5.0581029496469219 2.6029149111706027 0 0 0 0 -61.174635786846423 -11.959507861034751 0 -11.959507861034751 23.760601118178084 0 0 0 0 -61.172116991408984 6.535834790468698 0 6.535834790468698 1.2132308440288782 0 0 0 0 6.4133752817833738 -62.67022436246129 0 -62.67022436246129 44.763435994113593 0 0 0 0 -27.886908285741811 -37.964731421751537 0 -37.964731421751537 51.509783716160086 0 0 0 0 -58.252309402290848 -60.321176732618881 0 -60.321176732618881 145.36512347172382 0 0 0 0 -31.997153150618033 -113.26035714594911 0 -113.26035714594911 29.097024567582139 0 0 0 0 -19.770339294678649 5.3929727226716579 0 5.3929727226716579 -1.0800465773871804 0 0 0 0 -336.92546352869249 123.95185214210204 0 123.95185214210204 51.129657861771719 0 0 0 0 -28.463506748334112 5.1239947771216379 0 5.1239947771216379 -3.1928233365492433 0 0 0 0 -120.11744912417635 -22.101673397701276 0 -22.101673397701276 23.08855425103161 0 0 0 0 -162.47106272695237 -107.15446786412532 0 -107.15446786412532 -95.044005656528157 0 0 0 0 206.11131189124717 108.35123634633112 0 108.35123634633112 -505.31182598430769 0 0 0 0 -93.353687346265104 -4.9314128844160798 0 -4.9314128844160798 -2.0759572396321548 0 0 0 0 -286.75419574002444 255.39154572953998 0 255.39154572953998 24.047458528633797 0 0 0 0 -441.01938325368974 151.96420083787962 0 151.96420083787962 53.911489969566333 0 0 0 0 -101.89940443466259 14.084976618749977 0 14.084976618749977 8.9764190588675277 0 0 0 0 -46.628232082184326 -1.0360446555334164 0 -1.0360446555334164 -8.4826212114330772 0 0 0 0 -255.24140239252665 336.63007144861149 0 336.63007144861149 -153.4416463580701 0 0 0 0 -33.9973875569558 56.594586057635752 0 56.594586057635752 12.338572455857047 0 0 0 0 -135.90852669790547 109.19618370151511 0 109.19618370151511 -12.062932377680909 0 0 0 0 10.268892152467743 -13.492240010522096 0 -13.492240010522096 -95.914448030928384 0 0 0 0 -4.3022657784786702 0.30085387720458812 0 0.30085387720458812 2.7539698047900023 0 0 0 0 -70.680417247815058 22.942255086180239 0 22.942255086180239 15.362344076267789 0 0 0 0 -18.244008835492423 15.485489708330761 0 15.485489708330761 -93.281732475984427 0 0 0 0 -19.683814778610127 13.219208995809623 0 13.219208995809623 9.777748174305918 0 0 0 0 -184.94820371564128 -69.168228096531834 0 -69.168228096531834 41.763465798335801 0 0 0 0 -40.759798103317735 4.4246004840531441 0 4.4246004840531441 -16.007544503947059 0 0 0 0 -39.393299069663044 14.937464569509302 0 14.937464569509302 -39.596365050475953 0 0 0 0 0.15044540734248812 -0.12658476928561413 0 -0.12658476928561413 -1.2662056587891453 0 0 0 0 -25.199557557090884 -8.3411209055459494 0 -8.3411209055459494 -29.449771235305434 0 0 0 0 -42.757072594584315 -4.358050527200362 0 -4.358050527200362 -2.5991141692429665 0 0 0 0 -97.113200040854281 -4.7997524320238654 0 -4.7997524320238654 6.8028224733502611 0 0 0 0 -10.777681160469456 -0.75938493553373121 0 -0.75938493553373121 -0.76287983741304632 0 0 0 0 -32.999125839181943 -17.383235493499456 0 -17.383235493499456 -10.122125915703691 0 0 0 0 -30.861929023035827 -10.563719546534138 0 -10.563719546534138 1.1335938620372898 0 0 0 0 -42.227764417963044 -2.4457366281152986 0 -2.4457366281152986 -13.905708429314927 0 0 0 0 -14.769084362254944 -11.64051624125841 0 -11.64051624125841 0.0011683825423460803 0 0 0 0 -49.448022166034207 -6.7673086174063428 0 -6.7673086174063428 -13.617800454953567 0 0 0 0 -64.574320900482235 -17.72714073334005 0 -17.72714073334005 -2.041943405569782 0 0 0 0 -48.757454448845237 -3.2055402309481451 0 -3.2055402309481451 -11.039449622983057 0 0 0 0 -38.69322537019616 -10.955415418788789 0 -10.955415418788789 -13.945323041580952 0 0 0 0 -36.912383750939625 -11.078881446467904 0 -11.078881446467904 -20.17579483036684 0 0 0 0 -69.315377553073631 -15.756529423385075 0 -15.756529423385075 -0.29051267624936372 0 0 0 0 -69.998345832138284 -2.0529619764695477 0 -2.0529619764695477 -0.034361692751473549 0 0 0 0 -59.302101475797826 1.9056586998031548 0 1.9056586998031548 39.430784954720707 0 0 0 0 -326.77483881264925 -199.69269870421999 0 -199.69269870421999 351.73079156155029 0 0 0 0 -24.437967747831863 27.111816002819054 0 27.111816002819054 78.39319005526454 0 0 0 0 -160.12527821981348 -46.324010741055247 0 -46.324010741055247 40.895822394117261 0 0 0 0 -223.46202367029036 5.3959051959175781 0 5.3959051959175781 298.34631502286334 0 0 0 0 -156.92121641361155 -41.181922123904286 0 -41.181922123904286 11.034288485129849 0 0 0 0 -324.37686645291978 -169.3606192578803 0 -169.3606192578803 61.196254892464367 0 0 0 0 -174.1880446409923 -221.84352309010089 0 -221.84352309010089 -182.40475942693934 0 0 0 0 -1.3162595797512608 -0.31382244935079484 0 -0.31382244935079484 0.64033526806511376 0 0 0 0 -80.405184930452378 -82.445615769452445 0 -82.445615769452445 -89.493178485705243 0 0 0 0 -30.49550227347936 99.735252895195231 0 99.735252895195231 577.67013987352004 0 0 0 0 94.593642874970101 167.46029818164834 0 167.46029818164834 375.48988945851909 0 0 0 0 -127.97108065617795 6.3860108472716206 0 6.3860108472716206 77.321145720617096 0 0 0 0 -69.807595359176503 2.1045427997420583 0 2.1045427997420583 1.9260099119096166 0 0 0 0 -118.31743499228833 -23.182232496063676 0 -23.182232496063676 213.88963221764061 0 0 0 0 -10.508880676781502 0.49206381576823333 0 0.49206381576823333 0.43985627515504611 0 0 0 0 -143.59162530193134 86.137724261075505 0 86.137724261075505 429.65428759465647 0 0 0 0 -52.743915260012727 -19.582025554789823 0 -19.582025554789823 -6.3813309452119995 0 0 0 0 -3.0159929246754587 -1.160337791280341 0 -1.160337791280341 1.7616552057119848 0 0 0 0 4.2464343163737794 -4.7873304963778764 0 -4.7873304963778764 167.71762694646941 0 0 0 0 -8.5970880581007805 -43.552187938093539 0 -43.552187938093539 187.95879758345882 0 0 0 0 -89.493552856553208 -12.840864880575079 0 -12.840864880575079 2.1525919488123497 0 0 0 0 -23.070753569976659 -18.931624178635957 0 -18.931624178635957 158.96933657479406 0 0 0 0 -124.89986997552478 36.699798983391702 0 36.699798983391702 136.87489991753955 0 0 0 0 -173.82608077626719 -18.607458108809055 0 -18.607458108809055 218.58547710050289 0 0 0 0 -156.15487783866411 -2.2162439691748865 0 -2.2162439691748865 9.4464417881762444 0 0 0 0 -0.52920976256720564 -0.41871837161515657 0 -0.41871837161515657 -0.45873033251552064 0 0 0 0 -7.8613994828519935 1.2299740966506008 0 1.2299740966506008 -7.7687342295759549 0 0 0 0 -6.8535436655492958 -6.7865863388390757 0 -6.7865863388390757 -12.125388169016503 0 0 0 0 -95.915412211805233 -53.434876105030128 0 -53.434876105030128 -17.145742897166883 0 0 0 0 -145.10665281614638 -73.606789247663926 0 -73.606789247663926 -5.4953581261863533 0 0 0 0 -135.89829245647707 -55.325265907035728 0 -55.325265907035728 11.893362657442225 0 0 0 0 -107.12715248532186 -55.509054640554297 0 -55.509054640554297 9.2935221907397931 0 0 0 0 -190.72657027108653 -98.667710162896384 0 -98.667710162896384 -11.819410087604581 0 0 0 0 -86.936147356260335 -28.293180151594754 0 -28.293180151594754 12.755750787531753 0 0 0 0 -137.28091032893462 -48.299581561888374 0 -48.299581561888374 5.8816891129201281 0 0 0 0 -95.010969342620228 -45.866057731649875 0 -45.866057731649875 -9.7729663781662168 0 0 0 0 -118.03038780588395 -48.032276812889634 0 -48.032276812889634 -8.4977863067427108 0 0 0 0 -119.03010398904735 -46.658011069438103 0 -46.658011069438103 -0.020636268456405711 0 0 0 0 -134.43202842820756 -27.060389474918519 0 -27.060389474918519 -24.679436885330965 0 0 0 0 -118.70226230885237 -53.857406927559246 0 -53.857406927559246 -35.845509490219975 0 0 0 0 -151.36629836020438 -28.313623664477184 0 -28.313623664477184 0.016969917566983437 0 0 0 0 -121.22804598895891 -73.097105418022707 0 -73.097105418022707 -16.601015376919676 0 0 0 0 -52.042545815522317 -19.642145299776711 0 -19.642145299776711 -0.012309822111308077 0 0 0 0 -4.6956984585267492 -46.11118500353119 0 -46.11118500353119 -48.02221954193346 0 0 0 0 -140.14104047552246 -64.776275470539829 0 -64.776275470539829 22.636852553506543 0 0 0 0 -237.3361999480403 -79.432333054516391 0 -79.432333054516391 12.873860436165302 0 0 0 0 -132.36510609145625 -62.496473437659617 0 -62.496473437659617 14.459234076914434 0 0 0 0 -194.06450659571055 6.4435998502108625 0 6.4435998502108625 18.9262267871554 0 0 0 0 -0.75524247746261608 -0.38734533319960462 0 -0.38734533319960462 -0.17717119021649941 0 0 0 0 -144.86797328773719 14.438010370760106 0 14.438010370760106 19.898328694996025 0 0 0 0 -35.775306943134638 -49.604872073096544 0 -49.604872073096544 -9.0707146936817935 0 0 0 0 -294.84626017036499 -15.098012120258602 0 -15.098012120258602 -9.3715031867613448 0 0 0 0 -303.81500273324855 -65.455688403822478 0 -65.455688403822478 3.7171061329054282 0 0 0 0 -138.96116226479899 -112.26589790569399 0 -112.26589790569399 -21.649658155623001 0 0 0 0 -139.94241112633608 -103.65278905855072 0 -103.65278905855072 -46.190686091696648 0 0 0 0 -157.21298159909202 -138.93598569223161 0 -138.93598569223161 24.246324764716746 0 0 0 0 -72.604092190886149 -79.688784166111475 0 -79.688784166111475 33.087187546089211 0 0 0 0 -70.120364754155162 -67.524844663898648 0 -67.524844663898648 -21.535045050041845 0 0 0 0 -32.179579189934884 -61.184851534674777 0 -61.184851534674777 -12.407340351715902 0 0 0 0 -85.838080411660485 -77.708306350105289 0 -77.708306350105289 -11.128132751191758 0 0 0 0 -79.309652268337231 -57.790485351162289 0 -57.790485351162289 2.2925047091139277 0 0 0 0 -60.739218195289141 -30.782153611035824 0 -30.782153611035824 32.761246667962581 0 0 0 0 -95.487209212913285 -59.071951008112009 0 -59.071951008112009 -12.793832180793061 0 0 0 0 -67.336822602446773 -50.30469194320446 0 -50.30469194320446 -10.116764781813174 0 0 0 0 -117.59886216318409 -87.485478567726418 0 -87.485478567726418 -15.55989000301906 0 0 0 0 -86.300564883291372 -75.075463461637398 0 -75.075463461637398 -19.489721524196824 0 0 0 0 -95.785770814152784 -68.603466666039864 0 -68.603466666039864 0.0077721106816142083 0 0 0 0 -114.69345231541956 -62.525336088988318 0 -62.525336088988318 -0.36868411286953773 0 0 0 0 -101.12634752817394 -56.774281773568489 0 -56.774281773568489 -8.9444437640404999 0 0 0 0 -99.170694185595494 -58.257005650617351 0 -58.257005650617351 -12.580668210293304 0 0 0 0 -112.00451510718267 -45.817488588708805 0 -45.817488588708805 -9.805095917804989 0 0 0 0 -105.40296174284595 -53.933266804291243 0 -53.933266804291243 -0.0097067278191578996 0 0 0 0 -101.30564786733885 -49.503433723745481 0 -49.503433723745481 4.1227280897864631 0 0 0 0 -98.057136249932228 -51.435798126065983 0 -51.435798126065983 0.040212617131827236 0 0 0 0 -85.324648634166806 -44.206350864931039 0 -44.206350864931039 3.3600734968869306 0 0 0 0 -105.33817712609016 -44.59483888109385 0 -44.59483888109385 24.780096828459648 0 0 0 0 3.8245847785583464 -0.49570121789435007 0 -0.49570121789435007 2.1124965705861314 0 0 0 0 -71.241748324991931 -8.0881816263532951 0 -8.0881816263532951 21.208113821862781 0 0 0 0 46.04276254728029 -6.7492116355169642 0 -6.7492116355169642 -0.86686898825273317 0 0 0 0 -6.7375070513226092 -38.790781108502365 0 -38.790781108502365 -0.00805444191292372 0 0 0 0 -1.2016033323452575 -0.87520095348662252 0 -0.87520095348662252 0.0011584297660313908 0 0 0 0 -0.29162288342143938 -0.26368148978176009 0 -0.26368148978176009 0.043128566897899789 0 0 0 0 -75.742782317654928 3.112236461597405 0 3.112236461597405 3.5886233427747243 0 0 0 0 -0.32097224861497864 -0.25808498834012994 0 -0.25808498834012994 0.20349359203356276 0 0 0 0 -1.3888370916494637 -0.92193338482748288 0 -0.92193338482748288 -0.34541222658931958 0 0 0 0 1.7802919227833627 -27.773770544415612 0 -27.773770544415612 5.082714028713891 0 0 0 0 -10.384676737929112 -12.918506776592892 0 -12.918506776592892 16.403094316669467 0 0 0 0 7.3483048843008874 28.013228090686312 0 28.013228090686312 -13.133361042010961 0 0 0 0 5.9591931678951369 17.728150775376292 0 17.728150775376292 14.401267909742671 0 0 0 0 -101.38306268578162 -24.183901620598363 0 -24.183901620598363 36.642838884297248 0 0 0 0 396.77412735437974 -207.53393431218893 0 -207.53393431218893 -210.47789643505894 0 0 0 0 6.5076506125406013 -1.7790166743035627 0 -1.7790166743035627 -58.433181403966501 0 0 0 0 -27.930873245616681 -20.208475553136964 0 -20.208475553136964 -10.837360964033641 0 0 0 0 -129.64462498671492 3017.0061986585206 0 3017.0061986585206 -3500.943284886599 0 0 0 0 -1230.7567021708091 287.18837940981439 0 287.18837940981439 76.736783465712506 0 0 0 0 813.37778369375883 196.99221638136169 0 196.99221638136169 -1147.8649197151881 0 0 0 0 2.3860652454895899 -10.314488096821322 0 -10.314488096821322 -71.471583343645932 0 0 0 0 287.18916954060842 243.28212612253401 0 243.28212612253401 22.052735408922672 0 0 0 0 -159.293393081869 74.133809740037577 0 74.133809740037577 647.21507383484823 0 0 0 0 -24.946195107940753 10.357372075423271 0 10.357372075423271 -3.9043409356437824 0 0 0 0 -34.257367008831352 704.58279780034081 0 704.58279780034081 -63.567230881842079 0 0 0 0 -1084.8032911919727 -706.50147279877137 0 -706.50147279877137 -63.717021560604962 0 0 0 0 -1905.5300190491907 579.03754224904571 0 579.03754224904571 229.60192522011948 0 0 0 0 -37.826504585781805 -19.494362417140294 0 -19.494362417140294 -7.6077818864697067 0 0 0 0 -53.577688527824648 26.690022879542568 0 26.690022879542568 28.772152592531654 0 0 0 0 -215.62290606573515 672.49984258806444 0 672.49984258806444 -68.98902518719774 0 0 0 0 -2214.8831166679083 92.738107871540933 0 92.738107871540933 1223.191089078209 0 0 0 0 -75.661628563917475 4.4791070530662722 0 4.4791070530662722 10.122068045951437 0 0 0 0 -713.01938720053295 929.41227846744096 0 929.41227846744096 -747.39515829322659 0 0 0 0 -228.5824784120241 459.06390056214826 0 459.06390056214826 -332.97740711639563 0 0 0 0 -498.21697285684058 419.39858751055181 0 419.39858751055181 -9.3602325346787438 0 0 0 0 -146.14802733971737 244.83121081971103 0 244.83121081971103 -177.89803822975409 0 0 0 0 -345.85056948938291 -55.107811620957818 0 -55.107811620957818 -395.02630796357334 0 0 0 0 -953.46589096194657 216.0303087833089 0 216.0303087833089 -173.94034936160097 0 0 0 0 -859.34193548742041 651.46216312163938 0 651.46216312163938 -791.47692118339921 0 0 0 0 -23.301449612181273 -9.4387447400487758 0 -9.4387447400487758 -2.0678538782250087 0 0 0 0 -47.747378920754272 -58.946204770614187 0 -58.946204770614187 32.738383156941012 0 0 0 0 -30.333930533379316 -17.568440321722157 0 -17.568440321722157 -0.58321522009508442 0 0 0 0 -0.66427638384976717 -0.26362893004778698 0 -0.26362893004778698 -0.0072177873693414496 0 0 0 0 -106.30531552557659 43.722000919982563 0 43.722000919982563 -12.775120033965493 0 0 0 0 -127.54817269562045 -7.5744995843267686 0 -7.5744995843267686 38.709108138306959 0 0 0 0 5.7151602104568155 -5.6704819327583031 0 -5.6704819327583031 24.048140249499198 0 0 0 0 -63.012857920060924 -53.612651706226117 0 -53.612651706226117 -0.10891290855507806 0 0 0 0 -8.1450042293163847 -1.6820470638938332 0 -1.6820470638938332 -0.022449276051526579 0 0 0 0 681.13880282532773 1481.7586830220996 0 1481.7586830220996 -799.55318356202747 0 0 0 0 17.159263309949893 -40.735365432911614 0 -40.735365432911614 0.086965413126425722 0 0 0 0 -7.2767579577500783 -0.5252179724658248 0 -0.5252179724658248 0.83803240813391466 0 0 0 0 -749.14546421411796 591.97023950304322 0 591.97023950304322 -349.02632640058306 0 0 0 0 -1835.267411845969 -531.72661707134478 0 -531.72661707134478 0.28159840002718528 0 0 0 0 -345.60341395846626 340.01098665584618 0 340.01098665584618 -421.35140380305461 0 0 0 0 -663.72989861312089 224.51532538891388 0 224.51532538891388 -258.88377976165248 0 0 0 0 -341.53548330321792 206.86308245531973 0 206.86308245531973 -257.96526831529195 0 0 0 0 -616.67101355214254 57.414791504317463 0 57.414791504317463 -153.83608288032428 0 0 0 0 -323.01013605628395 150.30462598896247 0 150.30462598896247 -302.74865548257367 0 0 0 0 -8.1978361125964625 -0.081456202188320503 0 -0.081456202188320503 1.6236752866312814 0 0 0 0 -191.20092339976691 46.772755266723834 0 46.772755266723834 -398.55689171097856 0 0 0 0 -129.63244565037894 78.603555213966274 0 78.603555213966274 -385.49203524374514 0 0 0 0 -1282.8570793310937 367.31118286962021 0 367.31118286962021 -856.35749042381997 0 0 0 0 -200.16002465356723 172.8501279128659 0 172.8501279128659 -382.64081357972645 0 0 0 0 -99.130691452592146 127.59813227986979 0 127.59813227986979 -368.91691711363865 0 0 0 0 -97.662997564317266 93.683544219014905 0 93.683544219014905 -377.86110873445068 0 0 0 0 -16.835165483091259 173.1391076434702 0 173.1391076434702 -407.78718528449554 0 0 0 0 -834.77584794916766 -623.54483987370872 0 -623.54483987370872 -0.93417900959181832 0 0 0 0 -1646.9306824523701 -342.55456401734386 0 -342.55456401734386 297.77363126166301 0 0 0 0 -1146.1347293925937 568.71783786908486 0 568.71783786908486 306.4498996363609 0 0 0 0 -675.87429003414218 277.16771811474678 0 277.16771811474678 -298.64639944556666 0 0 0 0 -0.94202410317920027 -1.4695517923673265 0 -1.4695517923673265 4.0889204161160109 0 0 0 0 -253.82200085447403 -358.03534924039775 0 -358.03534924039775 -140.39670726313989 0 0 0 0 -838.4355034905966 3.2801590539316976 0 3.2801590539316976 -69.276900899545581 0 0 0 0 -780.95812530476542 207.14631323439426 0 207.14631323439426 -168.66731122774945 0 0 0 0 -680.61360209820123 -508.16577313061657 0 -508.16577313061657 -30.388575326405316 0 0 0 0 -425.69682303440641 -271.47159043044098 0 -271.47159043044098 -26.121233123705451 0 0 0 0 -679.30113033845555 -201.59619972358701 0 -201.59619972358701 -111.30951142395224 0 0 0 0 -511.45552384722396 -294.06916782338698 0 -294.06916782338698 370.49622279575487 0 0 0 0 -513.57955531941843 -218.63420698795471 0 -218.63420698795471 -320.51955907055572 0 0 0 0 -489.15913556961459 474.31172658320361 0 474.31172658320361 -252.74059659090153 0 0 0 0 -576.65764125075657 -122.97393120044353 0 -122.97393120044353 -64.721081982013857 0 0 0 0 -433.39355343574425 -69.130349694192319 0 -69.130349694192319 -49.35349106614558 0 0 0 0 -438.49379033305195 -217.39853136925188 0 -217.39853136925188 66.252294711875948 0 0 0 0 -553.21541644777608 -143.33113805984021 0 -143.33113805984021 96.950853097873733 0 0 0 0 1.9936730734714985 -1.7405807850128951 0 -1.7405807850128951 18.486938973405621 0 0 0 0 -418.45107983988419 -102.57318687355166 0 -102.57318687355166 127.62837876919184 0 0 0 0 -229.15291049742518 -459.27613302148166 0 -459.27613302148166 -146.26278360032177 0 0 0 0 166.09236818320642 32.398751333074038 0 32.398751333074038 -374.84117351821561 0 0 0 0 -2.9206851351122225 1.6474940581961732 0 1.6474940581961732 -0.07788624262868904 0 0 0 0 -130.32923492083501 149.21952988065971 0 149.21952988065971 -259.9542618038854 0 0 0 0 -591.26557647118807 -416.15987238458274 0 -416.15987238458274 -42.56820341485809 0 0 0 0 -148.40638105149264 56.223497233521812 0 56.223497233521812 -116.13858308562658 0 0 0 0 -177.8233086350665 8.8738142888350922 0 8.8738142888350922 -137.25672863621185 0 0 0 0 -154.31725753265755 -56.552465698725257 0 -56.552465698725257 -112.48014050805614 0 0 0 0 -159.03422354720533 101.04593862945967 0 101.04593862945967 -270.24171025124451 0 0 0 0 -234.26263175479835 72.692794861748553 0 72.692794861748553 -280.88014104754802 0 0 0 0 -139.84611739622778 45.059709679463595 0 45.059709679463595 -390.3830850932336 0 0 0 0 -125.32009395558271 93.677096727152275 0 93.677096727152275 -303.06594998003857 0 0 0 0 -100.56023243253003 35.50484099300138 0 35.50484099300138 -308.87678980914097 0 0 0 0 -147.34694871795364 128.82474557433125 0 128.82474557433125 -358.90081800110238 0 0 0 0 -213.36948393205239 84.680675415268979 0 84.680675415268979 -265.59315687781327 0 0 0 0 -227.93928608443821 99.28204174638995 0 99.28204174638995 -252.22764248603426 0 0 0 0 -429.21195594736491 60.987624452322052 0 60.987624452322052 -155.89014516380712 0 0 0 0 -346.81041744553659 -9.0657013786012612 0 -9.0657013786012612 -108.91163812143623 0 0 0 0 -438.87123305493151 -86.655025207450763 0 -86.655025207450763 31.228679433019352 0 0 0 0 -288.15338529759902 9.0979630098036068 0 9.0979630098036068 -105.62016644628261 0 0 0 0 -219.82032805834751 -82.175300587290167 0 -82.175300587290167 8.8065676947808242 0 0 0 0 -288.97254955788958 18.539889750220027 0 18.539889750220027 80.854216519379861 0 0 0 0 -262.49789695296204 -82.503383853686501 0 -82.503383853686501 23.980537306776569 0 0 0 0 -116.87464706682658 -42.591748599246785 0 -42.591748599246785 82.143980562535944 0 0 0 0 -149.70361448540643 97.867779658283325 0 97.867779658283325 324.85602006097906 0 0 0 0 -71.859597239119466 -27.581916832347815 0 -27.581916832347815 -32.772827273160146 0 0 0 0 -146.15041042158555 133.0266617411944 0 133.0266617411944 74.69187640486507 0 0 0 0 -28.595353822398465 1.1120838415990875 0 1.1120838415990875 193.86603850320898 0 0 0 0 -90.190441774626379 410.37319769174792 0 410.37319769174792 732.32997374279967 0 0 0 0 90.476832261200798 46.151570387763797 0 46.151570387763797 204.43177001362346 0 0 0 0 99.979996408088482 362.58853081834241 0 362.58853081834241 435.49266788167461 0 0 0 0 530.09817352636128 -952.51319558485682 0 -952.51319558485682 -652.71130862410428 0 0 0 0 -88.707193242793437 9.7833072799749061 0 9.7833072799749061 344.62290143194878 0 0 0 0 -170.03020570722583 272.56883698450019 0 272.56883698450019 465.39142249600809 0 0 0 0 -206.74273876516963 73.139929021348507 0 73.139929021348507 311.54439994423228 0 0 0 0 -167.50674417504342 -40.488653435085325 0 -40.488653435085325 40.758023181673707 0 0 0 0 806.53628874724382 350.13110229572771 0 350.13110229572771 -214.40002327292609 0 0 0 0 -0.22177412433666177 -37.328035869415771 0 -37.328035869415771 -177.323173817179 0 0 0 0 -75.775190483878589 38.685486579917054 0 38.685486579917054 -19.181309354628084 0 0 0 0 132.88610855308798 -444.91606982486803 0 -444.91606982486803 -194.56608446390101 0 0 0 0 -1487.7078219776158 -719.45400195101683 0 -719.45400195101683 -193.21772538512005 0 0 0 0 -327.4670743173192 93.32363306671823 0 93.32363306671823 186.20003859749028 0 0 0 0 -105.16722511509033 130.40339598921958 0 130.40339598921958 54.144087760475486 0 0 0 0 -302.67284398392076 -156.62914445002025 0 -156.62914445002025 -19.553112745088583 0 0 0 0 -80.020567157430349 41.551319945767546 0 41.551319945767546 -14.50463546621237 0 0 0 0 -395.65553719162563 35.645467016011935 0 35.645467016011935 210.13984533641451 0 0 0 0 57.491103591397405 77.00247983895315 0 77.00247983895315 -77.95462189566706 0 0 0 0 -18.139667727311107 -2.5520176571321542 0 -2.5520176571321542 41.033036177400476 0 0 0 0 -143.31702253791445 -48.974834624865252 0 -48.974834624865252 92.192472249005732 0 0 0 0 -242.64536970291374 -0.95804630335277352 0 -0.95804630335277352 -27.142529151515987 0 0 0 0 -137.9597187145846 13.216611490503226 0 13.216611490503226 39.474080319233281 0 0 0 0 -24.56357050708062 2.8827207825017638 0 2.8827207825017638 1.1730543200387098 0 0 0 0 -76.950847493713042 12.753300232067595 0 12.753300232067595 15.847687078167466 0 0 0 0 -72.32802847547282 -43.878797747599435 0 -43.878797747599435 -102.99602007717408 0 0 0 0 -122.5093321778113 22.865827601475075 0 22.865827601475075 -90.857926259974761 0 0 0 0 -189.07538326203212 -50.267456889898767 0 -50.267456889898767 14.836539978263772 0 0 0 0 -198.32129497863207 -34.082357170081991 0 -34.082357170081991 -6.7920387039405341 0 0 0 0 -148.43445366955712 0.13810937656717215 0 0.13810937656717215 8.048723703222322 0 0 0 0 -208.50455182752921 -18.683498957509698 0 -18.683498957509698 16.087317687164841 0 0 0 0 -32.32343211524767 3.1297188310782502 0 3.1297188310782502 9.9725285205201573 0 0 0 0 -137.65654954081037 -257.22570003191623 0 -257.22570003191623 -121.05869728568587 0 0 0 0 -84.013152044120943 -138.91550018194584 0 -138.91550018194584 -99.343926804548687 0 0 0 0 -635.08733022942033 -362.75458988005641 0 -362.75458988005641 -119.37806285875808 0 0 0 0 -123.68803931276489 -83.57941818457914 0 -83.57941818457914 -70.257556803351179 0 0 0 0 -76.576241274829954 -64.539325913374228 0 -64.539325913374228 -185.04425228004663 0 0 0 0 -183.25016335344844 -55.878115127944966 0 -55.878115127944966 -37.470755146202237 0 0 0 0 -135.26149697655637 -106.75810250894253 0 -106.75810250894253 -57.029740051778617 0 0 0 0 -174.97050331400533 -111.93849790523825 0 -111.93849790523825 51.194702223908337 0 0 0 0 -248.86962722849421 -68.099463206116582 0 -68.099463206116582 141.04980820662524 0 0 0 0 -178.8400065190508 -143.37993472490547 0 -143.37993472490547 -32.809887356890755 0 0 0 0 -275.69081739909871 109.52010217111763 0 109.52010217111763 -0.98314518552319896 0 0 0 0 -235.66141290431551 -135.94224964279056 0 -135.94224964279056 33.842050704927487 0 0 0 0 -541.17240687290905 -80.218256665308672 0 -80.218256665308672 24.583667049640269 0 0 0 0 -328.2497176531615 -16.964018842436985 0 -16.964018842436985 -43.210168052584777 0 0 0 0 -892.0045839350787 170.64421648962593 0 170.64421648962593 -105.51074771521405 0 0 0 0 -414.79548103521665 96.045267725858849 0 96.045267725858849 -2.1550624437707029 0 0 0 0 -167.61013911067857 109.03416309801275 0 109.03416309801275 -307.13355086543038 0 0 0 0 -185.52266236755531 -5.5790196891936858 0 -5.5790196891936858 123.2203195059553 0 0 0 0 -116.64834318074281 77.874449386957053 0 77.874449386957053 -44.449163441264204 0 0 0 0 -166.91188976065314 188.56827853647513 0 188.56827853647513 55.277231408423049 0 0 0 0 -36.74772899220261 207.85016033140437 0 207.85016033140437 -47.143854892830859 0 0 0 0 -189.64575156055798 140.39618241974358 0 140.39618241974358 -92.880978664110216 0 0 0 0 -106.97726847526792 -52.344116382897084 0 -52.344116382897084 -313.44342800220238 0 0 0 0 -112.44967725612514 77.086418419402662 0 77.086418419402662 -480.84388901136424 0 0 0 0 -58.993472388046968 -2.5376698821856483 0 -2.5376698821856483 -0.22227252175520118 0 0 0 0 -175.89476937882864 -14.435529919214105 0 -14.435529919214105 6.1079349387819093 0 0 0 0 -81.503005170365213 173.22294778646096 0 173.22294778646096 70.846963990109529 0 0 0 0 -21.500604262109846 101.03608399597044 0 101.03608399597044 -115.71549320337272 0 0 0 0 -297.92434094683995 39.358083391394075 0 39.358083391394075 421.89413591766333 0 0 0 0 -345.70132769564225 220.00524065307604 0 220.00524065307604 79.559675872522462 0 0 0 0 -208.82504519885697 -633.01077968413188 0 -633.01077968413188 -58.801315205470303 0 0 0 0 -20.72308547067496 -2.9975671636749315 0 -2.9975671636749315 -1.0064472168719425 0 0 0 0 -2025.0814137866546 1141.2814946835144 0 1141.2814946835144 647.24169152394393 0 0 0 0 262.2794551025072 -535.37086129431771 0 -535.37086129431771 -342.09295930711914 0 0 0 0 -61.503252305914003 29.624176418891921 0 29.624176418891921 -12.084544655528955 0 0 0 0 -246.49584345869516 169.92633110512656 0 169.92633110512656 -491.6758404523116 0 0 0 0 -937.5993864251941 614.58355307099635 0 614.58355307099635 -755.86080484697482 0 0 0 0 -149.37554087163153 23.275733121271401 0 23.275733121271401 -270.63228246384233 0 0 0 0 -3658.7606703296915 -226.76960712738685 0 -226.76960712738685 -161.59155718949725 0 0 0 0 -3257.5596290116082 -1049.3769320123181 0 -1049.3769320123181 -1343.6100432586777 0 0 0 0 -2634.7165003989503 -1537.9525655221632 0 -1537.9525655221632 -887.51821461151508 0 0 0 0 -14.333586288979404 2.4267821610296991 0 2.4267821610296991 2.6026071820749719 0 0 0 0 -737.8764761431521 565.91866584532386 0 565.91866584532386 -432.90451113691125 0 0 0 0 -10.606424442537588 0.068139038963380472 0 0.068139038963380472 8.8384689627114401 0 0 0 0 -622.49663887168572 -377.04025971686133 0 -377.04025971686133 -394.79726454528401 0 0 0 0 -2177.3958846918249 -809.32507656133521 0 -809.32507656133521 -142.92595806606533 0 0 0 0 -2736.1058730036166 -618.02528323721151 0 -618.02528323721151 -6.476252409075073 0 0 0 0 -7.3164688213967963 -0.29936621807652841 0 -0.29936621807652841 2.2698798866896377 0 0 0 0 -3497.0429926937541 -965.87648638807684 0 -965.87648638807684 2.2918518315604901 0 0 0 0 -2838.7381228370868 -1.1651887256473059 0 -1.1651887256473059 -1.0763978332847988 0 0 0 0 -6.3374821279575428 -0.88758435160491445 0 -0.88758435160491445 1.7624153527867197 0 0 0 0 -3145.7529444230895 -1023.5775610028513 0 -1023.5775610028513 41.991323297987037 0 0 0 0 -2367.1656806714382 -456.73557398526123 0 -456.73557398526123 -1.0331812450931839 0 0 0 0 -2101.1379177839117 -966.30601794265897 0 -966.30601794265897 -346.93632184870035 0 0 0 0 -2571.6000495487388 -525.59340398882182 0 -525.59340398882182 -139.23137538559854 0 0 0 0 -9.1806961008335009 3.5804802058583221 0 3.5804802058583221 3.0157909728862506 0 0 0 0 -464.79614234861219 -406.40645374664808 0 -406.40645374664808 -291.87210221049298 0 0 0 0 -2169.7920874263536 -389.15275966120703 0 -389.15275966120703 66.392865522959937 0 0 0 0 -46.197605283996381 -17.552021993050118 0 -17.552021993050118 0.61932149596373165 0 0 0 0 -9.2441398954393321 -10.339398340104793 0 -10.339398340104793 -5.4138341745920275 0 0 0 0 -16.160747418893152 -7.6699442725458562 0 -7.6699442725458562 -0.0069958032727683583 0 0 0 0 -1978.3299447022582 -669.08149562361029 0 -669.08149562361029 -114.03441603591948 0 0 0 0 -4.2801168193452526 -1.9325179238757357 0 -1.9325179238757357 -1.0675615765452671 0 0 0 0 -3.0198386732695042 -1.1641903376611253 0 -1.1641903376611253 -0.35678864339221839 0 0 0 0 -20.73956426163204 -10.586195427155928 0 -10.586195427155928 -8.8938446147132169 0 0 0 0 -27.293524202606932 -24.82338665189469 0 -24.82338665189469 -0.050269988939811286 0 0 0 0 1.1157300920710327 -1.1240045940051573 0 -1.1240045940051573 0.45833042076313102 0 0 0 0 62.584420581792074 -105.81577835200233 0 -105.81577835200233 22.934850286591882 0 0 0 0 -29.261595469084568 -14.922829400467045 0 -14.922829400467045 -3.4424696962661159 0 0 0 0 -4.8594009497353738 -4.178270218882119 0 -4.178270218882119 2.1471174770711432 0 0 0 0 -19.809698434826288 -15.676338520428232 0 -15.676338520428232 -2.4218534941742611 0 0 0 0 -53.681647399396752 -15.624056327850013 0 -15.624056327850013 19.924580750436689 0 0 0 0 -13.154142317910129 1.924483310729471 0 1.924483310729471 3.0035500592217446 0 0 0 0 -48.241792948188959 -11.383973485385226 0 -11.383973485385226 -6.2678594723600298 0 0 0 0 -31.669745655206498 -12.435836920880888 0 -12.435836920880888 3.1840286404822109 0 0 0 0 -47.316535042395117 -16.910605017271116 0 -16.910605017271116 -0.21568757400626737 0 0 0 0 -15.432204455593279 -2.5480193190960279 0 -2.5480193190960279 4.6669627328201138 0 0 0 0 -20.301020030990401 3.3171397007413077 0 3.3171397007413077 12.06944661149284 0 0 0 0 -32.564417915511115 -10.888257970310931 0 -10.888257970310931 8.7812255692436292 0 0 0 0 82.226736831471499 176.08881622875299 0 176.08881622875299 -35.871646840540052 0 0 0 0 -151.4388019424805 50.214498658214325 0 50.214498658214325 209.4384775865426 0 0 0 0 -59.834868590667611 -17.264309239124486 0 -17.264309239124486 -1.1729933198946583 0 0 0 0 -21.803547699606384 6.6667595810546487 0 6.6667595810546487 17.717065689633717 0 0 0 0 104.19213590510481 109.97150358334738 0 109.97150358334738 -78.980811701363564 0 0 0 0 68.573549956854549 12.926528901907659 0 12.926528901907659 -105.40966609616044 0 0 0 0 -24.358824664352142 12.684756929854188 0 12.684756929854188 -294.18049887221605 0 0 0 0 -7.1771539207263686 -2.4463971692622408 0 -2.4463971692622408 -10.206548381964465 0 0 0 0 -542.91119358572178 -362.70038816655415 0 -362.70038816655415 -249.13867269444063 0 0 0 0 -995.22100278436847 -607.57135687391519 0 -607.57135687391519 -381.70337646786709 0 0 0 0 -409.1126131097717 -635.68797823363639 0 -635.68797823363639 -587.08046950778771 0 0 0 0 -17.450667773300665 -90.950002537485261 0 -90.950002537485261 163.49273092113873 0 0 0 0 -35.280916221899247 -3.0636730637257941 0 -3.0636730637257941 0.61367755786909961 0 0 0 0 62.64849149400834 -174.76919356793849 0 -174.76919356793849 59.260103405379425 0 0 0 0 58.345619624407846 -126.95542446761135 0 -126.95542446761135 -35.27743862189925 0 0 0 0 457.75308842446248 -157.24032939097648 0 -157.24032939097648 -45.527111264074691 0 0 0 0 81.223950547275308 -387.35513151666589 0 -387.35513151666589 -0.052668539416121207 0 0 0 0 -320.96796500534401 -251.27639694356458 0 -251.27639694356458 159.38124819578923 0 0 0 0 60.802876217665471 -162.88700533696175 0 -162.88700533696175 167.49858085556593 0 0 0 0 -1193.256425987769 -492.8798118714497 0 -492.8798118714497 424.21690716644639 0 0 0 0 -460.60705604706891 6.1595808508423033 0 6.1595808508423033 742.29900225303436 0 0 0 0 -422.26158145231238 -482.97780658219466 0 -482.97780658219466 0.43599582799495479 0 0 0 0 -604.96814371771325 -508.62766610416679 0 -508.62766610416679 -604.78585473514568 0 0 0 0 -958.88984451135184 -769.68512509620132 0 -769.68512509620132 -163.16805779043557 0 0 0 0 -1293.1041356357382 -500.69325025838515 0 -500.69325025838515 -95.798967468240107 0 0 0 0 -691.71587080130121 -85.187176157856129 0 -85.187176157856129 -452.48169001289654 0 0 0 0 -659.59006927419978 -1195.8926556089923 0 -1195.8926556089923 -1414.9728699764473 0 0 0 0 -12.91050432722011 -1.0867204891109736 0 -1.0867204891109736 0.89648607902127964 0 0 0 0 -472.7323455800215 -589.31183879055425 0 -589.31183879055425 -337.4864956887161 0 0 0 0 -6.7535109463565561 4.6289017844985949 0 4.6289017844985949 -1.0207386299860257 0 0 0 0 -231.1607019687508 -66.535004757183799 0 -66.535004757183799 -113.6602357871696 0 0 0 0 -451.25170405171957 -263.62557298304455 0 -263.62557298304455 -69.380936826308243 0 0 0 0 -522.22076283274146 -469.10072496826638 0 -469.10072496826638 -208.47577789094021 0 0 0 0 -320.31605687459341 -231.1177473619789 0 -231.1177473619789 -46.732685867257715 0 0 0 0 -55.427944491850212 -26.432990864079812 0 -26.432990864079812 -174.01850849547611 0 0 0 0 -7.2294954575992563 7.6020172262321069 0 7.6020172262321069 -2.5957787020950791 0 0 0 0 -284.27778555631812 -16.780308253373732 0 -16.780308253373732 50.753773112383897 0 0 0 0 -139.72683910134947 -12.556568806868199 0 -12.556568806868199 -117.08214851567527 0 0 0 0 -120.05062639759853 121.06367481405914 0 121.06367481405914 169.68429596230271 0 0 0 0 -0.25878183901659213 0.99375352963852492 0 0.99375352963852492 -40.97228856595757 0 0 0 0 -125.30147546441003 -126.93277385011788 0 -126.93277385011788 67.755862441757927 0 0 0 0 -91.301352717535337 -11.84931571335278 0 -11.84931571335278 7.8932442281370641 0 0 0 0 -16.422438922862057 15.056343674395521 0 15.056343674395521 9.8910779580508006 0 0 0 0 -19.882681331505466 10.146102681034009 0 10.146102681034009 0.39315627831884736 0 0 0 0 -76.055236516098404 17.074435639884307 0 17.074435639884307 4.8481259177852607 0 0 0 0 -84.21000693005044 52.095781402596913 0 52.095781402596913 110.65882205807429 0 0 0 0 -111.941018379046 39.246743986049069 0 39.246743986049069 58.088806947761441 0 0 0 0 -35.310981854156125 21.113948077282657 0 21.113948077282657 45.783051396595056 0 0 0 0 -157.47443608613685 58.429466670850161 0 58.429466670850161 51.013890968689338 0 0 0 0 -243.16252026503207 -59.563844994128431 0 -59.563844994128431 75.257757636500173 0 0 0 0 -182.90756198816234 30.793527630416065 0 30.793527630416065 254.73728228345385 0 0 0 0 -227.96710268923198 -112.74779388230945 0 -112.74779388230945 22.072892301676802 0 0 0 0 -70.87435141793992 8.7367809617616672 0 8.7367809617616672 11.387601689561148 0 0 0 0 -279.09538013581187 10.916585175917135 0 10.916585175917135 79.516527808606043 0 0 0 0 -118.33173390232952 -20.692369086688686 0 -20.692369086688686 23.51551847926752 0 0 0 0 8.0689877874423246 6.8461361295573226 0 6.8461361295573226 -2.5772686966709877 0 0 0 0 -18.670651731357509 -10.558641366478668 0 -10.558641366478668 3.1460990715007959 0 0 0 0 -205.32129393535433 31.589061969238173 0 31.589061969238173 152.45829427951321 0 0 0 0 -180.96589300394407 63.776711599935425 0 63.776711599935425 -1.6423381542426796 0 0 0 0 -108.1532769670448 -67.75006596621688 0 -67.75006596621688 -134.81777319341927 0 0 0 0 -2.4851829346298473 146.32047385224269 0 146.32047385224269 -46.26718244540416 0 0 0 0 -241.78943563139183 12.664053075653555 0 12.664053075653555 85.374597634167458 0 0 0 0 -183.28041885890343 -149.79141557876642 0 -149.79141557876642 -286.21498593002434 0 0 0 0 -271.97753615921829 -5.3235374730629701 0 -5.3235374730629701 -68.332596443085549 0 0 0 0 -25.945293594048508 2.529717069161066 0 2.529717069161066 -6.1899506639320023 0 0 0 0 -226.42527787674771 -110.81606547024194 0 -110.81606547024194 -23.119527854523767 0 0 0 0 -47.680504028323412 -94.507751688220367 0 -94.507751688220367 -41.343623233973631 0 0 0 0 -49.234525850031332 -3.3809443756115769 0 -3.3809443756115769 -12.070268843586737 0 0 0 0 -45.35728453109914 18.837482458966406 0 18.837482458966406 10.498320069125384 0 0 0 0 -56.086850693595437 19.128569660308699 0 19.128569660308699 -7.249631307650521 0 0 0 0 -107.02230601804331 -3.9955343258625362 0 -3.9955343258625362 -74.110350362840109 0 0 0 0 -70.291158795569146 24.39747936509459 0 24.39747936509459 -12.772208042877587 0 0 0 0 -270.21793007553788 -118.5557473646486 0 -118.5557473646486 61.543594431585348 0 0 0 0 -42.88602269779949 -29.872603577426389 0 -29.872603577426389 -155.72889619766124 0 0 0 0 -73.235312828064139 -13.221696886428761 0 -13.221696886428761 -3.0486309529081446 0 0 0 0 -93.703325621216209 -14.681855996636386 0 -14.681855996636386 -21.946482220888555 0 0 0 0 -655.89048888369143 -455.97665346327506 0 -455.97665346327506 -337.37237677269013 0 0 0 0 -195.80087528996592 -259.07835155817099 0 -259.07835155817099 -370.24252002147114 0 0 0 0 -276.67531828301435 -129.82676229155311 0 -129.82676229155311 -281.9642121505708 0 0 0 0 -527.57816464526695 -193.91797344639713 0 -193.91797344639713 -565.62202642304806 0 0 0 0 -260.75106160542055 -367.87403459440725 0 -367.87403459440725 -455.95098167422293 0 0 0 0 -286.6642659187637 -227.89249463589397 0 -227.89249463589397 -109.13890662779463 0 0 0 0 -308.60398245602846 -532.17201176221567 0 -532.17201176221567 -605.7513316102187 0 0 0 0 -407.18362534954213 -680.80105726745285 0 -680.80105726745285 -807.91301504797991 0 0 0 0 -453.69876338513859 -900.81383447169424 0 -900.81383447169424 -822.30449280835353 0 0 0 0 -79.181344192518736 -328.8518401038491 0 -328.8518401038491 -839.40176925134665 0 0 0 0 -90.179853123248904 -53.336305920501218 0 -53.336305920501218 -166.89408498117427 0 0 0 0 -101.84390525898198 -84.850036249752975 0 -84.850036249752975 -98.067444913163911 0 0 0 0 -130.63053334070719 44.638644113722876 0 44.638644113722876 1.2361386564130044 0 0 0 0 -61.392584693458048 135.74741311292473 0 135.74741311292473 77.677845548809273 0 0 0 0 -3.9618187804929903 -0.0064862425664955481 0 -0.0064862425664955481 3.942398460567234 0 0 0 0 -194.02803999046046 -110.12486310465049 0 -110.12486310465049 -34.199246730293908 0 0 0 0 -155.8010236020491 -344.77737829301418 0 -344.77737829301418 -511.91911266615466 0 0 0 0 -621.95559161697747 -896.0416352006232 0 -896.0416352006232 -278.64133837004084 0 0 0 0 -334.22340783065738 -617.93109491293046 0 -617.93109491293046 -380.59163933134641 0 0 0 0 -291.84676474140724 -538.66093468496115 0 -538.66093468496115 -303.91521440426453 0 0 0 0 -540.51848517036706 -455.21734314185107 0 -455.21734314185107 20.075153579157359 0 0 0 0 -1181.5345401462109 -775.84819718042013 0 -775.84819718042013 -443.44338231017514 0 0 0 0 -373.09557795264118 -583.42888657288904 0 -583.42888657288904 -399.77863386497404 0 0 0 0 -572.62340655409207 -848.05814308537026 0 -848.05814308537026 -734.66800065965572 0 0 0 0 -286.08039836597163 -439.6333022480261 0 -439.6333022480261 -566.03601428115985 0 0 0 0 -259.14162257837233 -429.07061797962956 0 -429.07061797962956 -608.62044920848984 0 0 0 0 -50.721834416759066 -12.0425851968205 0 -12.0425851968205 -2.083645017083736 0 0 0 0 -98.505177236685995 -181.37633114225082 0 -181.37633114225082 188.97931545329098 0 0 0 0 24.530087107952568 -39.133524258134571 0 -39.133524258134571 -59.530927676335182 0 0 0 0 -680.81654945635819 -1607.6406976893304 0 -1607.6406976893304 -3029.0335025136947 0 0 0 0 -1465.5121120980475 746.40201130512889 0 746.40201130512889 -50.059435230872083 0 0 0 0 -19.315198956412416 -4.98464864394826 0 -4.98464864394826 -2.4656783051101008 0 0 0 0 -277.27695649077714 -629.26465077645548 0 -629.26465077645548 -1351.37003943642 0 0 0 0 -887.53169340513705 -1317.8340481040816 0 -1317.8340481040816 -819.97851150270208 0 0 0 0 -1151.0977632532304 -483.62778228907155 0 -483.62778228907155 290.81754628757403 0 0 0 0 -1002.3646185495018 -689.96997603896898 0 -689.96997603896898 831.34353625820495 0 0 0 0 -579.44509517466213 -643.44161453612435 0 -643.44161453612435 -645.19625453119261 0 0 0 0 -2902.2404785626131 -936.95896719887696 0 -936.95896719887696 -646.28098599137979 0 0 0 0 -3490.2087550233482 854.39437564292257 0 854.39437564292257 -1646.0152776920663 0 0 0 0 438.43870596258785 1054.6115905771344 0 1054.6115905771344 -1435.3457260138293 0 0 0 0 -1241.5462958767348 1526.3223762564689 0 1526.3223762564689 -1524.0819383373239 0 0 0 0 134.39817540592048 186.21349325549454 0 186.21349325549454 206.34639680164764 0 0 0 0 -10.749894882313157 5.7907949501183396 0 5.7907949501183396 -2.461896248239301 0 0 0 0 -3497.3611567736807 -1583.5164710392251 0 -1583.5164710392251 -383.21218270229855 0 0 0 0 -2410.6803266293355 -506.20292233593341 0 -506.20292233593341 235.12355967693262 0 0 0 0 -4.0930063912625485 1.0716145510609039 0 1.0716145510609039 3.8060060228114008 0 0 0 0 -792.19098269171081 8.0901213099585902 0 8.0901213099585902 712.12353742809682 0 0 0 0 521.4764452802483 847.65538782402336 0 847.65538782402336 1248.5771690336373 0 0 0 0 -24.028952341555112 13.222415509983023 0 13.222415509983023 0.7863777490672903 0 0 0 0 -454.4264160466264 -431.83334319560868 0 -431.83334319560868 14.751027833164358 0 0 0 0 -24.416223116451874 -49.807862576140451 0 -49.807862576140451 60.801254161489055 0 0 0 0 38.63011471403297 7.1056524611597069 0 7.1056524611597069 42.415300401786908 0 0 0 0 -275.79169535389519 366.13043595305908 0 366.13043595305908 531.95356212268837 0 0 0 0 1.8407518310659157 1.5674296262139222 0 1.5674296262139222 2.8178848154607161 0 0 0 0 -56.269582070381148 -23.186881084561719 0 -23.186881084561719 -12.113408277370581 0 0 0 0 58.385186927058385 73.97774976433675 0 73.97774976433675 -28.402118540243009 0 0 0 0 -75.695600227394607 -20.799250172754 0 -20.799250172754 1.0079711696653249 0 0 0 0 -11.171532672285394 10.980791157189842 0 10.980791157189842 8.6542224559612446 0 0 0 0 -11.648405121615582 3.11943134673092 0 3.11943134673092 0.38786517503919909 0 0 0 0 -1842.4444037378271 96.901142091859171 0 96.901142091859171 518.31624037701238 0 0 0 0 81.045806853013346 -91.032495000482413 0 -91.032495000482413 -14.488674073415496 0 0 0 0 -2693.8614518851646 -1116.5400537319701 0 -1116.5400537319701 -163.35704477777526 0 0 0 0 -3367.197938737605 -755.3351767880398 0 -755.3351767880398 292.28545756592086 0 0 0 0 -3498.449563477312 -918.20173212921611 0 -918.20173212921611 58.144258187608152 0 0 0 0 -2201.2013577430916 -715.97253417933405 0 -715.97253417933405 -441.10023727871993 0 0 0 0 -11.451402287755968 6.8712518873089579 0 6.8712518873089579 -5.6633383139812015 0 0 0 0 -3128.0862151807996 -482.07058032500538 0 -482.07058032500538 170.69166036282294 0 0 0 0 -3498.2436244074124 -68.30547570667737 0 -68.30547570667737 167.47373370779195 0 0 0 0 -3013.6219229401395 -26.104375925404028 0 -26.104375925404028 -408.75343235217258 0 0 0 0 -2648.3497337010849 156.93265259455316 0 156.93265259455316 214.67493338470211 0 0 0 0 -3502.7107959225714 353.27302697296807 0 353.27302697296807 289.08887700043294 0 0 0 0 -2636.7752104686442 -250.84289933416073 0 -250.84289933416073 -561.65245535771191 0 0 0 0 -2616.9567236342691 278.63079540802738 0 278.63079540802738 370.89430721230883 0 0 0 0 -2278.4232071988517 -690.20213063410449 0 -690.20213063410449 122.78641085401514 0 0 0 0 -569.30447287546122 173.30123675385974 0 173.30123675385974 -368.74013926782072 0 0 0 0 -79.182827455093502 319.84271729566012 0 319.84271729566012 -489.76069101429289 0 0 0 0 -9.5897060852157665 -247.42584237672907 0 -247.42584237672907 -7.2120602507038711 0 0 0 0 -1542.9540188023311 -211.38610948918625 0 -211.38610948918625 -177.63026178533471 0 0 0 0 78.504476426336623 -38.072544843264325 0 -38.072544843264325 -69.224164688826022 0 0 0 0 93.386430061793362 -69.087072879813888 0 -69.087072879813888 -416.3117956775136 0 0 0 0 -570.34414572285459 162.44777411580179 0 162.44777411580179 54.926334576012806 0 0 0 0 -27.32304259109543 20.066506596255451 0 20.066506596255451 -14.318351753902697 0 0 0 0 297.08324796284069 107.10178726743914 0 107.10178726743914 -102.77031221231806 0 0 0 0 224.95934283784663 11.008125010467722 0 11.008125010467722 -491.8487821804265 0 0 0 0 -378.16390020512517 -159.94444682935369 0 -159.94444682935369 38.927958055563749 0 0 0 0 -22.855281363954788 14.56951210978297 0 14.56951210978297 -7.8447880204292355 0 0 0 0 333.36019537918764 545.78612021489471 0 545.78612021489471 379.4782196481213 0 0 0 0 -312.81722726229054 -111.10432567064981 0 -111.10432567064981 -115.86494950800761 0 0 0 0 -428.57886852348747 324.30762695432804 0 324.30762695432804 -426.28328497099574 0 0 0 0 -992.07501694229722 -446.45328956256139 0 -446.45328956256139 -157.46809422418062 0 0 0 0 -225.91542424030922 -402.39312233116061 0 -402.39312233116061 -562.04450172748693 0 0 0 0 184.84440227003506 509.8724682796892 0 509.8724682796892 24.589042569440608 0 0 0 0 359.67271332585733 300.90358498764601 0 300.90358498764601 -36.394067139378421 0 0 0 0 -6.7300418214617537 5.3977171683786622 0 5.3977171683786622 -4.6025035083311954 0 0 0 0 58.536147962445739 161.48448428584692 0 161.48448428584692 178.0911373030267 0 0 0 0 64.840183513399097 396.72667159628963 0 396.72667159628963 121.68975409806626 0 0 0 0 58.36793708825644 -6.8241973102933855 0 -6.8241973102933855 -66.585571741929016 0 0 0 0 -0.29079752284451388 214.65002827015633 0 214.65002827015633 305.271471736698 0 0 0 0 -37.710880613504088 27.666975665525257 0 27.666975665525257 -23.634600826122742 0 0 0 0 -16.149239527381809 -1.8252312478877002 0 -1.8252312478877002 5.3677207215602891 0 0 0 0 23.723860939444876 5.2151122552843505 0 5.2151122552843505 -67.459339291466904 0 0 0 0 -74.050361000399789 171.28758937212297 0 171.28758937212297 295.44415860700246 0 0 0 0 -201.02829999753158 81.572817615975509 0 81.572817615975509 273.62389360194061 0 0 0 0 96.622801116216579 452.6566537664562 0 452.6566537664562 355.5244069934397 0 0 0 0 -125.49299513875303 29.019798472968432 0 29.019798472968432 201.1806702019494 0 0 0 0 -760.75819562448123 -381.28372925138365 0 -381.28372925138365 22.200868528263527 0 0 0 0 -650.74715464756446 455.66096898071373 0 455.66096898071373 199.59785897955862 0 0 0 0 -384.16137343111768 -63.687294572167048 0 -63.687294572167048 288.51595119660578 0 0 0 0 -34.485574087524583 -88.641203091419811 0 -88.641203091419811 32.670698155474383 0 0 0 0 -110.42750294529833 -174.14069168795095 0 -174.14069168795095 -139.08375363636421 0 0 0 0 -174.36260522712837 -281.92201417531123 0 -281.92201417531123 -135.936037239717 0 0 0 0 -178.48004092912015 10.5245397521021 0 10.5245397521021 214.1296218360676 0 0 0 0 -124.89006594096281 -14.484289457527893 0 -14.484289457527893 15.148366031562546 0 0 0 0 -50.772424708684412 58.393469576521852 0 58.393469576521852 190.21828474815447 0 0 0 0 -73.245081146785282 -18.953461566633436 0 -18.953461566633436 13.673852622978906 0 0 0 0 -111.45770091262375 -312.18374800893093 0 -312.18374800893093 109.86952788154849 0 0 0 0 -170.06972788968415 104.85535245777373 0 104.85535245777373 163.90604185333359 0 0 0 0 -234.18085646452528 -104.78112492514879 0 -104.78112492514879 84.29084877103287 0 0 0 0 0.25357033844924359 -0.63969414888300946 0 -0.63969414888300946 -4.1529431874218403 0 0 0 0 240.13286541734124 -138.1967563681676 0 -138.1967563681676 -241.87329881578489 0 0 0 0 -36.9783180310842 146.23624108345575 0 146.23624108345575 -112.05377988541659 0 0 0 0 -338.45485059454222 87.770308816094257 0 87.770308816094257 184.35701425648222 0 0 0 0 83.993854363950959 -327.3633626054102 0 -327.3633626054102 -280.12428181098221 0 0 0 0 129.57896502977019 184.86657928477933 0 184.86657928477933 -156.89194832638634 0 0 0 0 -0.41301055704061795 1.9409728678586049 0 1.9409728678586049 -8.0476122528510174 0 0 0 0 -43.92638438710128 96.353103994457797 0 96.353103994457797 -68.554707938026922 0 0 0 0 -3.7772009980684373 18.381718260282675 0 18.381718260282675 -4.184189619868615 0 0 0 0 -107.91558113987048 16.916871872459524 0 16.916871872459524 0.80345863477305102 0 0 0 0 -154.55781131372351 -44.061173214262453 0 -44.061173214262453 52.11617174327057 0 0 0 0 -39.683311171502282 46.009738145894289 0 46.009738145894289 -45.620822178098024 0 0 0 0 -65.875840077736939 21.801824934547312 0 21.801824934547312 44.173214291542536 0 0 0 0 -409.92084367548523 -57.789537688273072 0 -57.789537688273072 122.6347226599446 0 0 0 0 -240.46776361976663 48.999468090804385 0 48.999468090804385 135.3627011550202 0 0 0 0 -80.207110425337305 -3.0884435804791792 0 -3.0884435804791792 15.685503229472033 0 0 0 0 -62.097704782830988 27.659136071131059 0 27.659136071131059 13.873591844545899 0 0 0 0 -0.89594279628526152 2.9890460670262371 0 2.9890460670262371 -8.1166927112038358 0 0 0 0 -7.2841256973373163 19.658276124727017 0 19.658276124727017 -7.1572217749790923 0 0 0 0 -37.61177766552828 72.02441037669189 0 72.02441037669189 -35.962351311412931 0 0 0 0 0.26938077972348395 -0.22179374714930589 0 -0.22179374714930589 -1.5124857176879765 0 0 0 0 -6.4877293618674088 19.918779354425503 0 19.918779354425503 -9.3564830333471036 0 0 0 0 39.480218972574221 7.2132528284564614 0 7.2132528284564614 8.4012663670046095 0 0 0 0 59.398774235791279 24.42278852206482 0 24.42278852206482 -4.2542030362192236 0 0 0 0 -0.27379647703128285 106.8326274087712 0 106.8326274087712 -8.2453338499626625 0 0 0 0 49.206829451235535 34.475862584346942 0 34.475862584346942 -7.4346766178387043 0 0 0 0 -22.279108070576513 -10.000022369466137 0 -10.000022369466137 40.325983414411894 0 0 0 0 -4.8720892439947079 5.004870132456773 0 5.004870132456773 -0.010784786947308334 0 0 0 0 -13.451478648471223 21.348700102236421 0 21.348700102236421 -23.520790022049145 0 0 0 0 -6.8750758984784568 1.9268664301097473 0 1.9268664301097473 5.70190244717962 0 0 0 0 -14.472438654920552 -29.305967897176743 0 -29.305967897176743 45.090632267085311 0 0 0 0 29.841197915132312 13.971126475612976 0 13.971126475612976 -32.685303524165924 0 0 0 0 34.482982991865356 21.078113855989614 0 21.078113855989614 -90.121148889375036 0 0 0 0 -0.50999800303281972 2.7975111227189302 0 2.7975111227189302 -7.0980267963150174 0 0 0 0 -23.974551048282592 11.732953503058638 0 11.732953503058638 -9.2050629277914595 0 0 0 0 -55.141454087613965 -12.591650565775467 0 -12.591650565775467 -68.885575978695698 0 0 0 0 9.427409455038287 6.0636404935724286 0 6.0636404935724286 -7.168829781036516 0 0 0 0 -21.537476285586308 13.737710856162778 0 13.737710856162778 -18.756192191607624 0 0 0 0 -139.49368571666855 -12.237212639330096 0 -12.237212639330096 27.632535126480548 0 0 0 0 -161.93181292770169 -73.111932670958382 0 -73.111932670958382 -55.549707897927647 0 0 0 0 -181.41410895372974 -60.471990755159595 0 -60.471990755159595 7.5133110828448935 0 0 0 0 -102.12362294078048 -51.835655245799913 0 -51.835655245799913 -25.757404156815426 0 0 0 0 -144.41360065696063 1.428725012532766 0 1.428725012532766 -70.419249863186124 0 0 0 0 -183.41500403812097 -128.98509094552588 0 -128.98509094552588 -113.9193031954926 0 0 0 0 -127.09929730499061 10.841204855321273 0 10.841204855321273 -151.29952501957467 0 0 0 0 -67.247503655802575 -24.573372179459113 0 -24.573372179459113 -157.28030753719261 0 0 0 0 -268.06551377208234 -145.60789048605432 0 -145.60789048605432 9.312604801098928 0 0 0 0 -206.43129347242575 -112.68242750529797 0 -112.68242750529797 -88.452553773684258 0 0 0 0 -262.68823473789234 -129.20909822627738 0 -129.20909822627738 33.863295801289496 0 0 0 0 -164.32226306672237 -62.394896789249287 0 -62.394896789249287 9.1672082382480085 0 0 0 0 -264.73364898153523 -117.41887035781951 0 -117.41887035781951 -5.0345475390444108 0 0 0 0 -205.40586240416087 -33.615899243537399 0 -33.615899243537399 57.948507165901447 0 0 0 0 -288.32153712279978 -93.075919686367911 0 -93.075919686367911 24.337057689677295 0 0 0 0 -361.00077939791117 -184.72968685005262 0 -184.72968685005262 9.0190745606773817 0 0 0 0 -286.27608637714002 -99.482016109870528 0 -99.482016109870528 35.968768151850895 0 0 0 0 -356.45123720306947 -148.31413020655174 0 -148.31413020655174 40.602879032786859 0 0 0 0 -294.67348831428535 -188.46777050991022 0 -188.46777050991022 39.398261271107593 0 0 0 0 -31.207847682555837 17.120998285427127 0 17.120998285427127 -6.42730326569386 0 0 0 0 -282.0905528010112 70.719915821849241 0 70.719915821849241 402.95363941764731 0 0 0 0 -247.29266760925384 -185.38465391143421 0 -185.38465391143421 -0.20014476392952929 0 0 0 0 -268.15329696958543 -148.75811457827837 0 -148.75811457827837 -45.3993958925073 0 0 0 0 -300.92112485592952 -169.05917449993078 0 -169.05917449993078 -54.4834715176911 0 0 0 0 -120.07909511872276 -118.9935630069842 0 -118.9935630069842 -287.21765381673879 0 0 0 0 -223.41044028855322 -204.73182236314847 0 -204.73182236314847 -205.14343375798197 0 0 0 0 -320.53802858991548 -244.87551206399752 0 -244.87551206399752 -288.18488880557965 0 0 0 0 -646.47144222419956 252.08219533961415 0 252.08219533961415 -489.14892135766502 0 0 0 0 -152.17782108987012 -249.84940023604543 0 -249.84940023604543 -96.800962752935334 0 0 0 0 -1609.4082289377038 118.84797165615927 0 118.84797165615927 -13.16703284523615 0 0 0 0 -1611.3060993148429 370.08155930382321 0 370.08155930382321 257.1513973851313 0 0 0 0 -3489.9042062128501 1212.4641305388445 0 1212.4641305388445 76.533659543213147 0 0 0 0 -392.96431951485283 1119.7376621958167 0 1119.7376621958167 -552.6363653699151 0 0 0 0 -3494.7442699114545 -1597.9038280466661 0 -1597.9038280466661 104.00131596615921 0 0 0 0 -17.094552905710259 6.6996768554155679 0 6.6996768554155679 -3.1465177566549158 0 0 0 0 -2724.859022541008 8.515657061917949 0 8.515657061917949 690.83800836082412 0 0 0 0 -563.04867385849502 825.884108441742 0 825.884108441742 610.45872203398221 0 0 0 0 -2196.758971471907 -1157.6751313269692 0 -1157.6751313269692 252.97383864134474 0 0 0 0 -3500.9040940921982 -1028.1792579850769 0 -1028.1792579850769 476.34627379411205 0 0 0 0 -134.85799607219451 -81.858671037360864 0 -81.858671037360864 173.08918976024734 0 0 0 0 -74.693456090208201 53.50863768818499 0 53.50863768818499 2.3000854812667058 0 0 0 0 -69.736638671323817 163.5084036197494 0 163.5084036197494 20.008774195176557 0 0 0 0 -245.56809675399563 54.936619617958058 0 54.936619617958058 -37.447804841581728 0 0 0 0 -159.77949181985423 209.8695614896817 0 209.8695614896817 -256.08192967655759 0 0 0 0 -301.84211261610835 -11.985353011326197 0 -11.985353011326197 -14.697331697165282 0 0 0 0 -338.30075484380359 123.88028774552595 0 123.88028774552595 -118.91718453234444 0 0 0 0 -67.212408104503993 -44.371589690053497 0 -44.371589690053497 -22.096869477658402 0 0 0 0 -37.723257382211159 -81.641176097303287 0 -81.641176097303287 -69.895423026207936 0 0 0 0 -212.40549085765815 -98.592647326432598 0 -98.592647326432598 88.423560793674824 0 0 0 0 -44.584496627125191 -35.921677589870342 0 -35.921677589870342 106.76816714603069 0 0 0 0 -104.75874168510563 -17.560451823772951 0 -17.560451823772951 228.64623435228532 0 0 0 0 -79.916221811180804 13.928505264034866 0 13.928505264034866 -1.675206247400054 0 0 0 0 -83.558260885940399 112.64007866049147 0 112.64007866049147 178.41194167865893 0 0 0 0 -31.989819709498988 59.821835672175681 0 59.821835672175681 133.5552210234641 0 0 0 0 -84.048058050349937 125.52353940152261 0 125.52353940152261 179.40011055375962 0 0 0 0 -203.05951223594457 81.494694178539447 0 81.494694178539447 399.47767631171791 0 0 0 0 -92.168014029450148 14.172183769404963 0 14.172183769404963 -0.6280025609520572 0 0 0 0 -188.11152294738531 40.322517667073384 0 40.322517667073384 404.3166734638362 0 0 0 0 -145.71295180150719 -113.12217986236625 0 -113.12217986236625 155.7021179758965 0 0 0 0 -218.49179979332257 -6.5302327364553037 0 -6.5302327364553037 317.47113602466533 0 0 0 0 -208.82935569890833 -55.865323855828365 0 -55.865323855828365 76.500493964511946 0 0 0 0 -191.23356670557405 -59.911204806243376 0 -59.911204806243376 76.591919084488353 0 0 0 0 -308.71914798040962 202.75198739730513 0 202.75198739730513 80.801215891518098 0 0 0 0 -232.80435075126297 -48.578271264675266 0 -48.578271264675266 115.94098492973038 0 0 0 0 -99.276585093389343 8.7395687514832883 0 8.7395687514832883 1.3938925284154307 0 0 0 0 -286.47552967769298 99.140155007972226 0 99.140155007972226 396.09756912378657 0 0 0 0 -98.155488647484589 16.764693183946193 0 16.764693183946193 -1.4140870638889058 0 0 0 0 -216.93237760844931 -23.336369688353557 0 -23.336369688353557 30.442790934678669 0 0 0 0 -257.40759309848363 10.96572414155105 0 10.96572414155105 28.47191900267708 0 0 0 0 -100.52296901979999 -30.782539349075385 0 -30.782539349075385 16.695461109703579 0 0 0 0 -224.76166532526258 -40.844484980100901 0 -40.844484980100901 20.415063052339121 0 0 0 0 -212.60534395115246 -66.593311257672383 0 -66.593311257672383 57.680610439330735 0 0 0 0 -249.34940035130421 -19.198823891894335 0 -19.198823891894335 78.784713193903059 0 0 0 0 -54.850808481578497 -68.113101803176278 0 -68.113101803176278 139.17863194754227 0 0 0 0 -32.389328125736455 -4.3221213580044591 0 -4.3221213580044591 -1.0317922217303668 0 0 0 0 -170.06774334450893 1.8456559729040691 0 1.8456559729040691 -4.1269234614119341 0 0 0 0 -26.880129963819133 17.139844291243207 0 17.139844291243207 1.9220774311288942 0 0 0 0 -177.0797825983318 -30.465355828397605 0 -30.465355828397605 -73.408103418321843 0 0 0 0 -218.21780014065735 -57.638902622166825 0 -57.638902622166825 21.734925396072867 0 0 0 0 -4.1366093791470178 -26.883155610585526 0 -26.883155610585526 4.8878849107634936 0 0 0 0 -148.05681702605216 83.462282498316199 0 83.462282498316199 -83.06762778909183 0 0 0 0 -261.76844690066355 39.107986026962863 0 39.107986026962863 50.261035911727959 0 0 0 0 -90.04625096120435 51.003979356979926 0 51.003979356979926 28.913781200866651 0 0 0 0 -163.54315453933668 -0.85920235678986501 0 -0.85920235678986501 -3.6396263681863275 0 0 0 0 -157.58680041946354 45.232003553352115 0 45.232003553352115 48.771729360610721 0 0 0 0 -140.1217791024992 81.47011731853911 0 81.47011731853911 96.851566865836503 0 0 0 0 -181.79812010058959 182.89649486790086 0 182.89649486790086 254.1667785919808 0 0 0 0 -175.31890460636805 37.672324942923979 0 37.672324942923979 253.24546363319041 0 0 0 0 -136.33195188423997 147.20419689295841 0 147.20419689295841 -10.746744764132927 0 0 0 0 -19.46871642627957 194.46832441875631 0 194.46832441875631 -199.07465141746161 0 0 0 0 1.9405370044260053 118.91487525078264 0 118.91487525078264 -36.471035765060606 0 0 0 0 -71.756816858644015 42.44674138875007 0 42.44674138875007 -28.747756375600147 0 0 0 0 -330.37899275627569 356.2190851537016 0 356.2190851537016 -188.62852069406108 0 0 0 0 -103.36138128995663 41.064491282228573 0 41.064491282228573 -80.93067082147536 0 0 0 0 -16.440573543977479 -10.194307845920839 0 -10.194307845920839 -2.2895028842020935 0 0 0 0 -50.224227286275891 -617.45732997172649 0 -617.45732997172649 9.6851040036690392 0 0 0 0 -225.88678231279482 347.48003276969939 0 347.48003276969939 27.727202539821519 0 0 0 0 186.65598033716924 -195.65717509906199 0 -195.65717509906199 178.01523622341028 0 0 0 0 -165.08862973633586 272.77269110226325 0 272.77269110226325 52.157402275251684 0 0 0 0 -583.7669717521112 -102.61055174536978 0 -102.61055174536978 93.251272243908716 0 0 0 0 -216.62228446030895 79.503592759370122 0 79.503592759370122 122.27850024632335 0 0 0 0 -36.834537158792955 57.937260091151074 0 57.937260091151074 115.55103143713131 0 0 0 0 -177.33265519388624 55.307341111813002 0 55.307341111813002 6.6193646962183266 0 0 0 0 -223.75523379742663 7.3373733725584316 0 7.3373733725584316 124.0671772104688 0 0 0 0 -39.136301323218504 -3.6402946671855716 0 -3.6402946671855716 -7.9703029505981249 0 0 0 0 -31.708655453796382 37.216171171829956 0 37.216171171829956 -37.380813042663704 0 0 0 0 8.9515940234923619 -10.200161779702285 0 -10.200161779702285 14.221840466430876 0 0 0 0 91.188290618672909 62.00901833032367 0 62.00901833032367 -154.54179642831764 0 0 0 0 -3.9875885165526697 3.7405104280491344 0 3.7405104280491344 -3.3049838289911406 0 0 0 0 -179.34460119557843 142.05816484006937 0 142.05816484006937 -64.279389116347375 0 0 0 0 -240.59075123885123 4.4523433269068846 0 4.4523433269068846 9.142795706527977 0 0 0 0 70.705196160688502 100.27941188325713 0 100.27941188325713 38.524677681052367 0 0 0 0 -8.3007432872859042 10.018886664911136 0 10.018886664911136 -11.359941477329198 0 0 0 0 45.634936087077222 -43.093183912958921 0 -43.093183912958921 -132.49142922648025 0 0 0 0 -14.592711452498008 14.898661761403325 0 14.898661761403325 -14.298145418636956 0 0 0 0 47.088058838373399 36.940582457491473 0 36.940582457491473 -48.076453382222098 0 0 0 0 -3.8968628198945225 -83.588968469532574 0 -83.588968469532574 -43.703104757112669 0 0 0 0 -1.9683587261818474 1.5051563600453424 0 1.5051563600453424 -2.9215490212754744 0 0 0 0 -253.88813405651308 28.431631729773926 0 28.431631729773926 160.07096453814847 0 0 0 0 -178.83519401362719 23.308822107940614 0 23.308822107940614 79.321116898952823 0 0 0 0 -219.16231339493788 138.99866567759432 0 138.99866567759432 -12.40664011024819 0 0 0 0 -3.1091879869065764 -0.39837770360170666 0 -0.39837770360170666 1.8004738478831293 0 0 0 0 -78.097749272208603 83.672331510808363 0 83.672331510808363 -107.49029906176656 0 0 0 0 37.67838968293654 17.245003668420395 0 17.245003668420395 -40.243232815391821 0 0 0 0 -27.937196238344768 9.9711853157587029 0 9.9711853157587029 -28.787558345993602 0 0 0 0 7.4399200362022384 6.5822108412012312 0 6.5822108412012312 -9.456436574012514 0 0 0 0 25.049551225813047 27.394233263800743 0 27.394233263800743 -81.107287702325266 0 0 0 0 20.397578441807127 71.49049181411101 0 71.49049181411101 19.378084176869379 0 0 0 0 -247.28342159217118 -2.3410655448500393 0 -2.3410655448500393 22.872416708229139 0 0 0 0 -295.49089600982552 167.52672543036351 0 167.52672543036351 8.9289313017061431 0 0 0 0 -191.80236229389993 95.045742638392767 0 95.045742638392767 53.886968247625191 0 0 0 0 -207.7181034340756 142.03620551389486 0 142.03620551389486 -19.305721373040797 0 0 0 0 -169.75564625710831 97.677644081459221 0 97.677644081459221 9.5200326516933274 0 0 0 0 -178.44822313779878 134.83298129574996 0 134.83298129574996 -65.914710971145723 0 0 0 0 -282.24614701463724 192.17320973356891 0 192.17320973356891 -97.158066339345169 0 0 0 0 -537.42564074003167 26.553569880432406 0 26.553569880432406 23.607455615965591 0 0 0 0 -339.09385672612189 -83.629232767980739 0 -83.629232767980739 -75.37314155679087 0 0 0 0 -395.60176332313131 -96.794461574925663 0 -96.794461574925663 106.44339396296181 0 0 0 0 -20.67948694780921 19.00717719105549 0 19.00717719105549 -11.36011522418282 0 0 0 0 -508.56523572433798 -144.57271435532812 0 -144.57271435532812 105.54245168608395 0 0 0 0 -294.87782348520705 -269.2598123369728 0 -269.2598123369728 127.98125010229614 0 0 0 0 -100.81194673672144 43.141773842772636 0 43.141773842772636 27.604516566854727 0 0 0 0 232.82175854415254 -357.33237423702121 0 -357.33237423702121 120.72114880529159 0 0 0 0 -2.8915404991372071 -2.3178725550743593 0 -2.3178725550743593 -2.4243024775507998 0 0 0 0 -879.96299203570379 451.54295363520578 0 451.54295363520578 -235.95982714750426 0 0 0 0 -255.95090848450855 110.34985566109026 0 110.34985566109026 -182.48307896516417 0 0 0 0 -11.501491530485254 -6.5307354590865572 0 -6.5307354590865572 -2.8466864399081331 0 0 0 0 -508.29019470095227 323.51977575981709 0 323.51977575981709 -227.17833844313577 0 0 0 0 53.711271767951985 62.595717470057934 0 62.595717470057934 -29.11740947683279 0 0 0 0 26.669225472065591 -75.017558536784236 0 -75.017558536784236 -194.50885490477231 0 0 0 0 -275.72113084055309 -146.21979063389881 0 -146.21979063389881 -42.6437924249758 0 0 0 0 -416.74838360212925 -186.2922985487985 0 -186.2922985487985 -35.441962830471311 0 0 0 0 29.006651036805124 -283.81389580057657 0 -283.81389580057657 -161.35265788163815 0 0 0 0 320.61338185672139 738.91693473934356 0 738.91693473934356 369.49212031652678 0 0 0 0 -25.949684489927584 22.422950367157483 0 22.422950367157483 -10.255874636883505 0 0 0 0 -45.485893043623946 255.49775101940031 0 255.49775101940031 -135.57653745603534 0 0 0 0 127.32331747893113 -244.20435061946955 0 -244.20435061946955 2.3362871028484733 0 0 0 0 -718.38336747781432 226.75586988438408 0 226.75586988438408 80.669327805284411 0 0 0 0 550.70518503134008 826.05285541637659 0 826.05285541637659 272.02466994466886 0 0 0 0 -108.92307013730351 299.07680553061641 0 299.07680553061641 -214.62067743460284 0 0 0 0 -480.13486994404775 -472.5838494826553 0 -472.5838494826553 -274.77137557297101 0 0 0 0 -718.00170278968653 -375.10907781868627 0 -375.10907781868627 -277.2295781542598 0 0 0 0 -734.73656243756159 -93.647244987549129 0 -93.647244987549129 -85.91320662216458 0 0 0 0 -1116.4322217777044 -13.97700828060897 0 -13.97700828060897 -265.60386462565111 0 0 0 0 -475.93693407184037 95.913663794238346 0 95.913663794238346 -929.70827594601542 0 0 0 0 -717.40343200057623 428.46187252833556 0 428.46187252833556 -661.28163240418507 0 0 0 0 -652.40228391963319 28.796241194464528 0 28.796241194464528 -370.17577461263136 0 0 0 0 -966.04975047048902 257.80930006093604 0 257.80930006093604 -75.747391469169088 0 0 0 0 -241.73464318558399 -121.66636126207413 0 -121.66636126207413 57.950082409290189 0 0 0 0 142.21378648765676 127.7455862042043 0 127.7455862042043 -379.89127440711673 0 0 0 0 222.91645963205156 -60.709830604744639 0 -60.709830604744639 -294.44795185884868 0 0 0 0 -738.83418550502165 -193.15953596879666 0 -193.15953596879666 -345.52681157086045 0 0 0 0 -129.35270871790271 3.9352625971532689 0 3.9352625971532689 -308.87810612296198 0 0 0 0 28.640012016345281 -324.07950787507798 0 -324.07950787507798 -70.787496711662243 0 0 0 0 -445.47909730591346 -195.32441077151088 0 -195.32441077151088 -126.43004581883361 0 0 0 0 329.91920249980467 800.97330854436768 0 800.97330854436768 -458.65603299690429 0 0 0 0 -25.81930626322719 14.741406434797682 0 14.741406434797682 -628.66303383648483 0 0 0 0 -11.597820596214319 -1.1621268743101396 0 -1.1621268743101396 -1.0472747620540677 0 0 0 0 -21.229270003110287 200.40357185500397 0 200.40357185500397 -365.57157671708865 0 0 0 0 -109.85636057802185 42.976547541376931 0 42.976547541376931 -300.87090605333196 0 0 0 0 -1261.9744412557002 -205.84328041979688 0 -205.84328041979688 -27.885209630308964 0 0 0 0 -8.0981658231544031 7.5005767059780695 0 7.5005767059780695 -5.1361985823970215 0 0 0 0 -274.39632793208057 1059.4713767138076 0 1059.4713767138076 -557.50188029710262 0 0 0 0 615.54076044956673 940.35214409427499 0 940.35214409427499 -550.2382449439192 0 0 0 0 477.08635389961273 -204.59638223185902 0 -204.59638223185902 218.20147315831855 0 0 0 0 -907.9940428844784 -207.16835879832615 0 -207.16835879832615 -99.42593825068252 0 0 0 0 -253.00004105310654 112.57283301654206 0 112.57283301654206 -122.28818190197671 0 0 0 0 -393.84677947432647 291.73532414202873 0 291.73532414202873 -260.86685630194916 0 0 0 0 -123.49455286096418 166.60606054233722 0 166.60606054233722 -201.52956599509162 0 0 0 0 194.11684404063271 15.424133278509544 0 15.424133278509544 -276.96484765760397 0 0 0 0 -405.19964478641123 -49.269401080677198 0 -49.269401080677198 120.60942474156764 0 0 0 0 -1106.3365180577975 394.62183321375142 0 394.62183321375142 -215.39894927397472 0 0 0 0 201.60247457143851 -654.71295342493158 0 -654.71295342493158 -1486.6879543071082 0 0 0 0 12.512350788725598 26.335046785037775 0 26.335046785037775 -78.051962121528049 0 0 0 0 -6.654271073613927 10.788338857098097 0 10.788338857098097 -82.471554342573654 0 0 0 0 7.4291186780392309 27.142420870497517 0 27.142420870497517 -99.410149416680952 0 0 0 0 -10.944662343768869 16.434347079282816 0 16.434347079282816 -89.761531197307704 0 0 0 0 -34.41990651692322 -39.370676296129204 0 -39.370676296129204 -38.384695671975351 0 0 0 0 -29.099077567956783 -7.8492123131018019 0 -7.8492123131018019 -0.80872495808980283 0 0 0 0 -11.705205566064251 -4.3351872695020575 0 -4.3351872695020575 -98.757077910980115 0 0 0 0 -11.844480003533221 7.3729091381166683 0 7.3729091381166683 -75.227630672958185 0 0 0 0 -0.58712239712713199 -11.79481734684623 0 -11.79481734684623 -94.582929914515262 0 0 0 0 -10.082093809402068 3.9018360664449574 0 3.9018360664449574 -65.745251021380682 0 0 0 0 -12.048949951278701 -39.680765773795429 0 -39.680765773795429 -147.08249336152221 0 0 0 0 -28.767871835163533 -37.923127868411939 0 -37.923127868411939 -86.167814773059945 0 0 0 0 -38.64199841966547 -45.208692628026256 0 -45.208692628026256 -55.419436984957429 0 0 0 0 -33.249120254578884 -55.714003684453928 0 -55.714003684453928 -57.713787093589417 0 0 0 0 -32.014614104886277 -37.440578131203438 0 -37.440578131203438 -99.53752016031558 0 0 0 0 -49.303189875208773 -46.369922655372648 0 -46.369922655372648 -50.119492976802576 0 0 0 0 -51.527063061208537 -39.610202924830446 0 -39.610202924830446 -35.090697187653859 0 0 0 0 -42.765621785500116 -20.027393452564866 0 -20.027393452564866 -46.9398598813641 0 0 0 0 51.289583583118656 -57.346472704241933 0 -57.346472704241933 -347.25076489746425 0 0 0 0 -25.473756097790471 -5.3877645640061189 0 -5.3877645640061189 -1.3727217975301418 0 0 0 0 -19.107271040415071 -120.90849305516076 0 -120.90849305516076 -226.1137751442584 0 0 0 0 -44.273637549205887 1.6186422192986356 0 1.6186422192986356 -194.54313798909971 0 0 0 0 -52.110852819692809 -50.670584667532239 0 -50.670584667532239 -93.088010034098261 0 0 0 0 -29.012947821305715 -65.111888812461984 0 -65.111888812461984 -71.375786359272752 0 0 0 0 -47.965501042715914 -40.031716389346911 0 -40.031716389346911 -27.4056171334596 0 0 0 0 -41.040877741401346 -88.240586468198671 0 -88.240586468198671 -70.424145475790283 0 0 0 0 -41.815773567639553 -81.2407309668979 0 -81.2407309668979 -5.535975552362288 0 0 0 0 124.26817613054845 -197.6180799256208 0 -197.6180799256208 -223.22720554474654 0 0 0 0 -97.487596475017199 -63.293279666539092 0 -63.293279666539092 -9.3024029270782194 0 0 0 0 -22.00434886045025 -17.775899494919457 0 -17.775899494919457 18.089181290117267 0 0 0 0 -21.162287885270132 -73.839947981426761 0 -73.839947981426761 3.6086378933177912 0 0 0 0 -43.212646283223883 -31.812380030952706 0 -31.812380030952706 -2.9206317668529191 0 0 0 0 -63.492489774653222 -53.603297852676405 0 -53.603297852676405 48.951500248698721 0 0 0 0 -55.073488409487254 -67.503550322857336 0 -67.503550322857336 -10.399853394017555 0 0 0 0 -43.654944150839583 -23.145947793469531 0 -23.145947793469531 15.638032219860179 0 0 0 0 831.30054126296818 -1024.9127016817147 0 -1024.9127016817147 553.80877251356287 0 0 0 0 -382.68305969390121 88.611246325952834 0 88.611246325952834 309.75856344434851 0 0 0 0 688.3948338825785 -998.86837471487706 0 -998.86837471487706 671.68556455409612 0 0 0 0 97.58579556965924 -66.345070626179222 0 -66.345070626179222 -84.061394058275255 0 0 0 0 -6.5600712576546769 -6.2583495292023308 0 -6.2583495292023308 -3.1503327918679798 0 0 0 0 251.5680176458045 -907.60803307737297 0 -907.60803307737297 660.08604487145158 0 0 0 0 -700.70860960633036 -199.58904864169108 0 -199.58904864169108 649.67711277519629 0 0 0 0 -179.48547004028296 333.06360242248775 0 333.06360242248775 -182.97714667100081 0 0 0 0 77.5539194037583 -324.23669691631721 0 -324.23669691631721 -394.50270501727755 0 0 0 0 -20.567432608080114 -2.5930622516031896 0 -2.5930622516031896 8.5999031440210576 0 0 0 0 -43.315004797965244 -36.104164795712641 0 -36.104164795712641 -6.7908653838049933 0 0 0 0 -58.097833215604624 -50.788765440134739 0 -50.788765440134739 -16.086266621459799 0 0 0 0 -72.05585108672858 -37.573564638551034 0 -37.573564638551034 -27.143387166797766 0 0 0 0 -64.178421311482452 -42.984344617894749 0 -42.984344617894749 -25.966905273555312 0 0 0 0 -57.687011261688895 -46.596234984299372 0 -46.596234984299372 -30.132383595268038 0 0 0 0 -50.609049310653063 -53.95398887205738 0 -53.95398887205738 -35.812530504750612 0 0 0 0 -57.663227187730058 -47.663273494498185 0 -47.663273494498185 -27.923048566808575 0 0 0 0 -77.310979946436419 78.79736724102986 0 78.79736724102986 240.53691163579037 0 0 0 0 -46.060932284952287 -57.462783865488746 0 -57.462783865488746 -22.551178789579353 0 0 0 0 -30.665501594565285 -56.683651694012951 0 -56.683651694012951 -32.487275630038312 0 0 0 0 -48.851923911701306 -49.122875229661076 0 -49.122875229661076 -34.841323729247961 0 0 0 0 -39.141890220918867 -56.588004496672511 0 -56.588004496672511 -29.828563713126641 0 0 0 0 -18.783897774010256 -39.165677105629584 0 -39.165677105629584 -24.98174887377445 0 0 0 0 -757.8887678727574 161.75205191531313 0 161.75205191531313 111.86966915245921 0 0 0 0 1076.9529762121892 -836.55212506493626 0 -836.55212506493626 668.87261728203885 0 0 0 0 -1618.1692130855333 -160.87911330587394 0 -160.87911330587394 161.19738928764127 0 0 0 0 -1479.9494597832463 -74.348658372346108 0 -74.348658372346108 118.32432707986209 0 0 0 0 -1566.605714621413 -304.25615587232642 0 -304.25615587232642 45.136309697292745 0 0 0 0 -1178.1558461086943 14.51264952667043 0 14.51264952667043 142.25408149071882 0 0 0 0 -556.97521614853395 130.68354113536589 0 130.68354113536589 -170.48313454658637 0 0 0 0 -1172.1883548856631 451.77962120809934 0 451.77962120809934 676.23582795146831 0 0 0 0 -1745.4687519942745 1818.240432502047 0 1818.240432502047 -479.45413677583201 0 0 0 0 -1020.036802487999 -283.47595222858581 0 -283.47595222858581 -375.40458397530529 0 0 0 0 426.05768447233731 -54.985737923583656 0 -54.985737923583656 54.288154897827553 0 0 0 0 -40.9455422374958 -9.359525028392401 0 -9.359525028392401 40.01732131709845 0 0 0 0 401.58100326989387 -98.265073162573572 0 -98.265073162573572 92.201631103482214 0 0 0 0 -403.05576730628036 -21.683329533279903 0 -21.683329533279903 702.65823977286345 0 0 0 0 -116.44297194385581 -54.027353611416402 0 -54.027353611416402 55.789905580946652 0 0 0 0 27.433542223120639 -30.164654591528233 0 -30.164654591528233 -82.319053835428349 0 0 0 0 -530.40135713682957 70.454179810811183 0 70.454179810811183 -34.088816947969462 0 0 0 0 32.36772192712192 301.22329186623847 0 301.22329186623847 -98.070696679162211 0 0 0 0 206.54840313990007 279.75732656105083 0 279.75732656105083 -215.84951258045112 0 0 0 0 1.401035967822267 -5.2614692587205294 0 -5.2614692587205294 10.973234627566626 0 0 0 0 -101.46166115108008 -7.1115213571629283 0 -7.1115213571629283 6.0403216595659615 0 0 0 0 -5.4279972956218785 8.5564678606066806 0 8.5564678606066806 26.483870615893238 0 0 0 0 -167.5185212328106 -54.171022941412957 0 -54.171022941412957 116.22096840916311 0 0 0 0 -1037.3086475357286 1091.7988591738983 0 1091.7988591738983 -470.20928544471826 0 0 0 0 -412.52170657818215 -220.87202188258016 0 -220.87202188258016 -49.188598746588013 0 0 0 0 -45.748515389379193 -21.835631971997621 0 -21.835631971997621 6.3999272059041736 0 0 0 0 105.39115072972709 39.004917998418932 0 39.004917998418932 -87.021447897946928 0 0 0 0 -175.97055159892261 65.514528097533912 0 65.514528097533912 37.7155153279964 0 0 0 0 -42.888857011770597 69.81521488398721 0 69.81521488398721 -23.403173423914268 0 0 0 0 -124.88671487451575 -88.38847244567296 0 -88.38847244567296 678.14624363233088 0 0 0 0 174.4135997494003 -227.50344095673003 0 -227.50344095673003 319.11403050080844 0 0 0 0 -11.258074889369306 -8.6731136163197355 0 -8.6731136163197355 -6.3393939757114417 0 0 0 0 -10.8736400209816 876.50374188565775 0 876.50374188565775 -841.10181518590434 0 0 0 0 919.59747051326485 -983.28657219035813 0 -983.28657219035813 381.76150755133494 0 0 0 0 633.69155862891785 -302.3844460117034 0 -302.3844460117034 509.81125610133313 0 0 0 0 -49.213197908218852 -17.176688389523648 0 -17.176688389523648 -0.10971597101558572 0 0 0 0 -91.456575050843639 -182.71419442026513 0 -182.71419442026513 266.66713988389165 0 0 0 0 -859.97224775650056 251.93327216793978 0 251.93327216793978 -316.21349764758543 0 0 0 0 -569.14454470742248 672.92874049612692 0 672.92874049612692 -685.6282911807466 0 0 0 0 -38.135822950265066 -25.52415690972067 0 -25.52415690972067 -13.579716375313971 0 0 0 0 329.51191344039216 -633.9702848819943 0 -633.9702848819943 669.73958090541714 0 0 0 0 337.74843356028919 -261.86532362236318 0 -261.86532362236318 238.83969738758606 0 0 0 0 159.85160964371607 -249.66740062035933 0 -249.66740062035933 404.84908014695611 0 0 0 0 138.26166516920057 -224.01290639724903 0 -224.01290639724903 320.51515508611737 0 0 0 0 169.98039390635915 -15.011932911960471 0 -15.011932911960471 77.133415368763963 0 0 0 0 169.62422417514267 -50.491156379473409 0 -50.491156379473409 -47.485470977007935 0 0 0 0 66.107844843678322 -140.10967116214124 0 -140.10967116214124 206.80612752806519 0 0 0 0 210.744454126645 -291.61417147527391 0 -291.61417147527391 141.83923622965085 0 0 0 0 -351.51803802645009 32.617674922982587 0 32.617674922982587 -22.058947803763658 0 0 0 0 -6.7091819213364943 -11.696222056095699 0 -11.696222056095699 -20.425610681273561 0 0 0 0 -381.54197244133593 69.589575234463609 0 69.589575234463609 -64.289935066586622 0 0 0 0 -408.71229416734604 55.532428344521577 0 55.532428344521577 32.23969503931221 0 0 0 0 -374.63483426219318 76.775176530263707 0 76.775176530263707 -15.500888908633897 0 0 0 0 -175.99732167660841 -8.8292980275655282 0 -8.8292980275655282 13.923691159121518 0 0 0 0 -460.9606163817989 48.807249333875916 0 48.807249333875916 46.268990378597664 0 0 0 0 -217.31730746556423 -141.1997276089096 0 -141.1997276089096 163.45253669490194 0 0 0 0 -449.62090932887804 65.554783315346867 0 65.554783315346867 66.505674605101376 0 0 0 0 -531.78923813912479 118.97797025482396 0 118.97797025482396 40.490274482854147 0 0 0 0 -522.09195097069096 195.10766867682469 0 195.10766867682469 -73.410734398941713 0 0 0 0 -663.65512386715272 195.65215460295985 0 195.65215460295985 64.029472957834741 0 0 0 0 -471.85424574875651 -26.923327983225136 0 -26.923327983225136 17.577892481644085 0 0 0 0 -352.70260380401669 102.54602934616923 0 102.54602934616923 146.99520613709319 0 0 0 0 -628.54264381085886 201.16449060970626 0 201.16449060970626 -54.131259266450797 0 0 0 0 -124.27622969357617 22.69941497275795 0 22.69941497275795 -1.5691077698393201 0 0 0 0 -104.13408287522179 -198.14721436447144 0 -198.14721436447144 29.605639014256212 0 0 0 0 -47.176308127076481 -35.904734100042333 0 -35.904734100042333 410.226974319281 0 0 0 0 -4.2553223092119339 -0.83662745235684355 0 -0.83662745235684355 5.7983046580973792 0 0 0 0 -119.92345884127371 -23.933196601283271 0 -23.933196601283271 47.807186365713278 0 0 0 0 228.62898363827844 -236.31682372775322 0 -236.31682372775322 -77.458707437584962 0 0 0 0 -99.780927562358556 -12.148142787875258 0 -12.148142787875258 54.435508353742989 0 0 0 0 129.16039007603104 -166.97823556781145 0 -166.97823556781145 -23.870121216174994 0 0 0 0 -36.797793074571203 -34.062618709688799 0 -34.062618709688799 -8.005403227857439 0 0 0 0 62.720660469931317 -139.03258623160946 0 -139.03258623160946 -30.078015919201789 0 0 0 0 -47.580876604333753 37.227509536276557 0 37.227509536276557 48.737743281464645 0 0 0 0 -153.61352650989011 -43.899790153895083 0 -43.899790153895083 -26.167505683457421 0 0 0 0 -12.191079480416175 -22.518757957757394 0 -22.518757957757394 -34.442800387232609 0 0 0 0 -99.484501623999677 -41.157125329458722 0 -41.157125329458722 -47.242313996473968 0 0 0 0 1.8175744637026128 -6.7370612041164222 0 -6.7370612041164222 -7.4529586907276251 0 0 0 0 -15.612228264044745 -6.9151506611707063 0 -6.9151506611707063 -4.4583913405399969 0 0 0 0 -3497.090044588258 1947.2283091220686 0 1947.2283091220686 -885.69201685509074 0 0 0 0 -313.11559108957954 -1238.2295017472461 0 -1238.2295017472461 -1004.720448265528 0 0 0 0 -108.35659686217332 98.682573595351187 0 98.682573595351187 -254.36401167244207 0 0 0 0 -417.73426933752125 69.259804543287601 0 69.259804543287601 271.13808941581374 0 0 0 0 -634.34555316655315 -499.16207453355969 0 -499.16207453355969 -726.30176486883488 0 0 0 0 -3491.0767360974169 -1518.7886772890445 0 -1518.7886772890445 -2.8702111414641838 0 0 0 0 -1786.4519298367231 -470.54114866616362 0 -470.54114866616362 262.77854723535319 0 0 0 0 -3503.0848151529717 -103.09523116476734 0 -103.09523116476734 406.61016175088884 0 0 0 0 -914.17710504933348 -207.55959846344794 0 -207.55959846344794 -149.06705900488419 0 0 0 0 -1116.3866440522179 -0.65448309298560048 0 -0.65448309298560048 -95.436502841026595 0 0 0 0 -1738.8356379752131 -582.56866108557858 0 -582.56866108557858 -113.62047393220385 0 0 0 0 -641.98101273252178 -270.35118566564984 0 -270.35118566564984 -430.59970747179739 0 0 0 0 -458.6923705489171 131.59282322398974 0 131.59282322398974 5.957924425018831 0 0 0 0 -708.15469927313825 107.86080202710284 0 107.86080202710284 -281.81974418142022 0 0 0 0 -112.80349351913992 48.112854237686406 0 48.112854237686406 -194.12927016543767 0 0 0 0 -189.18846406986631 -217.60712410811095 0 -217.60712410811095 -292.38822992621675 0 0 0 0 -268.01261821554181 171.11910631461842 0 171.11910631461842 -83.485587287996623 0 0 0 0 -64.839659331861185 28.380761282438812 0 28.380761282438812 -270.50203699409656 0 0 0 0 -491.58873094937826 130.12499884524996 0 130.12499884524996 -189.82662153553315 0 0 0 0 -302.21921646938426 26.011673900465439 0 26.011673900465439 -169.80704055399724 0 0 0 0 -244.80882027584448 171.89783941020823 0 171.89783941020823 -104.85798054042641 0 0 0 0 -265.5188763486658 145.99714728091942 0 145.99714728091942 103.13278446680397 0 0 0 0 -132.031860087518 152.71561032185105 0 152.71561032185105 -90.33569776145589 0 0 0 0 -99.007454761933332 75.944008453373726 0 75.944008453373726 20.259812845166834 0 0 0 0 19.840381143141713 163.12497463956981 0 163.12497463956981 -46.756098363731496 0 0 0 0 -44.014272541745328 51.541116571244089 0 51.541116571244089 -22.575587188167273 0 0 0 0 -110.95366152204224 -19.049897211420102 0 -19.049897211420102 -146.988311396477 0 0 0 0 -220.19973978614871 147.72530996255591 0 147.72530996255591 -197.87534664753184 0 0 0 0 -368.9593351310541 199.34294464236518 0 199.34294464236518 -87.922311431114395 0 0 0 0 -24.088217440449526 18.982338601623574 0 18.982338601623574 -27.262205567062971 0 0 0 0 -135.89388934556064 -93.336479755571418 0 -93.336479755571418 0.77325109660705493 0 0 0 0 -12.32604381406982 19.442240616793743 0 19.442240616793743 -6.3905091381646102 0 0 0 0 -139.6393412249854 36.754740386867525 0 36.754740386867525 -46.580772534496646 0 0 0 0 -45.642546448960786 44.9821340746281 0 44.9821340746281 -19.769763861984273 0 0 0 0 1.1875500198511872 7.815755189699189 0 7.815755189699189 -76.369471649180454 0 0 0 0 -55.986552351687351 66.982122569956616 0 66.982122569956616 -115.73718470698537 0 0 0 0 2.4300518217029605 -1.8029873265441907 0 -1.8029873265441907 0.11613793330140842 0 0 0 0 37.331462113492307 -155.41538762118654 0 -155.41538762118654 60.031676617816544 0 0 0 0 -113.52329390023078 -2.4585844460050623 0 -2.4585844460050623 -46.745921059584305 0 0 0 0 -2.6734897305213963 67.567941737669429 0 67.567941737669429 -160.86956153622373 0 0 0 0 0.1166902936739973 0.84083452504840039 0 0.84083452504840039 -2.0677355575519605 0 0 0 0 -272.5417702117702 36.761101513286562 0 36.761101513286562 36.699794638215735 0 0 0 0 -162.32189196755644 203.19329742919493 0 203.19329742919493 -217.16070144338633 0 0 0 0 68.556157654807976 78.615411458882576 0 78.615411458882576 -199.16978851226554 0 0 0 0 -106.42162130009092 143.8793346306332 0 143.8793346306332 -199.05762395725816 0 0 0 0 -233.45717532964773 -194.48177972247854 0 -194.48177972247854 181.37714532837683 0 0 0 0 55.375284049816401 69.786834519025945 0 69.786834519025945 -75.03643046005709 0 0 0 0 -262.16739564826275 196.76066472521561 0 196.76066472521561 -35.460757903963852 0 0 0 0 5.1054206556500219 11.734818273353525 0 11.734818273353525 -9.665189028844134 0 0 0 0 -135.20061632752186 -15.402196853578062 0 -15.402196853578062 -24.791515306076121 0 0 0 0 -34.38717396573702 -24.083285102358786 0 -24.083285102358786 28.60180048465736 0 0 0 0 -85.32548300210243 41.590338711165678 0 41.590338711165678 -24.901313578876859 0 0 0 0 -51.197206587765841 51.188356224934374 0 51.188356224934374 -63.716682235658894 0 0 0 0 -29.348167827376365 13.34693684282508 0 13.34693684282508 -22.350463156643222 0 0 0 0 -46.79451734500617 4.857097770681321 0 4.857097770681321 -8.2024915165134189 0 0 0 0 -22.081233757994596 -3.3006673472232251 0 -3.3006673472232251 -41.304098847631394 0 0 0 0 -33.517074571772298 36.129419886092684 0 36.129419886092684 -34.459226377052929 0 0 0 0 202.45490828110633 319.76993650597666 0 319.76993650597666 -312.01107293230012 0 0 0 0 -118.91805151620065 375.3621752044678 0 375.3621752044678 350.66939074416405 0 0 0 0 -26.976451177659328 -84.408993582044559 0 -84.408993582044559 -73.566429488122594 0 0 0 0 105.18675816952782 7.0261683291018358 0 7.0261683291018358 -46.682304573764668 0 0 0 0 -10.329046677651164 19.458955508927097 0 19.458955508927097 -28.175913058751661 0 0 0 0 -0.066471162163701081 -0.41707483529734191 0 -0.41707483529734191 -2.7939993061736583 0 0 0 0 12.307196530491638 21.861317854312802 0 21.861317854312802 -11.820041169631622 0 0 0 0 -21.619852278963684 24.457640753868318 0 24.457640753868318 -18.094014629871314 0 0 0 0 -52.309241727663903 67.779358956235228 0 67.779358956235228 -134.14334715064615 0 0 0 0 -16.26927855318354 56.621739670907118 0 56.621739670907118 -87.88161783600026 0 0 0 0 -47.048580802114884 41.290036471036728 0 41.290036471036728 -40.048676751110179 0 0 0 0 -97.118823470402276 -58.721098505964619 0 -58.721098505964619 12.770244335224561 0 0 0 0 -17.653473386199039 9.9448355449076189 0 9.9448355449076189 -63.948062090288204 0 0 0 0 -31.702204312453787 -5.0895310308448103 0 -5.0895310308448103 -6.2998034537437722 0 0 0 0 -119.5141254734117 -128.17987066405112 0 -128.17987066405112 -61.461277359230735 0 0 0 0 -20.526627810308128 7.9569988674884371 0 7.9569988674884371 -171.24854372341542 0 0 0 0 -28.440292930172291 -25.041602659151977 0 -25.041602659151977 -106.73841067493777 0 0 0 0 -167.39732308383827 -166.97348717190471 0 -166.97348717190471 -271.05761311090464 0 0 0 0 -49.63832924615599 -11.076418647673563 0 -11.076418647673563 -72.235593846598931 0 0 0 0 -17.431840577480681 5.4864482981597895 0 5.4864482981597895 4.7078439408188899 0 0 0 0 257.58374854989779 317.54551199943035 0 317.54551199943035 -137.03078808240389 0 0 0 0 77.287014487301349 13.002336707104405 0 13.002336707104405 -22.523362894091406 0 0 0 0 -43.40468426679945 229.74326480413026 0 229.74326480413026 -31.302652552309155 0 0 0 0 -25.677309167912838 21.822654850764366 0 21.822654850764366 -35.793988945581198 0 0 0 0 -367.47092746885755 570.0193555047772 0 570.0193555047772 -18.050786988322216 0 0 0 0 -473.61440000623406 -158.58292593461374 0 -158.58292593461374 -75.499093300571985 0 0 0 0 -206.46506669859082 -119.47885181932361 0 -119.47885181932361 -16.913359142666167 0 0 0 0 116.33174598389246 161.01378318338016 0 161.01378318338016 -19.59715568889078 0 0 0 0 -299.81763092116671 -327.99994584358137 0 -327.99994584358137 -135.51471318401309 0 0 0 0 87.101543633945766 -174.08976762799784 0 -174.08976762799784 -518.53834726177593 0 0 0 0 -118.20959472859613 -71.137036394013194 0 -71.137036394013194 51.437442194008327 0 0 0 0 74.963272313676498 -25.966671710305491 0 -25.966671710305491 -91.185029456362827 0 0 0 0 -515.54745844018726 71.616833728258371 0 71.616833728258371 19.268456886438798 0 0 0 0 -90.936284269209864 43.223486565249914 0 43.223486565249914 -87.369487966736415 0 0 0 0 1.6339187670759152 -0.56334320644808145 0 -0.56334320644808145 -6.6202424165084182 0 0 0 0 -63.070418430430436 -22.783458901280028 0 -22.783458901280028 -16.954339293832163 0 0 0 0 -35.925894920037535 46.548942873630949 0 46.548942873630949 -85.65426894243501 0 0 0 0 -43.079952890913006 -1.0974989616211133 0 -1.0974989616211133 -13.512811773904104 0 0 0 0 -223.45097057488601 -11.189429608479259 0 -11.189429608479259 71.185965556400333 0 0 0 0 -83.806981726250626 -10.604805777463589 0 -10.604805777463589 11.301044607066714 0 0 0 0 -26.613194724375678 -4.4479061731547418 0 -4.4479061731547418 -10.334716048883159 0 0 0 0 -176.38346975994136 29.615409421385266 0 29.615409421385266 63.657156388984731 0 0 0 0 -73.22938020080619 -29.509878213706543 0 -29.509878213706543 -21.324564190279489 0 0 0 0 -230.47934090331182 -0.44957682919266517 0 -0.44957682919266517 11.605963326626807 0 0 0 0 -197.76898392614385 91.662087988363055 0 91.662087988363055 -3.859924103542653 0 0 0 0 3.557424190778228 -29.980287307713297 0 -29.980287307713297 7.8062607704982563 0 0 0 0 -66.558480025640165 -30.061567309165184 0 -30.061567309165184 -38.906256917631254 0 0 0 0 -61.494029117932868 -46.629040063052784 0 -46.629040063052784 26.465494218075172 0 0 0 0 -66.885431182874527 -32.575217294679533 0 -32.575217294679533 -33.543770534248324 0 0 0 0 -86.027098577311705 6.634072857845787 0 6.634072857845787 -0.72064841411853919 0 0 0 0 -108.23988097100846 53.061618633921171 0 53.061618633921171 -26.03038319238658 0 0 0 0 -73.162504796129724 44.218649577478573 0 44.218649577478573 -30.706276788492687 0 0 0 0 -94.882626307666214 -30.588538391166367 0 -30.588538391166367 -10.424196952186321 0 0 0 0 -142.21792701607774 50.421995343569506 0 50.421995343569506 -4.4838888484991912 0 0 0 0 -108.08908511982372 44.482969661210518 0 44.482969661210518 -25.80589122956917 0 0 0 0 -169.71503412778657 21.780522503131579 0 21.780522503131579 18.597636612357746 0 0 0 0 -184.29996173791369 36.030835563444271 0 36.030835563444271 22.936692432245763 0 0 0 0 -115.10973150832069 47.827260447493245 0 47.827260447493245 -2.9049406737103709 0 0 0 0 -217.8059539150272 47.736619091710963 0 47.736619091710963 18.847731896583355 0 0 0 0 -224.6974421501418 66.277704120460839 0 66.277704120460839 47.771261141100695 0 0 0 0 -188.70658800183855 95.155234568495871 0 95.155234568495871 -36.003863743693728 0 0 0 0 -160.91916980378573 60.899550937151616 0 60.899550937151616 -6.2193098942989309 0 0 0 0 -196.40213962695998 80.994841453839399 0 80.994841453839399 27.418650068915667 0 0 0 0 -342.07642802822693 164.96826464270907 0 164.96826464270907 -15.342455137670186 0 0 0 0 -240.56168770107615 3.9276050716625832 0 3.9276050716625832 -2.916857460688334 0 0 0 0 -578.54829490816519 77.821224755921321 0 77.821224755921321 60.261453038136096 0 0 0 0 -0.58190805745782725 -0.90253383418147415 0 -0.90253383418147415 0.10770521336872463 0 0 0 0 194.50285161286502 37.486288005240112 0 37.486288005240112 -79.454016188039532 0 0 0 0 -136.76931545592697 72.549796770598277 0 72.549796770598277 0.41801134934212314 0 0 0 0 -147.19665753009576 45.90300225557894 0 45.90300225557894 -6.6106654126660942 0 0 0 0 -33.637333949370941 38.424710439539467 0 38.424710439539467 -24.438321135472506 0 0 0 0 -63.950272279859746 103.63929233412091 0 103.63929233412091 6.2391246716888418 0 0 0 0 111.62058515944227 123.22453545690041 0 123.22453545690041 -17.322929791796014 0 0 0 0 -54.320503924512195 33.857141577831499 0 33.857141577831499 0.37129636062672944 0 0 0 0 -30.314139314569729 61.139526655386362 0 61.139526655386362 -15.852911019388102 0 0 0 0 -38.511965509657777 41.408637613536229 0 41.408637613536229 -8.0636780809211075 0 0 0 0 -127.94408982753248 -0.6632888578433267 0 -0.6632888578433267 -18.986863185225957 0 0 0 0 -104.78851401965221 21.611521546616132 0 21.611521546616132 -39.46901907555548 0 0 0 0 -152.80957546979698 -15.216984307521216 0 -15.216984307521216 -30.007095894390659 0 0 0 0 -31.986742193653647 48.431344207842173 0 48.431344207842173 -22.520911845881599 0 0 0 0 -76.005511015404409 53.600480874485584 0 53.600480874485584 -30.236826447951898 0 0 0 0 -105.67587851321423 47.354120590871844 0 47.354120590871844 -30.923449421170517 0 0 0 0 -80.729972387688576 48.766707179920559 0 48.766707179920559 -26.187579094448211 0 0 0 0 -176.81909030893621 -46.072282602554424 0 -46.072282602554424 51.796325813251315 0 0 0 0 -119.95937961106938 42.215315107621791 0 42.215315107621791 -23.073693503985851 0 0 0 0 -41.662400800346703 53.881288462829701 0 53.881288462829701 -36.650362220604464 0 0 0 0 -110.637131732532 116.35558373373078 0 116.35558373373078 25.156638841890071 0 0 0 0 -96.550162237617769 44.168976230009321 0 44.168976230009321 -80.102728343913441 0 0 0 0 -42.390689830051301 52.225678991345667 0 52.225678991345667 -27.226055165980995 0 0 0 0 -164.45662450122472 51.026268435749785 0 51.026268435749785 38.134455095750127 0 0 0 0 -208.04781079955137 82.887644709134747 0 82.887644709134747 102.08695699004032 0 0 0 0 -217.05161381880316 61.237596117324642 0 61.237596117324642 59.202566719521201 0 0 0 0 -153.22255681848037 21.028560221859152 0 21.028560221859152 -58.382632802289663 0 0 0 0 -218.7678511306367 67.878608509804053 0 67.878608509804053 57.717971559962734 0 0 0 0 -56.924577179723968 -19.850247478713193 0 -19.850247478713193 -18.248352269247043 0 0 0 0 -230.96303357529541 12.040373958388045 0 12.040373958388045 17.827025272116771 0 0 0 0 -187.29445749847946 51.13044649655285 0 51.13044649655285 -68.199816491089223 0 0 0 0 -65.623648820960625 51.182934115888635 0 51.182934115888635 -25.146335064497293 0 0 0 0 -221.7415754356341 -78.749823130672667 0 -78.749823130672667 22.531414457991559 0 0 0 0 -258.55351801618963 -21.597254327185055 0 -21.597254327185055 9.4121281209918379 0 0 0 0 -37.318655923643831 3.1110980474066707 0 3.1110980474066707 15.573605657421457 0 0 0 0 -126.79321448614839 -28.078974009017074 0 -28.078974009017074 16.00990474803497 0 0 0 0 -74.151917918864442 -9.4647211590106579 0 -9.4647211590106579 -0.46109118352873679 0 0 0 0 -184.38980837492264 -85.955744047467306 0 -85.955744047467306 -2.2916516252516885 0 0 0 0 -40.049395070453684 -1.8429691937602453 0 -1.8429691937602453 5.9545699865878277 0 0 0 0 -128.93640805955346 139.29717691507449 0 139.29717691507449 -34.77380431518759 0 0 0 0 -409.10716363386746 130.62122663887749 0 130.62122663887749 -29.924636589585134 0 0 0 0 -427.92541300807261 -45.946059958187107 0 -45.946059958187107 -3.3594574745111458 0 0 0 0 -59.268036126768443 50.224549122964632 0 50.224549122964632 -53.390520202049863 0 0 0 0 -244.34750547574953 266.20476459619147 0 266.20476459619147 0.63363030642358353 0 0 0 0 -61.932486095884087 -137.30908566061589 0 -137.30908566061589 69.117653655654522 0 0 0 0 -779.76773285078161 -73.762699427317898 0 -73.762699427317898 -106.44218532917802 0 0 0 0 -691.23512693960402 249.0893661115887 0 249.0893661115887 -166.18710537406071 0 0 0 0 -1574.5797440520637 -483.29083279516186 0 -483.29083279516186 16.405691980767529 0 0 0 0 -3498.9812721623603 -335.1068400824376 0 -335.1068400824376 577.71331292474702 0 0 0 0 -2499.5858965037551 319.84653762286672 0 319.84653762286672 441.80902465199358 0 0 0 0 -2418.1863922841549 252.15139397846221 0 252.15139397846221 442.70997662062064 0 0 0 0 -3499.6700685525466 807.3426162128228 0 807.3426162128228 464.25783444885298 0 0 0 0 -1210.8287361479233 683.75572940583868 0 683.75572940583868 -237.21857109781936 0 0 0 0 -2002.7494244464906 691.10180444194452 0 691.10180444194452 -157.86716201962602 0 0 0 0 -88.887877208091595 -169.28100256290384 0 -169.28100256290384 253.82893131457604 0 0 0 0 -33.024843688435311 -22.139671876668352 0 -22.139671876668352 -8.5400575120340054 0 0 0 0 -2081.3510299204063 1095.0228118099315 0 1095.0228118099315 -372.86531325694295 0 0 0 0 -10.763735172874011 9.3913169197847637 0 9.3913169197847637 -12.769365309487327 0 0 0 0 148.05656553606241 369.91148935680849 0 369.91148935680849 -1179.0887762367747 0 0 0 0 -3504.0600818291932 1127.5302020429883 0 1127.5302020429883 -3263.7159569039427 0 0 0 0 -1003.7277928554577 1371.976974410265 0 1371.976974410265 -1994.0391223224719 0 0 0 0 -1426.32497264413 2192.0335688768141 0 2192.0335688768141 -2148.3985557042288 0 0 0 0 -1621.2109452788281 1218.5901211870532 0 1218.5901211870532 -1278.3341351048418 0 0 0 0 -541.50606841288572 127.6990877889076 0 127.6990877889076 -274.22929703568224 0 0 0 0 -227.62055165850234 -38.718903079136453 0 -38.718903079136453 -324.1379948008871 0 0 0 0 134.28935102539253 -117.72447887669205 0 -117.72447887669205 -758.52859191972948 0 0 0 0 -98.698451634576486 -33.754572842974994 0 -33.754572842974994 332.28286789638332 0 0 0 0 -218.44403010978897 -493.44595641103786 0 -493.44595641103786 162.06055539318913 0 0 0 0 -4000.1457341686655 -1565.6686090671724 0 -1565.6686090671724 -666.26889653184048 0 0 0 0 -3498.6347723680828 -999.45252650965222 0 -999.45252650965222 70.274053868811563 0 0 0 0 -2709.7718227296536 -1257.5474919273854 0 -1257.5474919273854 -593.3784090457616 0 0 0 0 -2710.9201195261076 -368.302954017042 0 -368.302954017042 437.28468564256855 0 0 0 0 -2326.9575831246384 -986.32994439750098 0 -986.32994439750098 -252.32541232522345 0 0 0 0 -1671.2065053564947 -232.45626792625896 0 -232.45626792625896 -24.673229248456288 0 0 0 0 -2613.3185073053883 -924.21832473303948 0 -924.21832473303948 -265.23837430516483 0 0 0 0 -27.866491701555628 29.486427797416116 0 29.486427797416116 -29.781857497463644 0 0 0 0 87.300723174863379 100.91113604962175 0 100.91113604962175 139.11043427927325 0 0 0 0 -10.681966785095483 -29.624198242677267 0 -29.624198242677267 -37.146669334026228 0 0 0 0 56.784025739732442 -20.935283433560244 0 -20.935283433560244 -55.599501563792728 0 0 0 0 -33.411442935468926 -249.97158978350626 0 -249.97158978350626 -81.359239551304199 0 0 0 0 -23.153729707502862 39.130965901977106 0 39.130965901977106 -350.67136093848603 0 0 0 0 24.000557694886083 192.25399143975847 0 192.25399143975847 -125.10421981132095 0 0 0 0 -35.440776960938052 43.967576576039171 0 43.967576576039171 -44.912029820913077 0 0 0 0 209.33592152362371 164.46387269348179 0 164.46387269348179 -192.77011230773132 0 0 0 0 -103.60201753780325 -21.59176019428287 0 -21.59176019428287 -22.277003208913811 0 0 0 0 -7.4261519647313428 -0.72988278503333959 0 -0.72988278503333959 -5.3836712905943713 0 0 0 0 -602.48908999053936 50.415219921323114 0 50.415219921323114 14.265355827945314 0 0 0 0 -451.76771798114191 140.3560349114789 0 140.3560349114789 -9.3506279091816396 0 0 0 0 -407.86305072574942 135.25732196104946 0 135.25732196104946 -64.722678222351533 0 0 0 0 -390.98372551844955 103.57892402618199 0 103.57892402618199 -28.298892950454501 0 0 0 0 -348.35234235685175 234.23671372813624 0 234.23671372813624 -226.08044873955805 0 0 0 0 -111.08442164083044 11.230040597973129 0 11.230040597973129 -162.93129379346465 0 0 0 0 -597.30238792685827 268.60340881159937 0 268.60340881159937 -116.58630639120747 0 0 0 0 700.87660355484513 -625.26866544543736 0 -625.26866544543736 601.78028570079186 0 0 0 0 -451.53510361485382 517.49950262508537 0 517.49950262508537 -458.65399110974977 0 0 0 0 -0.46618524883771967 -1.0216225415754323 0 -1.0216225415754323 -8.3177739308854797 0 0 0 0 1.8944416005267481 -1.4908630964190106 0 -1.4908630964190106 -2.9430340042150327 0 0 0 0 -6.22395786909874 -154.5077025371952 0 -154.5077025371952 -359.57578274107345 0 0 0 0 -241.17054243637335 301.59321027744409 0 301.59321027744409 -600.74162355185763 0 0 0 0 12.724947856606104 -16.301213070809496 0 -16.301213070809496 -15.469537495861005 0 0 0 0 -95.063623355440541 -247.09772797429196 0 -247.09772797429196 14.06221880034991 0 0 0 0 -181.19280709488976 -189.40300808582833 0 -189.40300808582833 99.964981602884109 0 0 0 0 84.353714402668174 -24.787121287313767 0 -24.787121287313767 -38.379786025523657 0 0 0 0 0.008108541337868036 1.7490442571991736 0 1.7490442571991736 -8.5632562931029632 0 0 0 0 60.767083016334482 -170.75489860496253 0 -170.75489860496253 -609.8550001096005 0 0 0 0 34.125763016091014 -45.770757168365321 0 -45.770757168365321 44.40612183154758 0 0 0 0 0.23997563149119069 -1.4371534001110779 0 -1.4371534001110779 -7.9769532168688215 0 0 0 0 -22.488418312639055 -0.92735721963163087 0 -0.92735721963163087 9.1698971228859136 0 0 0 0 239.58948950084391 46.299223257126187 0 46.299223257126187 -103.10593694719091 0 0 0 0 117.41563865919761 17.294058903694349 0 17.294058903694349 -14.190749085853895 0 0 0 0 3.4466002840545116 151.70776421785104 0 151.70776421785104 -112.53135623471098 0 0 0 0 49.810764809263674 171.47619207483422 0 171.47619207483422 -133.54732258787203 0 0 0 0 -19.087445984494479 230.37374343742431 0 230.37374343742431 -88.546425159198407 0 0 0 0 -30.840250953705436 251.92078542761647 0 251.92078542761647 -122.83079526167239 0 0 0 0 -105.77271230953556 132.01863477902043 0 132.01863477902043 -2.3145379750915254 0 0 0 0 -30.940706128743841 168.94151178101311 0 168.94151178101311 -26.542785846293555 0 0 0 0 -150.77693582216671 67.866753607384453 0 67.866753607384453 -11.928047064924613 0 0 0 0 -100.85848690395113 131.79118771382423 0 131.79118771382423 -17.771172428278078 0 0 0 0 -154.48201912642617 212.48831068288382 0 212.48831068288382 -40.522252173945162 0 0 0 0 -142.84316150571522 322.72712048155108 0 322.72712048155108 -78.276800434512552 0 0 0 0 -207.22750967011962 214.08237890956116 0 214.08237890956116 -4.443030480764719 0 0 0 0 -272.15203625492995 278.13993862602274 0 278.13993862602274 -10.331260206148727 0 0 0 0 -392.31706253681659 -35.850833669308486 0 -35.850833669308486 56.030549378614523 0 0 0 0 -10.010224027026807 7.5995569383562982 0 7.5995569383562982 4.6776211584441683 0 0 0 0 -4.7686859610066676 308.12317347393764 0 308.12317347393764 -489.23180814701482 0 0 0 0 1.5984656613845392 -1.5641362653825972 0 -1.5641362653825972 -4.8607319846694566 0 0 0 0 -866.44296799059157 268.71989328351992 0 268.71989328351992 -9.7216354934353149 0 0 0 0 243.57449842703636 -393.47350729904383 0 -393.47350729904383 -486.3023447567175 0 0 0 0 -370.1282218166607 464.57098985984885 0 464.57098985984885 -203.86066752762417 0 0 0 0 -986.48622786510805 -11.502684883129405 0 -11.502684883129405 55.183317220875324 0 0 0 0 -726.69148872876031 -68.565378747902287 0 -68.565378747902287 56.61359444441041 0 0 0 0 -570.43530304308069 316.33749962477032 0 316.33749962477032 -10.795715868007392 0 0 0 0 104.93040477885279 26.312786210821287 0 26.312786210821287 -45.146642010286087 0 0 0 0 -18.913722725110119 21.515330441313381 0 21.515330441313381 -17.749596838719299 0 0 0 0 82.193171635053659 319.18054553059756 0 319.18054553059756 -191.69767200411115 0 0 0 0 57.110966129216763 170.84703771552756 0 170.84703771552756 -83.132379990678601 0 0 0 0 -0.24924841253318064 0.15636138628909002 0 0.15636138628909002 2.2422374336042168 0 0 0 0 -22.559919489913227 257.0614238713224 0 257.0614238713224 -71.062575609778833 0 0 0 0 -43.721445476944609 238.84819841613717 0 238.84819841613717 -50.649563429240516 0 0 0 0 52.788794535690613 218.60185400056616 0 218.60185400056616 -95.921049574328208 0 0 0 0 -138.75630915015199 165.34095548020287 0 165.34095548020287 -10.287614779841533 0 0 0 0 -112.11586142440683 98.803228889814818 0 98.803228889814818 121.2565184646046 0 0 0 0 -0.49625634580288569 0.052812073235855905 0 0.052812073235855905 -2.4612195739515954 0 0 0 0 104.72408574573774 24.739095086351654 0 24.739095086351654 -54.763270296414703 0 0 0 0 -302.31855376616647 70.65656446961566 0 70.65656446961566 23.250280537293293 0 0 0 0 -300.20711618131463 19.643691380304517 0 19.643691380304517 -105.41109307247098 0 0 0 0 -302.13672632167618 215.5693668059248 0 215.5693668059248 115.02275099434701 0 0 0 0 -292.15211163412414 136.34589993354939 0 136.34589993354939 133.2953623949179 0 0 0 0 -291.7039636759182 142.59559891813115 0 142.59559891813115 -78.070347141834645 0 0 0 0 -443.86873411426313 102.39812232861914 0 102.39812232861914 129.92873408284868 0 0 0 0 -598.52713469053924 -305.52637155150114 0 -305.52637155150114 59.613413713104819 0 0 0 0 -806.97048068877848 -89.188116081311819 0 -89.188116081311819 623.60561215277357 0 0 0 0 -379.49074205101351 235.07474609454903 0 235.07474609454903 393.30862639718362 0 0 0 0 -21.792694918754933 111.54594957611152 0 111.54594957611152 -137.59002181913456 0 0 0 0 -336.82275349385782 83.597572344780929 0 83.597572344780929 -104.7992971480312 0 0 0 0 -119.62404506139319 179.11389602443069 0 179.11389602443069 -99.446302970668057 0 0 0 0 -664.50415057402006 335.17605700704621 0 335.17605700704621 -39.732522861243524 0 0 0 0 -94.120167008825774 275.82067878203316 0 275.82067878203316 -207.14199259348243 0 0 0 0 -13.575559411747236 94.246429065227858 0 94.246429065227858 -169.2403514091078 0 0 0 0 -0.87834310270718241 -1.8042983331788136 0 -1.8042983331788136 -1.8450249022294614 0 0 0 0 -151.57635260293227 629.86298239134396 0 629.86298239134396 -134.53635101504187 0 0 0 0 191.03718804900927 -114.19150118305424 0 -114.19150118305424 -983.34660227983659 0 0 0 0 338.28751861961246 388.32932191435111 0 388.32932191435111 -273.52713859623509 0 0 0 0 59.707655614842224 592.40978557354902 0 592.40978557354902 -136.41266249032969 0 0 0 0 -183.9734906083886 403.02358321526481 0 403.02358321526481 -342.2803153015775 0 0 0 0 68.509712312539705 66.304600787392019 0 66.304600787392019 -267.81074703076155 0 0 0 0 -26.957706346520354 68.149135081226518 0 68.149135081226518 192.73175610441058 0 0 0 0 -168.45282363942715 32.43541088802499 0 32.43541088802499 361.91210210858344 0 0 0 0 104.24065564718148 389.23599533670756 0 389.23599533670756 400.99824343560766 0 0 0 0 -21.936565458907744 18.433463208221585 0 18.433463208221585 -14.433739788721917 0 0 0 0 -177.071104269844 136.56871978823551 0 136.56871978823551 123.88187651963381 0 0 0 0 -70.631741594108462 152.18436659297186 0 152.18436659297186 -806.10243498751515 0 0 0 0 -556.9346188804011 -371.81822553279926 0 -371.81822553279926 34.12286003535155 0 0 0 0 -258.32796863214753 -256.61360160686422 0 -256.61360160686422 1.5565658021259878 0 0 0 0 -295.67448510707254 -227.3113515960556 0 -227.3113515960556 7.8851083373765505 0 0 0 0 30.91767392341626 58.59560822298522 0 58.59560822298522 -38.436632393396394 0 0 0 0 -332.15700531925177 -157.78917559182287 0 -157.78917559182287 196.4430636506695 0 0 0 0 -0.012902810758930627 6.5064750928719386 0 6.5064750928719386 -2.7812323230474334 0 0 0 0 -109.67136182896502 -257.56848340372403 0 -257.56848340372403 -317.48321265385312 0 0 0 0 -31.739476746873262 22.391426378683722 0 22.391426378683722 -14.337635192681287 0 0 0 0 55.650080226540581 110.00656668763654 0 110.00656668763654 264.20766895675854 0 0 0 0 67.862433232770854 208.10554163247781 0 208.10554163247781 214.27798265485148 0 0 0 0 65.466516476172728 198.39305255756562 0 198.39305255756562 310.99376982067656 0 0 0 0 100.13926377712414 149.40270586005136 0 149.40270586005136 248.40122947906252 0 0 0 0 -592.98558045965183 488.1751433352506 0 488.1751433352506 -424.66266918399788 0 0 0 0 -41.998149149352479 18.153965660881727 0 18.153965660881727 -0.45157099801828937 0 0 0 0 -22.798724360825815 280.58714026692434 0 280.58714026692434 744.46278948078975 0 0 0 0 -1.6268420961617664 -2.1007167238424067 0 -2.1007167238424067 2.4722521461964453 0 0 0 0 -30.847748551993163 750.7528822656493 0 750.7528822656493 148.59115722945532 0 0 0 0 254.01063672521195 118.70892487182846 0 118.70892487182846 158.92368368886736 0 0 0 0 0.18865443754482233 -1.7888028260507403 0 -1.7888028260507403 -3.6194213745858148 0 0 0 0 401.4881381935304 63.331890929033534 0 63.331890929033534 41.028692432687876 0 0 0 0 235.59700351004039 77.650671914618783 0 77.650671914618783 125.85064487765658 0 0 0 0 92.017743627461641 126.10713693683556 0 126.10713693683556 181.91297054930192 0 0 0 0 145.70176763007839 89.260941128513423 0 89.260941128513423 124.55974901794445 0 0 0 0 40.802176480297931 159.54216536189278 0 159.54216536189278 -97.105080026018186 0 0 0 0 112.00532427742064 8.0956414776794645 0 8.0956414776794645 -54.64745203070288 0 0 0 0 155.16491674208555 50.169945971004836 0 50.169945971004836 -116.82513141642875 0 0 0 0 263.32212738165299 -35.427953780111807 0 -35.427953780111807 2.8618898105996777 0 0 0 0 147.60164425129801 62.758721509299676 0 62.758721509299676 -0.19257430569177814 0 0 0 0 -181.52923785154073 -40.47753766317544 0 -40.47753766317544 105.20315444456628 0 0 0 0 36.137833402052365 167.60924131284855 0 167.60924131284855 -698.63738007688619 0 0 0 0 -0.153421631541379 1.060005298417221 0 1.060005298417221 -5.8034391303960451 0 0 0 0 -700.90762506037436 962.30791535865126 0 962.30791535865126 -777.3042906203832 0 0 0 0 -36.434918355436153 244.5728731416977 0 244.5728731416977 -455.33139551965269 0 0 0 0 -351.76422225854037 254.0995382099658 0 254.0995382099658 -15.80551058391417 0 0 0 0 639.39952409663215 85.812243666681965 0 85.812243666681965 -40.587867146152114 0 0 0 0 -18.738111114712684 7.8891264390710196 0 7.8891264390710196 0.056695786187269503 0 0 0 0 -1226.6687941100879 1890.9730329985994 0 1890.9730329985994 -2500.3901329851915 0 0 0 0 -1385.0516604519987 -272.41139108938239 0 -272.41139108938239 1518.9800912907199 0 0 0 0 -2587.1177458008324 560.59274071735683 0 560.59274071735683 976.80404423405389 0 0 0 0 -2783.1625798529667 1567.5801811464382 0 1567.5801811464382 -321.52301311691679 0 0 0 0 -2837.9351778472474 605.04233245090313 0 605.04233245090313 -490.7101041636908 0 0 0 0 -3498.3977413061016 1079.9523406706232 0 1079.9523406706232 -630.70469955298597 0 0 0 0 -2373.5766656310216 1207.3975720686126 0 1207.3975720686126 -216.57666750994071 0 0 0 0 -1591.2339346033457 1389.8668945370428 0 1389.8668945370428 -713.91625052139204 0 0 0 0 -3499.8791942784574 2329.2903966968638 0 2329.2903966968638 -719.59607490143378 0 0 0 0 -4637.2701154912193 1513.9106328776527 0 1513.9106328776527 -1180.3826127834825 0 0 0 0 -2766.3051143436369 596.81147773311386 0 596.81147773311386 721.26100050498826 0 0 0 0 -112.01050060587977 -578.41670735720277 0 -578.41670735720277 431.14515454572393 0 0 0 0 -42.839487484537756 -15.654949318726246 0 -15.654949318726246 -4.9902661463796463 0 0 0 0 139.69308388171703 89.87782880805662 0 89.87782880805662 -14.992708867075635 0 0 0 0 727.14053442590011 -603.35387061809979 0 -603.35387061809979 -1.6754142666050029 0 0 0 0 -16.108918004612327 -8.1552339646540997 0 -8.1552339646540997 -4.0187983763330255 0 0 0 0 -1136.7409897886973 584.53946948105113 0 584.53946948105113 217.18902882459679 0 0 0 0 690.30973823897875 -858.22292356964135 0 -858.22292356964135 -798.36154670542419 0 0 0 0 -1486.4127689101042 368.63105238267963 0 368.63105238267963 336.46629603830661 0 0 0 0 -1287.4729526570641 -126.11577132443006 0 -126.11577132443006 3.9313852431823761 0 0 0 0 -1375.1128063534352 471.68708420310418 0 471.68708420310418 365.37441402059449 0 0 0 0 -1394.594758804782 431.96481649666293 0 431.96481649666293 295.9231275574457 0 0 0 0 -240.12965561349483 3.9235992601834369 0 3.9235992601834369 216.37358094737829 0 0 0 0 -173.5585132012493 -160.18791899256757 0 -160.18791899256757 -513.08440444248026 0 0 0 0 218.51022084058786 -113.7435469202992 0 -113.7435469202992 -186.88345527149704 0 0 0 0 15.541554456734957 -377.84590164004931 0 -377.84590164004931 -26.867494698162773 0 0 0 0 -39.962071702307682 -37.748948325560335 0 -37.748948325560335 -15.106816072078821 0 0 0 0 -16.081446885343667 -53.648963685808212 0 -53.648963685808212 367.37353231636371 0 0 0 0 -86.400869135773462 -46.654392782842358 0 -46.654392782842358 -14.159875257857038 0 0 0 0 129.48874718724255 -761.16328998573692 0 -761.16328998573692 490.59846845393622 0 0 0 0 -902.4833092118788 -364.01077717061344 0 -364.01077717061344 586.19965975368177 0 0 0 0 66.191143901216492 223.09814072982044 0 223.09814072982044 768.77675455166718 0 0 0 0 42.708507196828577 -167.44047000760111 0 -167.44047000760111 8.0663457842210846 0 0 0 0 797.45280344503226 -422.37331775682151 0 -422.37331775682151 -92.499026009107183 0 0 0 0 -2.5155084497546412 -4.0104428485163766 0 -4.0104428485163766 -6.278556117712796 0 0 0 0 428.55883889632605 -292.24610830735674 0 -292.24610830735674 190.40005334050693 0 0 0 0 -645.41098820805382 -334.68836671482768 0 -334.68836671482768 -121.42494510521647 0 0 0 0 -5.075985232135281 -263.29266287396058 0 -263.29266287396058 -201.50603832065099 0 0 0 0 -977.53887348569333 28.424810790478659 0 28.424810790478659 6.7375612343894318 0 0 0 0 -493.71537091953678 -117.15851092100615 0 -117.15851092100615 -159.32727154494569 0 0 0 0 -538.47664103456373 74.167551983386829 0 74.167551983386829 -47.105266278653289 0 0 0 0 489.69968621038424 -436.2791366612787 0 -436.2791366612787 182.01203188537329 0 0 0 0 427.93553392670583 -302.76471748180847 0 -302.76471748180847 54.126344543072264 0 0 0 0 286.76864363071218 -334.4186252575164 0 -334.4186252575164 256.91374309747334 0 0 0 0 341.7576388577836 -459.86411741988104 0 -459.86411741988104 427.84758446182605 0 0 0 0 -72.687401434707311 -50.098925882290573 0 -50.098925882290573 -26.636606970735507 0 0 0 0 -12.056228437727935 -6.2335804763280027 0 -6.2335804763280027 -3.4823769524319417 0 0 0 0 677.83751404309533 -717.92429526992123 0 -717.92429526992123 331.34834857164242 0 0 0 0 -3168.8220734700499 -680.6998368714867 0 -680.6998368714867 -504.5743640983801 0 0 0 0 560.78820452164291 -1248.4047146808625 0 -1248.4047146808625 -171.87530759555602 0 0 0 0 212.00644197165457 1698.3241331983118 0 1698.3241331983118 -823.66704701045819 0 0 0 0 549.48064315411466 -1373.3706655648916 0 -1373.3706655648916 -650.01661777920549 0 0 0 0 -60.489182265317694 -40.093026849370617 0 -40.093026849370617 -21.269032237491619 0 0 0 0 298.32887999092418 -506.37037229069392 0 -506.37037229069392 427.52882597611654 0 0 0 0 -1142.0461237255749 294.76325219636874 0 294.76325219636874 -1224.6949683033272 0 0 0 0 -287.8508380580497 -569.60619216053874 0 -569.60619216053874 1161.3017165879837 0 0 0 0 -36.460050467424594 -13.956812345338438 0 -13.956812345338438 -0.88655270916478202 0 0 0 0 -709.61778397914532 880.80185864655095 0 880.80185864655095 -734.92836807167851 0 0 0 0 142.47123288204239 28.759567192109444 0 28.759567192109444 198.05104183009462 0 0 0 0 -109.9576626762173 -37.7711810965111 0 -37.7711810965111 -121.64346266065877 0 0 0 0 -10.657812911700603 171.90367247495033 0 171.90367247495033 309.14407264140152 0 0 0 0 98.665066200766887 405.68368831473072 0 405.68368831473072 -359.79581607704858 0 0 0 0 129.97060460318971 283.22509779075608 0 283.22509779075608 -0.82689543080664407 0 0 0 0 -0.93932619539087625 2.1124970365976203 0 2.1124970365976203 13.384775312548516 0 0 0 0 -1373.262013665264 469.83628413776114 0 469.83628413776114 950.46105606056517 0 0 0 0 -339.23326614945108 786.28979392952078 0 786.28979392952078 -593.87398971310722 0 0 0 0 -186.26611677709661 397.52439612067246 0 397.52439612067246 370.56816025602166 0 0 0 0 -190.03944842228157 86.164817760143706 0 86.164817760143706 -32.401967957011038 0 0 0 0 -176.40393996112834 34.036700028773794 0 34.036700028773794 15.201335546473274 0 0 0 0 -100.94472094897355 56.491830693237716 0 56.491830693237716 -13.834907215503335 0 0 0 0 -298.66851083942674 160.22661471977972 0 160.22661471977972 179.75204430018493 0 0 0 0 -1.6800563514461828 -19.55765379353511 0 -19.55765379353511 -8.72956905796309 0 0 0 0 0.048630737348020148 4.856836020808732 0 4.856836020808732 21.177338607077324 0 0 0 0 -105.55427704317117 18.283314232066914 0 18.283314232066914 52.414280189645069 0 0 0 0 -65.55912934060143 54.563411141881261 0 54.563411141881261 22.597655072479029 0 0 0 0 -7.4544223968132428 -23.418790468020006 0 -23.418790468020006 -15.451095295084087 0 0 0 0 -110.09469503320543 3.6894812659147647 0 3.6894812659147647 46.920878675431595 0 0 0 0 -227.53827393821848 102.47449523614432 0 102.47449523614432 -13.077467421516303 0 0 0 0 -231.69237544538737 55.976258924993999 0 55.976258924993999 53.162096931071574 0 0 0 0 -277.59696084412326 -42.827919717326267 0 -42.827919717326267 37.699953978708436 0 0 0 0 -283.12733559957815 -38.476804466392423 0 -38.476804466392423 206.7470425425654 0 0 0 0 -18.378588240700083 32.708520424248718 0 32.708520424248718 29.422811480380915 0 0 0 0 -2.2118705467328255 25.523429254894836 0 25.523429254894836 -8.885405735567474 0 0 0 0 -5.3451731528439268 -42.888639265493111 0 -42.888639265493111 -59.907532683121644 0 0 0 0 -416.29738430446741 -426.13833415360295 0 -426.13833415360295 829.9381521276573 0 0 0 0 -417.83332780146884 665.9697276500865 0 665.9697276500865 342.7632893785551 0 0 0 0 -204.2174835104197 -211.35889250235141 0 -211.35889250235141 -194.46707561656694 0 0 0 0 -851.27461886113815 1040.3320479469085 0 1040.3320479469085 38.500138223731483 0 0 0 0 -9.8542260272649003 1.3647687377309516 0 1.3647687377309516 0.5884981639027389 0 0 0 0 -1472.1299972314446 -324.66258274973188 0 -324.66258274973188 -99.425316500375629 0 0 0 0 -238.03440800883254 92.311361855630821 0 92.311361855630821 41.314227193499391 0 0 0 0 -101.57716752509805 -201.30047055626346 0 -201.30047055626346 -1277.1764967194504 0 0 0 0 0.56451064090833825 11.0657573621761 0 11.0657573621761 28.802909800861016 0 0 0 0 -87.628978005897352 -50.316130014872101 0 -50.316130014872101 307.99197028236813 0 0 0 0 -5.3646951001473937 -0.96796867295134348 0 -0.96796867295134348 9.5616711385773776 0 0 0 0 439.10855234615519 -485.3040004502227 0 -485.3040004502227 -504.24262469644327 0 0 0 0 -425.67879174353584 -94.844925872110252 0 -94.844925872110252 1160.1913281018615 0 0 0 0 -18.698095899448163 17.566326218527138 0 17.566326218527138 49.009125817515269 0 0 0 0 -2.7539244001745828 3.2205621846751455 0 3.2205621846751455 11.389183245701133 0 0 0 0 -17.386601885622241 -3.080957078039475 0 -3.080957078039475 0.65315470198509828 0 0 0 0 414.06066954534617 234.26347516561327 0 234.26347516561327 419.27355983742677 0 0 0 0 564.63166822248513 -219.99879778850118 0 -219.99879778850118 145.07073013090485 0 0 0 0 -712.67867665099766 493.22486865275459 0 493.22486865275459 148.71102034266323 0 0 0 0 -10.79413057859 0.19655574716354263 0 0.19655574716354263 2.7052513010027019 0 0 0 0 -143.20384342920443 -470.14773689895992 0 -470.14773689895992 97.541121815224869 0 0 0 0 27.267824853901402 -3.816005241820676 0 -3.816005241820676 1252.0260769964802 0 0 0 0 -13.992351466565196 -10.040730261394366 0 -10.040730261394366 -0.65444291067185878 0 0 0 0 294.54910479895398 329.13807070933331 0 329.13807070933331 -145.42984838407938 0 0 0 0 -189.03526084097757 -350.02523017886642 0 -350.02523017886642 -13.282167794022826 0 0 0 0 -450.37169673722019 -540.60104839013275 0 -540.60104839013275 148.76776747519943 0 0 0 0 -250.92434574322033 -264.1569756131139 0 -264.1569756131139 -123.51177956830179 0 0 0 0 10.409251934994245 -154.81618294443706 0 -154.81618294443706 -82.999378019318101 0 0 0 0 215.38650312784011 -380.49520676258908 0 -380.49520676258908 103.06879007820862 0 0 0 0 36.325122756679775 80.021565172030023 0 80.021565172030023 395.6540461327138 0 0 0 0 81.063211699784006 -190.25684837932204 0 -190.25684837932204 -198.38028889226189 0 0 0 0 -128.64606893131531 119.73845612059222 0 119.73845612059222 -196.50803592970988 0 0 0 0 43.87846312072179 -3.3328917519656898 0 -3.3328917519656898 -380.04860574050781 0 0 0 0 -238.60174634661485 51.514317029086214 0 51.514317029086214 -287.5381945025365 0 0 0 0 -276.81021724379161 355.90296898234675 0 355.90296898234675 -507.50919502601391 0 0 0 0 -356.75315798781594 53.717418131544946 0 53.717418131544946 -237.07041854040472 0 0 0 0 -501.96649221113603 -132.53699525167326 0 -132.53699525167326 -63.845618016491244 0 0 0 0 209.91632022249451 637.28539987066574 0 637.28539987066574 -430.94778287345525 0 0 0 0 -80.658913924021363 913.55559850329712 0 913.55559850329712 -476.03483036185844 0 0 0 0 -118.23563982033284 -642.44933192575252 0 -642.44933192575252 -421.8146014382346 0 0 0 0 -383.87244277787977 602.14419912986068 0 602.14419912986068 -842.36203496197618 0 0 0 0 -44.753695550236444 78.955149480917953 0 78.955149480917953 -431.47744665174832 0 0 0 0 -1495.248096346626 389.05095354973378 0 389.05095354973378 -170.43287385918757 0 0 0 0 -683.28421982300279 298.97238203385132 0 298.97238203385132 -212.16588290415439 0 0 0 0 -564.61208396595976 68.00146174167071 0 68.00146174167071 -146.40672472017286 0 0 0 0 -1132.7796467182561 -326.10340707363321 0 -326.10340707363321 122.57012771696009 0 0 0 0 -8.6196312252733804 7.6210017813492499 0 7.6210017813492499 -6.8101380270068725 0 0 0 0 -366.18010395820238 -514.12285812267373 0 -514.12285812267373 -119.91380389746337 0 0 0 0 -667.34464704891252 -216.20093670475399 0 -216.20093670475399 -414.60983998037409 0 0 0 0 -183.04999304992816 35.116578095676232 0 35.116578095676232 -370.65338645869883 0 0 0 0 -461.28086721956788 14.805706350826767 0 14.805706350826767 -165.88620858593254 0 0 0 0 -409.46144363580242 229.16335495326894 0 229.16335495326894 -215.72925596733762 0 0 0 0 -358.53530568735914 333.77527074681416 0 333.77527074681416 -141.57890010346819 0 0 0 0 -572.20412297358166 -36.891130225378895 0 -36.891130225378895 65.713465251705202 0 0 0 0 -4.4341366450397146 -3.3996759249671555 0 -3.3996759249671555 -3.0879404762533476 0 0 0 0 -561.89333670803171 106.92619750529684 0 106.92619750529684 -30.214489898681677 0 0 0 0 -462.53247318658032 240.50517882246322 0 240.50517882246322 -206.50297025508689 0 0 0 0 -522.92857960840774 147.27781604715847 0 147.27781604715847 -169.66806549750186 0 0 0 0 -612.98891129019466 313.4810058850876 0 313.4810058850876 -98.016157488455519 0 0 0 0 -614.23788091239749 300.177275218565 0 300.177275218565 89.87058294248618 0 0 0 0 -926.03133235360292 101.61779028854471 0 101.61779028854471 -29.55001176350487 0 0 0 0 -827.12686253732954 -172.90254534618521 0 -172.90254534618521 49.887215971843943 0 0 0 0 -735.94168786237424 -178.08209939410744 0 -178.08209939410744 -35.168622024297292 0 0 0 0 -602.53948609877261 -314.50562054951888 0 -314.50562054951888 -136.61310542881074 0 0 0 0 -715.1617520426189 -315.75370990044803 0 -315.75370990044803 -0.23246021575664599 0 0 0 0 -596.55706456552139 -199.79698505533386 0 -199.79698505533386 -186.40616947027956 0 0 0 0 -608.08023587217758 -99.732525913948848 0 -99.732525913948848 -72.721482576435847 0 0 0 0 -720.69879231712366 -120.62060606504656 0 -120.62060606504656 -62.188980208053181 0 0 0 0 -683.05681016800008 -170.54079290120262 0 -170.54079290120262 -71.613934363938824 0 0 0 0 -615.2682105479289 -65.984398262873583 0 -65.984398262873583 28.547870986603812 0 0 0 0 -414.9225046200736 -82.198024472863835 0 -82.198024472863835 -110.26799107691272 0 0 0 0 -511.01151160492373 -95.988535054635577 0 -95.988535054635577 -101.27294922168403 0 0 0 0 -377.04843515428365 -9.1198698523985513 0 -9.1198698523985513 -173.03452405463213 0 0 0 0 -459.43876523990548 299.56252304165264 0 299.56252304165264 -380.49521246478025 0 0 0 0 -263.13870288961061 -104.58085671778235 0 -104.58085671778235 -167.60010338751999 0 0 0 0 -1017.7713145823473 -247.17132674698132 0 -247.17132674698132 82.104579593033122 0 0 0 0 -1134.6930088609297 65.510582268281269 0 65.510582268281269 23.239076863746959 0 0 0 0 -175.15152026878332 -231.51714839947829 0 -231.51714839947829 -118.4598539003 0 0 0 0 -165.52242321284575 -269.99987190783895 0 -269.99987190783895 -87.473267278006006 0 0 0 0 -36.634091124040424 -241.43214966687401 0 -241.43214966687401 -157.07220408446574 0 0 0 0 -193.32208394361805 -63.685956863481806 0 -63.685956863481806 -178.11026087864377 0 0 0 0 -200.81041435357474 -162.92499386600957 0 -162.92499386600957 -163.66517667839679 0 0 0 0 -423.86957877146051 -107.41029332712196 0 -107.41029332712196 -122.14580437239471 0 0 0 0 -222.44569307611346 -164.40534214388208 0 -164.40534214388208 -123.00606956171214 0 0 0 0 -146.14949732353125 -211.51528329860685 0 -211.51528329860685 -142.27033468781246 0 0 0 0 -139.2788223051266 -182.97691148495483 0 -182.97691148495483 -29.641594426602751 0 0 0 0 -164.93558933623717 -112.02127231893883 0 -112.02127231893883 -98.052346672431668 0 0 0 0 -111.21196404597868 -126.97972947076596 0 -126.97972947076596 -205.25024668096398 0 0 0 0 -117.93077093513057 -129.55840370004398 0 -129.55840370004398 -127.56340368958809 0 0 0 0 -74.666739266974218 -26.605688653218294 0 -26.605688653218294 -82.562036048195296 0 0 0 0 -251.62573550381785 -218.99499896059615 0 -218.99499896059615 -151.60167992214974 0 0 0 0 -26.10437314088631 22.197521701182268 0 22.197521701182268 -13.449793952400171 0 0 0 0 -0.38261359470356737 -0.60515354257392318 0 -0.60515354257392318 -2.0056197059642038 0 0 0 0 -49.161568974450347 -27.784127635201457 0 -27.784127635201457 -120.1627267830354 0 0 0 0 -94.957090935604356 -12.126991457967051 0 -12.126991457967051 0.38931918351005379 0 0 0 0 -60.668009780760258 -22.960986503570894 0 -22.960986503570894 -2.5159359800818493 0 0 0 0 -72.326103291481559 -41.375276029847555 0 -41.375276029847555 -48.747557294593662 0 0 0 0 -69.013484957162291 -2.0739290991136841 0 -2.0739290991136841 -53.33871572989483 0 0 0 0 18.379157694569585 -53.389621456103669 0 -53.389621456103669 -166.39807724619277 0 0 0 0 -47.861206056455558 -41.834205254161134 0 -41.834205254161134 -50.349217280805533 0 0 0 0 -46.087473747564218 -8.3696691375489536 0 -8.3696691375489536 140.15618801867186 0 0 0 0 0.23261708685022597 0.76184937291767696 0 0.76184937291767696 -0.3484813482182112 0 0 0 0 22.698736710861461 -177.95782521280671 0 -177.95782521280671 -77.696427483608204 0 0 0 0 -11.896904388238909 -29.661930678824319 0 -29.661930678824319 -22.445290316249157 0 0 0 0 -13.55687454569852 -47.129557039213978 0 -47.129557039213978 -49.547116405379256 0 0 0 0 -11.891360947971407 -43.068533359375579 0 -43.068533359375579 58.554723528115574 0 0 0 0 -15.290156357172236 -73.123129883303591 0 -73.123129883303591 9.2333129195085348 0 0 0 0 28.33429640581744 -55.999150089352952 0 -55.999150089352952 -57.498967861398341 0 0 0 0 -13.774132442969858 -98.924375615785721 0 -98.924375615785721 65.065090728394352 0 0 0 0 41.152117466896016 -84.944375099914396 0 -84.944375099914396 -18.323372835904365 0 0 0 0 -24.789084495299903 -48.833526420581165 0 -48.833526420581165 -4.7807866418934282 0 0 0 0 -37.908278267466812 -73.719755480794447 0 -73.719755480794447 -50.548306387653128 0 0 0 0 -80.400368297492605 -61.429712277204544 0 -61.429712277204544 -24.87777465934596 0 0 0 0 -46.811191075041279 -20.733536060982715 0 -20.733536060982715 -49.26743237777373 0 0 0 0 -60.39115881143988 -29.259544342608024 0 -29.259544342608024 5.0208595906240134 0 0 0 0 -44.411468919748586 -199.4227209969813 0 -199.4227209969813 189.73228704321446 0 0 0 0 -83.730435337749697 -24.385401258079057 0 -24.385401258079057 1.7826572998792045 0 0 0 0 -342.9038993460199 -259.35631894091603 0 -259.35631894091603 145.68411850087341 0 0 0 0 -204.83637482236736 107.61470910298499 0 107.61470910298499 33.352975988207618 0 0 0 0 -13.165710061453396 1.1304687732336731 0 1.1304687732336731 5.3727321361303986 0 0 0 0 -14.761871728893311 -48.621031692092401 0 -48.621031692092401 -34.530477593453725 0 0 0 0 -78.168629867829608 -49.481589340918951 0 -49.481589340918951 -10.314708908959119 0 0 0 0 -1.8199910411299101 -9.2672860388076703 0 -9.2672860388076703 -4.5830565162877583 0 0 0 0 -53.179258305091707 -30.371469448167336 0 -30.371469448167336 -11.147789116432456 0 0 0 0 31.991914328944404 -76.659161377412602 0 -76.659161377412602 -35.886725517359082 0 0 0 0 -33.56408515426574 -10.785170389758264 0 -10.785170389758264 73.365430338955775 0 0 0 0 0.38458613531111041 -76.540357231592679 0 -76.540357231592679 -28.162168379239802 0 0 0 0 -11.114338867482729 -23.59184112175717 0 -23.59184112175717 -52.063424502126509 0 0 0 0 -75.452080137539923 -38.101940403462947 0 -38.101940403462947 -12.104003853927352 0 0 0 0 -61.858113309709779 2.9326916793543205 0 2.9326916793543205 108.50556179790146 0 0 0 0 -30.760472084730281 -93.317108009847288 0 -93.317108009847288 449.20914121175883 0 0 0 0 29.671191976558475 -30.888310219026607 0 -30.888310219026607 -5.927753358562768 0 0 0 0 81.514905535907019 9.8867899824726919 0 9.8867899824726919 492.61461570618121 0 0 0 0 396.59137008903781 89.326461795244541 0 89.326461795244541 435.69657485209245 0 0 0 0 -52.816990730680118 -181.38986315345028 0 -181.38986315345028 357.08849906701653 0 0 0 0 -99.997839206618664 -172.53009973486405 0 -172.53009973486405 360.28467564495077 0 0 0 0 -64.035714704004931 -117.23994073059657 0 -117.23994073059657 410.66786242625676 0 0 0 0 -109.90223588501249 -74.061500874868216 0 -74.061500874868216 390.00105019404873 0 0 0 0 -168.08118883103452 -81.001720091320749 0 -81.001720091320749 308.93085381237324 0 0 0 0 -137.837370339068 -115.26387784421058 0 -115.26387784421058 329.25826180230797 0 0 0 0 -150.76752214538283 -136.86695270074961 0 -136.86695270074961 319.57228194468917 0 0 0 0 -141.3560707349825 -133.4885721101673 0 -133.4885721101673 286.02310506119102 0 0 0 0 -120.47816695584334 -132.41932984241612 0 -132.41932984241612 285.90201817790512 0 0 0 0 -139.67103666803541 -19.29454215345686 0 -19.29454215345686 144.37173639646062 0 0 0 0 -109.80125961238809 -4.2588306037650909 0 -4.2588306037650909 280.90702620695629 0 0 0 0 -148.37348010221285 -33.246957924990056 0 -33.246957924990056 259.27573077248235 0 0 0 0 -85.220421915175393 -56.556867472911108 0 -56.556867472911108 333.55217695267493 0 0 0 0 -18.951660944600007 8.5213239743134181 0 8.5213239743134181 397.35892423289533 0 0 0 0 -33.143183030690125 58.257146288047807 0 58.257146288047807 286.32153666691738 0 0 0 0 -71.45488529807335 -42.236475902645907 0 -42.236475902645907 101.2547038640987 0 0 0 0 -8.836039590270957 91.650570163783414 0 91.650570163783414 15.428246168639816 0 0 0 0 10.259424902149476 -70.951221843122767 0 -70.951221843122767 77.485960448855622 0 0 0 0 -71.993500720549491 55.961115052567038 0 55.961115052567038 165.36015137318736 0 0 0 0 127.46844885263272 37.534481574388337 0 37.534481574388337 159.24011493422586 0 0 0 0 70.359041617150069 -4.4100464455732435 0 -4.4100464455732435 156.76544426461851 0 0 0 0 406.22852834248624 -52.984488223897642 0 -52.984488223897642 307.64995682122753 0 0 0 0 14.933877619190753 -41.666376252513146 0 -41.666376252513146 337.86634106679412 0 0 0 0 13.923316807125957 -47.893918236904938 0 -47.893918236904938 407.99479983166384 0 0 0 0 713.73962467704223 -435.2200787823972 0 -435.2200787823972 219.43411109987937 0 0 0 0 545.73677357370616 77.856160200644808 0 77.856160200644808 288.60482598689123 0 0 0 0 -353.51858373606592 -128.86782102423422 0 -128.86782102423422 306.99575493171142 0 0 0 0 128.16988768204757 -439.8525335449433 0 -439.8525335449433 447.2228408522933 0 0 0 0 -123.13963531183981 -132.20496713905231 0 -132.20496713905231 -299.89472519513947 0 0 0 0 -59.111789735041384 -143.00977715294539 0 -143.00977715294539 -332.74585171520812 0 0 0 0 -20.983954060160613 155.69383785518858 0 155.69383785518858 -156.29496504294366 0 0 0 0 -54.650856144686259 28.990501434236421 0 28.990501434236421 -135.82922506593604 0 0 0 0 -69.118158087283518 -26.801190308126024 0 -26.801190308126024 -75.693473096469461 0 0 0 0 22.468316961732853 5.8838617608248569 0 5.8838617608248569 -275.57102536730963 0 0 0 0 -63.763733261854213 -60.346339015236936 0 -60.346339015236936 76.397844129651276 0 0 0 0 -140.29069084596267 -167.57615946757642 0 -167.57615946757642 -59.372823994855025 0 0 0 0 -109.44946484068714 -1191.0489393461594 0 -1191.0489393461594 970.74949544948322 0 0 0 0 48.863435417852997 -83.592582539029536 0 -83.592582539029536 58.462125718644529 0 0 0 0 -60.280340206676584 -40.924761119020729 0 -40.924761119020729 -15.835235058810326 0 0 0 0 75.397491013201943 -55.99784172933505 0 -55.99784172933505 -22.483481147426573 0 0 0 0 65.606844209949486 -139.10299557771032 0 -139.10299557771032 17.805640446878897 0 0 0 0 -48.018768894077283 -35.7401996821635 0 -35.7401996821635 -14.761870950074616 0 0 0 0 -1983.0443911600923 -202.71326922915341 0 -202.71326922915341 1341.3553698546348 0 0 0 0 -329.97915568972894 -128.71741704867236 0 -128.71741704867236 198.69905174481391 0 0 0 0 -1333.0937149263991 748.98082822107244 0 748.98082822107244 -201.12398406809189 0 0 0 0 -1420.0134256964229 -863.77965402111386 0 -863.77965402111386 1501.4478207001921 0 0 0 0 -128.29555764450924 -203.09972637608189 0 -203.09972637608189 -1218.8746098159609 0 0 0 0 -11.491954206428503 -6.7905683911823189 0 -6.7905683911823189 -4.2938071249421697 0 0 0 0 1716.7975471515783 332.99450809701284 0 332.99450809701284 -2801.4395285932587 0 0 0 0 -311.34430065334163 -1109.7243508105184 0 -1109.7243508105184 1673.1842328024504 0 0 0 0 -161.60563854733482 -188.05483835259474 0 -188.05483835259474 29.952234260066234 0 0 0 0 1.12346829398723 -126.11574890053453 0 -126.11574890053453 39.465176893252647 0 0 0 0 -61.893236207817395 -32.861875161106632 0 -32.861875161106632 -14.436723075171237 0 0 0 0 -24.040367118271092 -39.119807160095249 0 -39.119807160095249 -23.858046991513547 0 0 0 0 -156.01670481502879 -251.28196087884135 0 -251.28196087884135 -104.17535359550402 0 0 0 0 -97.194666926961673 -47.10390475547554 0 -47.10390475547554 -7.6623682044637604 0 0 0 0 58.243046683621287 -169.49399121460465 0 -169.49399121460465 190.8086921193717 0 0 0 0 971.03514581212221 -936.31770508388399 0 -936.31770508388399 -1823.2424953800873 0 0 0 0 -28.551486081145413 -405.21945714578396 0 -405.21945714578396 751.3296555781435 0 0 0 0 -21.53805495784394 -44.112009272968393 0 -44.112009272968393 -20.822073725833679 0 0 0 0 -266.11234086534387 -13.966793892301212 0 -13.966793892301212 97.137197896081034 0 0 0 0 22.053008796392533 -171.09446064294389 0 -171.09446064294389 122.27364624859183 0 0 0 0 -235.32951779387986 54.001283598319787 0 54.001283598319787 231.07436114606026 0 0 0 0 -325.41937771652738 -68.027969848846624 0 -68.027969848846624 66.30584673440535 0 0 0 0 -263.20907926753716 33.759128868881817 0 33.759128868881817 51.346080636018542 0 0 0 0 -541.21497243760678 -562.99343960518399 0 -562.99343960518399 -318.85441937965516 0 0 0 0 -504.72651482983929 -203.43277543942895 0 -203.43277543942895 664.38426548121242 0 0 0 0 -467.14169625448267 -313.5830743601673 0 -313.5830743601673 84.322085066909494 0 0 0 0 -158.17657256757957 -258.94946894621535 0 -258.94946894621535 -436.86540772782064 0 0 0 0 -116.63241873105289 -62.380172134491659 0 -62.380172134491659 -155.89681942480274 0 0 0 0 -155.95793676822723 -131.01396651140203 0 -131.01396651140203 -258.94862196649024 0 0 0 0 -260.07685916483388 4.4695934234041488 0 4.4695934234041488 -48.042060317453434 0 0 0 0 -323.20223077095216 -72.320775121330371 0 -72.320775121330371 -137.02379183159064 0 0 0 0 -327.22694944132672 -84.664389287376252 0 -84.664389287376252 12.455042479552503 0 0 0 0 -339.8635534507157 -58.902663947968904 0 -58.902663947968904 87.903596838870726 0 0 0 0 -367.8730634715248 -63.880990458656015 0 -63.880990458656015 -72.348783584322518 0 0 0 0 -322.75394079164835 -14.051330261654584 0 -14.051330261654584 -17.92841748932824 0 0 0 0 -389.15526005317497 -4.1935921697429421 0 -4.1935921697429421 -33.54737778006529 0 0 0 0 -450.5624766075598 1.9409700861797319 0 1.9409700861797319 -21.015044142083752 0 0 0 0 -392.83064129291961 -169.94123896904966 0 -169.94123896904966 -256.7560487180981 0 0 0 0 -302.52101607217992 -40.703394387481239 0 -40.703394387481239 -118.52065127674905 0 0 0 0 -302.56556166720839 -38.279293839315869 0 -38.279293839315869 -94.112169194915055 0 0 0 0 -248.23196340182403 -57.620853258812531 0 -57.620853258812531 -191.81061405873152 0 0 0 0 -290.565028132507 -94.254969033479938 0 -94.254969033479938 -192.85566232032852 0 0 0 0 -167.4703664597946 -56.40626739840809 0 -56.40626739840809 -126.65322142678997 0 0 0 0 -317.02669473715287 -75.43615398305883 0 -75.43615398305883 -114.8426972603811 0 0 0 0 -289.76041889123553 -39.40036784709082 0 -39.40036784709082 -94.069053210889251 0 0 0 0 -1697.8185871991118 367.55734484780078 0 367.55734484780078 360.43256589877274 0 0 0 0 -1666.9500070744932 966.39539918536184 0 966.39539918536184 -546.98972406021494 0 0 0 0 447.47665319959924 -757.04424247750285 0 -757.04424247750285 244.83059354812485 0 0 0 0 -8.7940456363498356 -5.9197975412227777 0 -5.9197975412227777 -1.88690678058137 0 0 0 0 -80.297917366653564 -43.737789038894334 0 -43.737789038894334 -58.351767451204068 0 0 0 0 -709.72982348445657 -543.99173382587469 0 -543.99173382587469 307.98806811313943 0 0 0 0 -755.79773487322018 465.38483026660651 0 465.38483026660651 -219.61164477154307 0 0 0 0 -281.33539222025502 52.30359596719245 0 52.30359596719245 -44.500735921782052 0 0 0 0 -224.17712022418164 14.276418900200042 0 14.276418900200042 -62.518282471428392 0 0 0 0 -511.06257172616461 -385.50910811995254 0 -385.50910811995254 -287.13301763493246 0 0 0 0 -2.8046236017506203 -5.237603337794809 0 -5.237603337794809 -11.98691083142262 0 0 0 0 -199.48516462296539 97.641300270845022 0 97.641300270845022 -95.585855023544354 0 0 0 0 -267.21263397102211 30.228086129605117 0 30.228086129605117 -41.77381022265763 0 0 0 0 -166.4678069355632 39.707134172440874 0 39.707134172440874 -252.24225337216558 0 0 0 0 -2.3684739799633299 -3.2594843701968159 0 -3.2594843701968159 -5.4581450481655054 0 0 0 0 -218.61837393949463 179.97690894458947 0 179.97690894458947 -302.08115892091337 0 0 0 0 -939.17407516084495 93.497258706736829 0 93.497258706736829 -304.22152290468148 0 0 0 0 -749.02668224726222 -172.7287254797393 0 -172.7287254797393 -195.7131048337169 0 0 0 0 -1218.8049941337704 410.79185416865221 0 410.79185416865221 1.7857506136606389 0 0 0 0 -783.90647884483769 239.42695198314505 0 239.42695198314505 -290.28531634847968 0 0 0 0 -1202.4911339066714 758.72178718066948 0 758.72178718066948 -374.08642633142517 0 0 0 0 -936.0486008664011 358.71107649960322 0 358.71107649960322 -315.35616197367926 0 0 0 0 -470.64122124918413 493.32924038897409 0 493.32924038897409 -276.81481599021936 0 0 0 0 -462.59201015014969 543.03387956881215 0 543.03387956881215 196.85597730264271 0 0 0 0 -578.90200757373532 125.8981849197844 0 125.8981849197844 -332.05274590911631 0 0 0 0 527.16083635774703 532.06820955771582 0 532.06820955771582 123.443235172409 0 0 0 0 -209.84680639329963 119.11970637400555 0 119.11970637400555 308.23155712147127 0 0 0 0 -1058.5877888158611 111.05042020865585 0 111.05042020865585 109.97598144446602 0 0 0 0 0.95066468831610251 -0.79039169146453858 0 -0.79039169146453858 1.3851090946703835 0 0 0 0 -986.33791984315758 272.87170099526747 0 272.87170099526747 17.973499208674184 0 0 0 0 -98.113389109130367 -36.997300148857903 0 -36.997300148857903 -197.72632937565868 0 0 0 0 -101.69454465684248 3.5629580321328831 0 3.5629580321328831 -447.50632694510932 0 0 0 0 -313.00199995734874 -272.04580138404162 0 -272.04580138404162 -231.05892739943829 0 0 0 0 -688.32654823308349 -114.00703659574447 0 -114.00703659574447 241.02954246270019 0 0 0 0 -173.19755615170288 103.65940463048537 0 103.65940463048537 248.90514451486263 0 0 0 0 -313.31683944085489 -9.5700212947422187 0 -9.5700212947422187 289.15350966035476 0 0 0 0 -202.36146868428114 -38.776376662026451 0 -38.776376662026451 114.52177127115647 0 0 0 0 -224.54577781966509 -113.98841140462173 0 -113.98841140462173 149.72492687601243 0 0 0 0 -192.74197724163241 -111.23769331101357 0 -111.23769331101357 251.31889239671 0 0 0 0 -182.78453760481352 -111.09809718657743 0 -111.09809718657743 54.606627954099167 0 0 0 0 -132.68912862554862 -127.1191986841477 0 -127.1191986841477 275.98719225879177 0 0 0 0 -179.29116187374166 -101.70682443487385 0 -101.70682443487385 283.21092815964948 0 0 0 0 -186.4917263479656 -104.61188798272997 0 -104.61188798272997 291.48427608771453 0 0 0 0 -211.09815162481391 -99.037073676428918 0 -99.037073676428918 272.60002387315035 0 0 0 0 -173.14562784263398 -99.234679478744511 0 -99.234679478744511 255.98770028977015 0 0 0 0 -196.12084167898865 -83.501479032400312 0 -83.501479032400312 288.63304196061654 0 0 0 0 -200.5536628785303 -54.281722753143185 0 -54.281722753143185 240.4002235562657 0 0 0 0 -135.43704870167858 -101.801880633986 0 -101.801880633986 266.95248312462718 0 0 0 0 -183.09802571319051 -113.63538443707512 0 -113.63538443707512 315.44292118850353 0 0 0 0 -105.33414788419759 47.30689734722273 0 47.30689734722273 251.63738068927341 0 0 0 0 -160.13941162853371 38.329204017097709 0 38.329204017097709 300.43437576543874 0 0 0 0 -65.050251584834768 -72.27876510218266 0 -72.27876510218266 199.11504200790114 0 0 0 0 -71.070056104096693 -38.756697018622617 0 -38.756697018622617 -16.461314826349508 0 0 0 0 -70.329985297354142 -39.949554197508178 0 -39.949554197508178 -18.502380029809046 0 0 0 0 -55.034682961741169 -20.931735573150274 0 -20.931735573150274 5.5236062999538404 0 0 0 0 -79.755765258028234 -19.741973713451568 0 -19.741973713451568 4.2404063516767136 0 0 0 0 -74.014239114635529 -23.695434179814583 0 -23.695434179814583 17.090250238179578 0 0 0 0 -54.64281162619227 -125.27830613902188 0 -125.27830613902188 23.711085881575855 0 0 0 0 -164.47696792065835 36.273946616554895 0 36.273946616554895 357.73574813042978 0 0 0 0 -17.010033967389106 -10.270829471194155 0 -10.270829471194155 -5.4819950998727052 0 0 0 0 -66.945866904764443 -31.952382808161929 0 -31.952382808161929 -6.7534717767153438 0 0 0 0 -56.078789216994394 -28.105471337179807 0 -28.105471337179807 5.8083950596294649 0 0 0 0 -144.59848967572907 -20.198717539247809 0 -20.198717539247809 125.91019786526158 0 0 0 0 -733.91101615594744 -54.377297288909176 0 -54.377297288909176 69.616124013667104 0 0 0 0 -671.41531308704361 86.234356565264534 0 86.234356565264534 -506.15160702320645 0 0 0 0 -6.1641823514133023 -8.44747830360037 0 -8.44747830360037 4.5429985201469734 0 0 0 0 52.737065435871045 206.86493994992998 0 206.86493994992998 283.95942392698907 0 0 0 0 -158.06728493461287 115.13213458265454 0 115.13213458265454 -125.53381557810644 0 0 0 0 -215.02911521792703 -188.98254720473233 0 -188.98254720473233 -34.013906764178955 0 0 0 0 7.9010054531489899 -13.497657852618762 0 -13.497657852618762 -18.288531812152868 0 0 0 0 -6.8165566023201194 -0.44005826702709072 0 -0.44005826702709072 -2.962328874603732 0 0 0 0 -611.82082376609105 -361.23071585492198 0 -361.23071585492198 345.3517272631766 0 0 0 0 -71.431112314292477 -302.1567827708227 0 -302.1567827708227 -500.25681251368223 0 0 0 0 -10.570950313524364 6.6053372657845912 0 6.6053372657845912 -4.3286852260999744 0 0 0 0 230.00664053652508 277.24054760701529 0 277.24054760701529 -757.81466889923104 0 0 0 0 -1543.7757594535578 -334.15683476163395 0 -334.15683476163395 -66.880943594998826 0 0 0 0 -97.542828872357404 905.13870910603669 0 905.13870910603669 -361.60714018122235 0 0 0 0 -876.52246170517901 344.97982232618779 0 344.97982232618779 -18.014740490449185 0 0 0 0 -865.28853385670664 386.35722411618917 0 386.35722411618917 -83.538053264355767 0 0 0 0 -1778.6804011507702 759.9656016739209 0 759.9656016739209 -192.36635126169131 0 0 0 0 -1182.3830780848784 -403.32802519687266 0 -403.32802519687266 -123.2056787772417 0 0 0 0 -682.05334477697397 -110.59447877511229 0 -110.59447877511229 -926.66337514133556 0 0 0 0 -306.03548748837784 569.98004683058571 0 569.98004683058571 -1092.7545647232328 0 0 0 0 -1698.2946542728951 466.36655452611103 0 466.36655452611103 -18.431264568075676 0 0 0 0 -1189.904470946266 856.09334224292706 0 856.09334224292706 -461.47817532306726 0 0 0 0 -0.55189930207097859 -2.6877092698987042 0 -2.6877092698987042 -3.3021346817993162 0 0 0 0 225.7076782481181 -118.60116938077044 0 -118.60116938077044 -502.62527610879624 0 0 0 0 1.138057536278211 337.65443086114828 0 337.65443086114828 -181.93059657649428 0 0 0 0 -116.11380030427608 43.467432136196294 0 43.467432136196294 -434.11314444477102 0 0 0 0 -346.49676516398904 -68.814828188104002 0 -68.814828188104002 27.395817870825795 0 0 0 0 -219.88424896947981 222.86896012015131 0 222.86896012015131 -532.34230659168315 0 0 0 0 352.62820679637844 256.72816905971013 0 256.72816905971013 -711.37239570926613 0 0 0 0 -429.5434671563653 485.56906186552806 0 485.56906186552806 -464.50268936554494 0 0 0 0 -510.98665352397074 -344.91482191324212 0 -344.91482191324212 217.03090031350393 0 0 0 0 -36.692680658617896 -28.733961970575585 0 -28.733961970575585 -6.6660123032216561 0 0 0 0 -32.558805678316276 -223.62639063015695 0 -223.62639063015695 83.091423197940458 0 0 0 0 -92.371916738229629 -80.207158080109366 0 -80.207158080109366 81.038223019360885 0 0 0 0 50.573956222080596 -52.530983109851149 0 -52.530983109851149 9.1492302815313451 0 0 0 0 -163.17491768158652 -51.773793175014816 0 -51.773793175014816 70.208284157175513 0 0 0 0 -237.16064989718325 -239.79923797955962 0 -239.79923797955962 143.51361228185124 0 0 0 0 -18.236623353332106 112.52484929690399 0 112.52484929690399 78.103849798053034 0 0 0 0 -82.013542861186579 -59.161262005129174 0 -59.161262005129174 -334.84593398739889 0 0 0 0 -464.49103817419746 -66.786927350318365 0 -66.786927350318365 107.25392356045995 0 0 0 0 -373.9734541607977 -119.79747879736169 0 -119.79747879736169 147.74669264320437 0 0 0 0 276.45544013990002 578.44029205795232 0 578.44029205795232 -599.47735868236123 0 0 0 0 -388.95041416097229 480.37690377430135 0 480.37690377430135 250.58654759099954 0 0 0 0 -1003.4554020187916 -105.67806857366486 0 -105.67806857366486 371.06302026547564 0 0 0 0 193.01520957093453 -178.97663983144139 0 -178.97663983144139 -68.688705071319418 0 0 0 0 -15.763617533943176 -4.500760603146901 0 -4.500760603146901 -2.8414261541625265 0 0 0 0 -34.12045621675496 -27.704785153363737 0 -27.704785153363737 -7.6161598542152333 0 0 0 0 -82.116404748328932 -66.849032549166623 0 -66.849032549166623 96.266747132438468 0 0 0 0 -441.30010685552406 146.74469083236727 0 146.74469083236727 -7.2340531198606186 0 0 0 0 -70.145739614126796 -46.134574804655131 0 -46.134574804655131 -10.401934009674733 0 0 0 0 -301.38610302806001 -90.379175870382596 0 -90.379175870382596 -29.0667117334051 0 0 0 0 -272.83256287756012 53.425812925145465 0 53.425812925145465 79.242354604699358 0 0 0 0 -12.935595019265747 4.7059258726430926 0 4.7059258726430926 67.519287640388939 0 0 0 0 -146.72456516679813 -55.3541873331651 0 -55.3541873331651 134.23114901120061 0 0 0 0 -32.173756998094021 -23.924754484601479 0 -23.924754484601479 -6.5886659003652426 0 0 0 0 -908.94256533407315 514.81752488870461 0 514.81752488870461 -26.35302656071508 0 0 0 0 -910.45630232993062 474.99162066139615 0 474.99162066139615 -77.429961847668892 0 0 0 0 -163.16737150796689 25.971090402043046 0 25.971090402043046 -107.06718748260755 0 0 0 0 140.08601698446728 -162.33974029031197 0 -162.33974029031197 146.36764566947704 0 0 0 0 -20.538848775034729 -1.8812772424457052 0 -1.8812772424457052 2.5288454983482183 0 0 0 0 -837.9292254086904 579.07862982917959 0 579.07862982917959 121.20854566679918 0 0 0 0 -924.23134844869128 402.57283901271148 0 402.57283901271148 -179.9084196502572 0 0 0 0 -861.05454027078667 481.25680099436795 0 481.25680099436795 -129.44364171584493 0 0 0 0 -946.20516481662708 383.991162622513 0 383.991162622513 174.03946907333602 0 0 0 0 -936.10199927517078 359.14166397151303 0 359.14166397151303 0.15685560137717403 0 0 0 0 -488.63811873523264 -298.47689113999149 0 -298.47689113999149 27.294100732367951 0 0 0 0 -801.76426623274892 334.5640829885524 0 334.5640829885524 -22.475511535909391 0 0 0 0 -669.66085135723006 383.41359840903169 0 383.41359840903169 -78.206271210234263 0 0 0 0 -801.53621089584885 408.08532621907943 0 408.08532621907943 -54.917074264179973 0 0 0 0 -10.847281609412676 24.622284974574086 0 24.622284974574086 -31.391158804191946 0 0 0 0 -46.600017891595598 25.512106505514566 0 25.512106505514566 1.186769848509357 0 0 0 0 -22.054240065115195 21.036831813220218 0 21.036831813220218 -8.6644426128560212 0 0 0 0 -20.385770227188459 29.754144108888795 0 29.754144108888795 6.4943555934296455 0 0 0 0 -35.683355726163732 29.40722116740443 0 29.40722116740443 -2.1350073714783804 0 0 0 0 -33.400304530650402 20.491695108931559 0 20.491695108931559 -4.9443614296654772 0 0 0 0 -34.248839653288258 26.467213229861315 0 26.467213229861315 -9.0172383650936183 0 0 0 0 -40.446542501405929 68.349880253666925 0 68.349880253666925 -17.457071854420064 0 0 0 0 -50.693135791409077 48.679113083466291 0 48.679113083466291 2.120185796484293 0 0 0 0 -55.187130193546182 70.477332236750954 0 70.477332236750954 -16.618780409293322 0 0 0 0 4.7466438693988664 14.670086017371773 0 14.670086017371773 6.0016970614014795 0 0 0 0 -34.186276596286916 48.148642488260521 0 48.148642488260521 -25.103175328396901 0 0 0 0 -25.99310106669509 17.910710276938516 0 17.910710276938516 6.0050966314593097 0 0 0 0 -129.66312588313303 108.59110680712001 0 108.59110680712001 -113.69322517854016 0 0 0 0 39.303550319262285 107.32302763873213 0 107.32302763873213 -137.3894603616427 0 0 0 0 -0.06056853931084305 1.9625202703839086 0 1.9625202703839086 1.0133502162720873 0 0 0 0 -133.00371824675676 173.59927422009059 0 173.59927422009059 -140.19840818338889 0 0 0 0 -157.29928238238062 94.171229104180384 0 94.171229104180384 -28.132585558421852 0 0 0 0 -91.006170906213811 116.30406107362069 0 116.30406107362069 -112.68703633688983 0 0 0 0 -112.90501800041784 67.09612520941937 0 67.09612520941937 -19.863764552937937 0 0 0 0 -124.66154971585638 79.914581592573086 0 79.914581592573086 -2.333370758111414 0 0 0 0 -87.615162803063868 89.584134874901793 0 89.584134874901793 -31.561084361026587 0 0 0 0 -54.872879031965567 70.664703723083221 0 70.664703723083221 -20.898200505755085 0 0 0 0 -68.306548493012087 79.938058417290449 0 79.938058417290449 -67.615383277909132 0 0 0 0 -97.798599090387142 104.07886219668762 0 104.07886219668762 -48.680033439333783 0 0 0 0 -63.917051837230247 65.553384093743261 0 65.553384093743261 -44.108510915219085 0 0 0 0 -85.077467578928918 71.45281387144496 0 71.45281387144496 -9.4838495671792771 0 0 0 0 -92.138409428632258 35.819158882307875 0 35.819158882307875 37.993965019457391 0 0 0 0 -89.330998269084375 47.805379018816893 0 47.805379018816893 14.431542541286035 0 0 0 0 -96.442891482613049 54.575788173573528 0 54.575788173573528 18.079439564600762 0 0 0 0 -95.559679353555111 54.662402267802463 0 54.662402267802463 13.235688391163421 0 0 0 0 -106.15958045776642 29.127682128672404 0 29.127682128672404 45.939573657546134 0 0 0 0 -108.38799877866404 52.916120367372059 0 52.916120367372059 23.752728438561462 0 0 0 0 -7.0598417104883993 24.250693357387718 0 24.250693357387718 38.719923794240458 0 0 0 0 -92.384935800058884 35.668279731580697 0 35.668279731580697 45.267642277544041 0 0 0 0 -78.562985646814923 -11.741758409545582 0 -11.741758409545582 65.349229542298417 0 0 0 0 -121.78157842029759 60.329548203684681 0 60.329548203684681 21.892883506623548 0 0 0 0 -147.80878406463307 25.772244161311392 0 25.772244161311392 62.416665503490549 0 0 0 0 -135.17633988038142 82.330940106447088 0 82.330940106447088 -6.0846245888405974 0 0 0 0 -113.63218442578363 49.70417150477806 0 49.70417150477806 3.4993588125689712 0 0 0 0 -117.21948068650818 76.118713637381006 0 76.118713637381006 -44.716027933533042 0 0 0 0 -191.23899265944056 113.73436536049121 0 113.73436536049121 -29.541431514937358 0 0 0 0 -191.26620503883896 137.92344607089399 0 137.92344607089399 -26.150658689977718 0 0 0 0 74.731225959687436 114.85752652055817 0 114.85752652055817 -142.33573108926066 0 0 0 0 -0.15096932228603066 1.4910396482935724 0 1.4910396482935724 -3.8152008471255812 0 0 0 0 -570.029786150787 -154.23206097054344 0 -154.23206097054344 73.993942501059792 0 0 0 0 24.785095694929623 238.9167594397004 0 238.9167594397004 -20.040602155036368 0 0 0 0 -175.15679412967802 23.181141340746763 0 23.181141340746763 47.13297315818636 0 0 0 0 -47.032120889762155 47.203887698648032 0 47.203887698648032 94.011854757422043 0 0 0 0 -21.615081765936338 22.72429512969029 0 22.72429512969029 37.025449029562878 0 0 0 0 -34.788543492184544 -25.861367792569581 0 -25.861367792569581 -5.2026667245590943 0 0 0 0 -1.5434765800753354 6.4065737145674895 0 6.4065737145674895 19.959995306647329 0 0 0 0 -19.702720901098473 -65.332008895351009 0 -65.332008895351009 53.347141788184672 0 0 0 0 -4.4539836783856401 1.5522785484636827 0 1.5522785484636827 6.0759900425028448 0 0 0 0 -1.9960861384669073 4.0019286464874213 0 4.0019286464874213 -2.6350805814901435 0 0 0 0 -15.241203386105553 50.304122153730532 0 50.304122153730532 -42.667429043784068 0 0 0 0 -14.739312598430843 -49.355061487909552 0 -49.355061487909552 163.09299176290824 0 0 0 0 -36.800647908938117 48.824957334554711 0 48.824957334554711 -2.7513254056098049 0 0 0 0 -32.05567141398933 3.3865273431438254 0 3.3865273431438254 174.31903688422608 0 0 0 0 2.5374397219566163 -35.192851134277589 0 -35.192851134277589 107.59551748332888 0 0 0 0 -8.4807786956371274 79.381623062548897 0 79.381623062548897 90.246646308605705 0 0 0 0 -9.3850838574435329 -19.894211975375583 0 -19.894211975375583 47.344744821839413 0 0 0 0 -6.7417484829329695 3.7520058792331383 0 3.7520058792331383 28.692494699208879 0 0 0 0 -74.171485838369335 7.2173395746040114 0 7.2173395746040114 65.724131353119446 0 0 0 0 15.479663730347966 -21.362996581212428 0 -21.362996581212428 25.362751993516213 0 0 0 0 8.979657425366895 -8.6079610257593231 0 -8.6079610257593231 30.434599629370496 0 0 0 0 21.042759162148286 -13.012474840488721 0 -13.012474840488721 24.763231796663604 0 0 0 0 28.903232036638656 -18.260364870515332 0 -18.260364870515332 23.647438750282163 0 0 0 0 29.848402170915506 -11.967578063093242 0 -11.967578063093242 17.019591541873524 0 0 0 0 37.781351864439785 -17.78405457084591 0 -17.78405457084591 20.86816358595388 0 0 0 0 18.72308526183042 -20.503887340644724 0 -20.503887340644724 33.494499684453331 0 0 0 0 24.515563549357466 -22.593423586360586 0 -22.593423586360586 34.225032638663833 0 0 0 0 26.645413353580807 -20.715483762684016 0 -20.715483762684016 32.937015837509534 0 0 0 0 25.633014295483008 -19.554241883490249 0 -19.554241883490249 34.431429048650898 0 0 0 0 27.059701334743295 -25.227269917897502 0 -25.227269917897502 43.347130964706594 0 0 0 0 19.935868236612805 -15.020526944646917 0 -15.020526944646917 60.712651535068289 0 0 0 0 20.178653096103517 -15.259522701649985 0 -15.259522701649985 43.660973970741907 0 0 0 0 14.906627829977424 -13.116267822016198 0 -13.116267822016198 76.78459925041534 0 0 0 0 16.299138398608193 -25.450029476189229 0 -25.450029476189229 80.798094099409809 0 0 0 0 4.4789611783198779 -25.705942978143867 0 -25.705942978143867 109.42296440811788 0 0 0 0 4.3383423519735516 -27.579065484509556 0 -27.579065484509556 99.082147684734082 0 0 0 0 13.666058363873162 -35.231086239589786 0 -35.231086239589786 81.2556914129093 0 0 0 0 13.547247516573407 -33.981529010801751 0 -33.981529010801751 79.389043822659005 0 0 0 0 19.786206523989676 -40.099342660076218 0 -40.099342660076218 71.04845241986186 0 0 0 0 25.575938967514958 -43.751707946659735 0 -43.751707946659735 55.454397045206861 0 0 0 0 17.534356279560598 -41.791733877435036 0 -41.791733877435036 74.346106112859161 0 0 0 0 19.499231838577543 -37.686094857723219 0 -37.686094857723219 73.905805190673163 0 0 0 0 26.873697058617836 -34.808382738458022 0 -34.808382738458022 51.804923784307903 0 0 0 0 28.75895008941734 -31.890729687942439 0 -31.890729687942439 34.517458056681789 0 0 0 0 19.097466940715094 -27.597455486829858 0 -27.597455486829858 57.640599659091095 0 0 0 0 26.809784571552882 -29.87102139655326 0 -29.87102139655326 55.60202737945292 0 0 0 0 28.256318255018414 -23.782211491521593 0 -23.782211491521593 36.355361890411587 0 0 0 0 31.364688044748618 -24.030167633391102 0 -24.030167633391102 36.156867710160441 0 0 0 0 34.160121350920235 -26.165881269127567 0 -26.165881269127567 21.451586799521465 0 0 0 0 34.870521330441989 -31.515774683113705 0 -31.515774683113705 16.117196699022315 0 0 0 0 33.219523520427174 -28.367447411168541 0 -28.367447411168541 35.328216313882876 0 0 0 0 40.122130067000398 -23.547182922269712 0 -23.547182922269712 5.0446868273065775 0 0 0 0 35.300723442429444 -28.57225862024643 0 -28.57225862024643 17.43838478104044 0 0 0 0 40.171040849585552 -22.759567727989634 0 -22.759567727989634 14.631449674474425 0 0 0 0 36.975058522890322 -20.731176315464836 0 -20.731176315464836 19.021600906398817 0 0 0 0 30.721971656923415 -33.1739605477851 0 -33.1739605477851 15.061265227872354 0 0 0 0 27.067188961584179 -26.38853202889004 0 -26.38853202889004 2.3670630502710992 0 0 0 0 32.519384123777854 -32.656314461237343 0 -32.656314461237343 -3.5100272443814902 0 0 0 0 36.045456992302206 -28.330320873184974 0 -28.330320873184974 3.5682292822893942 0 0 0 0 32.479697177914204 -37.485071549690474 0 -37.485071549690474 12.56439927550673 0 0 0 0 30.968593466510356 -34.668862847825949 0 -34.668862847825949 31.392408525352948 0 0 0 0 24.40762822094257 -39.313008619013999 0 -39.313008619013999 29.010174608807574 0 0 0 0 27.878802675782936 -43.187420015849057 0 -43.187420015849057 28.379426481235896 0 0 0 0 20.175403296087097 -47.872358971203539 0 -47.872358971203539 42.894997232899186 0 0 0 0 30.350303375700605 -38.806623913311341 0 -38.806623913311341 30.519189571974493 0 0 0 0 24.715631857870903 -42.304332386855094 0 -42.304332386855094 46.576981804435491 0 0 0 0 26.686316839535721 -45.081482628156664 0 -45.081482628156664 45.778123593292548 0 0 0 0 23.053821015506401 -41.085761613936484 0 -41.085761613936484 61.894786769975326 0 0 0 0 21.465432655575569 -52.593725478414854 0 -52.593725478414854 71.072299065883271 0 0 0 0 24.310380918657756 -51.025416856682568 0 -51.025416856682568 42.360621235557119 0 0 0 0 19.854973463050555 -47.999425542209792 0 -47.999425542209792 59.992198595107766 0 0 0 0 22.70606525860785 -47.210846485795628 0 -47.210846485795628 60.185452381771029 0 0 0 0 16.157796883158881 -57.328756519516901 0 -57.328756519516901 76.989664388500387 0 0 0 0 13.897361692768754 -51.733145424230315 0 -51.733145424230315 82.451821532071335 0 0 0 0 17.900482736731647 -53.623311950999778 0 -53.623311950999778 81.344060162562528 0 0 0 0 13.953227524863905 -53.917302519475925 0 -53.917302519475925 91.645841854216997 0 0 0 0 20.343051618474419 -49.979216744708538 0 -49.979216744708538 79.507650538216694 0 0 0 0 20.603209778942983 -50.863773028861033 0 -50.863773028861033 101.21489496834693 0 0 0 0 13.278989045706112 -53.978344589311746 0 -53.978344589311746 100.24524901302357 0 0 0 0 19.513120876668836 -51.767156967332994 0 -51.767156967332994 92.273011383673293 0 0 0 0 9.5663613235519733 -56.855039311034488 0 -56.855039311034488 104.55846478915191 0 0 0 0 15.738732706260635 -52.290204800781794 0 -52.290204800781794 105.74341643777007 0 0 0 0 7.4096762310873601 -57.418960652368696 0 -57.418960652368696 117.28558609442553 0 0 0 0 10.715486365952529 -54.964272570468893 0 -54.964272570468893 112.20112033872283 0 0 0 0 22.276130079582799 -48.982955923987902 0 -48.982955923987902 114.15507822830114 0 0 0 0 14.34682226194127 -55.153022468111885 0 -55.153022468111885 117.12475853913929 0 0 0 0 16.033847039274406 -52.873877866448311 0 -52.873877866448311 128.84060016489821 0 0 0 0 16.478998222155496 -44.141026527271606 0 -44.141026527271606 131.74663802582654 0 0 0 0 6.473399833907024 -53.566058405740478 0 -53.566058405740478 128.86498959058372 0 0 0 0 17.86534607943031 -61.017998650917434 0 -61.017998650917434 125.74572644538785 0 0 0 0 26.86553293230827 -50.068897012679372 0 -50.068897012679372 124.66920036272495 0 0 0 0 15.281089163094293 -56.816770570687368 0 -56.816770570687368 121.89268193674798 0 0 0 0 26.408894609077834 -48.640916149575787 0 -48.640916149575787 119.78595267489436 0 0 0 0 18.860302275032154 -55.352480542082048 0 -55.352480542082048 105.88510789626162 0 0 0 0 16.757349980238359 -50.684821691313118 0 -50.684821691313118 111.07137837435585 0 0 0 0 16.594730230804998 -52.945569158953731 0 -52.945569158953731 117.51706625039515 0 0 0 0 18.538047010253649 -56.042788567308889 0 -56.042788567308889 110.78693651189678 0 0 0 0 18.358069612761028 -48.725248237082269 0 -48.725248237082269 97.696928628720343 0 0 0 0 15.042596032493748 -52.254803542684385 0 -52.254803542684385 109.2692978951236 0 0 0 0 18.204053756242502 -54.451465017200462 0 -54.451465017200462 92.433065844452358 0 0 0 0 16.759664911078289 -48.192434460324876 0 -48.192434460324876 91.515201372560114 0 0 0 0 19.301977051829454 -45.06279723062471 0 -45.06279723062471 79.008720358287974 0 0 0 0 16.569590806113411 -49.231518179565683 0 -49.231518179565683 94.411819230692345 0 0 0 0 10.597910358366789 -47.205977501693269 0 -47.205977501693269 118.14628402983362 0 0 0 0 16.272583565398236 -48.947142560275097 0 -48.947142560275097 94.495428041500418 0 0 0 0 2.4833222558590933 -37.293063726188848 0 -37.293063726188848 100.78488026115792 0 0 0 0 2.9580365090714622 -40.547561563524141 0 -40.547561563524141 119.7552870407817 0 0 0 0 15.673861934901652 -44.921210793679165 0 -44.921210793679165 95.121350414934568 0 0 0 0 11.490020254452247 -43.506721504214511 0 -43.506721504214511 95.833945014121127 0 0 0 0 2.0487786168087041 -54.528801069307519 0 -54.528801069307519 136.88897461661691 0 0 0 0 12.034068920722348 -55.998658149765106 0 -55.998658149765106 114.81840851513334 0 0 0 0 11.644075337564573 -55.668746210656536 0 -55.668746210656536 123.11966325936373 0 0 0 0 15.645075983149582 -61.46274167161755 0 -61.46274167161755 132.05107706675335 0 0 0 0 18.673978556631482 -24.833742327748041 0 -24.833742327748041 168.55720653247408 0 0 0 0 1.4900192389832227 -50.222186710461756 0 -50.222186710461756 144.62071085161006 0 0 0 0 18.7917702809209 -44.472674270349671 0 -44.472674270349671 140.15493109193631 0 0 0 0 37.010062445522635 -35.228146643719811 0 -35.228146643719811 138.29951723950217 0 0 0 0 30.83535372687038 -53.299087124294601 0 -53.299087124294601 130.33937026016065 0 0 0 0 23.14542338490719 -53.645868414147117 0 -53.645868414147117 134.58124687318923 0 0 0 0 37.312937093106939 -45.441797164566879 0 -45.441797164566879 131.05463634047192 0 0 0 0 29.709498449843522 30.488793319786055 0 30.488793319786055 26.473853477238663 0 0 0 0 72.494543272765441 0.023617142526745738 0 0.023617142526745738 -9.8804074382896943 0 0 0 0 39.205019215114589 9.5532426534227852 0 9.5532426534227852 -31.857436258978851 0 0 0 0 31.445839639935002 -19.414911795200169 0 -19.414911795200169 -30.69511895432754 0 0 0 0 34.894989309475932 -9.7747544826797821 0 -9.7747544826797821 -4.3149345363781322 0 0 0 0 31.11581056653813 -31.675593852833117 0 -31.675593852833117 1.4764440714461671 0 0 0 0 41.177441951018409 -22.274094434404105 0 -22.274094434404105 -11.132383986754576 0 0 0 0 42.463718266793876 -18.916859614164423 0 -18.916859614164423 4.7827571995439939 0 0 0 0 43.391188055888051 -15.832177775126183 0 -15.832177775126183 9.0382005521678366 0 0 0 0 41.285412121782429 -18.826901792082936 0 -18.826901792082936 7.2771174053232244 0 0 0 0 53.194130016730924 -8.0305051418035873 0 -8.0305051418035873 0.91422631096247642 0 0 0 0 39.051461826360992 9.4301644764551611 0 9.4301644764551611 -3.243268784826796 0 0 0 0 44.121926552874356 -15.083998403144506 0 -15.083998403144506 -4.2078820651368005 0 0 0 0 -15.936160460872998 13.095316631103742 0 13.095316631103742 20.668733563168644 0 0 0 0 91.259302289945481 27.485218254532811 0 27.485218254532811 2.0041139557315546 0 0 0 0 61.450153051904636 -8.8743421017279616 0 -8.8743421017279616 38.995071193654439 0 0 0 0 49.335421368257812 8.4982232621669027 0 8.4982232621669027 21.47882358894276 0 0 0 0 24.778162710819743 -1.9651650912419427 0 -1.9651650912419427 19.647202223623026 0 0 0 0 16.310696369833749 29.357353783530925 0 29.357353783530925 -1.7612584117159713 0 0 0 0 43.29457023407133 -9.5137639110735677 0 -9.5137639110735677 17.174805644288426 0 0 0 0 -6.1845169893254806 2.656655861224742 0 2.656655861224742 7.3603627898547686 0 0 0 0 -14.477024276057648 10.345042399483631 0 10.345042399483631 18.296664343633907 0 0 0 0 -6.2855270250001922 12.991160204461266 0 12.991160204461266 14.702694833093119 0 0 0 0 -6.2064602896332062 12.245963859428596 0 12.245963859428596 17.848063201906101 0 0 0 0 -22.78550727329015 9.4147767889225289 0 9.4147767889225289 16.201692898763859 0 0 0 0 -43.49474668896255 -5.8750913965777727 0 -5.8750913965777727 50.819510214270849 0 0 0 0 -39.813305301468063 12.096351143793072 0 12.096351143793072 45.148499751488998 0 0 0 0 -21.829034607873737 -6.4898392326828471 0 -6.4898392326828471 -1.3430561964136771 0 0 0 0 -42.882648952589079 -8.0599322402649705 0 -8.0599322402649705 30.238250917105688 0 0 0 0 3.3444147955669905 66.160245411414508 0 66.160245411414508 53.951411741971242 0 0 0 0 -7.2778795783580534 5.0688043987978784 0 5.0688043987978784 -5.9669292789663331 0 0 0 0 2.8796274338856165 18.426385025672062 0 18.426385025672062 8.3278073706605937 0 0 0 0 -172.93397014165384 19.126337993628113 0 19.126337993628113 -6.6760911220117123 0 0 0 0 -118.68136475234132 7.829686054994454 0 7.829686054994454 -4.3276082849724844 0 0 0 0 -135.38632479567877 82.976925285039442 0 82.976925285039442 -28.806134819209547 0 0 0 0 -43.980973741077833 -43.246488336670382 0 -43.246488336670382 124.70575314206144 0 0 0 0 -26.955202882378217 8.231927917554458 0 8.231927917554458 33.366168362077588 0 0 0 0 -50.026990962258424 9.6382482830576919 0 9.6382482830576919 36.956360515032429 0 0 0 0 -37.636579391328269 29.813322935911856 0 29.813322935911856 -22.222499938729015 0 0 0 0 -40.432330963572895 15.388471182930516 0 15.388471182930516 5.0525097982826992 0 0 0 0 -48.601543915708135 23.831683173806596 0 23.831683173806596 23.199877026410832 0 0 0 0 -39.51578875460109 11.881229507136595 0 11.881229507136595 25.870444005441641 0 0 0 0 -42.900917441398633 15.484112298127002 0 15.484112298127002 33.314218099683785 0 0 0 0 -39.801767040194136 24.679212921791532 0 24.679212921791532 32.153686920923064 0 0 0 0 2.1068258952582255 17.359808770048403 0 17.359808770048403 16.885080493910209 0 0 0 0 -11.193414981122483 9.1477580947332875 0 9.1477580947332875 14.077513939111704 0 0 0 0 -9.213071538539424 15.962473177704872 0 15.962473177704872 18.242275516631523 0 0 0 0 -42.131567204734893 15.86853775835516 0 15.86853775835516 23.195827278084835 0 0 0 0 10.834806867027275 6.3513153590910161 0 6.3513153590910161 3.8411353787889837 0 0 0 0 -19.783582519663849 25.737452806315027 0 25.737452806315027 28.929604626828116 0 0 0 0 49.432089661637292 63.581844363890923 0 63.581844363890923 38.266266898408503 0 0 0 0 -42.623165087088637 14.065774858573604 0 14.065774858573604 17.400231635096134 0 0 0 0 30.417634295065 85.285305132124449 0 85.285305132124449 28.830454366781851 0 0 0 0 8.0108310925024853 38.951550261428565 0 38.951550261428565 40.558752310695581 0 0 0 0 90.8663398303961 52.801698105146897 0 52.801698105146897 -5.5519378660937946 0 0 0 0 -80.915886403049626 -282.32727280779136 0 -282.32727280779136 259.34208638798737 0 0 0 0 -121.87189132675849 -158.71015379312303 0 -158.71015379312303 244.85664330517102 0 0 0 0 -218.91238797908954 -44.239820091315778 0 -44.239820091315778 43.600776177092484 0 0 0 0 -199.74233382338571 3.2121956962982949 0 3.2121956962982949 132.22985566883835 0 0 0 0 250.1637151300456 -511.27080635764287 0 -511.27080635764287 245.92844094436259 0 0 0 0 -23.291261735035441 -16.766302447649252 0 -16.766302447649252 -4.175811360543932 0 0 0 0 263.388740115377 -305.4583310201524 0 -305.4583310201524 174.38008793548579 0 0 0 0 -743.28851446344015 489.95257669895636 0 489.95257669895636 -548.0693013983182 0 0 0 0 348.27902262232965 -282.16677644630545 0 -282.16677644630545 -214.83305830112658 0 0 0 0 -440.34441436038469 245.12936308094868 0 245.12936308094868 612.69580086010683 0 0 0 0 265.84981898916885 -397.7071991472294 0 -397.7071991472294 260.70632941719668 0 0 0 0 262.46306497251987 -270.36205783742611 0 -270.36205783742611 204.74621163972188 0 0 0 0 -1.1236380553275396 -0.7736897384035899 0 -0.7736897384035899 -0.58072647957357049 0 0 0 0 44.607019816238108 -99.988664101369864 0 -99.988664101369864 157.25169517227187 0 0 0 0 50.570005435321946 -269.52683578547658 0 -269.52683578547658 329.19583932953537 0 0 0 0 32.820669922679372 -42.756764891066268 0 -42.756764891066268 122.85406093388747 0 0 0 0 -136.23033864437821 -128.45346964264718 0 -128.45346964264718 253.41470543565083 0 0 0 0 -199.98767581970242 67.516985018617561 0 67.516985018617561 123.1548947398087 0 0 0 0 -197.48677219483397 23.815013894043659 0 23.815013894043659 128.27744912524213 0 0 0 0 -264.5821789426227 75.662997632822226 0 75.662997632822226 16.801951258830741 0 0 0 0 -264.49417358894061 35.978422908043285 0 35.978422908043285 124.12406417536477 0 0 0 0 -243.81520283768623 190.37059421462982 0 190.37059421462982 -97.854907594501128 0 0 0 0 -256.46107542673417 140.22161893482371 0 140.22161893482371 -98.574492550171271 0 0 0 0 -11.984099054958989 -4.9424099324272959 0 -4.9424099324272959 -1.7315119617620027 0 0 0 0 -371.16537539553246 203.80374817065058 0 203.80374817065058 56.533752595956685 0 0 0 0 -378.79842722767353 -29.035824041708111 0 -29.035824041708111 184.71773612481775 0 0 0 0 -4.5872910003273688 -1.2686436706080713 0 -1.2686436706080713 -0.50972510528003312 0 0 0 0 -516.45869184277035 543.71910104060225 0 543.71910104060225 -421.43546507117208 0 0 0 0 -752.76334358172608 173.89893957508502 0 173.89893957508502 72.033228935086527 0 0 0 0 -85.808021469445521 23.488184415729847 0 23.488184415729847 56.698210939397541 0 0 0 0 -30.822654040156522 -139.97697291360373 0 -139.97697291360373 45.797113121650909 0 0 0 0 -395.14037501120038 -20.338841856375439 0 -20.338841856375439 36.111905275327445 0 0 0 0 -160.50975744525567 160.39761102834746 0 160.39761102834746 -181.51677771461073 0 0 0 0 -432.91279917895008 163.13677332522275 0 163.13677332522275 -48.934875596209167 0 0 0 0 -323.05200928369413 -190.52381294518091 0 -190.52381294518091 22.115465303653764 0 0 0 0 11.236746709182626 -214.09631062942572 0 -214.09631062942572 534.53726760278005 0 0 0 0 327.85971200135737 -23.533705992698287 0 -23.533705992698287 38.626762129839335 0 0 0 0 -21.381713293143548 -53.918449804310512 0 -53.918449804310512 45.802664454453407 0 0 0 0 -158.29920500887965 -106.4716171016953 0 -106.4716171016953 133.18623067784029 0 0 0 0 -358.32667032241807 74.259451134493247 0 74.259451134493247 -81.441290655795456 0 0 0 0 -706.97721202008324 -24.946009732468156 0 -24.946009732468156 -70.71725528380739 0 0 0 0 -381.67966220948801 96.784801602324023 0 96.784801602324023 -8.1847355171012168 0 0 0 0 -94.733904940876528 -25.865121209618337 0 -25.865121209618337 -58.90410754921686 0 0 0 0 -191.22930953729883 -37.589793563898638 0 -37.589793563898638 -15.743867432318439 0 0 0 0 -241.66474733959694 89.255728222995458 0 89.255728222995458 -108.60560187965893 0 0 0 0 -91.556549066404841 -21.473924868196264 0 -21.473924868196264 -36.447929663076138 0 0 0 0 -89.481953684444306 -65.42317228803995 0 -65.42317228803995 -0.82443553955454263 0 0 0 0 -87.888775792849628 -29.9460439200775 0 -29.9460439200775 53.1188659271902 0 0 0 0 -153.3525827547146 25.161947136133222 0 25.161947136133222 11.007134436007618 0 0 0 0 -789.28433886435232 65.903243549382751 0 65.903243549382751 147.94364438159755 0 0 0 0 -258.05230766007389 160.19868689730129 0 160.19868689730129 -159.41812847854089 0 0 0 0 -193.66086487446955 -11.962376021251657 0 -11.962376021251657 -23.169518319575218 0 0 0 0 -80.586869356935495 -1.0286676237392385 0 -1.0286676237392385 29.264777475462324 0 0 0 0 -16.360389381815509 27.941261016032488 0 27.941261016032488 28.314077764989463 0 0 0 0 46.384935551224771 51.619066103439764 0 51.619066103439764 56.814440647866604 0 0 0 0 -44.69158935474843 9.9297823238221099 0 9.9297823238221099 22.966122068748518 0 0 0 0 -48.169849882517155 14.516179303775971 0 14.516179303775971 17.637831821673899 0 0 0 0 -43.551998168135469 -26.385143774545213 0 -26.385143774545213 36.554783997316918 0 0 0 0 -58.094508153066272 -24.241368353934377 0 -24.241368353934377 -2.7200624467150192 0 0 0 0 -46.948374756535486 -15.408232911926461 0 -15.408232911926461 2.6690656291029882 0 0 0 0 -44.231756455068535 5.7133289325847727 0 5.7133289325847727 10.567438088784002 0 0 0 0 -43.373839597275946 9.55694223968203 0 9.55694223968203 -7.6581153827573871 0 0 0 0 -101.14817609307556 -8.7675883329275166 0 -8.7675883329275166 -10.016602030722424 0 0 0 0 -64.673106527887285 -17.70684318315034 0 -17.70684318315034 -21.830956478109627 0 0 0 0 -59.935424293507822 -16.549509072334331 0 -16.549509072334331 -31.577385022157614 0 0 0 0 -77.39216570113058 -49.365944369996214 0 -49.365944369996214 -11.347583867750473 0 0 0 0 -87.539982207297726 -44.154657056436008 0 -44.154657056436008 25.861227024677646 0 0 0 0 -81.095144309205352 -35.615070952668248 0 -35.615070952668248 15.926969444863062 0 0 0 0 -79.971107608016609 -38.171768843001701 0 -38.171768843001701 5.4828312765275768 0 0 0 0 -67.385416659428302 -36.359268828000495 0 -36.359268828000495 5.5254999491116905 0 0 0 0 -63.479458069581597 -41.027396306776609 0 -41.027396306776609 8.7394495360640576 0 0 0 0 0.058195187098114332 0.53075052193739225 0 0.53075052193739225 0.095182269539407116 0 0 0 0 -9.8452734996817526 -33.298545916972216 0 -33.298545916972216 4.6333574169620988 0 0 0 0 -40.09736622490891 -14.227727598414276 0 -14.227727598414276 9.6552469768514584 0 0 0 0 -103.80688752260176 -11.773246824779562 0 -11.773246824779562 9.9783667046007167 0 0 0 0 -0.049108692627566342 0.48826067411469865 0 0.48826067411469865 0.48767001885077832 0 0 0 0 -98.288159511052072 -3.9874151824624278 0 -3.9874151824624278 9.3349929580435855 0 0 0 0 -90.463912568251544 -5.5388357070514758 0 -5.5388357070514758 -1.1043776467913631 0 0 0 0 -89.525155808007185 -2.9285627551976177 0 -2.9285627551976177 5.967693386337487 0 0 0 0 -126.83188368036645 26.021770214591015 0 26.021770214591015 26.566919745380801 0 0 0 0 -89.669022707124441 -1.2039783045343029 0 -1.2039783045343029 8.9448836115552695 0 0 0 0 -88.114010899134882 -8.8607659561639593 0 -8.8607659561639593 10.254760555358189 0 0 0 0 0.041327461572599589 0.58373499059675282 0 0.58373499059675282 0.18437155022544971 0 0 0 0 -140.42912628361228 51.929951134905423 0 51.929951134905423 41.383592378515459 0 0 0 0 -34.660603116208222 -32.246509781904024 0 -32.246509781904024 25.134771889648619 0 0 0 0 -126.84130100507173 15.763781454231321 0 15.763781454231321 123.31849388835872 0 0 0 0 -86.139744411222637 -20.405359188849616 0 -20.405359188849616 1.5616555761807831 0 0 0 0 -88.004823466539165 -25.389381740736098 0 -25.389381740736098 59.061079399842129 0 0 0 0 -88.205437120050192 1.532923627179116 0 1.532923627179116 45.471652562046984 0 0 0 0 -97.294910984308444 3.9449079406217606 0 3.9449079406217606 129.78622526642721 0 0 0 0 -294.62165663606174 -73.957141189788217 0 -73.957141189788217 87.759311137135228 0 0 0 0 -0.28057456658534008 0.83604194737308291 0 0.83604194737308291 0.56312826443462427 0 0 0 0 -150.40253632429449 54.599328330301432 0 54.599328330301432 -38.723244341086684 0 0 0 0 -30.433335817942861 -65.180485936418336 0 -65.180485936418336 39.840502159677271 0 0 0 0 -229.15019050790215 19.91690940994522 0 19.91690940994522 66.638015948654356 0 0 0 0 -267.15960530626398 -8.1238453228097569 0 -8.1238453228097569 96.031251066127879 0 0 0 0 -12.668580484475783 0.53457288509674328 0 0.53457288509674328 0.48238677378309092 0 0 0 0 -176.79004732423346 21.687594821538369 0 21.687594821538369 -81.133850016121869 0 0 0 0 0.01757093912172536 -9.2173042100109441 0 -9.2173042100109441 -0.37081082342844424 0 0 0 0 -50.093290674543823 15.304859930711928 0 15.304859930711928 29.308585948827385 0 0 0 0 -68.361169161014686 2.9377026460967741 0 2.9377026460967741 2.8053595634301502 0 0 0 0 -52.971098174679355 12.326769021935434 0 12.326769021935434 26.326774661420131 0 0 0 0 -55.381083836007747 12.577760580625181 0 12.577760580625181 32.450006755329014 0 0 0 0 -8.7909937564681968 70.075396259345553 0 70.075396259345553 75.065897154141567 0 0 0 0 -56.19169803027944 10.93589000072825 0 10.93589000072825 29.805125923987362 0 0 0 0 -66.562386143234107 20.572362360238458 0 20.572362360238458 51.060306692794256 0 0 0 0 -75.628583597502541 3.5284008892015883 0 3.5284008892015883 0.86579035070832089 0 0 0 0 -99.922331207744719 7.4059087816858664 0 7.4059087816858664 55.53603874882468 0 0 0 0 -97.531213856527756 -1.4809772184498797 0 -1.4809772184498797 85.216028443495816 0 0 0 0 -752.79707955994672 -856.67557898913037 0 -856.67557898913037 -622.28702224855078 0 0 0 0 -22.038300418076204 7.1135641915705126 0 7.1135641915705126 3.0888450948028279 0 0 0 0 -813.68926304757406 -447.21102924945262 0 -447.21102924945262 -350.74249739771585 0 0 0 0 -8.4811682972560476 1.8502009340879351 0 1.8502009340879351 1.3873532618454192 0 0 0 0 -1273.7378875145041 -1089.4572307688841 0 -1089.4572307688841 -965.01472472815203 0 0 0 0 28.760626931873958 370.9888214743637 0 370.9888214743637 259.63998336502482 0 0 0 0 -102.33924979539643 -31.372144942241448 0 -31.372144942241448 189.84165982141349 0 0 0 0 -39.148138798391301 -31.291684908717798 0 -31.291684908717798 32.616030084664999 0 0 0 0 -93.837510172666953 -36.942962323981192 0 -36.942962323981192 64.389513613659801 0 0 0 0 -107.24650792968896 -10.999946367534903 0 -10.999946367534903 170.85321719246713 0 0 0 0 -106.14733117030119 33.188882206846756 0 33.188882206846756 109.45934463782032 0 0 0 0 -75.534669965472858 -10.669152235550428 0 -10.669152235550428 116.02697962235106 0 0 0 0 -10.254762306994962 157.85125384994171 0 157.85125384994171 291.53765938182914 0 0 0 0 14.353079992128187 38.696767255381019 0 38.696767255381019 107.91194682414152 0 0 0 0 -672.95611562674912 -333.2887960781834 0 -333.2887960781834 -92.269447731523542 0 0 0 0 -10.818113354711386 110.67887102366512 0 110.67887102366512 90.183437220306132 0 0 0 0 -32.557070080874922 14.30088016441402 0 14.30088016441402 0.92022952611133491 0 0 0 0 -533.98440578401642 -346.61836574193421 0 -346.61836574193421 -297.25969915753376 0 0 0 0 -661.06835676040646 -423.38902114875054 0 -423.38902114875054 -313.20913767879938 0 0 0 0 -755.17811807687394 -440.87160068229059 0 -440.87160068229059 241.89067113358578 0 0 0 0 -403.91743695353216 -718.11320271692784 0 -718.11320271692784 358.56668476953564 0 0 0 0 -214.21935921905242 -74.91042591533278 0 -74.91042591533278 239.82771331683034 0 0 0 0 -506.02156673136051 -668.6718846838794 0 -668.6718846838794 -165.64663026733251 0 0 0 0 -464.42950876808754 -447.02062350935557 0 -447.02062350935557 -562.42131109298498 0 0 0 0 -515.30508415302256 -236.36473995448347 0 -236.36473995448347 -48.790400607653282 0 0 0 0 -845.06049176574652 -110.99953462777216 0 -110.99953462777216 -16.563971838037105 0 0 0 0 -741.86023903828027 -511.89234445574766 0 -511.89234445574766 -295.30773112140014 0 0 0 0 -581.21459450048314 -45.430726560978883 0 -45.430726560978883 190.10155460064198 0 0 0 0 -527.89511505063274 -334.14350270488467 0 -334.14350270488467 45.504236325339662 0 0 0 0 -567.76952242980769 -167.44320561074346 0 -167.44320561074346 272.99217867260813 0 0 0 0 -693.43102211714722 -64.433538772411339 0 -64.433538772411339 157.9264194922398 0 0 0 0 -628.69741595726373 -97.867086307664067 0 -97.867086307664067 205.6039525256565 0 0 0 0 -634.40554484936729 -98.85810152123122 0 -98.85810152123122 265.88679924009648 0 0 0 0 -483.29441001190571 -99.723585113151785 0 -99.723585113151785 163.17001457226797 0 0 0 0 -349.98530472980201 24.378733495714187 0 24.378733495714187 102.92302949558871 0 0 0 0 -341.80122217208191 36.055224091029231 0 36.055224091029231 68.447145752354118 0 0 0 0 -392.63357601431562 -38.554183443599868 0 -38.554183443599868 173.89400994493917 0 0 0 0 -531.31283903690928 -65.028803456934838 0 -65.028803456934838 169.13184502678905 0 0 0 0 -435.02299265368492 8.4953975139524118 0 8.4953975139524118 65.313406140904817 0 0 0 0 -530.8258393993317 137.37483400573251 0 137.37483400573251 3.3280004379666934 0 0 0 0 -543.21324129377172 -36.680065715052478 0 -36.680065715052478 -58.447295166573895 0 0 0 0 -515.89056723699468 95.46951138719578 0 95.46951138719578 -22.906736232012918 0 0 0 0 -583.73338747715388 -167.28969336670889 0 -167.28969336670889 -14.699979651710237 0 0 0 0 -819.42013564024057 69.347292018362566 0 69.347292018362566 -7.520620834093279 0 0 0 0 -836.62641693277692 -345.35245240969562 0 -345.35245240969562 -385.73346719206165 0 0 0 0 -935.99267841990877 -251.52966169732645 0 -251.52966169732645 -235.34910807266533 0 0 0 0 -727.94771612711156 191.16379059493784 0 191.16379059493784 45.822612915315403 0 0 0 0 -1579.2672369589745 -457.5945234032697 0 -457.5945234032697 -82.144796700096776 0 0 0 0 -1219.205032351736 -82.053376058763206 0 -82.053376058763206 -167.2991688268412 0 0 0 0 -85.723178820284375 43.819705079216874 0 43.819705079216874 -74.276050528064445 0 0 0 0 -87.425576037217979 11.701768271086621 0 11.701768271086621 -90.949034004499708 0 0 0 0 -107.7283101464127 72.310977975613241 0 72.310977975613241 -238.24185194471738 0 0 0 0 -43.694663959693571 34.284957448431669 0 34.284957448431669 -94.317023230561063 0 0 0 0 1.8236030324923433 0.66744207554511092 0 0.66744207554511092 -0.47788766209886546 0 0 0 0 -174.95558368527054 29.016180666070795 0 29.016180666070795 -1.3762757901822624 0 0 0 0 -171.21472801618074 116.32675534303416 0 116.32675534303416 -189.95851288082667 0 0 0 0 -43.822882078180555 53.476168221492117 0 53.476168221492117 -47.77383027221731 0 0 0 0 -44.43657472104212 67.323139951737147 0 67.323139951737147 -74.911650688325608 0 0 0 0 -92.871163168680141 32.260550353864346 0 32.260550353864346 5.1589727146601945 0 0 0 0 -29.715616996341851 31.038343838707078 0 31.038343838707078 -66.418233224016149 0 0 0 0 -2.2002137732594207 5.4706869047553255 0 5.4706869047553255 1.3634845562896487 0 0 0 0 -5.7673020158963482 -32.44875579849986 0 -32.44875579849986 -22.624503662569623 0 0 0 0 -340.642943741821 127.48496253196208 0 127.48496253196208 0.46390940828132443 0 0 0 0 -242.36823941053444 88.350370966822084 0 88.350370966822084 -30.841065904840434 0 0 0 0 -180.65924939684191 140.1081792509267 0 140.1081792509267 -50.359643414946731 0 0 0 0 -35.725910425070651 77.696007955999903 0 77.696007955999903 -91.656963095716492 0 0 0 0 -210.72357193044445 83.682783020582065 0 83.682783020582065 13.024979290876217 0 0 0 0 -166.61203929989279 30.794893002977915 0 30.794893002977915 29.215456508442003 0 0 0 0 -101.53756243380121 73.389414808708352 0 73.389414808708352 -23.971848146094999 0 0 0 0 -9.069331123343872 19.209288595920427 0 19.209288595920427 2.31913969355044 0 0 0 0 -22.029630725449749 -7.6064877844011676 0 -7.6064877844011676 3.8036677880751597 0 0 0 0 -56.900569219036697 -5.4095682495262736 0 -5.4095682495262736 2.1195610019813103 0 0 0 0 -54.091632119816495 -0.14705041736124258 0 -0.14705041736124258 5.3458765081147703 0 0 0 0 -4.7660985069337585 32.45898666271728 0 32.45898666271728 -40.52350255814963 0 0 0 0 -34.659429509498295 69.651728116139566 0 69.651728116139566 -34.518049243451969 0 0 0 0 -17.389747145474303 -23.577260767624239 0 -23.577260767624239 -44.664243646824616 0 0 0 0 -6.4200198450272907 2.1678925936400972 0 2.1678925936400972 1.3870751183430485 0 0 0 0 -5.1912354171043518 3.7083737227567823 0 3.7083737227567823 -2.0679497489098964 0 0 0 0 19.479692615015665 61.703367323075327 0 61.703367323075327 -69.720029542710108 0 0 0 0 -67.95313923984213 -29.674631249732556 0 -29.674631249732556 13.114363187636627 0 0 0 0 -120.39330260104543 -35.767846083837867 0 -35.767846083837867 -80.752230570989923 0 0 0 0 -122.38260742514103 128.30920571772185 0 128.30920571772185 -87.256195653344548 0 0 0 0 -675.85394718349562 -86.445665802111762 0 -86.445665802111762 -69.887220139586134 0 0 0 0 -477.59607823110855 -265.39096117081772 0 -265.39096117081772 -2.5648312250796153 0 0 0 0 9.8136307634667901 -12.569747964244016 0 -12.569747964244016 -168.05794127090758 0 0 0 0 -15.88553108523638 115.32206542096901 0 115.32206542096901 -58.625970420616795 0 0 0 0 -570.80806822197337 541.62504512770283 0 541.62504512770283 -412.97901256484602 0 0 0 0 -6.0258472515457129 -0.24068708845241105 0 -0.24068708845241105 -0.14731294341256174 0 0 0 0 -42.325824129933608 63.35277704733744 0 63.35277704733744 -61.326989936851533 0 0 0 0 1.3923715361925133 49.382193077941338 0 49.382193077941338 -60.847668399006579 0 0 0 0 2.0219921095922473 45.843570368377186 0 45.843570368377186 -149.86659377244268 0 0 0 0 -36.480109077376255 40.486472350580698 0 40.486472350580698 36.664569245434905 0 0 0 0 -13.678448724299201 -1.2172647867801629 0 -1.2172647867801629 0.32278971504290155 0 0 0 0 -51.064602725997247 65.388088941743263 0 65.388088941743263 -86.304229441617281 0 0 0 0 -24.490881316594823 47.775499612657768 0 47.775499612657768 -76.484610408577282 0 0 0 0 -311.8814707417223 -25.244307457762261 0 -25.244307457762261 420.24214420745648 0 0 0 0 -46.809872333280509 -1.5690523836608463 0 -1.5690523836608463 -140.80432318478415 0 0 0 0 -126.72160225461812 252.78346459537443 0 252.78346459537443 -143.48848543080476 0 0 0 0 -14.326158741491184 -2.5331484977380114 0 -2.5331484977380114 -0.088739971645246385 0 0 0 0 -213.25795614496747 332.01901973651729 0 332.01901973651729 -290.12900127688772 0 0 0 0 -596.52661564237678 290.05848282057286 0 290.05848282057286 -48.212058591358073 0 0 0 0 -163.66246968773703 77.302315608857498 0 77.302315608857498 67.250828057067338 0 0 0 0 -430.83467936236411 232.74386218364634 0 232.74386218364634 -49.718396784982474 0 0 0 0 -278.27537361198483 175.80642847167564 0 175.80642847167564 -72.482249810189387 0 0 0 0 -408.07826961562751 110.41129028455998 0 110.41129028455998 -85.309340862240788 0 0 0 0 -236.83923136971862 42.98810095873614 0 42.98810095873614 -200.06010522662473 0 0 0 0 -270.17043514324655 127.73068458861587 0 127.73068458861587 -248.96491357192645 0 0 0 0 -317.4967211094945 -12.031790625134818 0 -12.031790625134818 -215.00957582782212 0 0 0 0 -322.77444664073664 -14.491148737711228 0 -14.491148737711228 -107.35247601696938 0 0 0 0 -419.3222951455482 8.9967786698857708 0 8.9967786698857708 -80.647162946395838 0 0 0 0 -237.34940192756039 281.82538643090993 0 281.82538643090993 -402.70209972946668 0 0 0 0 -261.33545309052897 -164.26059815235931 0 -164.26059815235931 -701.44657955138246 0 0 0 0 -184.49615661973257 1.1625479543090478 0 1.1625479543090478 -346.53075930741034 0 0 0 0 -1.4020967646204916 -2.2072582130075915 0 -2.2072582130075915 -6.2663658669154074 0 0 0 0 -667.03063122262392 -180.97239794591223 0 -180.97239794591223 -163.95675679856868 0 0 0 0 -482.00415353856988 -332.00524341903656 0 -332.00524341903656 -356.30916652447922 0 0 0 0 -522.90202391915227 -157.91805441938959 0 -157.91805441938959 -574.52975604851508 0 0 0 0 -82.644530766690877 163.88702829398699 0 163.88702829398699 -406.1560616499446 0 0 0 0 -699.45956074292553 -169.92991937180886 0 -169.92991937180886 -6.4401805366906046 0 0 0 0 -1357.2549033458545 -91.103868225177393 0 -91.103868225177393 148.92782949265529 0 0 0 0 -705.96936614246806 -102.37352562279921 0 -102.37352562279921 -63.19796294011212 0 0 0 0 -585.55605098365049 -165.97502069891107 0 -165.97502069891107 -55.177530909664711 0 0 0 0 -1120.0433590092798 -325.32852831620949 0 -325.32852831620949 -102.56831476325897 0 0 0 0 -737.96317313191503 48.360890741016192 0 48.360890741016192 -205.08104945066952 0 0 0 0 -904.97182544114912 -398.86281005530327 0 -398.86281005530327 -418.02571529305897 0 0 0 0 -929.57580818856468 -381.66720127012127 0 -381.66720127012127 -429.93340881923905 0 0 0 0 -1035.4533226287426 89.932992582507268 0 89.932992582507268 -94.554026476385843 0 0 0 0 -6.4487671589616156 -1.9593591874053686 0 -1.9593591874053686 -0.64363475831433803 0 0 0 0 125.27233391876325 -30.338336144094683 0 -30.338336144094683 -231.22859092982799 0 0 0 0 -402.86330139397978 -587.16587090050052 0 -587.16587090050052 -191.12265557826049 0 0 0 0 
</DataArray>
<DataArray type="Float64" Name="cross_section_updated" format="ascii">
1 1 1 1 1 1 1 0.0096029410223250448 1 1 1 1 1 1 1 1 1 1 1 1 0.0090524748312579301 1 1 1 0.0089361466201117942 1 1 1 1 1 1 1 1 1 1 1 1 1 1 1 1 1 1 1 1 1 1 1 1 1 1 1 1 1 1 1 1 1 0.010085113990362621 1 1 0.010016615414568298 1 1 1 1 1 1 1 1 0.010068462714806025 1 1 1 1 0.010313475275437781 1 1 1 0.008238246300764418 1 1 1 1 1 1 1 1 1 1 1 1 1 1 0.0092894575460761332 1 0.010346567168522881 1 1 1 1 1 1 1 1 1 1 1 1 0.010615988806775042 1 1 1 1 0.010218029522293547 0.0091149232226430139 1 1 1 1 1 1 1 1 1 1 1 1 1 1 1 1 1 0.0082718874250057028 1 1 1 0.010016260031513884 1 1 1 1 1 1 0.0075564926208215449 1 1 0.0093686499772907567 1 1 1 1 0.0083358217131753419 1 1 1 1 1 0.0055968197596104052 1 0.010146042336093489 1 1 1 1 1 1 1 1 1 1 1 1 1 1 1 1 1 1 1 1 1 0.0068023744090099161 1 1 1 1 1 1 1 1 1 1 1 1 1 1 1 1 1 1 1 1 1 1 1 1 1 1 1 0.0086451398380031699 1 1 1 1 0.0094626780462148848 1 1 1 1 1 1 0.0099966922448196278 1 0.0099694874858422423 1 1 1 1 1 1 1 1 1 1 1 1 1 1 1 1 1 1 1 1 1 1 1 1 1 1 1 1 1 1 1 1 1 1 1 1 1 1 1 1 1 1 1 1 1 1 1 1 0.010401253885283315 1 0.010081485772669999 1 1 1 1 1 1 1 1 0.0078733951400895077 1 1 1 1 1 1 1 1 1 1 1 1 1 1 1 1 1 1 1 1 1 1 1 1 1 1 1 1 1 1 1 1 1 1 1 0.0055128395578338471 1 1 0.0060627881133908153 1 1 1 1 1 1 1 0.0084233436956464812 1 1 1 1 1 1 1 1 1 0.0031641012797076571 0.0040725355201349876 1 1 1 0.0074730532797713696 1 1 1 1 1 1 1 1 1 1 1 1 1 1 1 1 1 1 1 1 1 1 1 1 1 1 0.010036568959315042 1 0.0099547555601105665 1 1 1 1 1 0.0039053704716443087 1 1 1 1 0.0075707015367601493 1 1 1 1 1 1 1 0.0052065230326957777 1 0.010082819286578629 1 1 1 1 0.008382594055146254 1 1 0.0041435323215564084 1 1 1 1 1 1 1 0.007299559552894767 0.007464878441603158 1 1 0.014713407908486447 1 1 1 0.0088931022530799615 1 1 1 1 0.0016227936620863536 1 1 1 1 0.017165350889000591 1 0.011968991998908787 1 0.0099555993829090837 1 0.0057946410594944889 1 1 1 1 0.0040266111659401638 1 0.0024480643447890808 1 1 1 1 0.0023215500621769913 0.011775843387027973 1 1 0.011630378256650671 1 1 1 1 1 1 1 0.010515013305636759 1 1 1 1 0.0189628340351417 1 1 1 1 0.0099273273929838309 1 1 1 1 1 1 1 1 1 0.009257584600413914 1 0.0099869974639433048 1 1 1 1 1 1 1 1 1 1 1 1 1 1 1 1 1 1 0.0041815095923325111 1 1 1 0.0076168905529884756 1 1 1 1 1 1 -1.8354084918570379e-10 1 1 1 1 1 1 0.00073711443145936528 1 1 1 -5.4596112353255677e-10 1 1 0.00046211311355268125 1 1 1 1 1 1 1 1 1 1 1 4.2714762629736391e-10 1 1 1 1 1 1 1 1 1 1 1 1 1 0.0091037032056851021 0.0052436419651312113 1 1 1 1 0.0096457842878006367 1 1 1 1 1 1 1 1 1 1 1 1 1 1 1 1 1 1 1 1 1 1 1 1 1 1 1 1 1 1 1 1 1 1 1 1 0.0078402681764821944 1 1 1 1 0.010005003005069454 1 1 1 1 1 1 1 1 1 1 1 1 1 1 1 1 1 1 1 1 1 1 1 1 1 1 1 1 1 1 1 1 1 1 1 1 1 1 1 1 1 1 1 1 1 1 1 1 1 1 1 1 1 1 1 1 1 1 1 1 1 1 1 1 1 1 1 1 1 1 1 1 1 0.0094903359860907983 1 1 1 1 0.0099723854457317608 1 0.0051254877376440272 1 1 1 1 1 1 1 1 1 1 1 1 1 1 1 1 1 1 1 1 1 1 1 1 1 1 1 1 1 1 1 1 1 1 1 1 1 1 0.0011532730800426997 1 1 1 1 0.00025724704834666993 1 1 1 1 1 1 1 1 1 1 1 1 0.009899535324504766 1 0.0026659759134416792 0.0098249835804848744 1 1 1 1 1 1 0.004625490630345586 1 0.0077866146786852814 1 1 1 1 1 1 1 1 1 1 0.0096646492451068836 1 1 1 1 1 1 1 0.0076823709025111864 1 1 1 1 1 1 1 1 1 1 1 1 1 1 0.0087630632383538382 1 1 1 1 0.0075625697826087503 1 1 1 0.0083262822494678604 1 1 1 1 1 1 1 1 1 0.0082021251815732766 1 1 1 1 1 1 1 1 1 1 1 1 1 1 1 1 1 1 1 1 1 1 1 0.0089921003603917402 1 1 1 1 1 1 1 1 1 1 1 1 1 1 1 1 1 1 1 1 1 1 1 1 0.0090455008964662621 1 1 1 1 1 1 1 1 1 0.0082315191301853014 1 1 0.0085700262224319215 1 1 1 1 1 1 1 1 1 0.0087724216706142055 1 1 0.009387295324862259 1 1 1 1 1 1 0.012995076694871795 1 1 1 1 1 1 1 1 0.010336344088097632 0.0094011471442818767 1 1 1 1 1 1 1 1 1 1 0.010318777494385749 1 1 1 1 1 0.011382151874969356 1 1 1 1 1 1 1 0.009325582105828456 1 1 1 1 1 1 0.0093657975603266795 1 1 0.00038897331583814462 0.0081098721863518287 1 0.0092795229103124106 0.0053261774749991378 1 1 0.0098929399421578742 1 1 0.0099919439526681263 0.0094905606300572324 1 1 1 0.002931335863908523 1 1 1 1 1 0.0098389841923628967 1 1 1 1 1 0.0041273775777587573 1 1 1 0.0059099848375464828 0.0090924246230655349 1 1 1 1 1 1 1 1 1 0.010481700956387226 1 1 0.011660232676623469 1 1 1 1 1 1 1 1 1 1 1 1 1 0.0084454928694990637 0.006643304998533721 1 1 1 1 0.0072473832265771195 0.013133572997645891 1 1 0.0070243591126425767 0.012706314220560413 1 1 1 1 1 1 1 1 1 1 1 1 0.009657430656233144 1 1 0.0090155585282911052 1 1 1 0.0068074099207118995 1 1 0.010045874685802926 1 1 1 1 1 1 0.010616947119967052 0.0069153196424589138 0.0048109079533214423 1 1 1 1 1 1 1 0.0068427648930131126 1 1 1 1 1 1 1 1 1 1 1 1 1 1 1 1 1 1 1 1 1 1 1 1 1 1 1 1 1 1 1 1 1 1 0.0087684613210055346 1 1 1 1 0.0094282728389168506 1 1 0.0096180800951584013 0.010128951663735727 1 1 1 0.0095921416830904525 0.009734769544471944 1 1 1 1 1 1 1 1 1 1 0.0098317916121258876 1 1 1 1 1 1 1 0.0065793721556508759 1 1 1 1 1 1 1 0.0057132737262271128 1 1 1 0.011777008694582747 1 0.0019070490110107002 1 1 0.010232951643686816 1 1 1 5.2086996868427882e-10 0.0065905228855690293 1 1 1 1 1 1 1 1 1 1 1 1 1 1 1 1 1 1 1 1 1 1 1 1 1 1 1 1 0.0005433327407355559 1 1 1 1 0.00081351128281118533 1 1 1 1 1 1 1 1 1 1 0.011019170005113758 1 1 1 1 1 1 1 1 1 1 1 1 1 1 0.0090906193946261472 1 1 1 1 1 1 1 1 1 0.0092814255774010569 1 1 1 1 0.008923331123987863 1 1 1 0.0079468349341778877 1 1 1 0.0082588095602201574 1 1 1 1 1 1 1 1 1 1 1 1 1 1 1 1 1 1 1 1 1 1 1 1 0.0090903759089055302 1 1 1 1 0.010015789232840947 1 1 1 1 1 0.0094483598568264292 1 1 1 1 1 1 0.010065212902568023 1 1 1 0.0082120766443110199 1 1 1 0.0098608193413832323 1 0.0055529426549373604 0.010016568220991798 1 1 1 1 1 1 1 1 1 1 1 1 1 1 1 1 1 1 1 0.0090742938910846494 1 1 1 0.0095741863749410766 1 1 1 1 1 1 1 1 1 1 1 1 1 0.0097388551033193438 0.0097267120252682235 1 1 1 1 1 1 0.0093646048912445212 1 0.010005771445192116 0.0076411931620565775 1 1 1 0.0075760674586370759 1 1 0.0093940665145181932 0.0065628620768840747 1 1 1 1 1 0.0097602878867820465 1 1 1 1 1 1 1 0.0022673023128836137 1 1 1 1 1 0.0018536504411754383 1 1 1 1 1 1 0.0047463098491974344 1 1 1 0.0083684575660903232 1 1 1 1 1 0.0073194729666708602 0.0027737103827803616 1 1 1 1 1 0.0053514918302515185 1 0.0044314713188970435 1 1 1 1 0.0050239678865605687 1 1 1 1 1 1 1 1 1 1 1 1 1 1 1 1 1 1 1 1 1 1 1 1 1 1 1 1 1 1 1 1 0.0089400473387218835 1 0.0053527071717195691 0.0085133704502801839 1 1 1 1 1 1 1 1 0.0098352996544311573 0.0046092761421645551 1 1 1 1 0.0027843006698125804 0.0079199934874465364 1 1 0.0068903725014474613 1 1 0.0099770544162495634 1 1 0.0099857555845268044 1 1 1 0.00064248793836696114 1 1 1 0.00094896513567014479 1 1 1 1 1 0.010973466690685441 0.0099783480339050816 1 1 1 1 1 1 1 1 1 1 -5.3812134956365831e-10 1 0.00048227810188406633 1 1 1 1 1 0.0010494442603940883 1 1 1 0.0017250862292991602 1 0.010914951865890286 1 1 1 1 1 1 0.01040912159511273 1 0.0040693540049754479 1 1 1 0.0081807411577863847 0.0058763853542105129 0.0092355187222324334 0.0095922103647150137 0.0077521490396155399 1 1 1 1 1 0.0098742284395289415 1 1 1 1 1 1 1 1 1 1 0.007199921790388958 1 1 1 1 1 0.0092746424040993248 0.0068398855525470337 1 1 1 1 0.0097587436765402252 1 1 1 1 1 1 1 1 1 1 0.0013507678258139547 1 0.0024064147800904306 1 1 1 1 1 1 1 1 1 0.0036207476803043447 0.0036132383603584423 1 0.0099673445954039357 1 1 1 1 1 1 1 1 1 -2.4712151283634576e-09 1 1 1 5.1526009917091109e-09 1 1 1 1 1 1 1 7.6074884011626247e-05 1 1 1 1 1 1 1 1 1 1 1 1 1 1 1 1 1 1 1 0.010094663622083975 1 1 1 1 1 1 1 1 1 0.0085232486920645209 1 1 1 1 1 1 1 1 0.0094873881927450884 1 1 1 -2.2659048366791001e-08 1 1 1 1 1 1 1 1 1 1 1 1 1 1 1 1 1 1 1 1 1 1 1 0.0099515141824768755 1 1 1 1 1 1 1 1 1 1 1 1 2.0763769929127429e-08 1 1 0.0045636239301118063 0.004284554809359107 1 0.010181184102462767 1 1 0.0081295472322162263 1 0.0089670432160433647 1 1 1 0.0065918513247257178 1 0.0099746077692389606 0.010009503201163068 1 1 1 0.0044737363724164682 1 1 1 1 0.0086614735749096384 1 0.0099942425658111171 1 1 0.0090871307963499414 1 1 1 1 1 1 1 1 1 1 1 1 0.0095956592704194328 0.0098787432521404029 1 1 1 1 1 1 1 1 1 1 1 1 1 0.0099195192342153796 1 1 1 1 0.0097498698325127406 1 1 1 1 1 1 1 1 1 1 1 1 1 1 1 0.008605690865609656 1 1 1 0.0094101093248614709 1 1 1 1 1 1 1 1 1 1 1 1 1 1 1 1 1 1 1 1 1 1 1 1 0.010000582165074576 1 1 1 1 1 1 1 0.0099069760991258912 1 1 1 1 1 1 1 1 1 1 0.0099522345276013262 1 1 1 1 1 1 1 1 1 1 1 0.0095142810020923448 1 1 1 1 1 1 1 1 1 1 1 1 1 0.0098687959606983035 1 1 1 1 1 1 1 1 1 1 1 1 1 1 1 1 1 1 1 1 1 1 1 1 1 1 1 1 1 1 1 1 1 1 1 1 1 0.0099317303075434869 1 1 1 0.0099769887360189567 1 1 1 1 1 1 0.0088757375395505378 1 1 1 1 1 1 1 1 1 1 1 1 1 1 1 1 1 1 0.0070500702801949248 1 1 0.0059880986371649812 1 1 1 1 1 1 1 1 1 1 1 1 1 0.005445472353295705 1 1 0.010058644121292752 1 1 1 1 1 1 1 1 1 1 1 1 1 1 1 1 1 1 1 1 1 1 1 1 1 0.00632818557843709 0.010010350520226224 1 1 1 1 1 1 1 1 1 1 1 1 1 1 1 1 1 1 1 1 1 1 1 1 1 1 1 1 1 0.0096596806105615791 1 0.0099958366618726827 1 1 1 0.0099751608670553653 1 0.0068163255065850636 1 1 1 1 1 1 1 1 1 1 1 1 1 1 1 1 1 1 1 1 1 1 1 1 1 1 1 1 1 1 1 1 1 1 1 1 1 1 1 0.0087554276551769783 1 1 1 1 1 1 1 1 1 1 1 1 1 1 1 1 1 1 1 1 1 1 1 1 1 0.0083653540809286407 1 1 1 1 1 1 0.0083487166682340089 1 0.010089235551736067 0.0063309157314766981 1 1 0.0095070752230369173 1 1 1 1 1 1 1 1 1 0.0096069970183629439 1 1 1 1 1 1 1 1 1 1 1 1 1 1 1 1 1 1 1 1 0.010051668286956802 1 1 1 1 1 1 1 1 0.010153003294889726 1 1 1 1 0.0067807868055894151 1 1 0.0099885882793061126 1 1 1 0.0069743105122272789 1 1 1 1 1 1 0.0078919874932694839 1 1 0.007275168841003786 1 1 1 1 1 1 1 1 0.0089199999624218623 1 1 1 1 1 1 1 1 1 1 1 1 1 1 1 1 1 1 1 1 1 1 1 1 1 1 0.009154120411829253 1 1 1 1 1 1 1 1 1 1 1 1 1 1 1 1 1 1 1 1 1 1 1 0.010184212387777869 1 1 1 1 1 1 1 1 1 1 0.0072154683060353247 1 1 0.0080946700725378073 1 1 1 1 1 1 1 1 1 1 1 1 1 1 1 1 1 1 1 1 1 1 1 1 1 1 1 1 1 1 1 0.010159744969635799 1 1 1 1 1 1 0.0073272993638383924 1 0.0098481760231564353 1 1 0.011528381229545744 1 1 1 1 1 1 1 1 1 1 1 1 1 1 1 1 1 1 0.01065002010520508 1 0.0088051449381720999 0.0094165551195003749 1 1 1 1 1 0.010478755671021064 1 1 1 1 1 1 1 0.010196874059476741 1 1 0.010242489533671984 1 1 1 1 1 1 1 0.011621051121935976 1 1 1 1 1 1 1 1 0.011065497626882888 1 1 1 0.012267870418237629 0.0082150052007516072 1 1 1 0.012576836027809655 1 1 0.0085603423242092518 1 0.012419980826903314 1 1 1 1 0.010400224421091397 0.010008860903547998 1 1 1 1 1 1 1 1 0.0099634294811849419 1 0.01247360416934095 0.0085463062223349647 1 1 1 1 1 1 1 1 1 1 1 0.009476682129633025 1 1 1 1 1 1 1 1 0.0099943826089839167 1 1 1 0.012288447943545069 1 1 1 1 0.0047253270852476922 0.011680582987221322 1 1 0.010587394194320796 1 1 1 0.0099426337420531821 1 1 1 1 0.009951838172724263 1 0.0047817399428431093 1 0.0033388759347727399 0.010224214687593186 1 1 0.0094818891810557124 1 1 1 1 1 0.0087837809585295176 1 1 1 1 1 0.0088013911874076783 1 0.0090661130338228028 1 1 1 1 1 1 0.0090107514440927773 1 0.0079261594712812175 1 1 1 1 1 1 1 0.0099844558152496835 1 1 1 1 1 0.009982180429924617 1 1 1 0.0063326092671607687 0.0082522554932533288 0.0084069213775934751 1 0.0077135224442983243 1 1 1 0.0097851207269274883 0.0074482361968293415 1 0.0080342656049993133 1 1 1 1 1 1 1 1 1 1 1 1 1 1 0.0059681489673769159 1 1 1 0.0069097160318273461 0.0070483918648674218 1 1 1 1 1 1 1 1 0.010393949912131936 1 1 1 0.009990539372119708 1 1 0.011145828224488683 1 1 1 0.0071035655588436008 0.0062555399396723339 1 1 1 1 1 1 0.0068397224043338783 1 1 1 1 0.0081022513700542004 1 1 1 0.010230520380012913 1 1 1 1 0.0099478353148198303 1 1 1 1 1 1 1 1 1 1 1 0.0087190896929762313 1 1 0.0076150439265423031 1 1 0.0099824548242621013 1 0.0078072630772014484 1 1 1 1 1 1 1 1 1 0.0040254394482994241 1 1 1 1 1 1 1 1 1 1 0.008709584695287622 1 1 1 1 1 1 1 1 1 1 1 1 0.0099094108348114947 1 1 1 1 1 1 1 1 1 1 1 1 1 1 1 1 1 1 1 1 1 1 1 1 1 1 1 1 1 1 0.010027349468464479 1 1 0.011243980595905468 1 0.0054907598846110281 1 1 1 1 1 1 0.0058018790852867874 1 1 1 1 1 0.0097056950511445316 1 1 0.0063708545611579626 1 1 1 0.0092178503662814527 1 1 1 1 1 1 1 1 1 1 1 1 1 1 1 1 0.0052875672045163847 1 1 1 0.0072288198771187414 1 0.0089162309017464195 0.0099586408673193356 1 1 1 1 0.011097634316319351 1 1 1 1 1 0.010566781552744002 1 1 1 1 1 1 1 1 1 1 1 0.010155440609708036 1 1 1 1 1 1 1 1 1 1 1 0.0097096438701963512 1 1 1 1 0.0097376630387389449 1 1 1 1 1 1 1 1 1 1 1 1 1 1 1 1 1 1 1 1 1 1 0.0094153389213408826 1 1 1 1 1 1 1 1 1 1 1 1 1 1 1 1 1 1 0.00832683332904487 1 1 1 0.0054266810304520099 1 1 1 1 1 1 1 1 1 1 1 1 1 1 0.0052454471399580264 1 0.0067491685031539211 1 0.0041405802831137109 1 1 1 1 1 1 1 0.0092797484864600901 1 1 1 0.0030880492191768978 1 1 1 1 1 1 1 1 1 1 1 1 1 1 1 1 1 0.0088138040520642676 1 1 1 0.0060438756855439348 1 1 0.007367058157403435 0.0097320096113506765 1 1 1 1 0.01019113433110096 1 1 1 1 1 1 1 1 1 1 1 1 0.0064927740300791889 1 1 1 1 1 1 1 1 1 1 0.0092969480065527264 1 0.0057361623915333088 1 1 1 0.0058179601787472536 1 0.0089215579363227659 1 1 1 0.010054085116159416 1 1 0.00950736307257871 1 1 1 1 0.011135260917541832 1 1 1 1 0.0063953601459123058 1 1 1 0.0078690670582698252 0.0032133175382109726 1 0.0065406529489321005 1 0.0051076236375538053 1 1 0.0078681439452083831 1 1 1 1 1 1 1 1 1 1 0.0099231212140304167 0.0061433321749721076 1 1 1 1 1 0.010010933683168468 1 0.0097682888610769441 1 1 0.0041785477217371261 1 1 1 0.014293844024395664 1 0.012304516086773359 0.010408953625913365 1 0.01569119345507803 1 1 0.0046542289671809151 0.010316500642051316 1 1 0.0015355513863061603 1 1 0.0087801329104087566 1 1 1 1 1 1 1 1 0.0063255355440339587 1 1 1 1 1 0.011016065732619564 1 1 1 1 1 1 1 1 0.0099709504957731353 0.0070434787742911648 1 1 1 0.0099815631994179844 0.013473954628270762 1 0.0060899723517044476 1 1 1 0.010931258832929277 1 0.0075744525507840249 1 1 1 1 0.013503528069425742 1 0.009989510714104987 0.012981410506284211 1 1 1 1 1 1 1 1 0.0099041245763864839 1 1 1 1 1 1 1 1 1 0.010174464565181646 1 1 1 1 1 1 1 1 0.0099699616898538332 1 0.010738313435216069 1 1 1 1 0.0088512764326255967 1 1 1 1 1 1 0.0086370643094703641 1 1 1 1 1 0.013366482185181789 1 0.012833613965197877 1 1 1 1 1 1 1 1 1 1 0.010376905038024888 1 1 1 1 1 1 0.0098521978934473144 1 1 1 1 1 1 1 1 1 1 1 0.011542780383932368 1 1 1 1 1 0.0094985704788495724 0.0064148975464618022 1 1 0.0099987461316855628 1 1 1 0.010126917173010933 1 0.0086275787563856628 1 1 1 1 1 1 1 1 1 1 1 0.0061243153493882457 0.0079579190352075425 1 1 1 1 0.0081636053525862111 1 1 1 1 0.0092785852181114514 1 1 0.0092768141340152412 1 1 1 1 1 1 1 1 1 1 1 1 1 1 1 1 0.009920686403205245 1 1 1 1 1 0.0099812194620584136 1 1 0.010048277223375304 1 1 1 0.0096524540027785252 1 1 1 0.0090296044459008372 1 1 1 1 1 1 1 1 1 1 1 1 1 0.0091255546628202615 1 1 1 1 0.0096401193557937408 1 1 1 1 1 1 1 1 1 0.0092813106305204909 1 1 1 0.0086407614080687006 1 1 1 1 1 0.0098100966257437423 1 1 1 1 1 1 1 1 1 1 1 1 1 1 1 1 1 1 1 1 1 1 1 1 0.0099644514877344458 1 1 1 1 1 1 1 0.0099405126419431656 1 1 1 1 1 0.009976061154208727 1 1 1 1 1 1 1 1 1 0.0064815047923967375 1 1 0.0062785251378676306 1 1 1 1 1 1 1 1 1 1 1 0.0063747091553393621 1 1 1 1 1 1 1 1 1 0.0084268350581503323 1 1 1 1 1 1 1 0.008280402095166936 1 1 1 1 1 1 1 1 1 1 1 1 1 1 0.0059063753740669182 1 1 1 1 1 1 1 1 1 1 0.0074997798936970311 1 1 1 1 1 1 1 1 1 1 1 1 1 1 1 1 1 1 1 1 1 1 1 0.0023084837420059168 1 1 1 1 1 1 1 1 1 1 1 1 1 1 1 1 0.0096748391021237827 1 0.010517415994250009 1 1 1 1 0.0037603894849332076 1 1 1 1 1 1 1 1 1 1 1 1 1 1 1 1 1 1 1 1 1 1 1 1 1 1 1 1 1 1 1 1 1 0.0060478741507697404 1 1 1 1 1 1 1 1 1 1 0.010479520132174172 1 1 1 1 1 1 1 1 1 0.0094903862629035565 1 1 1 1 1 0.010028097310165547 1 1 1 1 0.0099697747416178772 1 1 1 1 1 1 1 1 1 0.0085908535974070655 1 1 1 1 1 1 1 1 0.0098778077600598646 1 1 1 1 1 1 1 1 1 1 1 1 1 1 1 1 1 1 1 0.0085947552671346503 1 1 0.0075262221187986748 1 1 0.010007314562189286 1 1 1 1 1 1 1 0.0096210011763179174 1 1 1 0.0093560369570426533 1 1 1 1 1 1 1 1 1 1 0.0092841307060239145 1 1 1 1 1 0.010158804514931043 1 0.008455193000637096 1 1 1 1 1 1 1 0.006853470320837371 1 0.0043204316652265349 1 1 1 1 1 1 1 1 1 1 1 1 1 0.0026384159079024805 1 1 1 1 1 1 0.011680833797035982 1 1 0.0060647088481894477 1 1 0.0017781499649161432 1 1 1 1 1 1 1 1 1 1 1 1 1 0.0091955515054241224 1 1 1 1 1 1 1 1 1 1 0.0094179396484678143 1 0.0092988252255133234 1 1 1 1 1 1 1 1 1 1 1 1 1 0.0049114720594477558 1 0.0074276991719747811 1 1 0.0086701766425064143 1 1 1 1 1 1 0.0093095960984187123 0.0056844464999486546 1 1 1 0.010020140831360528 1 1 1 1 1 1 1 0.0094048902405580934 1 1 1 1 1 1 1 1 1 1 1 1 1 1 1 1 1 1 1 1 1 1 1 1 1 0.0052131498580738657 1 1 1 0.0081055502535398588 1 1 1 1 1 1 1 1 1 1 1 1 1 1 1 1 1 0.011640445587634298 1 1 1 1 1 1 1 1 1 0.010381035344578926 1 1 1 1 1 1 1 1 1 1 1 1 0.0099110665323974747 1 1 1 1 1 1 1 1 1 1 1 0.0074837728874729836 1 1 1 1 1 1 1 1 1 1 1 1 1 1 1 0.0071808438593128545 1 1 1 1 1 1 1 0.0057182884674946456 1 1 1 1 1 1 1 1 1 1 1 1 1 1 1 1 1 1 1 1 0.0082324997867764243 1 1 1 1 1 1 0.0082277957096253632 1 1 1 1 1 1 1 1 1 1 1 1 0.010994913637327002 1 1 1 1 1 1 1 0.0031658017978789688 1 0.009960985418797105 0.0074121016616467954 1 1 1 1 1 1 1 1 1 1 1 1 1 1 1 1 0.010054246025853758 1 1 1 1 1 1 1 1 1 1 0.009749950704304804 1 1 0.0044436331202766608 1 1 1 1 1 1 1 1 1 1 1 1 1 1 1 1 1 1 0.0053528353595450016 1 1 1 1 1 1 1 1 1 1 1 1 1 1 1 1 1 1 1 1 1 1 1 0.007259925629252038 1 1 1 1 1 1 0.0099918913466075249 1 1 0.0092182635634438931 1 1 1 1 1 1 0.0075951448119663968 1 0.011293027780887173 0.0099944128471151032 1 0.0052897956910549285 1 1 1 1 0.0099317808252154891 0.009285412633195711 1 0.0091883280966161118 0.010317752199444488 1 1 0.0084286931779306035 0.011349206275888282 0.011020115446618295 1 1 0.013836259246980254 1 1 1 1 1 1 1 1 1 1 1 1 1 1 0.010179461727773439 1 1 1 0.010183804116781277 1 1 1 -3.2519834412131354e-09 0.0099950477740767193 1 0.0042368277212196711 1 1 1 1 1 1 0.003333055812994732 1 1 0.0099987958412796167 1 1 1 1 0.010341935182043901 0.0049361979669187012 1 1 1 1 1 1 1 1 1 1 1 1 1 1 1 1 1 1 1 1 1 1 0.0072637623771712317 1 1 0.00996398302767206 1 1 1 1 1 1 1 0.0092145375444640364 1 1 1 1 0.010333216804017815 1 1 1 1 1 0.010069948750641088 1 0.0046123090304403154 1 1 1 1 1 0.007145398801521893 1 1 0.010258816780065275 1 0.012009657971955238 1 1 1 1 1 1 0.010706431264566805 1 0.0056982815117135217 1 1 1 1 1 1 1 1 1 1 1 1 1 0.010186097914074457 1 0.0062913959514330799 1 1 1 1 1 1 1 1 1 1 1 1 1 1 0.010437599889938557 0.0046447912096234788 1 1 1 1 1 1 1 0.0059868012738740761 1 1 1 1 0.0097154455660868368 1 1 1 0.0064394988148100442 1 0.0087021985375583741 1 1 1 1 1 1 0.0084234034900934757 1 0.010120179371235081 1 0.0078444829306498782 1 0.011377872917094248 1 0.0052394421326847004 0.0061953389499621418 0.0093671765016156237 1 1 0.010443197602084857 1 1 1 1 1 1 0.01037281404673303 1 1 1 0.0059984903731076459 1 1 1 0.011210094808896355 1 1 1 1 1 1 0.012058538891054663 1 1 0.0049760527661527887 1 1 1 1 1 0.0032008511197625933 1 0.0098387570648648514 1 1 0.009988292747090937 1 1 1 1 1 1 1 1 1 1 1 1 1 1 1 1 0.0094425426652559891 1 1 1 1 1 1 1 1 1 1 1 1 1 1 1 1 1 1 1 1 1 1 1 1 1 1 1 1 1 1 1 1 1 1 1 1 1 1 1 0.0099579448019821611 1 1 1 1 1 1 1 1 0.0090055895942013752 0.010001551745234979 0.0099905838259407697 0.0081313920199731805 0.0075815035361005232 1 0.010568956832588149 1 1 1 0.0088677021582307773 1 1 1 1 0.011157374210460041 1 0.0098992904437928721 1 1 0.0085109227281602827 1 0.0073197061859119651 1 0.0090080373054313035 1 1 1 0.0083963456895120338 1 1 1 1 0.0099974518786742558 1 1 1 0.0092086513979305149 1 1 1 1 1 1 1 1 1 0.009941500160833068 1 1 1 1 1 0.0089741421585459759 1 1 1 1 1 0.0099859573680684093 1 1 1 1 1 1 1 1 1 1 1 1 1 1 1 1 0.011551019569830763 1 1 1 1 1 1 1 0.0098694931404732841 0.00040960720608248635 1 1 0.0068084722909559255 1 1 1 0.011354390771688962 0.0085638840394347149 1 1 0.011929769170184918 1 1 0.0098677299333692035 1 1 1 1 1 1 1 1 1 1 1 1 1 1 0.00012775109368439418 0.0053919928473347076 0.0099758405645499568 1 1 1 0.0046207361941916379 1 0.0062430862396178552 1 1 1 1 1 1 0.0053761534787108095 1 1 1 -2.5364570513386475e-10 1 1 1 0.0095910043484727803 0.0099898561825962316 1 1 0.010011422494100093 1 1 0.0060934186149281585 1 1 6.9648760951369904e-05 0.010968736327458924 1 1 0.005701549471847504 1 1 1 1 0.0025620920104896128 0.010247375111035897 1 0.011220055430034983 1 0.011993948702382951 1 1 1 1 1 1 1 1 1 1 1 1 1 1 1 1 1 1 1 1 1 1 1 1 0.011260587449802597 1 1 1 1 1 1 1 1 1 1 1 1 1 1 1 1 1 1 1 1 1 0.010390331576079385 1 1 1 1 1 1 1 1 0.0089816958528820302 1 1 1 1 1 1 1 1 1 1 1 1 0.009649380328131606 1 1 1 0.0099561670547593066 1 1 1 1 0.0095476020014445637 1 1 1 0.010047295141001958 1 1 1 1 1 1 1 1 1 1 1 1 0.0094830207842208827 1 1 1 1 1 1 1 1 1 1 0.0092524349722389668 1 1 1 1 1 1 1 1 1 1 1 0.0099728795552362793 1 1 1 0.010812531415735857 1 1 0.0098041652673829492 1 1 1 1 1 1 1 1 1 1 1 1 1 1 0.0099686043952677394 1 0.0098688371143101378 1 1 1 1 1 1 1 1 1 1 1 1 1 1 1 1 1 1 1 1 1 0.010183457614006245 1 1 0.010032873583289626 1 1 1 1 1 1 1 1 1 1 1 1 1 1 1 1 1 1 1 1 1 1 0.010422584659148561 1 1 1 1 1 1 1 1 1 1 1 0.0097576077490795533 1 1 1 1 1 1 0.0019391181558089507 1 1 0.0049366702603326415 1 1 1 0.0055498882721107985 1 0.003095726376661819 1 1 1 1 1 0.0086013906088931377 0.0058906571842319254 1 0.0065783935832851512 1 0.0070389240681056542 1 1 0.0086246186768357477 0.0076524860916319225 1 0.010597501050748366 1 1 1 1 1 1 1 0.0091967257027989382 1 1 0.0086413334799565686 1 1 0.0085414061201865288 0.0096197421987190765 1 1 1 1 1 0.0069151211692386654 1 1 0.0099887245206205545 0.0078973092320106138 1 1 1 1 1 1 0.0056189918352007005 1 1 1 1 1 0.0054889414516311836 1 1 1 1 1 0.0081350320351014811 1 1 0.0093280825767653678 1 1 1 1 0.01005824370922599 1 1 1 1 1 1 1 1 1 1 1 1 1 1 1 1 1 1 0.0095706778622667594 1 1 0.0089400951710192043 1 1 1 1 1 1 1 1 1 1 1 0.010122091774919729 1 1 1 1 1 1 1 0.0075184749101777819 1 0.0026372814150849651 1 1 1 1 0.0095130827327145097 1 1 1 1 1 1 1 1 1 1 1 1 1 0.0091518159436559873 1 1 1 1 1 1 0.0076959908139749063 1 1 1 1 1 1 1 1 1 1 1 1 1 1 1 1 1 1 1 1 1 1 0.00027019761001521002 1 1 1 1 1 1 0.010056606976269086 1 1 1 1 1 1 0.010350303102215366 1 1 1 1 0.0010484811244915425 1 1 1 0.010016932351462844 1 1 0.0095027805679186918 1 1 1 1 0.0085781966833326263 1 1 1 1 1 0.0098369677767211321 1 0.0081554500366506893 1 1 1 0.0088799229159706415 0.0041014541043995455 0.010933809311307245 1 1 1 1 1 1 1 1 1 1 1 1 1 1 1 1 1 1 1 1 1 1 1 1 1 1 1 1 1 1 1 1 1 1 1 1 1 1 1 1 1 1 1 1 1 1 1 1 1 1 1 1 1 1 1 1 1 1 1 1 1 1 1 1 1 1 1 1 1 1 1 1 1 1 0.0087705782142479226 1 1 1 1 1 1 1 1 1 1 1 1 1 1 1 1 1 1 1 1 0.0048959486205695166 1 1 1 1 1 1 1 1 1 0.0094530293544270328 1 1 0.0062588900591168586 1 1 1 1 1 1 1 0.0087813388573919626 1 1 1 1 1 1 1 1 1 0.0098329928669874389 1 1 1 1 1 1 1 1 1 1 1 1 1 0.0088748259916929025 1 1 1 0.010567757951465927 1 1 1 1 1 1 1 1 1 1 0.010405243366002495 1 1 1 1 1 1 1 1 1 1 1 0.0089841357940177273 1 1 1 1 0.009075304828718914 1 1 1 1 1 0.0089179386550387284 1 1 1 0.010197718797063373 1 1 1 1 1 1 1 1 1 1 1 1 1 1 1 1 1 1 1 1 1 0.0042532772875801556 1 1 1 0.0067014718265165207 1 1 0.007066504566231202 1 1 1 0.0089261163685019247 1 1 1 1 1 1 1 1 1 1 0.01118405869854071 1 0.0052517967876733671 1 1 0.0093236595802404162 1 1 1 0.0073674728663054682 1 1 1 0.011753570745144024 0.010051075958181614 1 1 0.0018655638529654107 1 1 1 1 1 1 1 1 1 1 1 1 1 1 1 1 1 1 1 1 0.0060243527830435208 0.0093623357396660119 1 1 1 1 1 1 1 1 1 1 1 1 1 1 1 0.010007748960716637 1 1 1 1 1 0.010059996465153574 1 1 1 1 1 0.01007745437867524 1 1 1 1 1 1 1 0.0094724182918962882 1 1 1 0.0097726116481216541 1 1 1 1 1 1 1 0.0098875349477998871 1 1 1 1 1 1 1 1 1 1 1 1 1 1 1 1 1 1 1 1 1 1 1 1 1 1 1 1 0.0091213343153121913 1 1 0.0080059901084491552 0.011845059256949196 1 1 1 1 1 1 1 1 0.0096097127120849477 1 1 1 1 1 1 1 1 1 1 1 1 1 0.010181765827330803 1 1 0.010621439229098195 1 1 1 1 1 1 1 1 1 1 1 1 1 1 1 1 1 1 1 1 1 1 0.0064897757294410854 1 1 1 1 1 1 0.0099351083990783465 1 1 1 1 1 1 1 1 1 1 1 1 1 1 1 1 1 1 1 1 1 1 1 1 1 1 1 1 1 1 0.0085510407879759321 1 1 0.0094709945793284792 1 1 1 1 1 1 1 0.01133073065379229 1 1 1 1 1 1 0.0098646160551359788 1 0.010481557779241313 1 1 1 1 1 1 1 1 0.0096229583914524547 1 1 1 0.0095066403532762141 1 1 1 1 0.00091419099999646763 1 1 1 1 1 1 0.0053130879998608445 0.0063427514920107531 0.010005159457839273 1 1 1 1 1 1 0.00037893703135091251 1 1 1 1 1 1 1 1 1 1 1 1 1 1 1 1 1 1 1 1 1 1 1 1 1 1 1 1 1 1 1 1 1 1 1 1 1 1 1 1 1 1 1 1 1 1 1 1 1 1 1 1 1 1 1 1 1 1 1 1 1 1 1 1 1 1 1 1 1 1 1 1 1 1 1 1 1 1 1 1 1 1 1 1 1 1 1 1 1 1 1 1 1 1 1 1 1 1 1 1 1 1 1 1 1 1 1 1 1 1 1 1 1 1 1 1 1 1 1 1 1 1 1 1 1 1 0.0087090311903882892 1 1 1 0.0095338502083523249 1 1 0.0095274780176258789 0.008769522688544442 1 1 1 1 1 1 1 0.0079350565387084314 1 1 1 1 0.0065851633135510504 1 0.0098422181915718294 1 1 1 1 1 1 1 0.0033180341628622715 1 1 1 0.0092843437191902738 1 1 1 1 0.010602870538724185 1 1 0.00051237297880339476 1 -3.1584285707653148e-10 1 0.010081439567797485 1 0.0018265599437880132 1 1 1 1 1 1 1 1 1 1 1 1 1 1 1 1 1 1 1 1 1 1 1 1 0.010086568043755526 0.010315209657065642 1 1 0.0049435784692479657 1 1 0.0087503282357703268 1 1 1 1 1 1 1 0.0090351965149059674 0.0096156511753778939 1 1 1 1 1 1 1 1 1 1 1 1 1 1 1 0.0024768973640051555 1 0.0099901643295061578 1 1 1 1 1 1 1 0.0040095678616860683 0.0099891287860898719 1 1 1 1 1 1 1 1 1 1 1 0.0035096750477479708 1 0.014808389670262651 1 1 1 0.010366566471869412 0.010775489666282209 1 1 0.010240770934893206 1 1 1 1 1 1 1 1 1 1 1 1 1 1 1 1 1 1 1 1 1 1 0.0075824453526729362 1 1 0.0066756086224335643 1 1 1 1 1 1 1 0.0015276538047682975 1 1 1 0.0022492014732678023 1 1 1 1 1 0.0099687469560578515 1 0.010001024513261165 1 1 1 1 1 1 1 1 1 1 0.010242046729307158 1 0.0094669865194697209 1 1 1 1 1 1 1 0.0099186460682790765 1 1 0.0098495204354708318 1 1 1 1 1 1 1 0.0083991565860871281 1 0.0070381415710184404 1 1 0.0085236807814554373 1 0.0085568709553944695 1 1 1 1 0.0097003751809080913 1 0.0083581096123845067 1 1 1 1 1 1 0.009899081321695825 1 0.0091969317560473239 1 0.0083313061171302483 1 1 0.011446882374291043 1 1 1 1 1 0.0055642151928318069 1 0.0043237333899479591 1 1 1 1 0.0097269153593494556 1 0.0098783770729146507 1 1 1 1 0.0063527442121032954 1 1 1 1 1 1 1 1 1 1 1 1 1 1 1 1 1 1 1 1 1 1 0.0092193059607889281 1 1 1 1 1 1 1 1 1 1 0.0095377710634050455 1 0.0090038114967026031 1 1 1 0.0066419348050587093 1 1 1 1 1 1 1 1 1 1 0.009910383619358358 1 0.01003344442509984 0.0090748749972676419 1 1 1 0.008524685718901805 1 1 0.0090781235444622101 1 1 1 1 0.0087440844744111866 0.0097379551036703895 0.0090410007279006759 1 1 1 0.0088529954967791029 1 1 1 1 1 1 1 1 1 1 1 1 1 1 1 1 0.0090593170734197866 1 1 1 1 1 1 1 0.01015030912800584 1 1 1 1 1 1 1 1 1 1 1 1 1 0.011243375318012276 1 1 1 1 1 0.009624018615687048 1 1 1 1 0.010266595131501407 1 1 1 1 1 1 1 1 1 1 1 1 1 1 1 1 1 1 1 1 1 1 1 1 1 1 1 1 1 1 1 1 1 1 1 1 1 1 1 1 1 1 1 1 1 1 1 1 1 1 1 1 1 1 1 1 1 1 1 0.010008983973094946 1 0.010032504156627403 0.0116475927516665 1 1 0.00050823530516009088 1 0.0029314826573959129 1 1 1 1 1 1 0.01147420829522687 1 1 1 1 1 1 1 1 1 1 1 1 1 1 1 1 1 1 1 1 1 0.011245637513194951 1 1 1 1 1 1 0.0096223769010336819 1 1 1 1 1 1 1 1 1 1 1 0.0091562271093860101 1 1 1 1 1 1 1 1 1 1 1 1 1 1 1 1 1 1 1 1 1 1 1 1 1 1 1 1 1 1 1 1 1 1 0.010248914125553696 0.01024661122257875 1 0.0098207976723884583 1 0.0080663623042299629 1 1 1 1 1 1 1 1 0.0095755849647663985 1 1 0.0085930713398689185 1 1 0.009315624735960943 1 1 1 1 1 1 1 1 1 1 1 1 1 0.0090505140226066066 1 0.0093805991404228399 1 1 1 0.0085387054245040714 1 0.0096214681284139611 0.012503645433126383 0.007560102763628126 1 1 1 0.0087045821845999211 0.010566217748514637 1 1 1 1 1 1 1 0.0099791427544702882 1 1 1 1 0.009154139086471445 0.0042481398557056883 1 0.0074073451223184766 1 0.0059853166283487698 1 1 1 1 1 0.0075259792496859233 0.010117093088322551 0.0085801268735613122 1 1 1 0.0090611996025512179 1 0.0096422761304592111 0.0067066078163517933 1 0.0072407301867865358 0.0095929421140627368 1 1 1 1 1 0.010024392273651679 1 1 0.0098284166554702696 1 1 0.011062700579356578 0.0071107450971345998 1 1 1 1 1 0.0089130221260877145 1 1 1 1 1 0.010245441653907993 1 1 1 1 0.0085142282041302635 1 1 1 1 0.010084839371756912 1 1 1 1 1 0.0095642131105520278 1 1 1 0.0070255480260991588 1 1 1 1 0.0034588165512116527 1 1 0.0071923673416736797 1 0.0091674693925619076 1 0.0019191168479649606 1 0.010057649118760378 1 1 1 1 1 1 0.0098538712324379579 1 1 1 1 1 1 1 1 0.010227753578799095 1 1 1 0.0063848631491478999 0.0061285594130133262 1 1 1 1 1 0.0036789866831951883 1 1 1 1 1 1 0.0026507214614128159 1 1 1 1 1 1 1 1 1 1 1 1 1 1 1 1 1 1 1 1 0.010225283674211405 1 1 1 1 1 1 1 1 1 1 1 1 1 1 1 1 1 1 1 1 1 0.010089845531956059 1 1 1 0.0097465660805182413 1 1 1 0.0091474272615004234 1 1 1 1 1 1 1 1 0.015858997492352107 1 1 1 1 1 1 0.010001223721994015 1 0.015716048936732015 1 1 0.0083427320226936962 1 1 1 0.0092708087731657972 1 1 1 0.0090431061589255624 1 1 1 1 1 0.0097002128081959092 1 1 1 0.010305958666950155 1 1 1 1 1 1 1 1 1 1 1 1 0.00054532772053581154 1 1 1 1 0.0099010112811053659 1 1 1 1 1 1 1 1 1 1 1 0.012862558787798543 1 1 0.010019252993958665 1 1 1 0.001275283241598266 1 0.0099989582807248865 1 1 1 1 1 1 1 0.012721176245944637 1 1 1 1 1 1 1 1 1 1 1 1 1 1 1 1 1 1 1 1 1 0.012593411198899488 1 1 1 1 0.010084480868745992 1 1 1 0.0099521312543475616 1 1 1 1 1 1 0.0096773677352373078 1 1 1 0.0097707379490402264 1 1 1 1 1 1 1 1 1 1 1 1 0.0099441848402028431 1 1 0.0015364625625868432 0.010110784376080158 1 1 1 0.0029002089827357396 1 1 0.011924350693678743 1 1 1 1 0.0099502680092314125 1 1 1 1 1 0.0096786610452393451 0.0086743669969262527 1 1 1 0.0039594203287747782 1 1 1 1 1 0.0031387360638191202 1 1 1 1 1 1 1 1 1 1 1 1 1 1 1 1 1 1 1 1 1 1 1 1 1 1 1 1 1 1 1 0.0094260550009342987 1 1 1 1 1 1 1 1 1 1 1 0.0092016737316461296 1 1 1 1 1 1 1 0.0078863583006696103 1 1 1 1 1 1 0.009527806459826078 1 1 1 1 0.0022930993107092915 1 1 1 0.010071043642985521 1 1 1 0.0085025613738861049 1 1 1 5.8980764716665135e-11 1 0.010026185664914086 1 1 1 0.0038617796136371577 0.0057562303976523236 1 0.0078394825960317379 0.0093319371959009675 1 0.0025773926160881748 1 0.010046340340899105 1 1 1 0.0067860258786563701 1 1 1 1 1 1 1 1 1 1 0.0096747343641279959 0.0052307080891794899 1 1 1 1 1 1 0.0091556940654940709 1 0.010024270191766747 1 1 1 0.0070807209699276629 0.0099405808431685949 1 1 1 1 1 1 0.0098975955295397128 0.0077014502853566362 0.0081882073953591303 1 1 1 1 1 1 1 1 1 1 1 1 1 1 1 1 1 1 1 1 1 0.01001112720423393 1 1 1 1 1 1 0.0099438105084305572 0.0098081331237467248 1 1 1 1 1 1 1 1 1 1 1 1 1 1 1 1 1 1 1 0.009969537555076945 0.010205094007139157 1 1 1 1 0.010377267869519707 0.0099032673576501286 1 0.0071111770403988073 0.0094820444174454725 1 1 0.011024812235245237 1 1 0.0096140478982297672 0.0090077112234152289 0.0088718580543826545 1 1 1 1 1 1 1 1 1 0.010192228812566356 1 1 1 1 0.010816125672976778 1 1 0.0083565028290617533 1 1 1 1 1 0.0095084623746676984 1 1 1 0.011018129571765515 1 1 1 1 1 1 1 1 1 1 1 1 1 0.0093842577673009606 1 1 1 1 0.011039770465090868 1 1 1 0.010000257416514308 1 1 1 1 1 1 1 1 1 1 1 1 0.0043305915191964583 1 0.0032550509360072654 1 1 0.0001548195924284991 1 0.0095163432500217984 1 1 1 1 1 0.0087424759081397158 1 1 1 1 1 1 1 1 1 1 1 1 1 1 1 1 1 1 1 1 1 1 1 1 1 1 1 0.0097805141435822508 1 1 1 0.011377587706912707 1 1 1 1 1 1 1 1 0.0075154291061904875 1 1 0.0075414129087709829 1 1 1 0.0029024619862654134 1 1 1 1 1 1 1 1 1 1 1 1 1 1 1 1 1 1 1 1 1 0.010840329767214042 1 1 0.010828715477980672 0.0057302437418586139 1 0.0043022114040906102 1 1 0.010226450167092949 1 1 0.014774727248564911 1 1 1 1 1 1 1 0.0098674237988179512 1 1 1 1 1 1 1 1 1 1 0.010042681569729746 0.0039908305813040144 1 1 1 1 1 1 1 1 1 1 1 1 1 1 1 1 1 1 1 1 1 1 1 1 1 0.0096479379424001983 1 1 1 1 1 1 1 1 1 1 0.0097045538758366631 1 1 1 1 1 1 1 1 1 1 1 1 1 1 0.010727097206254461 0.0091392768262266617 1 1 1 1 1 1 1 1 1 1 1 1 1 1 1 1 1 1 1 1 1 1 0.0098071099180875847 0.0071623109166720871 1 1 0.0069906901390166809 0.010456898446279705 1 1 1 1 1 1 1 1 1 1 1 0.0084792926934144329 1 1 1 1 1 1 1 1 1 0.0080092940098299165 1 1 1 1 1 1 0.0047687868183431924 1 0.010888246864535649 1 1 1 1 0.0090821482163273709 1 0.0092737496908312025 0.0090962584297605807 1 0.0063159283467145149 0.0060759969096566609 1 1 1 1 1 1 1 1 1 1 1 1 1 1 1 1 1 0.010420748894419402 1 1 0.0052953222045440049 1 0.0097058350822487368 1 1 1 1 1 0.0055873769531847375 1 0.01003790220589683 1 0.0073182062343637531 1 1 0.010550573609872407 1 0.010829823068954931 1 1 1 1 1 1 1 1 1 0.0094555170922865639 1 1 1 1 1 1 1 1 1 1 1 1 1 1 1 1 1 1 1 1 1 0.010145255826095718 1 1 1 1 1 1 1 1 0.0073275320821655152 1 1 1 1 1 1 1 1 0.0086301236479109974 1 1 1 1 1 1 1 1 1 1 1 0.0098993324829913312 1 1 1 1 1 0.0099397818346916283 1 1 1 1 1 1 1 0.0099001759906999515 0.0070934083830133682 1 1 1 1 1 1 1 1 1 0.0096637025700666672 1 1 1 1 1 1 1 1 1 1 0.0077413266372704098 1 1 1 1 1 1 1 1 1 1 1 0.010735054356174525 1 1 1 1 0.012186377981086387 1 0.010041211177684341 0.012920287044298429 1 1 1 1 1 1 0.0043059831318038016 1 1 1 1 0.0047654145293942914 1 1 1 1 1 1 1 1 1 0.0098144885780876868 1 0.010112328803924195 1 1 1 1 1 1 0.0093952366858986829 1 1 0.011338627026118708 0.012460052836958446 1 1 0.0070429103705326145 1 0.010042327203568884 1 0.010764169597375693 1 1 1 1 1 0.014196098148152649 1 1 0.002778953498273392 1 1 1 1 1 1 0.0098946128554615077 1 1 1 0.010122792838227051 1 0.0097064902718360241 1 1 0.012478923711594207 1 1 1 1 1 0.0078699159003968646 1 1 1 1 1 1 1 1 1 1 1 0.01128951286947763 0.0101325882431257 1 1 1 1 1 1 0.009799017588292578 1 1 1 1 1 1 1 1 1 1 1 1 1 1 1 0.0081304162661223027 1 1 0.010062271604481601 1 1 1 1 1 1 1 1 1 1 1 1 1 1 1 1 1 1 1 1 1 1 1 1 1 1 1 1 1 1 1 1 1 1 1 1 1 1 1 1 1 1 0.010124626413709674 1 1 1 1 1 1 1 1 1 1 1 1 1 1 1 1 1 1 1 1 1 1 1 1 0.0096021349068821926 1 1 1 1 0.0096596542739513166 1 1 1 0.010085393267549404 1 1 1 1 1 1 1 1 1 1 1 1 1 1 1 1 1 1 1 1 1 1 1 1 1 1 1 1 1 1 1 1 1 1 1 0.0042844361225781585 1 1 1 1 1 1 1 1 0.009024358769314721 1 1 1 1 0.0039598378102140112 1 1 1 1 1 1 1 1 1 1 1 1 1 1 1 1 1 1 1 1 1 0.0060231428690677817 1 1 1 1 0.0028498635646978937 1 1 1 1 1 1 1 1 1 1 1 1 1 1 1 0.010138863311988315 1 0.0099528878413350386 1 1 1 1 1 1 1 1 0.0053152959103001177 1 1 1 1 1 0.0082425695133144239 1 1 1 1 1 1 1 1 1 1 1 1 1 0.010105126595908747 1 1 0.010058247335045132 1 1 1 0.0092045955128671267 1 1 1 1 1 1 1 0.007794853043011734 1 1 1 1 1 1 1 1 1 1 1 1 1 1 1 1 1 1 1 1 1 1 1 1 1 1 0.010032016981260531 1 1 1 0.010387595885531252 1 1 1 1 1 1 1 1 1 1 1 1 1 1 1 1 1 1 1 1 1 1 1 1 1 1 1 1 1 1 1 1 1 0.011317190367748465 1 1 1 1 1 1 1 1 1 1 1 1 1 0.0092780419021680459 1 1 1 1 1 1 1 1 1 1 0.010000843507708617 1 1 1 1 0.0098175406063206686 1 1 1 1 1 0.0090812794414453172 1 1 1 1 1 1 1 1 1 1 1 1 1 1 1 1 1 0.0086618578606764661 1 1 1 1 1 1 1 1 1 1 1 1 1 1 1 1 1 1 1 0.0052896292223350121 1 1 1 1 1 1 1 1 0.0080645587284814274 1 1 1 1 1 0.0085893993686618902 1 1 1 1 1 1 0.010127652783178599 1 1 1 1 1 1 1 1 1 1 1 1 1 1 1 0.010439365094321289 0.0050002703230489394 1 1 1 1 0.0097328996350991674 1 1 1 1 0.0099041285627545043 1 1 1 1 1 1 1 1 1 1 0.0098021278613074879 1 1 0.0044441790189105879 1 0.0053742320955540261 0.0097318506244485573 1 1 1 1 0.0095707425703911893 0.008281429700480767 1 1 1 1 1 1 1 0.0081666000463267215 1 1 1 1 0.0062426018026161302 1 1 0.0042653235731057743 1 0.0046367723369146871 0.0043299779304845961 1 1 1 0.010023976104249335 1 1 1 0.0096217413887753362 1 1 1 1 1 1 1 1 1 1 1 1 1 0.0061838332738129807 1 0.0072800895678638081 0.0059420576003500498 1 1 1 0.0069513112788779034 1 0.010625616440949325 1 1 0.009947571573463692 0.0095493944813489877 1 1 1 0.0075585519529069089 0.01212084062185554 1 1 1 1 1 1 0.0090108755794853258 1 0.0048844313341659742 1 1 1 0.011305397249112968 1 0.0094986978822507572 1 1 1 0.0095422677017736861 1 0.0029852188745027007 1 1 1 0.0090326815388113244 1 1 0.0099906162228369927 1 1 1 0.0030266270741104526 1 1 0.0087811718808039844 1 1 1 1 1 1 1 0.0099835119069705859 0.012582612137268134 1 1 1 1 0.0034550442641091503 1 1 1 1 1 0.0099304450350547364 1 0.0035851546086298862 1 1 1 0.0085967503862034566 0.008140154846084581 1 1 1 1 1 1 1 1 1 0.0082490795875983427 1 1 1 1 1 0.0098520169382845073 1 1 1 1 0.0078394082481721174 1 1 1 0.010278087751201903 1 1 1 1 0.0091084175595265333 1 1 1 1 0.0092543314323821485 1 1 1 1 1 1 1 1 1 1 1 1 1 1 1 1 1 1 1 1 0.0052258716092279042 1 1 0.012246337475217512 1 1 0.012532977243155285 1 0.00974468354954015 1 1 0.012738574569264223 0.0057363664281505581 1 1 1 1 1 1 1 1 1 0.0073101204047870422 1 1 1 1 1 1 1 1 1 1 1 1 1 1 1 1 1 1 1 1 0.0082512499868686237 1 1 1 1 1 1 1 1 1 1 1 1 1 1 1 1 0.01015396535831394 1 1 1 1 1 1 1 1 1 0.0098527986534416509 1 1 1 1 1 1 1 1 1 1 1 1 1 1 1 1 1 0.0059659367174324639 1 1 0.0098457887221122635 1 0.006121008119104928 1 1 1 1 1 1 1 1 1 0.0092727173278104869 1 1 1 1 1 1 1 1 0.0098656524908158523 1 1 1 1 1 1 1 1 1 1 1 1 1 1 1 1 1 1 0.0069278493085723827 1 0.0098310126422304703 1 1 1 1 0.0079285649930598955 1 1 1 1 0.0066569890578038991 1 1 1 1 1 1 1 1 1 1 1 1 1 1 1 1 0.0090696659205738404 1 1 0.0081303403975602172 0.0077315450579176562 1 1 1 1 1 1 1 0.010967963965250337 0.007228213449841623 1 1 1 1 0.009989645041736139 1 1 1 1 1 1 1 1 1 1 0.0080788195948020593 1 1 1 1 1 1 1 1 0.0098703234708108316 1 1 1 1 1 1 1 1 1 0.010457311308166217 1 1 0.010432633414780075 1 1 0.0040835984358226565 1 1 1 1 1 1 0.0097733264584012047 1 0.010627923205516657 1 1 1 1 0.010928091744184444 1 1 1 0.0017883702059915928 1 1 1 1 1 0.002413150559497125 1 1 1 1 1 1 1 1 1 0.0099953700989642499 1 1 0.0081893072114536496 1 1 1 1 1 1 1 1 1 1 1 1 1 1 1 1 1 1 1 1 0.010334559429768082 1 1 1 1 1 1 1 1 1 1 1 0.0094893272167242953 1 1 1 1 1 1 1 1 1 0.0090619550140552639 1 1 1 1 1 1 1 1 1 1 1 1 1 1 1 1 1 1 0.0071624722673984242 1 1 1 0.0099093819411363426 0.0036935009258928161 1 1 1 1 0.0093043128918360932 0.011882395810848507 1 1 0.010008206346247481 1 1 1 1 1 1 0.010330228244795318 1 1 1 1 1 1 1 1 1 1 1 1 1 1 1 1 1 1 1 1 0.0091541588612740407 1 1 1 1 1 1 1 1 1 1 0.0096648316445497422 1 0.0086558304562822496 1 1 1 1 1 1 0.001004948959491353 1 1 1 1 1 0.010047068130302029 1 1 1 0.0010097588531457896 1 1 1 1 0.0097529868046381321 1 1 1 0.0099214609608071769 1 1 1 1 1 1 1 1 1 1 1 1 0.010228936890308744 1 1 1 1 1 1 0.009754211164207556 0.0069445118337962981 1 1 1 1 1 1 1 0.00096562786006149093 1 0.0099813839446592847 1 1 0.0097148168717696003 1 1 1 1 1 1 1 1 1 1 1 1 1 1 1 1 1 1 1 0.009923165576997987 1 1 1 1 1 1 0.010096269544419272 1 1 1 1 1 1 1 1 1 1 1 0.01033164681458962 1 1 1 1 0.0098325475181343085 1 1 1 0.0043416760633542446 1 1 1 1 0.010617326083034154 1 1 0.010856224709260176 0.0050577703759016462 1 1 1 1 1 0.0067250458391564932 1 1 1 1 1 0.0067376751235991433 0.0071087861932529785 0.0092817556286966287 1 1 1 1 1 0.0099777678725568204 0.0073964753014719147 1 0.0089003920330972507 0.010396311677654167 1 0.0055017113889390436 1 1 1 1 1 1 1 1 1 1 1 0.009770724117739547 1 1 1 1 0.011008320432044567 1 1 1 0.0092541760593564011 1 0.011042875455714175 1 0.0078906804277034601 0.0099237975778636665 1 1 1 0.0083920053878707018 1 0.010542857425017482 0.010047625618261145 0.0081356318911737918 1 1 1 0.010012658796378986 1 0.009994689315913137 1 0.0095145743510853704 1 1 1 0.0068668658755900239 1 1 1 1 1 1 1 1 1 1 1 1 1 1 1 1 1 1 1 1 1 1 1 1 1 1 1 1 0.0096107675104804974 1 1 1 1 1 1 0.0098224052353532848 1 1 1 1 1 1 1 1 1 1 1 1 1 1 1 1 1 1 1 1 1 1 1 1 1 1 1 1 1 1 1 1 1 1 1 1 1 1 1 1 1 1 1 1 1 1 1 1 1 1 0.0097583684458478984 1 1 1 1 1 1 1 1 1 1 1 1 1 1 1 1 1 1 1 1 1 1 1 1 0.0099214787680840886 0.0091163141585453508 1 1 1 1 1 1 1 1 1 1 1 1 1 1 1 1 1 1 1 1 1 1 1 0.010036560480586331 1 1 1 1 1 1 1 1 1 1 1 1 1 1 1 1 0.010177249897139907 0.010069997041463365 1 1 1 1 1 0.010013623287294902 0.0095311085771210679 0.010012401020379383 1 1 1 0.0097811894774823029 0.0099233728263757454 1 1 1 1 1 1 1 1 1 1 1 1 1 1 1 1 0.0025354154835193002 1 0.0044215757146641999 1 1 0.0097348710888695879 1 1 1 1 1 1 1 1 1 1 1 1 1 1 1 1 1 1 1 1 1 1 1 1 1 1 1 1 1 1 1 1 1 1 1 0.0080016135935420916 1 1 1 1 1 1 1 1 1 1 1 1 1 1 1 0.0077437698539546199 1 1 1 1 1 1 1 1 1 1 1 1 1 1 0.010163110322236194 1 1 1 1 1 1 1 1 1 1 1 1 1 1 1 1 1 1 1 1 1 1 1 1 1 1 1 1 1 1 1 0.0083150090918624065 1 1 1 1 1 1 0.009484829972628131 1 1 1 1 1 1 1 1 0.0098569388025424431 1 0.0098142939372624603 1 1 1 1 1 1 1 1 0.010591937769333308 1 1 1 1 1 1 1 1 1 1 1 1 1 1 1 1 1 1 1 1 1 1 1 1 1 1 1 1 1 1 0.0093534696526762825 1 1 1 1 1 1 1 1 1 1 1 1 1 1.5403812999442712e-09 8.3083262145122738e-10 1 1 0.0098436787232178743 0.010046277581315058 1 1 1 1 1 5.6856930382584436e-05 1 1 1 1 1 1 0.0054042523390108732 1 1 1 1 1 0.0099760324259898572 1 0.0077974844160896683 1 0.0034466313096454086 1 1 0.012267509612370255 1 1 1 1 1 1 1 0.0098120231242389017 1 0.0099370246307394199 1 1 0.00079337539031628518 1 1 1 1 0.0029051828033374791 1 1 1 0.0096321012176150446 1 1 1 1 1 0.011317488384419297 1 0.0089574743292992962 1 1 0.00062047046363681094 1 1 1 0.0098788528613635192 1 1.0708202657916388e-09 1 1 1 1 1 1 1 0.0084777507412555422 1 1 0.0077396334755667623 0.0099965560833540634 1 0.009580145262832105 0.0088003424543501851 1 1 1 0.0096578061446220623 1 0.0094488345840510017 0.0094207042651383022 0.0097955487874834234 1 1 1 1 1 0.0074470451581736697 1 1 1 1 1 1 0.0098775694433179701 1 1 1 0.0090684212043611392 1 0.0084346224307148866 1 1 1 1 1 1 1 1 1 1 1 1 1 1 1 1 1 -2.4945648116614372e-09 1 1 0.0092865056765752251 1 1 1 1 1 1 1 1 1 0.010045098476641631 1 1 1 1 1 1 1 1 2.8879385619018372e-09 1 1 1 0.010474527003803654 1 0.00036203093685721957 1 1 0.0099255654527451061 1 1 1 1 0.009527608325793956 1 1 1 1 1 1 1 0.0057117368682219564 1 0.010468708279605832 1 1 1 1 1 1 1 0.0080248923591981179 1 1 1 0.0095590845949527648 1 0.0099754359218065108 1 1 0.0089054290763227843 0.0083809427656653251 1 1 1 1 1 0.0098215689592299552 1 1 1 1 1 1 1 1 1 1 1 1 1 1 1 1 1 1 0.010072085994309223 0.0099905527968661284 1 1 1 1 1 1 0.0085735135279211179 1 1 0.0094445581905851315 0.008803439930959181 1 1 0.0086688724331566089 1 0.010237193822315752 1 1 0.0096453063854931905 1 1 1 0.0090630754858703217 1 1 0.0099626739315815168 1 1 1 1 0.0099805241224264069 1 1 1 1 1 1 0.0065082491810454623 1 1 1 1 0.0091975757260446336 0.0084659807724976107 1 0.0090638153152574358 0.0085900176197210593 1 1 1 1 1 1 1 1 1 1 1 1 1 1 1 1 1 1 1 1 1 1 1 1 1 1 1 1 1 1 0.010633081466932955 1 1 0.0098746991050523217 1 1 1 1 1 1 1 1 1 1 0.0082353134822625539 1 1 1 1 1 1 1 1 0.0085211651589685196 1 1 1 1 1 1 1 0.01333026403449477 1 1 1 0.0088816938498748662 1 1 1 0.0087319283270557504 1 0.0099999498505709949 1 1 1 1 1 1 0.011543942023660736 1 0.0033402872708697545 1 1 1 0.01046818466216792 1 1 1 1 1 1 1 1 1 1 1 1 1 1 1 1 1 1 0.009992897524542018 0.0079258341083292081 0.0060134963168684361 1 0.01042987050891428 1 1 1 1 1 1 0.0068539996834106852 1 0.0097060056857882909 1 1 1 1 0.008971614857157641 1 1 0.0031095345623544379 0.0090098688226537098 1 1 1 1 1 0.0098647218768459933 1 0.008661471815928589 1 1 1 0.00063809038768054133 1 1 1.2081756359250129e-09 0.0067545313994912173 1 1 1 1 0.0098641582496925423 1 1 0.010437949007600922 1 1 1 0.0099185668846565808 1 1 1 0.0097460457952666425 1 0.0067572847567941505 1 1 1 1 1 1 1 1 0.0029989348006365657 1 1 1 1 1 1 1 1 0.0099125983092237385 1 1 1 1 0.0030645663359090101 1 0.0099942932957284153 1 1 0.0098321171315528325 1 1 0.00093667963486053843 1 1 1 1 0.0099087518816720413 1 1 1 1 1 1 1 1 1 1 1 1 1 1 1 1 1 1 1 1 1 1 0.0099105865842415673 1 1 1 1 1 1 1 1 1 1 1 1 1 1 1 1 1 1 1 1 1 1 1 1 1 1 1 1 1 1 1 1 0.01001723461132544 1 0.010030767380777173 0.0098140454791807649 1 1 1 1 1 1 1 0.0059090181581499812 1 1 1 1 1 1 0.007112530407706829 1 1 1 0.0055119562172606072 1 1 1 1 1 1 1 1 1 1 1 0.007591194933822501 1 1 0.0099352305408321462 1 1 1 1 0.0093442248905353936 1 1 0.009474159310132426 1 1 1 1 1 1 1 0.0094756991617777932 1 1 1 1 1 1 1 1 1 1 1 0.010444307316475658 1 1 1 1 1 1 1 1 1 1 1 1 1 0.011857725197745157 1 1 1 0.0097628987874084344 1 1 1 1 1 1 1 1 1 1 1 1 1 1 1 1 1 1 1 1 1 1 1 1 1 1 1 1 1 1 1 1 1 1 1 0.00046402420682823894 1 1 1 1 1 -6.9852260052571946e-09 1 1 0.014007215219746749 1 1 1 0.0099365820733647546 0.0033145204636360615 1 1 1 1 1 1 0.010756194217338134 1 1 1 1 1 1 1 1 1 1 1 1 1 1 1 1 1 1 1 1 1 1 1 1 0.0040906196510196897 1 1 1 1 1 1 0.0079005723057970281 1 1 0.0024857050248272353 1 1 1 1 1 1 0.0085561762057015864 1 0.010604203428723711 1 1 1 0.010145423668811531 1 1 0.010146097230057492 1 1 1 1 0.0098796644412064913 1 1 1 0.0088014075185426643 1 1 0.009745555453574202 0.010007794994711855 1 1 0.010153847776465967 1 1 0.010406460611491111 0.0086461031930472852 1 0.0099378315014429022 1 1 1 0.010232318757097346 0.010212687437788625 0.007540534141758766 1 1 1 0.0077461129020874875 1 1 1 0.0088630177650448755 1 1 1 1 0.0068512386171030379 1 1 1 1 1 1 1 1 1 1 1 1 1 1 0.0088503725321383564 1 0.0093176608613123307 1 1 1 1 1 0.0089232349879403879 1 1 1 1 1 1 1 0.0099877912225890073 0.0026188046310525129 1 1 1 1 1 1 1 0.0040214539344427709 1 0.0057221982376694583 0.0099990319805607006 0.010014625150931142 1 1 1 1 1 1 1 0.0085918349929800658 1 1 0.0080424730193280492 1 0.0044312488694653335 1 0.0033628348189512734 1 1 0.002519658006020116 1 1 1 1 1 1 1 1 1 1 1 1 1 1 1 0.0099849381365302546 1 1 1 1 1 1 1 1 1 1 1 0.0047766035022040222 1 1 1 1 0.0080040895246337174 1 1 1 1 1 1 1 1 1 1 0.0087452791352453582 1 1 0.010194259988069339 1 1 0.0088064700057690209 1 1 1 1 0.010074475847242333 1 1 1 0.0094684232602276572 0.0096512631626437095 1 1 1 1 1 1 0.008410389052707001 1 1 1 1 1 1 1 1 1 1 1 1 1 1 1 0.0058175168951746445 1 1 1 0.0068687826054285375 1 1 1 1 1 1 1 0.0088839726809805362 1 1 1 1 0.0040790249165043521 0.010090330199935393 1 1 1 1 1 1 1 1 1 1 1 1 1 1 0.0049096321951158702 1 1 1 0.0096150595062951035 1 1 1 1 1 0.0091540452139389512 1 0.0089432392515904 1 1 1 1 1 1 1 1 0.0091138996999478236 0.0085998485268930433 1 0.0098842519208720871 0.0083802180067271519 1 1 1 1 1 0.0096174491427686599 0.006416174612401692 0.0099681587604168384 1 0.0098795074854107229 1 0.0092201236936266771 1 1 0.0099042690636045733 1 1 1 1 1 1 1 1 1 1 1 1 1 1 1 1 1 1 1 1 0.0061552082956834488 1 1 1 1 1 1 1 1 1 1 1 1 1 1 0.0081678270990497501 1 1 1 1 1 1 1 1 1 1 1 1 1 1 1 1 0.0018541120897067262 1 1 1 1 0.00063189065574001564 1 1 1 1 1 1 1 1.3388970800110034e-09 1 -9.0232074537871521e-09 1 1 0.0024391161437186237 1 1 1 1 0.0078183207940352994 1 0.009505812442727829 1 1 0.0099599652121796344 1 1 1 1 1 1 1 1 1 1 1 1 1 1 0.0080097260144691498 1 1 1 1 1 1 1 1 1 1 1 1 1 0.0092938196757719055 1 1 1 0.0080210639929252769 1 0.0071548298262196809 1 1 0.0096381992405218872 1 1 1 0.0098692556106771516 1 1 1 1 1 1 1 1 1 1 1 1 1 1 1 1 0.006707704757227778 1 1 1 1 0.0095015381891236268 1 1 0.0086085531117840175 1 1 1 1 1 1 1 0.006262331347685831 1 1 1 1 1 1 1 1 1 1 1 1 1 1 1 1 1 1 1 1 1 1 0.0088277000512893018 1 1 1 0.0086610977114603173 1 1 1 1 1 1 1 1 1 1 1 1 1 1 1 1 0.0069445411523289691 1 1 1 1 1 1 1 1 1 1 1 1 1 0.0073593642268865844 1 1 1 1 1 1 1 1 1 1 1 0.0052858743109807918 1 1 1 1 1 1 1 0.0090108583529376271 1 1 1 1 0.0080659471069947277 0.0052188069052863939 1 1 1 1 1 1 1 1 1 1 1 1 1 1 1 1 1 1 1 1 1 1 1 0.011715374476432155 1 1 1 1 1 1 1 0.0099807782284738727 1 0.012710761280441366 1 1 1 0.0052133946086884726 1 1 1 1 1 0.0082502800260530716 1 1 1 0.0052045039253393443 1 1 1 0.0048490526774231692 1 1 1 1 1 1 1 1 1 0.0073142243138491145 1 1 1 1 1 1 1 1 1 1 1 1 1 1 1 1 0.010349852412505961 1 1 1 1 0.0058935977694704678 1 1 1 0.0052480406619769479 1 0.010091148824223441 0.0083556542899999794 1 1 1 1 1 1 1 1 1 1 1 1 1 1 1 1 1 1 1 1 1 1 1 1 1 0.0033057269053288988 1 1 1 0.0060834973529723165 1 0.0099575768570492572 1 0.0040158388178609958 1 1 0.010197061133086601 1 1 1 0.0098710937317198193 1 1 1 1 1 1 1 0.010767220961136264 1 1 0.0025372701290064421 0.0060736330904385457 0.0072786665917123888 1 1 0.0042280622012814545 1 1 1 1 0.0061354777697592306 0.0097400379138573735 1 0.0073285495368037943 1 1 1 1 1 0.0067454231824199129 1 1 1 1 1 0.010210700149325506 1 1 1 0.0051289974034987341 1 1 1 1 1 1 1 1 1 1 0.0094516604876660106 1 1 1 1 0.0021547637899020384 0.0083049176312255564 1 1 1 1 0.0099714695681300813 1 0.0032867904906289207 1 0.0025857276874049987 1 1 1 1 1 1 1 1 1 1 1 1 1 1 1 1 0.0099868728147250799 1 1 1 1 1 1 1 1 0.0061534669335097502 1 1 1 0.0045025321707066138 1 1 1 1 1 0.0027899035942396642 1 1 0.002905444891229108 1 1 1 1 1 0.0044305938652901486 1 1 0.0027176247148720106 1 1 0.0099852364543053691 0.002279508133888308 0.005644333356598045 1 0.009872053711724383 1 1 1 0.00018678675751162329 1 1 1 1 1 1 1 1 1 1 1 1 0.005821680275467556 1 0.0079629942170789877 1 1 1 1 1 1 1 1 1 1 1 1 1 1 1 1 1 0.0045273585021174808 1 1 1 1 1 1 0.001952368488869172 1 1 0.0094846022211634538 1 1 1 1 1 1 1 1 1 0.0091635991455649973 0.0098865704303887567 1 1 1 1 1 1 0.0091501373250353572 1 1 0.0091956232678025562 1 1 1 1 1 1 1 1 1 1 1 1 1 1 1 1 0.010553859287306563 1 0.009735516696809136 1 1 1 1 1 1 1 1 1 1 0.010125976344278415 1 1 1 1 1 0.0097583924287709695 1 1 1 1 1 1 1 1 1 1 1 1 1 1 1 1 0.0097715196140458881 1 1 1 1 1 1 1 1 1 0.0063007483011293967 1 1 1 1 1 1 1 0.01004040352833311 1 0.0053372839437029803 1 1 1 1 1 0.005921650162220328 1 0.010212191119541612 1 1 0.009629338905327068 1 1 1 1 1 1 1 1 1 1 1 0.0094306487232729986 1 1 1 1 0.0081790507858317332 1 1 1 1 1 1 1 1 1 1 1 1 0.0051687560058582237 1 1 0.0079865927494767244 1 1 1 1 1 1 1 1 1 1 0.0036617580939906041 1 0.00026884403776636476 1 1 1 1 1 0.0091359236468299427 1 1 1 1 1 1 1 1 1 1 1.0444984634150334e-10 0.008505507041114151 1 1 1 1 1 0.001882411573464743 1 1 1 0.006299743859279258 1 1 1 1 1 1 0.011230490552501615 1 1 1 1 1 1 1 1 0.012095424802695053 1 1 1 1 1 1 1 1 1 1 1 1 1 1 1 0.0090576341224412917 1 1 1 1 1 0.010603381743056264 1 1 1 1 0.0082155595341405763 1 1 1 0.0089416100082849587 1 1 0.0083954050668772345 1 1 1 1 1 1 1 1 1 1 1 1 1 1 1 1 1 1 1 1 1 1 1 0.0084625391801323325 1 1 1 1 1 1 1 0.0092912049050227451 1 1 1 1 1 1 1 1 1 1 1 1 1 1 1 1 1 1 1 1 1 1 1 1 1 1 1 1 1 1 1 1 1 1 1 1 1 0.0098275785749085808 1 1 1 1 1 1 1 1 0.010005453230934866 1 1 1 1 1 1 1 1 1 1 1 1 1 1 0.0034192989414463483 1 1 0.0098584943035405562 1 0.0033780636762847354 0.010022128719423115 0.0040886136018364718 1 1 1 1 0.0017789451697136725 1 1 1 1 1 1 1 1 1 1 1 1 1 1 1 1 1 1 1 1 1 1 1 1 1 1 1 1 1 1 1 1 1 1 1 1 1 1 1 1 1 1 1 0.0020786308515882224 1 1 0.0035703738163510006 1 1 1 1 1 0.0084714810930607998 1 1 1 1 0.0033277530188261938 0.003693218605219008 1 3.8943669903451772e-10 1 1 1 0.0046732823784030181 1 1 1 1 1 1 1 1 1 1 1 1 1 1 1 1 1 1 1 1 1 1 1 1 1 1 1 1 1 1 0.0090196526003769942 1 1 1 1 1 1 0.0085783395926032485 1 1 1 0.0092888821538222571 1 1 1 1 1 1 1 1 1 1 1 1 1 0.010194501230476672 1 1 1 1 1 1 1 1 1 1 1 1 1 1 1 1 1 1 1 1 1 1 1 1 1 0.0050425040734063632 0.0025735326167515091 1 1 1 0.010049218509539038 1 0.011330292117808402 1 1 1 0.01091867916042813 1 1 1 0.0098701396356185231 0.0093331036588864338 1 1 0.0085399903034451222 1 1 1 1 1 1 1 1 1 1 1 0.0095084905553535423 1 1 1 1 1 1 1 1 0.0056084963503261875 1 1 1 1 1 1 1 1 1 1 1 1 1 0.0090759390521905105 0.0057291907182062032 1 1 1 1 1 1 1 0.0062200279876512225 1 1 1 1 0.0096126617532004514 1 1 1 1 1 1 1 1 1 1 1 0.0069899928708311949 1 0.0096641968364442263 0.0070375164425007779 0.004951249058008019 1 1 1 0.011734256968532256 1 1 1 1 0.0099963333951464516 1 1 1 1 1 1 1 1 1 1 1 1 1 1 1 1 1 1 1 1 1 1 1 1 1 1 1 1 0.0095921887579109247 1 1 1 1 1 1 0.011533390384188807 1 0.0099249543120222584 0.010035794092059833 1 1 1 1 1 1 1 0.012446240680109437 1 1 1 1 1 1 1 1 1 1 1 1 1 1 1 1 1 1 1 1 1 1 1 1 1 1 1 1 1 1 1 1 1 1 1 1 1 1 1 1 1 1 1 1 1 1 1 1 1 1 1 1 1 1 1 1 1 1 1 1 1 1 1 1 1 1 1 1 1 1 1 1 1 1 1 1 1 1 1 1 1 1 1 1 1 1 1 1 1 1 1 1 1 1 1 1 1 1 1 1 1 1 1 1 1 1 1 1 1 1 1 1 1 1 1 1 1 1 1 1 1 1 0.010000919417819318 0.010403054424388884 1 0.011014059875612561 0.0095789599317394995 1 1 0.0078092736681096113 1 1 0.0088983596027798813 1 1 1 1 1 1 1 1 1 1 1 1 1 1 0.010783381938388462 0.0095299481543233977 1 0.010012089549139793 0.01128534321942198 1 1 1 1 1 1 1 1 1 1 0.0073552964349638573 1 1 1 1 1 1 0.009867337563406995 1 1 1 1 1 1 1 1 1 1 0.0086453550299346663 1 1 0.0095417908617446458 1 1 1 1 1 1 1 1 1 1 1 1 1 1 1 1 1 1 1 1 1 1 1 1 1 1 0.011140800125418463 1 1 1 1 1 1 1 1 1 1 1 1 1 1 1 1 1 0.01002627848958142 1 1 1 0.01006288409588323 1 1 1 1 1 1 0.01003660560630181 1 1 1 1 1 1 1 1 0.0100285172892747 1 1 1 1 0.0099998226004225487 1 0.0099952290363443837 1 0.0031660527564771942 1 1 1 1 1 0.0024397363176067079 1 1 1 0.0082390310430099159 1 0.0094198467610918536 1 1 1 1 1 1 1 1 1 1 1 1 0.0068536624193481915 1 1 1 1 1 1 1 1 1 1 1 1 1 1 1 1 1 1 1 1 1 1 1 1 1 1 1 1 1 1 1 1 1 1 1 1 0.010140648385219359 1 1 1 1 1 1 0.010493869890836744 1 1 1 1 1 1 1 1 0.0092690733057846399 0.0082537837717537137 1 1 1 1 1 0.0099923128201113258 0.0093996696294382457 1 1 1 1 1 1 1 1 1 0.0094255516674741687 1 1 1 1 0.0086666215006493529 1 1 1 1 1 0.0085369657604064588 1 1 1 1 1 1 1 1 1 1 1 1 1 1 0.0092894574387809899 1 1 1 1 1 1 1 1 1 1 1 1 1 0.0092958959272312729 1 1 
</DataArray>
</CellData>
</Piece>
</UnstructuredGrid>
</VTKFile>
